time,ASR_ext,ASR_strain,ASR_strain_xx,ASR_strain_yy,ASR_strain_zz,disp_x_101,disp_x_102,disp_x_103,disp_x_104,disp_x_105,disp_x_106,disp_x_p10_neg,disp_x_p10_pos,disp_x_p11_neg,disp_x_p11_pos,disp_x_p12_neg,disp_x_p12_pos,disp_x_p13_neg,disp_x_p13_pos,disp_x_p14_neg,disp_x_p14_pos,disp_x_p15_neg,disp_x_p15_pos,disp_x_p16_neg,disp_x_p16_pos,disp_x_p1_neg,disp_x_p1_pos,disp_x_p2_neg,disp_x_p2_pos,disp_x_p3_neg,disp_x_p3_pos,disp_x_p4_neg,disp_x_p4_pos,disp_x_p5_neg,disp_x_p5_pos,disp_x_p6_neg,disp_x_p6_pos,disp_x_p7_neg,disp_x_p7_pos,disp_x_p8_neg,disp_x_p8_pos,disp_x_p9_neg,disp_x_p9_pos,disp_y_101,disp_y_102,disp_y_103,disp_y_104,disp_y_105,disp_y_106,disp_y_p10_neg,disp_y_p10_pos,disp_y_p11_neg,disp_y_p11_pos,disp_y_p12_neg,disp_y_p12_pos,disp_y_p1_neg,disp_y_p1_pos,disp_y_p2_neg,disp_y_p2_pos,disp_y_p3_neg,disp_y_p3_pos,disp_y_p4_neg,disp_y_p4_pos,disp_y_p5_neg,disp_y_p5_pos,disp_y_p6_neg,disp_y_p6_pos,disp_y_p7_neg,disp_y_p7_pos,disp_y_p8_neg,disp_y_p8_pos,disp_y_p9_neg,disp_y_p9_pos,disp_z_101,disp_z_102,disp_z_103,disp_z_104,disp_z_105,disp_z_106,disp_z_p10_neg,disp_z_p10_pos,disp_z_p11_neg,disp_z_p11_pos,disp_z_p12_neg,disp_z_p12_pos,disp_z_p13_neg,disp_z_p13_pos,disp_z_p14_neg,disp_z_p14_pos,disp_z_p15_neg,disp_z_p15_pos,disp_z_p16_neg,disp_z_p16_pos,disp_z_p1_neg,disp_z_p1_pos,disp_z_p2_neg,disp_z_p2_pos,disp_z_p3_neg,disp_z_p3_pos,disp_z_p4_neg,disp_z_p4_pos,disp_z_p5_neg,disp_z_p5_pos,disp_z_p6_neg,disp_z_p6_pos,disp_z_p7_neg,disp_z_p7_pos,disp_z_p8_neg,disp_z_p8_pos,disp_z_p9_neg,disp_z_p9_pos,humidity,ndof,nelem,strain_xx,strain_yy,strain_zz,temp,thermal_strain_xx,thermal_strain_yy,thermal_strain_zz,vonmises,vstrain
14391759,0,0,0,0,0,0,0,0,0,0,0,0,0,0,0,0,0,0,0,0,0,0,0,0,0,0,0,0,0,0,0,0,0,0,0,0,0,0,0,0,0,0,0,0,0,0,0,0,0,0,0,0,0,0,0,0,0,0,0,0,0,0,0,0,0,0,0,0,0,0,0,0,0,0,0,0,0,0,0,0,0,0,0,0,0,0,0,0,0,0,0,0,0,0,0,0,0,0,0,0,0,0,0,0,0,0,0,0,0,0,0,0,0,0,0,0,0,0,0,0,0,0,0
14591759,0.020203179955579,0.00035679926204204,0.00011893308734735,0.00011893308734735,0.00011893308734735,-2.7285005070185e-05,2.7285001235151e-05,-1.9182421931354e-12,-1.9278332880017e-12,6.5174374188194e-12,-1.0708743241274e-11,-2.2971247473259e-05,2.2971226095269e-05,-2.6443917810791e-05,2.6443896602424e-05,-2.6443917777725e-05,2.6443896577107e-05,-2.2971230308508e-05,2.2971243337413e-05,-2.2971230514362e-05,2.2971243524558e-05,-2.6443900871591e-05,2.6443913701432e-05,-2.6443900999579e-05,2.6443913816743e-05,-2.9119802693649e-05,2.9119804630017e-05,-2.9119802759865e-05,2.9119804694702e-05,-2.9119808226235e-05,2.9119798922302e-05,-2.9119808226393e-05,2.9119798911602e-05,-2.5769484414107e-05,2.5769474846274e-05,-2.576948442453e-05,2.5769474828503e-05,-2.5769478676328e-05,2.5769480566386e-05,-2.5769478811373e-05,2.5769480687174e-05,-2.2971247542964e-05,2.2971226167295e-05,-5.5874521523008e-12,1.1470115523579e-11,2.1616074555984e-11,-1.5963183672093e-11,-2.919349850054e-05,2.919350417386e-05,-2.8139228296672e-05,2.8139191420167e-05,-2.7698784993261e-05,2.7698786394923e-05,-2.7698768572067e-05,2.7698803674808e-05,-3.0044396483022e-05,3.0044408873152e-05,-3.0044408549343e-05,3.0044396280683e-05,-3.004439105639e-05,3.0044414559596e-05,-3.0044403130324e-05,3.0044401961603e-05,-2.8139186222205e-05,2.8139234423093e-05,-2.8139222679206e-05,2.8139197114973e-05,-2.7698797330651e-05,2.7698773834898e-05,-2.7698780920663e-05,2.7698791088331e-05,-2.8139191873949e-05,2.8139228696542e-05,6.4504857476948e-12,6.4570485374405e-12,-2.7301894854963e-05,2.7301907821623e-05,-1.2654797055602e-11,2.6138001898583e-11,-2.4591002484332e-05,2.4591054080665e-05,-2.5080997889398e-05,2.5081049439973e-05,-2.5080997905237e-05,2.5081049427602e-05,-2.459104100853e-05,2.4591015638377e-05,-2.4591040911163e-05,2.4591015590334e-05,-2.5081036084286e-05,2.5081011199075e-05,-2.5081036095714e-05,2.5081011234809e-05,-2.9087078764354e-05,2.9087078708106e-05,-2.9087065898593e-05,2.9087091585523e-05,-2.9087078724447e-05,2.908707867317e-05,-2.9087065865132e-05,2.9087091553785e-05,-2.7131743097336e-05,2.7131768956369e-05,-2.7131743058648e-05,2.713176889408e-05,-2.7131755997191e-05,2.7131755878763e-05,-2.7131756053933e-05,2.7131755942497e-05,-2.4591002522328e-05,2.4591054199185e-05,0.70641910245148,129487,2954,0.00011368094706523,0.00012163200433153,0.00011375131474674,31.980469183309,-1.5624653353044e-07,-1.5624653353044e-07,-1.5624653353044e-07,800422.18357644,0.00034912591635646
14791759,0.039116112496981,0.00067664984088793,0.00022436783200113,0.00022804874150009,0.00022423326738671,-4.9532780866698e-05,4.9532903602311e-05,5.7385331452442e-11,6.4334113925583e-11,-2.0673751828867e-10,3.3860318044938e-10,-4.0822757790771e-05,4.0823411242539e-05,-4.8058235352468e-05,4.8058909392278e-05,-4.8058239593241e-05,4.8058901381746e-05,-4.0823309963593e-05,4.0822860924108e-05,-4.0823280209613e-05,4.0822900959953e-05,-4.8058772048956e-05,4.8058352125935e-05,-4.8058765862828e-05,4.8058367577444e-05,-5.3564325866988e-05,5.3564262871357e-05,-5.3564323812077e-05,5.3564270778596e-05,-5.3564150697237e-05,5.3564449230575e-05,-5.3564150872758e-05,5.356444840063e-05,-4.6459763100421e-05,4.6460066829262e-05,-4.6459766602135e-05,4.646006699055e-05,-4.6459948808181e-05,4.645987234332e-05,-4.6459941605479e-05,4.6459895690291e-05,-4.082274647286e-05,4.0823437204562e-05,1.8204858253479e-10,-3.7861463116264e-10,7.7141193840399e-10,-9.592089387316e-10,-5.3942910776818e-05,5.3942721987306e-05,-5.1808474639312e-05,5.1806786164246e-05,-5.0860627767983e-05,5.0861552311317e-05,-5.0861164117004e-05,5.0860998614731e-05,-5.5952140609702e-05,5.5952701848782e-05,-5.5952693528906e-05,5.5952123941887e-05,-5.5952315591718e-05,5.5952517317226e-05,-5.5952874016187e-05,5.5951933939315e-05,-5.1806983513388e-05,5.1808316175827e-05,-5.1808668207101e-05,5.1806589489873e-05,-5.086118832594e-05,5.0860982151175e-05,-5.0861741774236e-05,5.0860411729516e-05,-5.1806807102208e-05,5.1808496113409e-05,2.996808517783e-10,3.0644071336751e-10,-4.9521007052832e-05,4.9521616644034e-05,-5.6796608082665e-10,1.2019792723078e-09,-4.4030615272021e-05,4.4033004266175e-05,-4.4945614753625e-05,4.4947979938317e-05,-4.4945608233759e-05,4.4947985776329e-05,-4.4032375001753e-05,4.4031265565125e-05,-4.4032401970808e-05,4.4031223173206e-05,-4.4947351188207e-05,4.4946247031569e-05,-4.4947360622003e-05,4.4946235026037e-05,-5.3509762340559e-05,5.3509773248865e-05,-5.350917237266e-05,5.35103627637e-05,-5.3509757991045e-05,5.350977873164e-05,-5.3509173329523e-05,5.351036259107e-05,-4.9479980518854e-05,4.9481174735889e-05,-4.9479977779458e-05,4.9481175646412e-05,-4.9480578990835e-05,4.9480574686305e-05,-4.9480565396643e-05,4.9480591242933e-05,-4.4030636973192e-05,4.4032988400681e-05,0.70580947282912,129487,2954,0.00020636520396229,0.00022473572001383,0.0002063170264039,30.974491115915,-8.2040710726793e-06,-8.2040710726793e-06,-8.2040710726793e-06,1296190.9060423,0.00063762394363704
14991759,0.056588348772474,0.00096394447086633,0.00031827678426758,0.00032773468592908,0.00031793300066968,-6.9165680248596e-05,6.9165850374965e-05,8.4719044586194e-11,8.4594174090241e-11,-3.548688831187e-10,5.3964111881954e-10,-5.496081760539e-05,5.4961868752374e-05,-6.6104261210956e-05,6.6105329760566e-05,-6.6104261095793e-05,6.610531992271e-05,-5.4961701114882e-05,5.4960973037768e-05,-5.4961693887102e-05,5.4960995970626e-05,-6.6105136717958e-05,6.6104428249768e-05,-6.6105133283858e-05,6.610443669081e-05,-7.6089605246172e-05,7.6089478277859e-05,-7.6089607352386e-05,7.6089484203098e-05,-7.6089323734575e-05,7.6089780567196e-05,-7.6089323456804e-05,7.6089777561846e-05,-6.4662770157127e-05,6.4663240240778e-05,-6.4662774566857e-05,6.4663234206654e-05,-6.466306647777e-05,6.4662930754823e-05,-6.4663071955592e-05,6.4662946342933e-05,-5.4960805020262e-05,5.4961886427259e-05,3.1312326075336e-10,-6.1142992682e-10,1.4862077230305e-09,-1.7727067871017e-09,-7.7281198292532e-05,7.7280910971659e-05,-7.4900878282242e-05,7.4897709133532e-05,-7.3699087947839e-05,7.3700783600041e-05,-7.369998096728e-05,7.3699859964388e-05,-7.9690278283214e-05,7.9691358838726e-05,-7.9691315907471e-05,7.9690266785574e-05,-7.9690567649669e-05,7.9691052724877e-05,-7.969160958316e-05,7.9689956829386e-05,-7.4898030156012e-05,7.4900639987514e-05,-7.4901190415375e-05,7.489739411116e-05,-7.3700152707479e-05,7.3699693505682e-05,-7.3701057804289e-05,7.3698760806666e-05,-7.4897730655019e-05,7.4900945003404e-05,5.6646607796229e-10,5.6587899542759e-10,-6.9254428976335e-05,6.9255565529413e-05,-1.0674443708789e-09,2.2514653174179e-09,-6.0351797826623e-05,6.0356254690189e-05,-6.093506421602e-05,6.0939500755002e-05,-6.0935057573364e-05,6.0939504405754e-05,-6.0355094649381e-05,6.035297324367e-05,-6.0355099644149e-05,6.0352952883082e-05,-6.0938328489394e-05,6.0936240566396e-05,-6.0938331607778e-05,6.0936231369858e-05,-7.5946190459683e-05,7.5946210079789e-05,-7.5945088714194e-05,7.5947312538261e-05,-7.5946190055232e-05,7.5946212890572e-05,-7.5945091071294e-05,7.5947311714248e-05,-7.0612205080823e-05,7.0614435374441e-05,-7.0612201694722e-05,7.0614442862029e-05,-7.0613316030733e-05,7.0613327466085e-05,-7.0613312491666e-05,7.0613333336303e-05,-6.0351812753288e-05,6.0356241118023e-05,0.70496359440772,129487,2954,0.00028814890865105,0.00032195093652414,0.00028852021437544,29.795126326164,-1.763898939069e-05,-1.763898939069e-05,-1.763898939069e-05,1410807.9009798,0.00089902991995641
15191759,0.070977615536607,0.0011838820050146,0.00038942602637295,0.00040555886608114,0.00038889711256046,-8.1184988287319e-05,8.1185191144988e-05,1.2571848615677e-10,7.6959938220833e-11,-5.1941145484211e-10,7.3691458931293e-10,-6.0194291466885e-05,6.019555425109e-05,-7.5564242799375e-05,7.5565733211057e-05,-7.5564232672413e-05,7.55656089383e-05,-6.0195526847705e-05,6.0194374309572e-05,-6.0195373792474e-05,6.0194419203879e-05,-7.5565516705624e-05,7.5564434041901e-05,-7.5565396476926e-05,7.5564417186736e-05,-9.1208410529457e-05,9.1208200557624e-05,-9.1208392847561e-05,9.1208184025673e-05,-9.1208011282682e-05,9.1208638017239e-05,-9.1208031088122e-05,9.120859983383e-05,-7.5238301847278e-05,7.5239007687835e-05,-7.5238399806956e-05,7.5238914090841e-05,-7.5238774990255e-05,7.5238556068622e-05,-7.5238783547998e-05,7.5238555640083e-05,-6.0194105317615e-05,6.019573935635e-05,5.8271247536475e-10,-9.9175383487823e-10,3.2535905855446e-09,-3.6471798587287e-09,-9.3168394994135e-05,9.3167999324912e-05,-9.0703764638756e-05,9.0697169063867e-05,-8.9551349308927e-05,8.9554730259577e-05,-8.9552828751601e-05,8.9553189930492e-05,-9.5604369121309e-05,9.5606726987217e-05,-9.5606521481371e-05,9.5604403399136e-05,-9.5604870066033e-05,9.5606248135623e-05,-9.560707242744e-05,9.5603883933974e-05,-9.0697646570406e-05,9.070351426491e-05,-9.0704374535747e-05,9.0696613193611e-05,-8.9553531582662e-05,8.9552397204934e-05,-8.955511099664e-05,8.9550794935181e-05,-9.0697147524186e-05,9.0703999421587e-05,1.1436857301796e-09,1.0932550741071e-09,-8.1425930874577e-05,8.1428174992386e-05,-2.6706959711687e-09,5.012918990912e-09,-6.8293464281096e-05,6.8303533423331e-05,-6.8427692554632e-05,6.8437533387496e-05,-6.8427635334415e-05,6.8437577226557e-05,-6.8301190283318e-05,6.8295930643141e-05,-6.8301219077021e-05,6.8295785555668e-05,-6.8435235800972e-05,6.8430055845489e-05,-6.843523956459e-05,6.8429938031162e-05,-9.0983219427037e-05,9.0982891069746e-05,-9.0980682169395e-05,9.098547361883e-05,-9.098325620173e-05,9.0982915669626e-05,-9.0980721785008e-05,9.0985454102102e-05,-8.4397206340278e-05,8.4401917749961e-05,-8.4397145564554e-05,8.4402034413137e-05,-8.4399758765335e-05,8.4399435798053e-05,-8.4399764650123e-05,8.4399440335815e-05,-6.8293636708545e-05,6.830335863298e-05,0.66036418170766,129487,2954,0.00033821416255446,0.00038812275872069,0.00033922125298266,27.127982554996,-3.8976139560028e-05,-3.8976139560028e-05,-3.8976139560028e-05,1485666.200077,0.0010661371897373
15391759,0.084267399116563,0.0014111503779149,0.00046285516359595,0.00048619530351287,0.00046209991080613,-9.6175436948486e-05,9.6175608024451e-05,9.4321138498817e-11,7.3992493473497e-11,-5.6303261915908e-10,7.483597288556e-10,-6.9998298931548e-05,6.9999716239638e-05,-8.995337036993e-05,8.995486647011e-05,-8.9953358475699e-05,8.99548181066e-05,-6.9999587204806e-05,6.9998427132393e-05,-6.9999514896725e-05,6.9998415227067e-05,-8.9954658186585e-05,8.9953542652533e-05,-8.9954601809025e-05,8.995351697573e-05,-0.00010842671565163,0.00010842645883864,-0.00010842670408115,0.00010842644498702,-0.00010842630247932,0.00010842689982434,-0.00010842630814828,0.00010842687853636,-8.9488954447608e-05,8.9489598084919e-05,-8.9488981680052e-05,8.9489552024877e-05,-8.9489406768911e-05,8.9489143670934e-05,-8.9489399493556e-05,8.9489128572825e-05,-6.9998219390295e-05,6.9999760658492e-05,5.1094055134666e-10,-9.4540055359678e-10,3.0773495369259e-09,-3.4958734228747e-09,-0.00011211572121729,0.00011211530316835,-0.00011010397212501,0.00011009761462681,-0.00010840860869132,0.00010841178544706,-0.00010841001996546,0.00010841034019133,-0.00011415398723763,0.00011415618524856,-0.00011415605566396,0.00011415398386408,-0.00011415445376484,0.00011415571076973,-0.00011415653847624,0.00011415349892238,-0.00011009811079777,0.00011010365996872,-0.00011010448395075,0.00011009712108124,-0.00010841074834036,0.00010840956646325,-0.000108412179476,0.00010840810694398,-0.00011009763288703,0.00011010412509575,1.0859649024276e-09,1.0619309306949e-09,-9.6460794303506e-05,9.6462942520119e-05,-2.3340927967198e-09,4.5733978501107e-09,-8.1061272106816e-05,8.1070316189882e-05,-8.0197528192311e-05,8.0206531279529e-05,-8.0197514153067e-05,8.0206547425127e-05,-8.1068131526336e-05,8.106350429738e-05,-8.1068091495758e-05,8.1063465401118e-05,-8.0204318172118e-05,8.0199748846718e-05,-8.0204307951143e-05,8.0199712502791e-05,-0.00010815149723766,0.00010815132336912,-0.00010814920697574,0.00010815363519083,-0.00010815151708111,0.00010815133638648,-0.00010814922830326,0.00010815362857274,-0.00010171493190462,0.00010171933652081,-0.00010171491366266,0.0001017193870875,-0.00010171721438624,0.00010171706623713,-0.00010171723735981,0.00010171707079405,-8.106131550815e-05,8.1070269476649e-05,0.73443067072026,129487,2954,0.00040065248966618,0.00046703565348803,0.00040184387269464,25.987376961237,-4.8100984310107e-05,-4.8100984310107e-05,-4.8100984310107e-05,1353177.575967,0.0012703521859802
15591759,0.09730232856327,0.0016396572556979,0.00053650819673549,0.00056776404603219,0.00053538501293027,-0.00011202369993784,0.00011202384552342,3.8299190206617e-12,1.3932327895513e-10,-4.852740297887e-10,6.4591899421002e-10,-8.1396304940326e-05,8.1397643233625e-05,-0.00010545732477066,0.00010545857791821,-0.00010545726731744,0.00010545857831913,-8.1397565953282e-05,8.139637672304e-05,-8.1397329746052e-05,8.1396565425372e-05,-0.00010545844301472,0.00010545742636499,-0.00010545833557668,0.00010545746599446,-0.00012637617277956,0.00012637589556463,-0.00012637610883957,0.00012637593435361,-0.00012637581510416,0.00012637627983885,-0.00012637577605461,0.00012637630920387,-0.00010469756224705,0.00010469797070478,-0.00010469742971448,0.00010469805814242,-0.00010469796244782,0.00010469757409715,-0.00010469778228125,0.00010469771587161,-8.1396352731415e-05,8.1397562019563e-05,3.2598542482676e-10,-7.5115905117921e-10,2.0306775752271e-09,-2.4432018707202e-09,-0.00013200948950825,0.00013200907941219,-0.00013054456977241,0.00013054015529054,-0.00012815831686792,0.00012816042163117,-0.00012815934405405,0.00012815935674998,-0.00013366573579356,0.00013366712314094,-0.00013366712501331,0.00013366563174986,-0.00013366607247575,0.00013366677135936,-0.00013366747673163,0.00013366526842757,-0.00013054062343351,0.00013054425539905,-0.0001305449653299,0.00013053978394986,-0.0001281597483994,0.00012815891285631,-0.00012816082364413,0.00012815781705383,-0.00013054028259673,0.00013054458541306,8.2742730832179e-10,9.5673973368388e-10,-0.00011230976098826,0.00011231154176854,-1.1521239423796e-09,3.0014518345045e-09,-9.4846932533972e-05,9.4852755274165e-05,-9.3024552695713e-05,9.3030502581953e-05,-9.3024583409493e-05,9.3030474897108e-05,-9.4850893163117e-05,9.4848815988501e-05,-9.4851058516038e-05,9.4848613020334e-05,-9.3028622504871e-05,9.3026436132435e-05,-9.3028674888007e-05,9.3026352139873e-05,-0.0001261343251791,0.00012613465011129,-0.00012613294398009,0.00012613604983017,-0.00012613428767709,0.00012613470987299,-0.00012613291552004,0.00012613608807307,-0.00011980173099963,0.00011980499436505,-0.00011980184820403,0.00011980489511399,-0.00011980324494316,0.00011980348914242,-0.00011980311225568,0.0001198036557899,-9.4846848106882e-05,9.4852828543841e-05,0.74589984953002,129487,2954,0.00046665982343634,0.00054988362602628,0.00046785274325312,25.604548289774,-5.1163613681808e-05,-5.1163613681808e-05,-5.1163613681808e-05,1419271.5159305,0.0014855153126217
15791759,0.10974746020125,0.0018696120466994,0.00061036241450385,0.00065039284834203,0.00060885678385348,-0.00012704334981133,0.00012704347550183,-4.0660204336609e-11,1.6585844061827e-10,-3.7244829189784e-10,5.090131327004e-10,-9.310032986839e-05,9.3101410723288e-05,-0.00012107861660886,0.00012107958314125,-0.00012107854407845,0.000121079602385,-9.3101353807042e-05,9.3100301435208e-05,-9.3101064954159e-05,9.3100592224389e-05,-0.00012107949237419,0.0001210786685787,-0.00012107936303757,0.00012107873670503,-0.00014316170324,0.00014316146053325,-0.00014316160366829,0.00014316152552447,-0.00014316142568701,0.00014316176219179,-0.00014316135573379,0.00014316181209492,-0.0001193030501994,0.00011930329476851,-0.00011930284929763,0.00011930344479114,-0.00011930336931739,0.00011930297404765,-0.00011930311137198,0.00011930317982574,-9.3100383451315e-05,9.3101271923772e-05,1.8266347766975e-10,-5.940618812208e-10,1.3662658393326e-09,-1.7651056180769e-09,-0.00015109036657984,0.00015108996708187,-0.00015037358860324,0.00015037039236531,-0.00014689946448653,0.00014690084253151,-0.00014690020104802,0.00014690008820237,-0.00015233697197851,0.00015233783071068,-0.00015233792930228,0.00015233677396041,-0.00015233720846949,0.00015233758818109,-0.00015233818711082,0.00015233651452238,-0.00015037083581279,0.00015037328759661,-0.00015037387716466,0.00015037011634888,-0.00014690046600349,0.00014689978083373,-0.00014690124973396,0.00014689898843761,-0.00015037060373649,0.00015037351320358,6.7802078984021e-10,8.7518267051649e-10,-0.00012728445277084,0.00012728600151644,-5.047638923445e-10,2.1127466219876e-09,-0.00010870460877378,0.00010870868119642,-0.00010572985569865,0.0001057340678512,-0.00010572990288669,0.00010573402247925,-0.00010870696560748,0.00010870624985012,-0.00010870723782251,0.00010870601460575,-0.0001057324037369,0.00010573152435568,-0.00010573248199039,0.0001057314223196,-0.00014291737095026,0.00014291794635468,-0.00014291649924728,0.00014291883471723,-0.00014291730691233,0.00014291803909574,-0.00014291644768967,0.0001429189001862,-0.00013724299108357,0.00013724557829924,-0.00013724316673537,0.00013724540860398,-0.00013724405457604,0.00013724451131514,-0.0001372438469374,0.00013724473810617,-0.00010870447007692,0.00010870877068038,0.78513037676444,129487,2954,0.00052921252407491,0.00062933991175915,0.00053021694288677,24.908463376128,-5.6732292990979e-05,-5.6732292990979e-05,-5.6732292990979e-05,1477871.0476558,0.0016902145170485
15991759,0.12201511089578,0.0020944463553741,0.00068219678003141,0.00073193763152455,0.00068031194381814,-0.00014241167466781,0.0001424117623061,5.9286690185252e-11,2.8259481409153e-11,-2.144381408892e-10,3.1199522461299e-10,-0.00010455188189457,0.00010455248214461,-0.00013718290742309,0.00013718352493669,-0.00013718287402791,0.00013718350823901,-0.00010455236715941,0.00010455199877903,-0.00010455240649762,0.0001045519268686,-0.00013718340070227,0.00013718300510992,-0.00013718338393488,0.00013718295020665,-0.00016036747900069,0.00016036740433695,-0.00016036746928176,0.00016036737865433,-0.00016036733083258,0.00016036757322916,-0.0001603673251294,0.00016036756434994,-0.00013417935475836,0.00013417963250735,-0.00013417935613481,0.00013417959734275,-0.00013417952041497,0.00013417947972548,-0.00013417953390306,0.00013417940914395,-0.00010455186015015,0.00010455248506414,8.7857376480692e-11,-4.9514193669121e-10,1.8859765140871e-10,-5.8617679499908e-10,-0.00017084418394984,0.00017084378637179,-0.000170760296495,0.00017075930136273,-0.00016616030112732,0.00016616075814251,-0.00016616087551834,0.00016616014291417,-0.00017166230464073,0.00017166234881253,-0.00017166252762313,0.0001716620553783,-0.00017166248745745,0.00017166215964948,-0.00017166270231684,0.00017166187749192,-0.00017075976409572,0.00017075993937825,-0.0001707604867886,0.00017075913787653,-0.00016616056478077,0.00016616042647514,-0.00016616111375246,0.0001661598626873,-0.00017075955710812,0.00017076014005254,6.6693650217634e-10,6.2332210569121e-10,-0.00014260349807168,0.00014260478211318,1.2054081273463e-10,1.2090351789045e-09,-0.00012289453684472,0.00012289690762364,-0.00011872424657198,0.00011872663734214,-0.00011872425514717,0.00011872663180458,-0.00012289564698304,0.00012289579583837,-0.00012289554734469,0.000122895889218,-0.00011872532589066,0.00011872556878092,-0.00011872528128646,0.00011872558524522,-0.00016008427890249,0.00016008519401281,-0.0001600839318403,0.00016008555688019,-0.00016008430325732,0.00016008519347788,-0.00016008394135343,0.00016008555957766,-0.00015520572144603,0.00015520734662911,-0.0001552057041426,0.00015520737645939,-0.00015520604759708,0.00015520702985823,-0.00015520611254545,0.00015520697179152,-0.00012289452068137,0.00012289691848865,0.77894844721844,129487,2954,0.00059321379974354,0.00071159163446883,0.00059401137973252,24.621323749666,-5.9029410002673e-05,-5.9029410002673e-05,-5.9029410002673e-05,1574687.3898431,0.0019006409051386
16191759,0.13463816014876,0.0023233044006916,0.00075498486208302,0.0008157656020697,0.00075255393653884,-0.00015904864648616,0.00015904869445102,1.938300473604e-10,-1.4489791347923e-10,-5.9262284070548e-11,1.1443857936966e-10,-0.00011650890943944,0.00011650896886897,-0.00015472990195445,0.00015473018830139,-0.00015472993413695,0.00015473011883505,-0.00011650877983899,0.00011650916416264,-0.00011650920082081,0.00011650862044832,-0.00015473001557831,0.0001547300691194,-0.00015473013195099,0.0001547298599006,-0.00017901992327253,0.00017902004542643,-0.0001790200328569,0.00017901989920241,-0.00017901990417713,0.00017902008116473,-0.00017901999301787,0.00017901998558047,-0.00015017750949031,0.00015017788831167,-0.00015017777575955,0.00015017759895274,-0.00015017752064871,0.00015017789835415,-0.00015017787517933,0.00015017748856234,-0.00011650871595596,0.00011650913031703,1.7484981764927e-12,-4.0662001859821e-10,-1.2650399889813e-09,8.6813134134887e-10,-0.00019236201423165,0.00019236161732277,-0.00019281938169895,0.00019282115610283,-0.00018698726779063,0.00018698662379052,-0.00018698771084882,0.00018698613822648,-0.00019274402489439,0.00019274306379514,-0.00019274331652437,0.00019274373620737,-0.00019274416597391,0.00019274291672759,-0.00019274341832296,0.00019274363109695,-0.00019282163772917,0.00019281896474147,-0.00019281947846789,0.00019282109332809,-0.00018698660302253,0.00018698722370166,-0.00018698693605159,0.00018698687086791,-0.00019282144429889,0.00019281914730147,6.2151152877883e-10,2.6843775531893e-10,-0.00015917263678477,0.00015917351945083,9.4324056464546e-10,-3.3444045748536e-11,-0.00013814297364862,0.0001381430511862,-0.00013275437587747,0.00013275427094873,-0.00013275432371849,0.00013275432719672,-0.00013814234799768,0.00013814371067493,-0.00013814181915553,0.00013814421083695,-0.00013275347755641,0.00013275518977515,-0.00013275328482561,0.00013275534717936,-0.00017866492866126,0.0001786662507094,-0.00017866528085998,0.00017866591520853,-0.00017866507091179,0.00017866612866875,-0.0001786653791032,0.00017866582611739,-0.00017463412768401,0.00017463440683386,-0.00017463385623943,0.00017463470336526,-0.00017463346932152,0.00017463508571851,-0.00017463387557491,0.00017463468225927,-0.00013814314269547,0.00013814289210953,0.77198654755406,129487,2954,0.00066249432510907,0.00080118055716623,0.00066300708878873,24.889771876645,-5.6881824986837e-05,-5.6881824986837e-05,-5.6881824986837e-05,1700779.3084248,0.0021289675349583
16391759,0.1465978521543,0.0025404016693047,0.00082374130467203,0.00089610680610216,0.0008205535585305,-0.00017283281531399,0.0001728328331737,2.7302996640503e-10,-2.5347878067666e-10,8.0745882768708e-11,-6.2263036833434e-11,-0.00012557505957299,0.00012557450271397,-0.00016954730273671,0.00016954732694275,-0.00016954742500086,0.00016954715689718,-0.00012557443939065,0.00012557519619752,-0.00012557489459498,0.00012557450702114,-0.00016954714016793,0.0001695474966588,-0.00016954726532578,0.00016954723358156,-0.00019475146065467,0.00019475171687644,-0.00019475162023342,0.00019475151268106,-0.00019475153768262,0.00019475166000835,-0.00019475170053083,0.00019475147871652,-0.00016329890322455,0.00016329936462935,-0.0001632993968589,0.00016329886598065,-0.00016329883742182,0.00016329943335177,-0.00016329935653125,0.00016329888592989,-0.00012557455156159,0.00012557489785899,3.0428918141703e-11,-4.5882229238675e-10,-1.3024264854671e-09,8.83176449426e-10,-0.00021097846839673,0.00021097804627491,-0.00021197048397172,0.00021197237805729,-0.00020484969392163,0.0002048490354916,-0.00020485018451118,0.00020484851039712,-0.00021096787462993,0.00021096686705576,-0.00021096710602434,0.00021096757510401,-0.00021096804045715,0.00021096670835515,-0.0002109672621226,0.0002109674361707,-0.0002119728546602,0.00021197008894898,-0.00021197064624562,0.00021197224913191,-0.00020484896432237,0.00020484969639652,-0.0002048493946116,0.00020484922488074,-0.00021197265963415,0.00021197026553238,7.934863026521e-10,2.5162300818357e-10,-0.00017285127668278,0.00017285231751263,5.9620116750219e-10,4.8495470547031e-10,-0.00015054428791622,0.00015054566240122,-0.00014395193977372,0.00014395278059409,-0.00014395178928206,0.00014395293460182,-0.00015054469509655,0.00015054529387494,-0.00015054407923575,0.00015054586145994,-0.00014395188357216,0.00014395287296151,-0.0001439516476239,0.00014395304861406,-0.00019430399040639,0.00019430523177204,-0.00019430404641378,0.000194305200355,-0.00019430419856559,0.00019430506195686,-0.00019430422646605,0.00019430503507931,-0.00019114332604107,0.00019114383600549,-0.00019114285164536,0.00019114436325233,-0.00019114277537628,0.00019114441874666,-0.00019114332233601,0.00019114385639513,-0.00015054474161732,0.00015054520876278,0.77561892129065,129487,2954,0.00071989254120726,0.00087868288821779,0.00071996440880716,24.115846052812,-6.3073231577504e-05,-6.3073231577504e-05,-6.3073231577504e-05,1798987.7491172,0.0023212547563021
16591759,0.15832218844183,0.0027602559491414,0.00089316255691012,0.0009780407037786,0.00088905268845264,-0.00018743374409688,0.00018743377156698,2.7324209372983e-10,-2.4366636984716e-10,1.1557088349913e-10,-8.5342914001677e-11,-0.00013551623510472,0.00013551563038675,-0.00018566882054192,0.00018566879653597,-0.00018566895295719,0.00018566864711072,-0.00013551554773709,0.00013551637304352,-0.00013551597103397,0.00013551565291208,-0.00018566860127982,0.00018566903593804,-0.00018566873537905,0.00018566877827528,-0.00021118710215618,0.00021118739100295,-0.00021118727526297,0.00021118718915389,-0.00021118720179716,0.00021118731787352,-0.00021118736848114,0.0002111871318614,-0.00017740122197748,0.00017740165791397,-0.00017740167845059,0.00017740116244732,-0.00017740112569859,0.00017740173686963,-0.00017740163572553,0.00017740121478071,-0.00013551566921812,0.00013551596537728,-5.7474827635674e-11,-3.809478324394e-10,-1.4763391698444e-09,1.0461474955077e-09,-0.00023065902470281,0.00023065859167436,-0.00023240721605592,0.0002324094125443,-0.00022378746407989,0.00022378650200709,-0.00022378780480537,0.00022378615082698,-0.00023009195204509,0.00023009075018317,-0.0002300910534203,0.00023009160509582,-0.00023009206983497,0.00023009063270875,-0.00023009115788715,0.00023009151014345,-0.0002324099059175,0.00023240681712496,-0.000232407326966,0.00023240933274737,-0.0002237866111327,0.00022378730592584,-0.00022378687778798,0.00022378699496752,-0.00023240976303971,0.00023240694161836,7.6936130610271e-10,2.3629050491834e-10,-0.0001873030680113,0.00018730407249508,8.8084281624998e-10,1.6342278472625e-10,-0.00016411358345674,0.00016411430872564,-0.00015610786084588,0.00015610809184029,-0.00015610771466551,0.00015610825257954,-0.00016411335274071,0.00016411454133383,-0.00016411275002557,0.00016411511955325,-0.00015610723767471,0.00015610875543387,-0.00015610699995317,0.00015610894254006,-0.00021061382223216,0.00021061523348338,-0.00021061407622477,0.00021061500131649,-0.00021061403254004,0.00021061505491528,-0.00021061425816043,0.00021061482777242,-0.00020877933728663,0.00020877960284448,-0.00020877887495104,0.00020878011579474,-0.00020877857969126,0.00020878037435758,-0.00020877913330417,0.00020877984396311,-0.00016411401835022,0.00016411383729837,0.8031547240934,129487,2954,0.00078068894213225,0.00096060865930894,0.00078013744348458,23.784761862235,-6.572190510212e-05,-6.572190510212e-05,-6.572190510212e-05,1898685.7820113,0.0025246432779075
16791759,0.1699978903595,0.0029794252508676,0.00096201053880084,0.001060534439709,0.00095688027235773,-0.00020229755684133,0.00020229757388696,5.3256248461475e-10,-5.1330333807875e-10,1.8957082652079e-10,-1.6847443282099e-10,-0.00014516270837284,0.0001451616723958,-0.00020202411900617,0.00020202404090558,-0.00020202435747077,0.0002020237713942,-0.00014516144642343,0.00014516312510829,-0.00014516248789692,0.00014516167208481,-0.00020202368979233,0.00020202449944995,-0.00020202404399799,0.00020202400211543,-0.00022799053642116,0.00022799106965646,-0.00022799092384234,0.00022799066978776,-0.0002279907141106,0.00022799092756078,-0.00022799104656441,0.00022799058604405,-0.00019176089955346,0.00019176172435065,-0.00019176182333333,0.00019176078223006,-0.00019176069595043,0.00019176192259417,-0.00019176179861529,0.00019176084368333,-0.00014516186948048,0.00014516234485245,-7.1097605829445e-11,-3.4193778129285e-10,-2.0909993124357e-09,1.6838536246482e-09,-0.00025094142897708,0.00025094102059081,-0.00025355235772973,0.00025355575124939,-0.00024336925960102,0.00024336789036015,-0.00024336959039966,0.00024336751593014,-0.00024972086239947,0.00024971926927322,-0.00024971956795561,0.00024972054066979,-0.00024972098488084,0.0002497191373882,-0.00024971963390986,0.00024972047866585,-0.00025355627673525,0.00025355191764907,-0.00025355242049918,0.00025355575815766,-0.00024336801327938,0.00024336905808551,-0.00024336816597143,0.00024336884938512,-0.00025355608810463,0.00025355208728408,1.0408063404741e-09,-2.2581992304754e-11,-0.00020198010169362,0.00020198111975373,1.0636639382545e-09,-6.5389766505166e-12,-0.0001777733727528,0.00017777400673799,-0.00016822486622845,0.00016822466964344,-0.00016822460159518,0.00016822494161946,-0.00017777332516048,0.00017777419270389,-0.00017777200609779,0.00017777539567982,-0.00016822397820794,0.00016822561422593,-0.00016822349677561,0.00016822601830243,-0.00022725970374644,0.00022726145451866,-0.00022726010167203,0.00022726108606619,-0.00022726011662496,0.00022726106370017,-0.00022726044042149,0.00022726074573191,-0.00022685742776632,0.00022685712411331,-0.00022685652054281,0.0002268581154962,-0.00022685604854216,0.00022685855873403,-0.0002268571737051,0.00022685744602337,-0.00017777415791107,0.00017777327162193,0.80668182461934,129487,2954,0.00084257706867256,0.0010450326478903,0.00084124511980006,23.660013347793,-6.6719893217658e-05,-6.6719893217658e-05,-6.6719893217658e-05,2002597.3616035,0.0027326104032425
16991759,0.18156731702242,0.0031916943956784,0.0010283812748864,0.0011411769921927,0.0010221361285992,-0.00021659662217262,0.00021659665826395,8.7225463336675e-11,-4.7684656321629e-11,1.8427306501818e-10,-1.4438985985654e-10,-0.00015372730498421,0.00015372692211202,-0.00021748839447203,0.00021748815123677,-0.00021748843008792,0.00021748810874258,-0.00015372689750621,0.00015372745045698,-0.00015372681338324,0.0001537270838252,-0.00021748808210519,0.00021748849637849,-0.00021748805805848,0.00021748839222558,-0.0002443953730214,0.00024439559255682,-0.00024439543371271,0.00024439551579556,-0.00024439551079873,0.00024439549229833,-0.0002443955746234,0.00024439540494344,-0.00020542340009803,0.00020542345165854,-0.00020542349604979,0.00020542329533528,-0.00020542328224476,0.00020542352703824,-0.00020542340216017,0.00020542344069454,-0.00015372700951582,0.00015372689731434,-1.611443616761e-10,-2.3595765528428e-10,-1.9382886525019e-09,1.5464945297566e-09,-0.00027085271125296,0.00027085231686347,-0.00027428042706534,0.00027428360542806,-0.00026258831146009,0.00026258675743589,-0.00026258839040958,0.00026258669209916,-0.00026899042280295,0.00026898882086809,-0.00026898916143384,0.00026899004559631,-0.00026899045848762,0.00026898877991516,-0.00026898920247186,0.00026899001778393,-0.00027428403468005,0.00027428010303405,-0.00027428049657093,0.00027428357342281,-0.00026258708703317,0.00026258796376316,-0.00026258712042969,0.00026258784912769,-0.00027428399598619,0.00027428011647843,4.804683413786e-10,3.2808273751265e-10,-0.00021605899222165,0.00021605980325359,1.5926942532691e-09,-7.4781207397762e-10,-0.00019043078568294,0.00019042937973647,-0.00017938135577795,0.00017937994145084,-0.00017938130835583,0.00017938000372635,-0.00019042856750786,0.00019043163938096,-0.00019042840797369,0.00019043175516198,-0.00017937916043955,0.00017938219513364,-0.00017937907029978,0.00017938222028017,-0.00024348749780931,0.00024348914119492,-0.00024348828829339,0.00024348837766351,-0.00024348758853461,0.00024348907952547,-0.00024348836536308,0.0002434883018544,-0.00024433131961759,0.00024433118032846,-0.00024433121765817,0.00024433135489283,-0.00024433038834763,0.00024433214066896,-0.00024433053405133,0.00024433202045172,-0.00019043094183642,0.00019042919889873,0.79134050722785,129487,2954,0.00090211140169642,0.0011279045982451,0.00089985895217253,23.477427574959,-6.8180579400329e-05,-6.8180579400329e-05,-6.8180579400329e-05,2102479.0984506,0.0029342032013365
17191759,0.19279553315491,0.0033921764947139,0.0010908375247845,0.0012179415504685,0.0010833974194608,-0.00022962772863406,0.00022962780992619,-8.3913453884673e-10,9.2475435012835e-10,1.0033034554299e-10,-1.5576849490882e-11,-0.00016087694979009,0.00016087801245056,-0.00023135087995216,0.00023135046277792,-0.0002313504867687,0.00023135085434786,-0.00016087847956458,0.00016087640454234,-0.00016087606150277,0.00016087854833742,-0.00023135095323249,0.00023135038762364,-0.00023135014436373,0.0002313511332032,-0.00025962105098536,0.00025962053691612,-0.00025962039058139,0.00025962116271447,-0.00025962104976107,0.00025962057166643,-0.00025962052622207,0.00025962104688386,-0.00021768544486379,0.00021768395255914,-0.00021768385189093,0.00021768544275621,-0.00021768557877538,0.00021768375666625,-0.0002176836346313,0.00021768569369734,-0.00016087783285302,0.00016087669338553,-2.9942077357002e-10,-6.6733225055341e-11,-1.0902347455107e-09,7.2861153567508e-10,-0.00028946700389406,0.00028946663656709,-0.00029359999163329,0.00029360164053955,-0.00028048776399117,0.00028048630371139,-0.00028048736512041,0.00028048674531353,-0.00028703564486514,0.00028703445120045,-0.00028703485522665,0.00028703517276658,-0.00028703551693895,0.00028703458805269,-0.00028703487203073,0.00028703518129299,-0.0002936018682713,0.0002935999181029,-0.00029360012987955,0.00029360150621818,-0.00028048691602216,0.00028048715736935,-0.00028048685473172,0.0002804871735195,-0.00029360213520579,0.00029359963917416,-6.0512151025838e-10,1.1387432172352e-09,-0.00022883848172991,0.00022883901946302,2.1122124164635e-09,-1.547336017717e-09,-0.00020144127675496,0.00020143712348459,-0.00018902180447526,0.00018901923029022,-0.00018902218921162,0.00018901887002381,-0.00020143586480347,0.00020144239110663,-0.00020143817938395,0.00020144016876693,-0.00018901810028658,0.00018902297723272,-0.0001890188374223,0.00018902220972424,-0.0002585303449621,0.00025853144819563,-0.00025853150294218,0.00025853031057496,-0.00025852973671947,0.00025853209843423,-0.00025853101705386,0.00025853080758425,-0.00026035026882049,0.00026035105646915,-0.00026035180028634,0.00026034955810316,-0.00026035071083582,0.00026035059546294,-0.00026034882563729,0.00026035252106353,-0.00020144012674371,0.00020143812939578,0.77293706872865,129487,2954,0.00095636489113695,0.0012053718450146,0.00095306045313486,23.033083366187,-7.1735333070507e-05,-7.1735333070507e-05,-7.1735333070507e-05,2190953.2225437,0.0031196892330491
17391759,0.20384404298749,0.0035813459473407,0.0011496076923863,0.0012908698423353,0.0011408684126192,-0.00024228120824673,0.00024228124754645,8.162454597762e-10,-7.7250709008205e-10,2.518210611865e-10,-2.0899965490254e-10,-0.00016738787831423,0.00016738636081054,-0.00024441484092295,0.00024441479479204,-0.00024441518092843,0.00024441441624158,-0.00016738582834497,0.00016738844627202,-0.00016738780129135,0.0001673862556676,-0.00024441420542688,0.00024441541555211,-0.00024441486808471,0.00024441467996629,-0.00027462499187272,0.000274625746434,-0.0002746255362479,0.00027462517550957,-0.00027462522525622,0.00027462553574092,-0.00027462566327343,0.00027462507848869,-0.00022938769035375,0.00022938894606758,-0.00022938906373077,0.00022938757863879,-0.00022938735987957,0.00022938929157001,-0.00022938906908534,0.00022938753626664,-0.00016738666081789,0.00016738739057759,-1.7627776103393e-10,-2.11437646589e-10,-2.3071394752227e-09,1.9244803386893e-09,-0.00030772365205105,0.00030772326369237,-0.00031237835692392,0.00031238201918335,-0.00029798110551134,0.00029797948146064,-0.00029798129020328,0.00029797922888101,-0.00030483173014956,0.00030482998040743,-0.00030483034816714,0.00030483133703144,-0.00030483179967442,0.00030482992067449,-0.00030483031712256,0.00030483137960651,-0.00031238261163014,0.00031237787353306,-0.00031237824102644,0.00031238218613761,-0.0002979797935808,0.00029798068911506,-0.00029797966411605,0.00029798084740532,-0.00031238243327544,0.00031237806093655,1.2612068129424e-09,-3.5371434800844e-10,-0.00024121479643479,0.0002412157073286,1.3177978359215e-09,-3.6511405654193e-10,-0.00021159428210845,0.00021159465257698,-0.00019795950571259,0.00019795845988593,-0.00019795913816146,0.00019795884918752,-0.00021159423296007,0.00021159467187582,-0.00021159209882339,0.00021159681635651,-0.00019795806631946,0.00019795994396334,-0.00019795731040525,0.00019796065285727,-0.00027334597787387,0.00027334801428577,-0.0002733466120376,0.00027334740039729,-0.00027334657712904,0.00027334745035156,-0.00027334708435814,0.00027334693411262,-0.00027577339065173,0.00027577227239416,-0.00027577198435535,0.00027577371659034,-0.00027577119439331,0.00027577446352438,-0.0002757729798758,0.00027577270501599,-0.00021159533989501,0.00021159355541562,0.74411351044596,129487,2954,0.0010090442033919,0.0012813444046484,0.0010045825103469,22.771872282978,-7.3825021736176e-05,-7.3825021736176e-05,-7.3825021736176e-05,2280278.1599894,0.0033004468610432
17591759,0.21304373710001,0.0037326582903851,0.0011965182838462,0.0013495444986322,0.0011865955079066,-0.00024844265516876,0.00024844269328507,-2.1512340081895e-10,2.5987927739955e-10,2.239562227323e-10,-1.8537086178271e-10,-0.00016851797735066,0.00016851776407263,-0.00025052093149066,0.00025052053436067,-0.00025052089361451,0.00025052055435363,-0.00016851813879709,0.0001685177901589,-0.00016851709105427,0.0001685184866353,-0.00025052064252564,0.00025052082350317,-0.00025052032259897,0.00025052104166733,-0.00028280376690528,0.00028280376033323,-0.00028280357132121,0.00028280393614333,-0.00028280388787811,0.00028280366998193,-0.00028280378171442,0.00028280375852132,-0.00023461848452624,0.000234618046203,-0.00023461814827185,0.0002346183943383,-0.00023461848179306,0.00023461805631147,-0.00023461787686155,0.00023461866083347,-0.00016851799971513,0.00016851759407201,-9.7941919599675e-11,-3.2082261195156e-10,4.8201115761059e-11,-4.5836034881039e-10,-0.00031835874632696,0.00031835833112845,-0.00032324845497251,0.0003232478287529,-0.00030794450304899,0.0003079443080222,-0.00030794456735587,0.00030794420031279,-0.00031526387878432,0.00031526361294835,-0.00031526391597653,0.00031526349697745,-0.0003152639099356,0.00031526357924669,-0.0003152640384471,0.00031526338201683,-0.00032324819677928,0.00032324829696106,-0.00032324870218016,0.00032324763375093,-0.00030794447365071,0.00030794423874905,-0.0003079448252916,0.00030794388621007,-0.00032324825157532,0.00032324824479754,5.6404019249606e-10,1.0100297705761e-09,-0.00024709527933101,0.00024709686340499,1.6104279369621e-10,1.500846477924e-09,-0.00021529317455114,0.00021529592143905,-0.00020085974642303,0.00020086280364649,-0.00020085977258751,0.00020086278740782,-0.00021529403493171,0.00021529521177569,-0.00021529484165601,0.00021529429696067,-0.00020086100741528,0.00020086160396031,-0.00020086124310206,0.0002008612988907,-0.00028136558268868,0.00028136651253982,-0.00028136511264475,0.00028136700432172,-0.00028136541247564,0.00028136670798478,-0.00028136501765122,0.00028136709952758,-0.0002838805677507,0.00028388287008283,-0.0002838809286568,0.00028388258942092,-0.00028388144829481,0.00028388202355238,-0.00028388086585423,0.00028388260519294,-0.00021529311138204,0.00021529602864739,0.71798652559765,129487,2954,0.0010346979038464,0.0013255973731597,0.0010290641490337,20.395830927087,-9.2833352583302e-05,-9.2833352583302e-05,-9.2833352583302e-05,2308643.9214789,0.0033951565835048
17791759,0.22145182007622,0.0038664378261022,0.0012380415810259,0.0014014385779383,0.001226957667138,-0.00025563821965494,0.00025563830461287,3.6104498701465e-10,-2.7143338373836e-10,6.8244719038326e-11,2.4414887899287e-11,-0.00017107716047478,0.00017107714251794,-0.00025754476733124,0.00025754486142003,-0.00025754479108622,0.00025754480252131,-0.00017107654831766,0.00017107791550476,-0.00017107759444449,0.00017107658507076,-0.00025754455132242,0.00025754507463457,-0.00025754487804312,0.00025754465644832,-0.00029191871310079,0.00029191907982326,-0.00029191896624597,0.00029191881127162,-0.00029191881549837,0.00029191901345219,-0.00029191896099496,0.00029191885030701,-0.00024089478374933,0.00024089529772349,-0.00024089522727115,0.00024089484688214,-0.00024089459784363,0.00024089548025549,-0.00024089538617746,0.00024089470354578,-0.00017107696409913,0.00017107719863772,-2.0048958198604e-10,-1.9096500277157e-10,2.1751754220163e-10,-6.0449990001653e-10,-0.00032969174942259,0.00032969136082883,-0.00033469983492602,0.00033469855199787,-0.00031862432526788,0.00031862432355624,-0.00031862445884625,0.00031862413558162,-0.00032646681428325,0.00032646670157305,-0.00032646704531899,0.00032646638898509,-0.0003264668738563,0.00032646664392014,-0.00032646699904302,0.00032646644101539,-0.00033469920793503,0.0003346994137121,-0.00033469971958391,0.00033469872964627,-0.00031862468842195,0.0003186238506002,-0.00031862449561337,0.00031862402912187,-0.00033469904190865,0.00033469957571789,1.2032656600453e-09,5.4126473243985e-10,-0.00025400912281711,0.00025401087832932,8.559419422965e-11,1.7554191893987e-09,-0.00022005250803549,0.00022005599375783,-0.00020495574706393,0.00020495922309921,-0.00020495569926292,0.00020495929135255,-0.00022005483532755,0.00022005376065962,-0.00022005357825864,0.00022005498752728,-0.00020495762859761,0.00020495740218192,-0.00020495719746703,0.00020495777293717,-0.00029031303382205,0.00029031448263724,-0.00029031255293807,0.00029031498825271,-0.00029031332727928,0.00029031421698749,-0.00029031272279176,0.00029031482172424,-0.00029278058727025,0.00029278235523178,-0.00029278012590627,0.00029278287593405,-0.00029278046710816,0.0002927825018788,-0.00029278129788729,0.00029278169258358,-0.00022005262658985,0.00022005589008292,0.69669370919509,129487,2954,0.0010646553117311,0.0013727523102921,0.0010578450535241,19.227972392911,-0.00010217622085671,-0.00010217622085671,-0.00010217622085671,2355556.7506568,0.0035014206730469
17991759,0.2298535350222,0.0039982450064551,0.0012789594516153,0.001452643850252,0.0012666417045878,-0.00026475182201871,0.00026475187580591,2.6236376060691e-10,-2.0400047664973e-10,1.5619728677275e-10,-9.7557826278315e-11,-0.00017552834059283,0.0001755280106742,-0.00026652004604067,0.00026651991379033,-0.00026652009747189,0.00026651986755579,-0.00017552762542273,0.00017552881116535,-0.00017552831155179,0.00017552785924115,-0.00026651968037798,0.00026652028303638,-0.0002665199255871,0.00026651997269269,-0.00030300848937093,0.00030300883137454,-0.00030300868477813,0.00030300862556621,-0.00030300863496986,0.00030300871466896,-0.00030300875946239,0.00030300857631168,-0.00024909949130115,0.00024909981381241,-0.00024909983367728,0.00024909944809724,-0.00024909930207819,0.00024909999244668,-0.0002490998443218,0.00024909944505983,-0.00017552806941447,0.00017552806633272,-1.3653468430103e-10,-2.5709644529735e-10,-9.7455969850253e-10,5.8675354279527e-10,-0.0003430193682314,0.00034301897797127,-0.00034810487980739,0.0003481060339182,-0.00033123954485593,0.0003312388162695,-0.00033123974851543,0.00033123857950766,-0.00033970439016006,0.00033970351459984,-0.00033970384403537,0.00033970402085248,-0.00033970446558897,0.00033970342868027,-0.00033970384330302,0.00033970401008863,-0.0003481066000021,0.00034810449086259,-0.00034810484179829,0.00034810609685761,-0.00033123907085021,0.00033123924012459,-0.00033123907956628,0.00033123919147491,-0.00034810645141853,0.0003481046285466,9.445321608526e-10,4.4250935311912e-10,-0.00026280684581053,0.00026280823984901,9.6913240694043e-10,4.9342264067409e-10,-0.0002266476059431,0.0002266487255154,-0.00021093907457886,0.00021094005163857,-0.00021093901589559,0.00021094013255633,-0.00022664763662627,0.00022664870422287,-0.00022664678877768,0.00022664956264279,-0.00021093877344072,0.00021094039518128,-0.00021093846848451,0.00021094067181925,-0.0003012029800051,0.00030120471257256,-0.00030120318498903,0.00030120452147856,-0.00030120319415618,0.00030120451276679,-0.00030120332558046,0.00030120437864065,-0.00030359525360187,0.00030359604517872,-0.00030359488749302,0.00030359645885552,-0.00030359457563291,0.00030359673180724,-0.00030359517121875,0.00030359615274606,-0.00022664778263166,0.00022664852303219,0.68920464172433,129487,2954,0.0011025955662519,0.0014282035308128,0.0010944649668848,19.173506639912,-0.0001026119468807,-0.0001026119468807,-0.0001026119468807,2424994.3900426,0.0036319020188925
18191759,0.23744871460866,0.0041191678527886,0.0013164897510283,0.0014997053927952,0.0013029727089651,-0.00027078616662013,0.00027078624818727,1.6265887761824e-10,-7.5642325061245e-11,7.0209771169097e-11,1.7315303529363e-11,-0.00017762661375268,0.00017762689643406,-0.00027255753541949,0.00027255751709777,-0.00027255746960648,0.00027255758074315,-0.00017762635873282,0.00017762722654716,-0.00017762692869974,0.00017762641363313,-0.00027255732692944,0.00027255771973822,-0.00027255752956465,0.00027255744901739,-0.00031073932325189,0.0003107395725967,-0.00031073945986149,0.00031073942149206,-0.00031073941790653,0.00031073950726251,-0.00031073945774507,0.00031073944651486,-0.00025453717249257,0.00025453733231528,-0.00025453725049009,0.00025453721950097,-0.00025453700602283,0.00025453747272354,-0.0002545373627981,0.00025453711342387,-0.00017762672734005,0.00017762659821661,-2.5086095574868e-10,-1.2801850049033e-10,-6.6652516519461e-10,2.9313144027836e-10,-0.00035273952423457,0.00035273914813596,-0.00035790768638516,0.00035790815186369,-0.00034028700280012,0.00034028628766441,-0.00034028701396566,0.0003402862669671,-0.0003493862305982,0.00034938549577033,-0.00034938588626746,0.00034938578805877,-0.00034938624198956,0.00034938547856213,-0.0003493857954339,0.00034938587358048,-0.00035790874508539,0.00035790729374276,-0.0003579075330115,0.00035790833240471,-0.0003402867686273,0.00034028647104916,-0.00034028650408248,0.00034028671157193,-0.0003579086455439,0.00035790738779625,8.5577678314715e-10,5.793610940284e-10,-0.00026849608041879,0.0002684975211594,9.3783983809443e-10,5.7350931284593e-10,-0.00023046529192858,0.00023046618361777,-0.00021428782836626,0.00021428907107082,-0.00021428787524079,0.00021428903609024,-0.00023046516676347,0.00023046632665635,-0.00023046446600289,0.00023046706428441,-0.00021428766703644,0.00021428926583537,-0.00021428739849213,0.00021428950523616,-0.00030872221221313,0.00030872389368501,-0.00030872238761502,0.00030872372789025,-0.00030872237000216,0.00030872375012054,-0.00030872245126927,0.00030872366824035,-0.00031102280181846,0.00031102393048334,-0.00031102268669271,0.00031102409457004,-0.00031102238206716,0.00031102435452372,-0.0003110227843683,0.00031102396395226,-0.00023046513418883,0.00023046635899055,0.70094302459268,129487,2954,0.001127718627161,0.0014686425778141,0.0011181464423092,17.889399433623,-0.00011288480453101,-0.00011288480453101,-0.00011288480453101,2455759.3262317,0.0037214792185629
18391759,0.24426894056659,0.0042280274827006,0.0013503070858775,0.0015420784060696,0.0013356419907535,-0.0002758414244964,0.00027584156497751,-1.1175714030784e-12,1.4669091504618e-10,-9.42031119243e-11,2.4286278790707e-10,-0.00017911588142409,0.00017911753817873,-0.00027767671186629,0.0002776768392077,-0.00027767633118151,0.00027767719240208,-0.00017911637450447,0.00017911701048317,-0.00017911715286212,0.00017911611051753,-0.00027767671631574,0.00027767681993154,-0.0002776769660808,0.00027767650924193,-0.000317287802798,0.0003172879171202,-0.00031728786554637,0.00031728782952547,-0.00031728783294683,0.00031728791990712,-0.00031728768142898,0.00031728804267063,-0.00025936001790948,0.00025935981364299,-0.00025935953439728,0.00025936024124815,-0.00025935981155102,0.00025936000141319,-0.00025935996363242,0.00025935984602983,-0.0001791169178518,0.00017911628249983,-4.2726113203923e-10,7.7014118014206e-11,-2.6426509579449e-10,-8.2764877001584e-11,-0.00036111633193697,0.0003611159812845,-0.00036639513635885,0.00036639454539471,-0.00034804933139811,0.00034804868173009,-0.00034804913386679,0.00034804886776902,-0.00035769349266779,0.00035769296984627,-0.00035769344709367,0.00035769293973506,-0.00035769344349074,0.00035769302473914,-0.00035769318248893,0.00035769321554281,-0.00036639530692152,0.00036639459844791,-0.00036639468406,0.00036639502898473,-0.00034804951890127,0.0003480484326229,-0.00034804870536813,0.00034804922808967,-0.00036639516564155,0.00036639474279328,6.6176448570363e-10,7.6894580134389e-10,-0.00027319817395107,0.00027319961057371,9.9884111617961e-10,5.1118001729401e-10,-0.00023349842709915,0.00023349830166698,-0.00021691413806446,0.00021691554932211,-0.000216914481675,0.0002169152137143,-0.00023349772749941,0.0002334989160253,-0.00023349696473479,0.000233499854827,-0.00021691401856288,0.00021691570364919,-0.0002169137114456,0.00021691599214241,-0.00031504705359182,0.00031504869828448,-0.00031504732756522,0.0003150484420363,-0.00031504715128341,0.00031504862894172,-0.00031504721257651,0.00031504856859057,-0.00031730650091164,0.00031730812608555,-0.00031730691599711,0.00031730773823592,-0.00031730641985795,0.00031730822216181,-0.00031730661605618,0.0003173080361668,-0.00023349733589339,0.00023349939606692,0.70345144894946,129487,2954,0.0011487664966312,0.0015034910644376,0.0011377184934443,16.541334596438,-0.0001236693232285,-0.0001236693232285,-0.0001236693232285,2472483.2631647,0.0037972363662992
18591759,0.2508077399969,0.0043301281615064,0.0013820411905151,0.0015818664194237,0.0013662205515676,-0.00028193180782961,0.00028193195308972,6.1796393744208e-10,-4.4636831091259e-10,2.2798287106655e-10,-3.9305863026983e-11,-0.00018157243284741,0.00018156999873561,-0.00028373324208357,0.00028373401734955,-0.00028373416117741,0.00028373332465076,-0.00018157098555533,0.0001815712490056,-0.00018157064154642,0.00018157134695258,-0.00028373345870837,0.00028373383998755,-0.00028373340381033,0.0002837338851493,-0.00032487577508471,0.00032487619083196,-0.00032487592127935,0.00032487592613476,-0.00032487569362519,0.00032487620070167,-0.00032487620050611,0.00032487567016157,-0.00026534387412393,0.0002653454426513,-0.00026534529591111,0.00026534390404366,-0.00026534415908366,0.00026534503203431,-0.00026534463962583,0.00026534429852698,-0.00018156980076102,0.00018157236143502,-1.5006256055575e-10,-2.4031369941784e-10,-1.3142078307279e-09,9.479587921199e-10,-0.00037048793630741,0.00037048754185377,-0.00037585420469335,0.00037585668420606,-0.00035682492191756,0.0003568233632668,-0.00035682466587679,0.00035682389658302,-0.00036697772370811,0.00036697635103862,-0.00036697670407205,0.00036697725574424,-0.00036697763313701,0.00036697652431716,-0.0003669769348797,0.00036697707981403,-0.00037585669314086,0.0003758544908716,-0.00037585464606628,0.0003758561315328,-0.00035682382937702,0.0003568247469761,-0.00035682433517381,0.000356824298231,-0.00037585706395477,0.00037585412280974,1.1652093205191e-09,5.7078077517147e-11,-0.00027891762228229,0.00027891885884274,1.128140268023e-09,1.3958535752785e-10,-0.000237476116177,0.00023747904247449,-0.00022051534475806,0.00022051486248209,-0.00022051461206333,0.00022051578890746,-0.00023747616769328,0.00023747873036371,-0.00023747656971884,0.00023747844256868,-0.00022051398893827,0.00022051626367356,-0.00022051398947571,0.00022051616243762,-0.00032239309651593,0.00032239487460234,-0.00032239326869038,0.00032239471335072,-0.00032239337737549,0.00032239472176596,-0.00032239382215091,0.00032239417084092,-0.0003245381600561,0.00032453747449443,-0.00032453653191907,0.00032453895492575,-0.00032453649757353,0.00032453873582838,-0.00032453728946853,0.00032453821547886,-0.0002374787992097,0.00023747650137242,0.68932345921652,129487,2954,0.0011741226535931,0.0015424764435243,0.0011615236353561,15.993392422749,-0.00012805286061801,-0.00012805286061801,-0.00012805286061801,2502386.4181446,0.0038857271320972
18791759,0.25727053202304,0.0044372781471809,0.0014154000323984,0.0016235559647861,0.0013983221499963,-0.00028897582757036,0.00028897593169113,3.3715246494422e-10,-2.1889534622831e-10,1.732658830815e-10,-4.9018906145771e-11,-0.0001852826003414,0.00018528123078647,-0.00029116751091406,0.00029116786938707,-0.00029116796185244,0.00029116745342867,-0.00018528182703951,0.00018528204910642,-0.00018528155659153,0.00018528211058093,-0.00029116754893329,0.00029116785477189,-0.00029116745666291,0.00029116784633947,-0.00033325924970293,0.0003332595405311,-0.00033325933570823,0.00033325938676657,-0.0003332592396986,0.00033325953220199,-0.00033325953289922,0.00033325922640653,-0.00027262761281336,0.00027262840156928,-0.00027262831855185,0.0002726276177549,-0.00027262772779229,0.00027262825054882,-0.00027262801791271,0.00027262786985388,-0.00018528117327041,0.0001852824998024,-1.9701880235789e-10,-1.7078677702237e-10,-2.034612157804e-09,1.6766509912058e-09,-0.00038081963147245,0.00038081926315801,-0.00038643070978029,0.00038643428994684,-0.00036654895131146,0.00036654709150745,-0.00036654875581318,0.00036654735660698,-0.00037713203431064,0.00037713028908219,-0.00037713066737617,0.00037713160946009,-0.0003771319514165,0.0003771304026191,-0.00037713073648793,0.00037713155293263,-0.00038643450508957,0.00038643071487459,-0.00038643094755244,0.00038643405556173,-0.00036654751937557,0.00036654852819905,-0.00036654765901197,0.00036654837439529,-0.00038643472860576,0.00038643046393502,7.7923129334608e-10,1.7330941207157e-10,-0.00028553800889996,0.00028553896587415,1.8911279574383e-09,-8.926570800088e-10,-0.00024273087370505,0.0002427305061581,-0.00022533809374864,0.00022533597113988,-0.00022533768956766,0.00022533644072955,-0.00024272871507733,0.00024273262014487,-0.00024272890258309,0.00024273253016591,-0.00022533518640888,0.00022533892781387,-0.00022533516782212,0.00022533889676697,-0.0003305045500203,0.00033050656446168,-0.00033050541214045,0.00033050571009651,-0.00033050472083826,0.00033050644431403,-0.00033050571026706,0.00033050541952097,-0.00033280884525745,0.00033280802942602,-0.00033280804515238,0.00033280883494077,-0.00033280727906708,0.00033280954023418,-0.00033280767112734,0.00033280921132799,-0.00024273229862527,0.00024272913645994,0.73043848290591,129487,2954,0.0012034480981708,0.001585453868593,0.0011890772331637,15.814601469002,-0.00012948318824798,-0.00012948318824798,-0.00012948318824798,2531397.1415137,0.0039859810615921
18991759,0.26389009833615,0.0045489372193362,0.0014501509815535,0.0016671022079221,0.0014316840298607,-0.00029709542902529,0.00029709555483923,3.3318625030788e-10,-1.9651557390029e-10,1.3176455480094e-10,1.3665857024801e-11,-0.00018964548079196,0.00018964464349147,-0.0002997857588435,0.00029978611186882,-0.0002997860767361,0.00029978582504737,-0.00018964483770486,0.00018964532500938,-0.00018964490524874,0.00018964502095113,-0.00029978577516864,0.00029978611543778,-0.00029978579802263,0.0002997859992285,-0.00034278445024739,0.00034278476624882,-0.00034278457287244,0.00034278457398012,-0.00034278445147429,0.0003427847516314,-0.0003427846898107,0.00034278449026462,-0.00028120399750373,0.00028120470838157,-0.00028120455612855,0.0002812040399819,-0.00028120403567365,0.00028120462939211,-0.00028120439335845,0.00028120415755165,-0.00018964446731484,0.00018964547483257,-2.878980679962e-10,-6.8013847293505e-11,-2.8184616192484e-09,2.4705025256451e-09,-0.00039248316735797,0.00039248280915477,-0.00039846264170461,0.00039846759135804,-0.0003776096448305,0.00037760719484343,-0.00037760937076281,0.00037760752748007,-0.00038848284629478,0.0003884805665877,-0.00038848100722203,0.00038848238351815,-0.00038848273721312,0.00038848070219134,-0.00038848097631157,0.00038848242533238,-0.00039846790049783,0.00039846251171617,-0.00039846269346587,0.00039846754759482,-0.00037760779340553,0.00037760904533587,-0.00037760763082884,0.00037760918174926,-0.00039846806619554,0.00039846232097102,5.7111176459674e-10,-9.2333186858051e-12,-0.00029316521469999,0.00029316577451303,2.657377402075e-09,-2.0768818375495e-09,-0.00024898371904016,0.00024898051421944,-0.00023106539820045,0.00023106106868704,-0.00023106511548163,0.00023106140746946,-0.00024897958641136,0.00024898459686874,-0.00024897934321866,0.00024898492457414,-0.00023106069166977,0.00023106581649992,-0.00023106055584198,0.00023106591215987,-0.00033972407182667,0.00033972637544423,-0.00033972561842588,0.00033972483480494,-0.00033972427877092,0.00033972621686881,-0.00033972587622486,0.00033972458684975,-0.00034227083770628,0.00034226913653183,-0.00034227018875062,0.00034226979121484,-0.00034226864381267,0.00034227128186856,-0.00034226914908797,0.0003422708311333,-0.00024898464341448,0.00024897962365389,0.74319116160488,129487,2954,0.0012372512583805,0.00163396878291,0.0012208197434787,16.067752615584,-0.00012745797907533,-0.00012745797907533,-0.00012745797907533,2564110.784834,0.0041005074860778
19191759,0.27118310396131,0.0046791107624597,0.0014906525715067,0.001717973371503,0.00147048481945,-0.0003080465379728,0.00030804661986217,4.8295523904896e-10,-3.9182508041717e-10,3.0363618180689e-10,-2.0402304575806e-10,-0.00019644047909061,0.00019643929160444,-0.00031171395468851,0.00031171385773836,-0.00031171425231175,0.00031171358763262,-0.00019643915447265,0.00019644072092234,-0.00019643989872246,0.00019643966668016,-0.00031171346107474,0.00031171438412091,-0.00031171371887494,0.00031171401450331,-0.00035521743334792,0.00035521799599506,-0.00035521771944217,0.00035521764136796,-0.00035521760821136,0.00035521780851934,-0.000355217917166,0.00035521747627681,-0.0002928400254672,0.00029284077818027,-0.00029284081901092,0.00029283990035435,-0.00029283982071839,0.00029284095536086,-0.00029284063926567,0.00029284002106171,-0.00019643954716835,0.00019644006312014,-1.2444147605641e-10,-2.3068810600436e-10,-4.4655463685943e-09,4.1177850739264e-09,-0.00040754327224018,0.0004075429147659,-0.00041413140413404,0.00041413956687761,-0.00039204064912328,0.00039203755158359,-0.0003920407992975,0.00039203741284085,-0.00040303064220379,0.00040302743069994,-0.00040302778536515,0.00040303030556991,-0.00040303067552303,0.00040302741382839,-0.00040302781405051,0.00040303028242259,-0.00041413996942712,0.00041413110535559,-0.00041413144759125,0.00041413955403968,-0.00039203781428471,0.00039204037183582,-0.00039203784224638,0.00039204028686045,-0.00041413989160055,0.00041413115240393,5.2799219389943e-10,-4.0011858689447e-10,-0.00030353136506196,0.00030353148630771,3.5050380585043e-09,-3.3874995190642e-09,-0.00025820323251802,0.00025819735388555,-0.0002395411602539,0.00023953426872843,-0.00023954088782477,0.0002395345897051,-0.0002581973394387,0.00025820327115608,-0.00025819632893898,0.0002582043011884,-0.00023953446139386,0.00023954101174311,-0.00023953407671843,0.00023954134435417,-0.00035178695807952,0.00035178970681146,-0.00035178926648781,0.00035178740568451,-0.00035178732282278,0.00035178938480486,-0.00035178959742545,0.00035178708062152,-0.0003549119897706,0.00035490893556353,-0.00035491113879807,0.00035490981444457,-0.00035490874849119,0.00035491215817057,-0.00035490971887531,0.00035491121651941,-0.00025820409292926,0.00025819656834162,0.78535097544139,129487,2954,0.0012828394702579,0.0016966084185465,0.0012639592353363,17.222184307252,-0.00011822252554199,-0.00011822252554199,-0.00011822252554199,2614221.3636228,0.0042525111612083
19391759,0.27903740530162,0.0048161248080044,0.0015331516496085,0.0017719382057595,0.0015110349526365,-0.00031900171978663,0.00031900177171693,6.4686155774255e-10,-5.8367953028512e-10,4.357687896876e-10,-3.7274221217246e-10,-0.00020236153994003,0.00020236015244741,-0.00032338731514799,0.00032338682909334,-0.00032338756695794,0.00032338662981992,-0.00020235950447822,0.00020236221937554,-0.00020236115748051,0.00020236025774403,-0.00032338634562879,0.00032338784894188,-0.00032338691932967,0.0003233871575014,-0.00036793702156379,0.00036793784541722,-0.00036793749287991,0.00036793729844262,-0.00036793735426353,0.00036793749130441,-0.0003679377281945,0.00036793709666294,-0.00030437412013102,0.00030437490601246,-0.00030437506623426,0.0003043738666658,-0.00030437362482567,0.00030437536656452,-0.00030437497107925,0.00030437390786236,-0.00020236070858092,0.00020236070894464,-5.0085752179357e-11,-3.0924502380437e-10,-5.179245279134e-09,4.8296517801886e-09,-0.00042309038069917,0.00042309001990334,-0.00043031309443709,0.00043032253245024,-0.00040698366423719,0.00040698041607247,-0.00040698416785191,0.00040697997412443,-0.00041797687594329,0.00041797330419604,-0.00041797361571344,0.00041797660169988,-0.00041797703157369,0.00041797316873003,-0.00041797363835813,0.00041797658334216,-0.0004303231043514,0.0004303125983336,-0.00043031298619522,0.00043032263017622,-0.00040698055997314,0.00040698355538503,-0.00040698054829803,0.0004069834971611,-0.00043032278665766,0.00043031287511355,6.1561923116683e-10,-6.7107297502684e-10,-0.00031383366734875,0.00031383360622449,3.819719519402e-09,-3.8903002409797e-09,-0.00026692022457876,0.00026691324162134,-0.00024748162299291,0.00024747379856513,-0.00024748141454192,0.00024747407731327,-0.00026691382511752,0.00026691955530178,-0.00026691196471907,0.0002669214975272,-0.0002474743184815,0.00024748116637816,-0.00024747361964914,0.00024748181139236,-0.00036408766958221,0.00036409069377961,-0.00036409031110282,0.00036408806090261,-0.00036408822070986,0.00036409019101074,-0.00036409070428635,0.00036408767122057,-0.00036767203957767,0.00036766836093246,-0.0003676710211066,0.00036766939990348,-0.00036766817631198,0.0003676721911723,-0.0003676696771105,0.00036767073208867,-0.0002669209116531,0.00026691251648457,0.7695181505191,129487,2954,0.001328445088492,0.0017612690194692,0.0013068321062223,18.120917420791,-0.00011103266063367,-0.00011103266063367,-0.00011103266063367,2664096.2672715,0.0044063189532422
19591759,0.28710111383233,0.0049532808595991,0.0015756317326438,0.0018262653293675,0.0015513837975878,-0.0003289569918556,0.00032895708028986,5.1973464550011e-10,-4.2036995968482e-10,3.5053424623557e-10,-2.4814302373919e-10,-0.00020713608907365,0.00020713523956199,-0.00033379612429152,0.00033379578883827,-0.0003337962872587,0.00033379568243439,-0.00020713456345363,0.00020713681968409,-0.00020713589228631,0.00020713512631753,-0.00033379536992052,0.00033379660008509,-0.00033379583330726,0.00033379601322419,-0.00037975404211109,0.00037975474381974,-0.00037975442690214,0.00037975428403252,-0.00037975430094792,0.00037975446454871,-0.00037975459771595,0.00037975415007538,-0.00031479450654242,0.00031479513385525,-0.00031479519288408,0.00031479435771406,-0.00031479409618588,0.00031479549796976,-0.00031479516146662,0.00031479436275745,-0.00020713552287968,0.00020713549795196,-2.1122437311907e-10,-1.3106463007471e-10,-4.5028008634509e-09,4.1685765915671e-09,-0.00043768610556728,0.00043768576070131,-0.00044545769378423,0.00044546576239835,-0.00042097796731465,0.00042097481364072,-0.00042097811208152,0.00042097473432286,-0.00043202779371519,0.00043202456457385,-0.00043202495119343,0.00043202742876597,-0.00043202784818882,0.00043202452933725,-0.00043202487703799,0.00043202751251265,-0.00044546632037813,0.00044545724823335,-0.00044545750141975,0.00044546595998394,-0.00042097527066031,0.00042097753422841,-0.0004209749542155,0.00042097778374542,-0.00044546613162121,0.00044545739685235,5.0134367145674e-10,-4.9736357810836e-10,-0.00032308877093449,0.00032308877198633,3.6491960631203e-09,-3.6534054618276e-09,-0.00027431705870961,0.00027431027715474,-0.00025417308127385,0.00025416582339234,-0.00025417295794929,0.00025416602296854,-0.00027431076746529,0.00027431652305762,-0.00027430923011193,0.00027431808750112,-0.00025416618164615,0.00025417279916456,-0.00025416559438472,0.00025417331903573,-0.000375447552488,0.00037545041126144,-0.00037545005602018,0.00037544792220936,-0.00037544801285753,0.00037545000135766,-0.00037545036875083,0.00037544760852301,-0.0003792578274464,0.00037925458896686,-0.00037925706196976,0.0003792553802997,-0.00037925438533685,0.00037925800784589,-0.0003792555678829,0.00037925686675444,-0.00027431752036232,0.0002743097734658,0.75194288752579,129487,2954,0.0013698892915154,0.0018219683066009,0.0013453461607285,18.431110983511,-0.00010855111213191,-0.00010855111213191,-0.00010855111213191,2707831.0410574,0.0045476129058079
19791759,0.2952710157328,0.0050884554363612,0.0016174893766301,0.0018800115119577,0.0015909545477735,-0.00033856594336051,0.00033856598091205,5.3798464802653e-10,-4.9023382148003e-10,5.123998925203e-10,-4.6651949862749e-10,-0.00021150510799161,0.00021150299286999,-0.0003436250535918,0.00034362456310186,-0.00034362548851272,0.00034362417246498,-0.00021150311747394,0.00021150504470163,-0.00021150378190276,0.00021150400092716,-0.00034362417101765,0.00034362550203335,-0.00034362440832528,0.00034362513607084,-0.00039129032118639,0.00039129104757072,-0.00039129066337463,0.00039129064719303,-0.0003912906234992,0.00039129073210109,-0.00039129103963011,0.00039129030190723,-0.00032470669281552,0.00032470748881801,-0.00032470773898914,0.00032470637897001,-0.00032470641463597,0.00032470772133055,-0.00032470733212206,0.00032470677326114,-0.0002115037048098,0.0002115040698778,-5.6896715895856e-11,-2.9037246993433e-10,-4.1690823452344e-09,3.8305492545556e-09,-0.0004519212690407,0.0004519209203009,-0.000460145557549,0.00046015332983335,-0.00043459717844854,0.00043459428911955,-0.00043459737200118,0.00043459414434912,-0.00044578667223581,0.00044578368058172,-0.00044578396338932,0.00044578640865717,-0.00044578674536237,0.00044578361599066,-0.00044578407160259,0.00044578630225333,-0.00046015364556822,0.00046014536672666,-0.0004601457323999,0.00046015316532426,-0.00043459442822061,0.00043459705175324,-0.00043459467491569,0.00043459670896415,-0.00046015359983823,0.00046014536686961,7.4150221375974e-10,-3.4664213686478e-10,-0.00033195076105757,0.00033195115691687,2.9052526517886e-09,-2.4906603502933e-09,-0.00028108218661938,0.00028107858197383,-0.00026031077280099,0.00026030552005244,-0.00026031035501987,0.0002603060051862,-0.00028107789626067,0.0002810828386035,-0.00028107704521162,0.00028108371299212,-0.00026030549972612,0.00026031086983572,-0.00026030513414239,0.00026031116767646,-0.0003864826246888,0.00038648518859466,-0.00038648441187099,0.00038648341616165,-0.0003864830305423,0.00038648482501011,-0.00038648484414555,0.00038648297910308,-0.00039036848854842,0.0003903659117844,-0.00039036737788716,0.00039036706774736,-0.00039036559502077,0.00039036880220649,-0.00039036660396219,0.00039036782340083,-0.00028108351263889,0.00028107721261671,0.73295182296781,129487,2954,0.0014098916816588,0.0018811638904061,0.0013822236313362,18.579193582783,-0.00010736645133773,-0.00010736645133773,-0.00010736645133773,2751783.3644161,0.004684324126848
19991759,0.30335193312918,0.0052249203284065,0.0016597580037221,0.0019343661529945,0.0016307961716899,-0.00034767574163725,0.00034767576416767,5.5068272018267e-10,-5.1767610468858e-10,5.827267119813e-10,-5.5336583186251e-10,-0.00021571637358288,0.00021571230152454,-0.00035315035311155,0.00035315027972935,-0.00035315138742944,0.00035314930741693,-0.00021571419614795,0.00021571457676609,-0.00021571314654506,0.00021571518733115,-0.00035314991026863,0.00035315081531789,-0.00035314956394459,0.00035315099697146,-0.00040221283603683,0.00040221342627996,-0.00040221300724738,0.00040221319640402,-0.00040221299548107,0.00040221324710854,-0.00040221363179016,0.00040221261856477,-0.00033410190411939,0.00033410322236757,-0.00033410354338814,0.0003341015315524,-0.00033410212339047,0.00033410295635333,-0.00033410255259527,0.00033410253300716,-0.00021571316202002,0.00021571515047233,-7.6713451015553e-12,-3.4118368035585e-10,-3.6124332925323e-09,3.2725242114552e-09,-0.00046556390947324,0.00046556356078104,-0.00047431377958681,0.00047432108544341,-0.00044760616694524,0.00044760319595915,-0.00044760590534656,0.00044760350296407,-0.00045895885729915,0.00045895608004791,-0.00045895631148134,0.00045895863381225,-0.00045895878139298,0.00045895616278554,-0.0004589566519835,0.00045895829385405,-0.00047432085217708,0.00047431417204831,-0.00047431456931397,0.00047432031514867,-0.00044760323390578,0.00044760612386309,-0.00044760412360498,0.00044760513093881,-0.00047432133662131,0.00047431363781437,1.0064312279668e-09,-1.240707654935e-10,-0.00034029447223113,0.00034029535959377,2.1382163067978e-09,-1.2066266424505e-09,-0.00028753324946967,0.00028753389975977,-0.00026610640571804,0.0002661031205652,-0.00026610541548311,0.00026610419884344,-0.00028753103522229,0.0002875361299181,-0.00028753182246433,0.00028753531494264,-0.00026610262040308,0.00026610702261185,-0.00026610279534568,0.00026610674550621,-0.00039687201517364,0.0003968742207644,-0.00039687294709838,0.0003968733150231,-0.00039687225566503,0.00039687402562016,-0.00039687358226528,0.00039687266879412,-0.00040101837019154,0.00040101636701135,-0.00040101666691863,0.00040101812677862,-0.00040101612808413,0.00040101862013483,-0.00040101662857878,0.00040101816015608,-0.00028753631468283,0.00028753076125848,0.74870072094357,129487,2954,0.0014478156444565,0.0019378919823129,0.0014169438828156,18.423804376235,-0.00010860956499012,-0.00010860956499012,-0.00010860956499012,2789016.7274661,0.0048143179840176
20191759,0.31137349618177,0.0053633785085775,0.0017026322917494,0.001989631059254,0.0016711151575741,-0.00035694517868144,0.00035694521491815,5.4393059121293e-10,-4.9700419965698e-10,5.6903501803257e-10,-5.2446233258722e-10,-0.00022003044699881,0.00022002568323297,-0.0003630307644005,0.00036303103241549,-0.00036303210056129,0.0003630297916493,-0.00022002833336556,0.00022002786278344,-0.00022002644707236,0.00022002928413549,-0.00036303066256303,0.0003630312444536,-0.00036303001247004,0.00036303172085156,-0.00041326502169349,0.00041326551113673,-0.0004132650909225,0.00041326537967988,-0.00041326506666036,0.00041326543849537,-0.00041326579758837,0.00041326471979701,-0.00034368715549507,0.00034368870183073,-0.00034368898449849,0.00034368680096744,-0.00034368760097277,0.00034368817780324,-0.00034368779046812,0.00034368801746334,-0.00022002644890199,0.00022002926107615,-4.3634522458526e-11,-2.9971688778864e-10,-3.1025114779775e-09,2.7681352789409e-09,-0.00047944492383977,0.00047944457918021,-0.00048884690053948,0.00048885348880085,-0.00046085177510907,0.0004608488552827,-0.00046085122754135,0.00046084945722217,-0.0004722843762994,0.00047228180157749,-0.00047228203575714,0.00047228413267786,-0.00047228418797939,0.00047228199612302,-0.0004722824662668,0.00047228370587382,-0.00048885299981768,0.00048884758877354,-0.00048884793366618,0.00048885247051177,-0.0004608489624134,0.00046085167003027,-0.00046084998994938,0.00046085053422235,-0.00048885377148625,0.00048884676707914,1.1415437895436e-09,3.6507145796094e-11,-0.00034877024614494,0.00034877143279416,1.8470765997046e-09,-5.9968562847157e-10,-0.00029422966978931,0.00029423213762079,-0.00027209178227075,0.00027208945773579,-0.00027209053916529,0.00027209079767377,-0.00029422825692679,0.00029423354499493,-0.00029422977188215,0.00029423199152517,-0.00027208863788409,0.00027209271599895,-0.00027208908128215,0.00027209217229035,-0.00040736223378653,0.00040736434909207,-0.00040736278589268,0.00040736382310446,-0.00040736238800199,0.00040736424459756,-0.00040736350134991,0.00040736309388935,-0.00041194969941207,0.00041194806625459,-0.00041194777219089,0.00041195004930309,-0.00041194777141969,0.00041194998578851,-0.0004119480052814,0.00041194980177791,-0.00029423339580842,0.0002942283237778,0.76566371331043,129487,2954,0.0014864036195293,0.0019956078970207,0.0014522123489305,18.316770549268,-0.00010946583560585,-0.00010946583560585,-0.00010946583560585,2823630.0252033,0.0049465393576016
20391759,0.31956453080928,0.0055057382945584,0.0017466833207452,0.0020466264230584,0.0017124285507548,-0.00036712955451104,0.0003671296954103,2.3470825077258e-10,-8.2736330858944e-11,3.0284921036304e-10,-1.4807630457642e-10,-0.00022492672166166,0.00022492863587396,-0.00037389519097266,0.00037389415000793,-0.00037389447962965,0.00037389496526291,-0.0002249258694528,0.0002249294489796,-0.00022492862184239,0.00022492628935534,-0.00037389389423319,0.00037389553957202,-0.00037389485222742,0.00037389445143315,-0.00042531691423603,0.00042531767740117,-0.00042531735583932,0.00042531715895945,-0.00042531736835761,0.00042531719939875,-0.00042531723123732,0.00042531732650958,-0.00035414993280716,0.00035414922555262,-0.00035414915408638,0.00035414986818959,-0.00035414872055959,0.00035415033679891,-0.00035415005162004,0.00035414902212665,-0.00022492862112864,0.00022492619024875,-3.6379051859643e-10,5.0821012350017e-11,-2.4593704446711e-09,2.1528468345805e-09,-0.00049448554745496,0.00049448522967354,-0.00050462916286454,0.00050463249567325,-0.00047524651985613,0.00047524523983272,-0.00047524720243905,0.00047524465866242,-0.00048668474410249,0.00048668298005067,-0.00048668338689844,0.00048668430450194,-0.00048668495882462,0.00048668278770684,-0.00048668300883159,0.00048668469922752,-0.00050463384188906,0.0005046280562457,-0.00050462811459706,0.00050463352053429,-0.00047524599683181,0.00047524580421949,-0.00047524450305297,0.00047524719120259,-0.00050463299204105,0.00050462885397793,6.2327298893067e-10,2.3985786947548e-10,-0.00035810140911217,0.00035810228194741,2.6760100664867e-09,-1.7556099489609e-09,-0.00030171981018616,0.00030171386534772,-0.00027881563076688,0.00027881311304932,-0.00027881645916996,0.00027881239239976,-0.00030171568874976,0.0003017178702747,-0.00030171246908845,0.00030172117451505,-0.00027881237931763,0.00027881646834639,-0.00027881123312546,0.00027881754740882,-0.00041880774378755,0.00041881058679754,-0.00041880957464386,0.00041880878310346,-0.00041880828817904,0.00041881010462908,-0.00041880943526735,0.00041880891888354,-0.00042393076823331,0.00042393072954801,-0.00042393140659348,0.00042393011372088,-0.00042392886160702,0.00042393259860639,-0.00042393027091841,0.0004239312628272,-0.000301717360651,0.00030171615864168,0.771576990676,129487,2954,0.0015287990114656,0.0020581415906409,0.0014910373993074,18.578490388486,-0.00010737207689211,-0.00010737207689211,-0.00010737207689211,2864710.1804754,0.0050910222954091
20591759,0.32769251841249,0.0056348715392378,0.0017866434025509,0.0020985941002257,0.0017496340364612,-0.00037592159595061,0.00037592165428607,5.7483275298192e-10,-5.0561869114459e-10,5.6350196728406e-10,-4.9611697386406e-10,-0.00022803581286554,0.00022803139075402,-0.00038259457325052,0.00038259469115345,-0.0003825956760756,0.00038259362662487,-0.0002280336603401,0.00022803358603619,-0.00022803218396898,0.00022803461964233,-0.00038259425758405,0.00038259505739826,-0.00038259386519777,0.00038259533907786,-0.00043619686088751,0.00043619742494519,-0.00043619700178745,0.00043619723953869,-0.00043619696564892,0.00043619731332707,-0.00043619762808379,0.0004361966383753,-0.00036289692168495,0.00036289846285508,-0.00036289872076296,0.00036289659782092,-0.00036289730509781,0.00036289800722214,-0.00036289760310854,0.00036289774158783,-0.00022803210466535,0.00022803465386772,-1.0136725035155e-10,-2.2495988762985e-10,-3.0720282962913e-09,2.7546339387652e-09,-0.00050802414862705,0.00050802382029156,-0.00051859856111172,0.00051860489110081,-0.00048812019529062,0.00048811718382437,-0.00048811957343824,0.00048811785235575,-0.00049975823893817,0.00049975568474696,-0.00049975594582079,0.00049975796459343,-0.00049975806083222,0.00049975586950589,-0.00049975627883109,0.00049975763892377,-0.00051860458216823,0.00051859908894768,-0.00051859937352786,0.0005186040970131,-0.00048811738944831,0.00048811998303007,-0.00048811825537302,0.00048811901919466,-0.00051860520932884,0.00051859842467826,1.1786996984892e-09,3.156173394856e-11,-0.00036601846052625,0.00036601968084366,2.1012189323767e-09,-8.1638361707765e-10,-0.0003070152524762,0.00030701689533977,-0.00028361799370375,0.00028361537437464,-0.00028361686302877,0.00028361657530876,-0.00030701347020099,0.00030701866231508,-0.00030701450111191,0.00030701771112892,-0.00028361452418204,0.00028361893206363,-0.00028361481295529,0.00028361857511896,-0.00042906996456205,0.00042907231807492,-0.00042907071031665,0.00042907159174536,-0.00042907017081719,0.00042907215591338,-0.00042907139694452,0.0004290708994632,-0.00043416608986113,0.00043416442153494,-0.00043416428505003,0.00043416628087957,-0.00043416392796839,0.00043416657396303,-0.00043416437642561,0.00043416617354645,-0.00030701855942615,0.00030701359170435,0.70762321889253,129487,2954,0.0015654001510649,0.0021144261775253,0.0015239793841681,18.473804271545,-0.00010820956582764,-0.00010820956582764,-0.00010820956582764,2902316.7493632,0.0052175087978998
20791759,0.33541837508348,0.0057644152970519,0.0018267522882108,0.0021507042255311,0.00178695878331,-0.00038367055309553,0.00038367057438618,5.7098498549916e-10,-5.4420781190579e-10,5.0210412154904e-10,-4.6538214111563e-10,-0.0002312132096116,0.00023120713542431,-0.00039073911265198,0.00039073996442148,-0.00039074081231213,0.00039073806327596,-0.00023121214914525,0.00023120979156475,-0.00023120816662064,0.00023121292876387,-0.00039073970824326,0.00039073951304104,-0.00039073837228678,0.00039074052911142,-0.00044566565329106,0.0004456659621766,-0.00044566565987239,0.0004456659850824,-0.00044566554794532,0.00044566613503547,-0.00044566650335017,0.00044566526976497,-0.00037067201148147,0.00037067411846705,-0.00037067457310269,0.00037067177172899,-0.0003706730887892,0.00037067317201508,-0.00037067301113309,0.00037067354271206,-0.00023120804726182,0.00023121294554999,-2.0104992437164e-10,-1.3599868366813e-10,-2.5079312936705e-09,2.1591771360765e-09,-0.00052007534483321,0.00052007503699385,-0.00053117196665139,0.00053117779198158,-0.00049949836624292,0.00049949497018225,-0.00049949676630816,0.00049949620773608,-0.00051140909579707,0.00051140674648628,-0.00051140700461593,0.00051140887030693,-0.00051140861082872,0.00051140716585959,-0.00051140745085703,0.00051140839369026,-0.0005311768241341,0.00053117312552309,-0.00053117367020124,0.00053117651794586,-0.00049949516778771,0.00049949769099063,-0.00049949644457789,0.00049949634058357,-0.00053117825171689,0.00053117170664534,1.369842762652e-09,1.8427563800207e-10,-0.00037291099530014,0.00037291255366583,1.8516498795492e-09,-2.1937258528869e-10,-0.00031196318314134,0.00031196761717598,-0.00028802875388176,0.00028802674715789,-0.0002880269310881,0.00028802854046518,-0.00031196267937583,0.00031196968910525,-0.00031196580515355,0.0003119660046942,-0.00028802555242234,0.00028803030826224,-0.00028802652784271,0.00028802902789703,-0.0004379056400909,0.00043790789083017,-0.00043790595381019,0.00043790767287985,-0.00043790564911839,0.00043790784808711,-0.00043790683723142,0.00043790673233286,-0.00044328585173938,0.00044328414340223,-0.00044328344485584,0.00044328685329626,-0.00044328414907498,0.00044328626302396,-0.00044328387930736,0.00044328639148136,-0.00031196897485339,0.00031196254981705,0.74689430217419,129487,2954,0.0015976589499801,0.0021645239470618,0.0015526578357435,17.813079474558,-0.00011349536420353,-0.00011349536420353,-0.00011349536420353,2928361.762036,0.0053291371963844
20991759,0.34265216314387,0.0058813364446847,0.0018629710988188,0.0021978440013653,0.0018205213445007,-0.00039022466019575,0.00039022470765034,4.5186136819537e-10,-3.9285844442213e-10,5.2965343456879e-10,-4.7196677507723e-10,-0.00023303629896755,0.00023303371433682,-0.00039740585841808,0.00039740555234838,-0.00039740647922443,0.00039740494098529,-0.00023303464682274,0.0002330357044634,-0.00023303433502546,0.00023303548974552,-0.00039740525015181,0.00039740626277538,-0.00039740511287662,0.00039740622827235,-0.00045395918686998,0.00045395981757705,-0.00045395943199903,0.00045395954414794,-0.00045395943351715,0.00045395957992504,-0.00045395989781779,0.00045395913665932,-0.00037715444460013,0.00037715511818346,-0.0003771554135378,0.0003771541536305,-0.00037715421758984,0.00037715529799726,-0.00037715498398361,0.00037715463428443,-0.00023303442844193,0.00023303533953396,-2.1094110725426e-10,-9.8995512990326e-11,-1.9851732977008e-09,1.677115937127e-09,-0.00053072559780351,0.00053072529499348,-0.00054228465674505,0.00054228834731074,-0.0005094954615488,0.0005094936618087,-0.0005094952410816,0.00050949384532056,-0.00052166739999212,0.00052166567169075,-0.00052166596240402,0.00052166708241349,-0.00052166729061384,0.00052166576747708,-0.00052166606315697,0.00052166697913525,-0.00054228852623051,0.00054228474690906,-0.00054228496737128,0.00054228814776312,-0.0005094940448163,0.00050949500917968,-0.00050949398291875,0.00050949494525658,-0.00054228876253324,0.00054228447959329,1.3095198359944e-09,3.9208671991323e-10,-0.0003786239304069,0.0003786256437121,1.6416031863701e-09,1.6275348487511e-10,-0.00031550157251052,0.00031550321372708,-0.00029111957968096,0.00029111951164136,-0.00029111903497481,0.0002911201170541,-0.00031550098959719,0.00031550398569256,-0.00031550065614369,0.00031550431803412,-0.00029111807192602,0.00029112118898578,-0.00029111794242344,0.00029112118761155,-0.00044557668229195,0.00044557917226417,-0.00044557715820405,0.00044557873898005,-0.00044557700314798,0.00044557887573825,-0.00044557758347952,0.00044557829102445,-0.00045107052312555,0.00045107060136663,-0.00045106949319711,0.00045107172698012,-0.00045106909207153,0.00045107207734047,-0.00045106984402117,0.00045107133775949,-0.00031550310093155,0.00031550174616485,0.72120576489055,129487,2954,0.0016249465105909,0.002208795117623,0.0015764279213283,16.96079452261,-0.00012031364381912,-0.00012031364381912,-0.00012031364381912,2945049.8551414,0.0054249875803172
21191759,0.34891480968526,0.0059829025651723,0.0018944696557613,0.0022387864579389,0.0018496464514721,-0.00039391435226889,0.00039391431188849,7.0283359348234e-10,-7.3002125891782e-10,7.9737750448811e-10,-8.3247722148056e-10,-0.00023294058526341,0.00023293023151644,-0.00040120171533586,0.00040120293659241,-0.00040120458586191,0.00040120007813922,-0.00023293786491679,0.00023293350776079,-0.00023293143131333,0.00023293927311453,-0.00040120254750047,0.00040120220602317,-0.0004012005306755,0.00040120404467794,-0.00045905148275321,0.00045905173076826,-0.00045905124364266,0.00045905196510246,-0.00045905124241621,0.00045905198190211,-0.00045905260270882,0.00045905065924396,-0.0003807182138784,0.00038072132377687,-0.00038072194053724,0.00038071765229286,-0.00038071992989735,0.00038071956318694,-0.00038071916000627,0.00038072048761873,-0.00023293166044827,0.00023293901686163,3.2608055941862e-11,-3.5346167445906e-10,-1.4093485125027e-09,1.0910719680003e-09,-0.0005377501211156,0.0005377498061338,-0.00054967814653449,0.0005496829821019,-0.00051594392626059,0.00051594078376514,-0.00051594199303818,0.00051594267001278,-0.00052842583525922,0.00052842392408699,-0.0005284240600311,0.0005284256616525,-0.00052842516739463,0.00052842456461781,-0.00052842503264642,0.00052842467612416,-0.00054968107581454,0.00054968036732357,-0.00054968074811896,0.00054968050706016,-0.00051594067751475,0.00051594395333572,-0.00051594330816076,0.00051594119060541,-0.00054968325889719,0.00054967815247801,1.9454358479761e-09,4.3851721683901e-10,-0.00038154765454805,0.00038155005579712,5.7785440213217e-10,1.9510610186384e-09,-0.00031659293903925,0.0003166050035352,-0.0002919060461666,0.00029190720746305,-0.00029190318610403,0.00029191012450136,-0.00031659579713561,0.00031660247338924,-0.00031660124452795,0.00031659685342115,-0.00029190524119786,0.00029190819193601,-0.0002919070268165,0.00029190624457656,-0.00045010949694995,0.0004501112158817,-0.0004501083273283,0.00045011242758527,-0.00045010930354464,0.0004501114217348,-0.00045010965059522,0.00045011106843846,-0.00045566567256985,0.00045566473503653,-0.00045566202504108,0.00045566852238456,-0.00045566461384545,0.00045566587111999,-0.00045566388523147,0.00045566657698098,-0.000316601416447,0.00031659663554631,0.72387934323215,129487,2954,0.0016403135417988,0.0022379924044088,0.001588595046696,15.11754084243,-0.00013505967326056,-0.00013505967326056,-0.00013505967326056,2938285.0522252,0.0054820359220995
21391759,0.35461756556094,0.0060758155106957,0.0019233356056673,0.0022761801367709,0.0018762997682575,-0.00039819790405258,0.00039819794069988,5.1256707471447e-10,-4.615231484905e-10,6.0427319563337e-10,-5.5427933134543e-10,-0.00023372814134826,0.00023372320939958,-0.00040568191554313,0.0004056822598177,-0.00040568337723048,0.00040568086099516,-0.00023372625909153,0.0002337254796196,-0.0002337239153289,0.00023372728319579,-0.00040568193304238,0.00040568236751207,-0.00040568106840572,0.00040568304805919,-0.00046461113306144,0.00046461158795,-0.00046461115788967,0.00046461151901013,-0.00046461115291383,0.00046461155125279,-0.00046461194785954,0.00046461079801452,-0.00038489974293946,0.00038490112232355,-0.00038490147250045,0.00038489940059879,-0.00038490009025873,0.00038490070207914,-0.00038490036691949,0.00038490054807937,-0.00023372406221461,0.00023372709551285,-1.7915622964281e-10,-1.2549883125126e-10,-1.2788183185664e-09,9.7754186181125e-10,-0.00054512496548547,0.00054512466295344,-0.00055743709825945,0.00055744016551263,-0.00052277111637215,0.00052276921121805,-0.00052277033934513,0.00052277001093647,-0.00053551772774421,0.00053551621423587,-0.00053551646472164,0.00053551741826842,-0.00053551738945591,0.00053551654746086,-0.00053551686660902,0.00053551702167559,-0.00055743966156376,0.00055743795022109,-0.00055743812363716,0.00055743922279541,-0.00052276956006044,0.00052277073814727,-0.0005227701839618,0.00052276999724875,-0.00055744057973224,0.0005574369914425,1.6471611114837e-09,5.9505859166628e-10,-0.00038511292094387,0.0003851151810138,1.0753181167072e-09,1.3018533551486e-09,-0.00031852230337428,0.00031852822015248,-0.00029352287946179,0.00029352432451114,-0.00029352160489647,0.00029352569827576,-0.00031852348187791,0.00031852721376496,-0.00031852493907247,0.00031852565767838,-0.00029352236580911,0.00029352502467236,-0.00029352288585195,0.00029352434158922,-0.00045513444658035,0.00045513672577196,-0.00045513412363737,0.00045513709481869,-0.00045513458902558,0.0004551366227296,-0.00045513483529475,0.00045513635239435,-0.00046082351177928,0.0004608238922398,-0.00046082166785955,0.00046082582840218,-0.00046082250873177,0.00046082490722416,-0.0004608227254158,0.0004608247244875,-0.00031852588629691,0.00031852463706175,0.72693240014033,129487,2954,0.0016581504833065,0.0022686454875144,0.0016034289082012,13.932267948893,-0.00014454185640885,-0.00014454185640885,-0.00014454185640885,2939861.2238051,0.0055457159089147
21591759,0.36001039809987,0.0061644732377878,0.0019509040963052,0.002311843057025,0.0019017260844575,-0.00040304971253507,0.00040304977250167,7.1469765180086e-10,-6.3295783441823e-10,6.6477198258402e-10,-5.7455915824446e-10,-0.00023521209823007,0.0002352009348174,-0.00041081616353248,0.00041081842423504,-0.00041081960960433,0.00041081510157967,-0.00023520977414265,0.00023520364345348,-0.00023520186972825,0.00023521088819086,-0.00041081794571745,0.00041081678078053,-0.00041081537776547,0.00041081917748822,-0.00047068470232826,0.00047068470757961,-0.00047068422079288,0.00047068511384698,-0.00047068412394799,0.00047068524073465,-0.00047068565232556,0.00047068374364849,-0.00038966041216187,0.0003896640898247,-0.00038966445294554,0.00038966006459359,-0.00038966265339938,0.00038966175521711,-0.00038966133546039,0.00038966313602583,-0.00023520176397915,0.00023521105076782,-1.1326952372321e-10,-2.0484594164857e-10,-2.293111608338e-09,1.9870111576143e-09,-0.00055297413604294,0.00055297381930391,-0.00056569857744675,0.00056570561082695,-0.00053008110490522,0.00053007665265852,-0.0005300785293806,0.00053007934641086,-0.00054306412586369,0.00054306130426452,-0.00054306152415207,0.00054306384001708,-0.0005430632025386,0.00054306225137125,-0.00054306265293358,0.00054306274270879,-0.00056570320715227,0.00056570133477314,-0.00056570154531869,0.00056570270023567,-0.0005300769229704,0.00053008090931585,-0.00053007967647833,0.00053007807515594,-0.00056570594738473,0.00056569855743235,1.6863094748222e-09,2.5966033975706e-10,-0.00038926708099606,0.00038926904423298,1.6810896156382e-09,3.6426417681032e-10,-0.00032112199097325,0.00032113197454987,-0.00029582610707011,0.00029582370296344,-0.00029582283575308,0.00029582711355028,-0.00032112200707762,0.0003211321166749,-0.00032112866544698,0.00032112535626211,-0.00029582219455615,0.00029582779904992,-0.00029582446546508,0.00029582534310712,-0.00046068954033295,0.00046069154207595,-0.00046068909187728,0.00046069203447734,-0.00046068919543222,0.00046069196288302,-0.00046069057031603,0.00046069052958993,-0.0004665741132723,0.00046657151652782,-0.00046657007668586,0.00046657560190788,-0.00046657214968438,0.00046657337966756,-0.0004665709874559,0.00046657465067186,-0.00032113153569145,0.0003211225499661,0.73328844843154,129487,2954,0.0016783509089628,0.0023012693465652,0.0016207119530784,13.227080119689,-0.00015018335904249,-0.00015018335904249,-0.00015018335904249,2948453.1521017,0.0056162212181756
21791759,0.3655451145596,0.006254153502103,0.0019788062352205,0.0023479471301173,0.0019274001367652,-0.00040985772617402,0.00040985779077072,6.4099084330208e-10,-5.5786661874156e-10,6.2087704911763e-10,-5.3471606618828e-10,-0.00023834184161082,0.00023833312063015,-0.00041790957801108,0.00041791124703327,-0.00041791233213149,0.00041790854796817,-0.00023833974224271,0.00023833562045657,-0.00023833401178051,0.00023834075476012,-0.00041791083573171,0.00041791014579335,-0.00041790879564856,0.0004179119448647,-0.00047884272713343,0.00047884288156077,-0.00047884240211163,0.00047884312001809,-0.00047884233665667,0.00047884324159941,-0.00047884361647586,0.00047884200023863,-0.00039635103224236,0.0003963537461006,-0.00039635410109929,0.00039635072987686,-0.00039635249812247,0.00039635226204622,-0.00039635188696355,0.0003963529547799,-0.00023833386939278,0.00023834081966252,-7.813473255226e-11,-2.2876494950179e-10,-3.9950321138789e-09,3.6968163633565e-09,-0.00056302082320921,0.00056302051931257,-0.00057618022742016,0.00057618989126233,-0.00053954916184522,0.00053954450048505,-0.00053954747761407,0.00053954623415035,-0.00055276507151985,0.00055276140039406,-0.00055276159720379,0.00055276485817868,-0.00055276439775241,0.00055276210068791,-0.00055276252002992,0.00055276396700283,-0.00057618815703925,0.00057618218268874,-0.00057618251025619,0.00057618767859693,-0.00053954469839754,0.00053954898848545,-0.00053954661430612,0.00053954692580207,-0.00057619015121024,0.00057618012805854,1.2657627186928e-09,-1.5955813586583e-11,-0.00039534935467819,0.00039535061287849,3.0673527482585e-09,-1.7564559517705e-09,-0.00032547995519653,0.00032548335767546,-0.00029988030400975,0.00029987449833118,-0.00029987779790917,0.00029987713558896,-0.00032547637873353,0.00032548708772299,-0.00032548089158442,0.00032548259453091,-0.00029987367481304,0.00029988135038228,-0.00029987527806398,0.00029987955725561,-0.00046830524826626,0.0004683079104075,-0.00046830622161217,0.00046830700672234,-0.00046830510542917,0.00046830813198424,-0.00046830740779661,0.00046830579627845,-0.00047435681914866,0.00047435322352565,-0.00047435366137113,0.00047435647953038,-0.00047435390662965,0.00047435616962407,-0.00047435326773344,0.00047435685204202,-0.00032548702906818,0.00032547632738044,0.72319363026276,129487,2954,0.0017066905268769,0.0023430261122764,0.0016460144793921,13.545859165348,-0.00014763312667722,-0.00014763312667722,-0.00014763312667722,2977600.1790883,0.0057121681472914
21991759,0.37127100504689,0.0063454322174422,0.0020072041723318,0.0023847722012527,0.0019534558438577,-0.00041700357353602,0.00041700372446758,4.9886861657532e-10,-3.3411397134899e-10,3.3731504871269e-10,-1.690175751438e-10,-0.00024168670096629,0.00024168075262119,-0.0004252928909135,0.00042529449653472,-0.00042529484304191,0.00042529258186485,-0.00024168548932961,0.00024168220642491,-0.00024168126534939,0.00024168594447423,-0.0004252940915582,0.00042529342043588,-0.00042529263178283,0.00042529467678145,-0.00048741290848787,0.00048741304839699,-0.00048741269405054,0.00048741318123739,-0.00048741253731401,0.00048741340260024,-0.00048741345962892,0.00048741249725359,-0.00040329513031995,0.00040329715843154,-0.00040329716337182,0.00040329509983984,-0.00040329618122584,0.00040329608605375,-0.00040329581195829,0.00040329650511693,-0.00024168079467213,0.00024168627569204,-3.8307341007616e-10,1.0667274535321e-10,-4.8099600828888e-09,4.5384371973001e-09,-0.0005735110096932,0.00057351073301992,-0.00058707874578908,0.00058708917343859,-0.000549415185544,0.0005494099846984,-0.00054941349902373,0.00054941174609966,-0.00056293845377929,0.0005629342566596,-0.00056293465890381,0.00056293808699161,-0.00056293776952652,0.00056293496118208,-0.00056293516185867,0.00056293760097727,-0.000587088028712,0.00058708002940165,-0.00058708013338887,0.0005870878094425,-0.00054941078635289,0.00054941443378992,-0.00054941148168271,0.00054941358493921,-0.00058708959733863,0.00058707840375148,7.0329113846054e-10,-2.1402698600668e-10,-0.00040173832372621,0.0004017388164721,4.4151392794007e-09,-3.9012095868794e-09,-0.00032997998045719,0.0003299766958756,-0.0003041243265636,0.00030411505121819,-0.00030412258110157,0.00030411690445565,-0.00032997251027742,0.00032998411195848,-0.0003299752766513,0.00032998153854414,-0.00030411489916449,0.00030412465959056,-0.00030411598076965,0.00030412347272012,-0.00047631590535259,0.00047631906744983,-0.00047631824768323,0.00047631678161508,-0.00047631585440693,0.00047631918006188,-0.00047631909916628,0.00047631591363305,-0.00048247368808951,0.00048246923011233,-0.00048247159489197,0.00048247138936546,-0.00048246996905509,0.00048247297624022,-0.00048246968721347,0.000482473300937,-0.00032998447500889,0.00032997209063601,0.71247575441185,129487,2954,0.0017364360093378,0.0023866241245444,0.0016725921045284,13.971626492125,-0.000144226988063,-0.000144226988063,-0.000144226988063,3011483.6596668,0.0058126735353854
22191759,0.37725889600591,0.0064392189615738,0.002036385573319,0.0024226847254742,0.0019801486627807,-0.00042461520510556,0.00042461524189745,9.9174214370827e-10,-9.1457581626307e-10,1.16634227425e-09,-1.0679556079393e-09,-0.00024534465382749,0.00024533166117159,-0.00043310580120851,0.00043310741636138,-0.00043310965967633,0.00043310388372288,-0.00024534061408367,0.00024533579798093,-0.0002453328194886,0.00024534263011627,-0.0004331067539582,0.00043310665766001,-0.00043310427829232,0.00043310893634159,-0.00049653397146977,0.00049653439677516,-0.0004965335513903,0.0004965345979762,-0.00049653362242743,0.00049653458855051,-0.00049653537171182,0.00049653282834845,-0.00041059826256631,0.0004106021299837,-0.00041060283345125,0.00041059755532104,-0.00041060011145033,0.00041060010149818,-0.00041059924671982,0.00041060078650327,-0.00024533326967653,0.00024534255108685,4.2110146461725e-10,-7.8810200638498e-10,-6.9521992746138e-09,6.6308006429743e-09,-0.00058461184009689,0.00058461146561244,-0.00059855748909747,0.00059857415120839,-0.00055983970556851,0.00055983318686744,-0.00055983834917343,0.00055983494364226,-0.00057374793818874,0.00057374221146332,-0.0005737421774459,0.00057374790845448,-0.00057374734271231,0.00057374293152403,-0.00057374382664849,0.00057374638427281,-0.00059857162764571,0.00059856027018725,-0.00059856082105129,0.00059857073581711,-0.000559832597935,0.00055984072413219,-0.00055983642255579,0.00055983688766316,-0.00059857397077272,0.00059855787161028,1.2183908603338e-09,-7.7563800864052e-10,-0.0004085611576756,0.00040856160959611,3.8717069362681e-09,-3.4689333149316e-09,-0.00033474773955542,0.00033475061164048,-0.00030866645180179,0.0003086562866572,-0.00030866302434441,0.00030866000979101,-0.00033474231595533,0.00033475590111705,-0.00033474811858305,0.0003347499087871,-0.00030865658388391,0.00030866630749763,-0.00030865865026403,0.00030866397266455,-0.00048485411985878,0.00048485682703949,-0.00048485564135744,0.00048485534352759,-0.00048485400592595,0.00048485715562503,-0.00048485735789453,0.00048485362361607,-0.0004910710420683,0.00049106446605331,-0.00049106644000191,0.00049106898645411,-0.00049106629586496,0.00049106874147042,-0.00049106587913088,0.0004910694846664,-0.00033475762929034,0.00033474091586114,0.70116230135336,129487,2954,0.0017681190787965,0.0024327575435277,0.0017009753881153,14.541952610785,-0.00013966437911372,-0.00013966437911372,-0.00013966437911372,3050464.2376702,0.0059195056688369
22391759,0.38338107644487,0.0065388756765961,0.0020673833854378,0.0024629958663768,0.0020084964247815,-0.00043206424326014,0.00043206430652155,6.4577376056225e-10,-5.5605911959177e-10,7.2556422730502e-10,-6.3250970631412e-10,-0.00024895755682706,0.00024894941512504,-0.00044103889297963,0.00044104010570188,-0.00044104141205791,0.00044103770677022,-0.00024895521711203,0.00024895214191211,-0.00024895033119413,0.0002489565322562,-0.00044103969458229,0.00044103950892591,-0.00044103789841073,0.00044104098115755,-0.00050542433873399,0.00050542465672373,-0.0005054240927606,0.00050542475465762,-0.00050542406993387,0.00050542483256097,-0.00050542528396338,0.00050542367357977,-0.00041774622309952,0.00041774853559493,-0.00041774891946025,0.0004177458711028,-0.00041774729461921,0.00041774745239093,-0.00041774698792795,0.0004177477686152,-0.00024895037464238,0.0002489564161602,-5.8343063777097e-11,-2.6056008119338e-10,-6.1182520278062e-09,5.8144107084499e-09,-0.00059559520614121,0.00059559489114536,-0.00061001089433557,0.00061002441311097,-0.00057010925893272,0.00057010361624027,-0.00057010800663401,0.00057010500907213,-0.0005844115474469,0.00058440656175868,-0.00058440679215375,0.00058441137337822,-0.00058441096534921,0.00058440718032077,-0.00058440767462333,0.00058441051927143,-0.00061002296620858,0.00061001247520809,-0.00061001284623278,0.00061002250481222,-0.00057010380722038,0.00057010916137758,-0.00057010544694992,0.00057010740325965,-0.00061002460603867,0.00061001075707079,7.785776062018e-10,-5.1380330145595e-10,-0.00041518570302827,0.00041518597428392,4.4637352592055e-09,-4.2001733383744e-09,-0.00033955413084868,0.00033955136234452,-0.00031317529034431,0.00031316498917646,-0.00031317311987782,0.00031316734176853,-0.00033954666085814,0.0003395589052526,-0.00033954983259175,0.00033955567527967,-0.00031316521771912,0.0003131752851458,-0.00031316648305372,0.00031317383717324,-0.00049314045422642,0.00049314355731967,-0.00049314281181187,0.00049314126244096,-0.00049314043985323,0.00049314366653509,-0.00049314390497278,0.00049314013208973,-0.00049959367297863,0.00049958822447541,-0.00049959092308011,0.00049959109093139,-0.00049958947860099,0.00049959242060382,-0.0004995892656886,0.00049959270432789,-0.00033955984102982,0.00033954556061744,0.72868416198586,129487,2954,0.0017991258736677,0.002478400576236,0.0017285330387299,14.832019322134,-0.00013734384542293,-0.00013734384542293,-0.00013734384542293,3082283.5110441,0.0060243440831779
22591759,0.38957759590657,0.006640725472116,0.0020990506461133,0.0025042664641163,0.0020374083618865,-0.00043938986265776,0.00043938992174702,6.8156280639323e-10,-6.0272259168708e-10,7.8792246667126e-10,-6.9803808481272e-10,-0.00025220387579231,0.00025219497207506,-0.00044893767896064,0.00044893885394355,-0.00044894028666892,0.00044893636077153,-0.00025220132241675,0.00025219787158787,-0.00025219581644716,0.00025220261318554,-0.00044893839929598,0.00044893830427329,-0.00044893658723945,0.00044893984806748,-0.00051423360955916,0.00051423397010468,-0.00051423338157722,0.00051423407656746,-0.00051423337393267,0.00051423413794085,-0.00051423462685276,0.00051423291449129,-0.00042477845439355,0.00042478095623787,-0.00042478137890654,0.00042477803180493,-0.00042477961737849,0.00042477974777203,-0.00042477924702149,0.00042478013801157,-0.00025219598745141,0.00025220247080773,-5.3421829124791e-11,-2.700626401651e-10,-5.6890328567455e-09,5.3846609262314e-09,-0.00060658463876139,0.0006065843197673,-0.00062156760481543,0.00062158042899556,-0.00058037178156715,0.00058036619316059,-0.00058037034578608,0.00058036775706148,-0.00059500727644364,0.00059500249906156,-0.00059500271529046,0.0005950071099558,-0.0005950066510691,0.00059500315359726,-0.00059500366593935,0.00059500618290952,-0.00062157887699613,0.00062156930476215,-0.00062156967890846,0.00062157838729368,-0.00058036635736614,0.00058037171982337,-0.00058036822249492,0.00058036970943656,-0.00062158060231691,0.00062156750565156,9.1990032594119e-10,-4.5624059765557e-10,-0.00042163301663199,0.0004216334839821,4.0254715380195e-09,-3.5584109807298e-09,-0.00034413713463584,0.00034413589414945,-0.00031744093962386,0.00031743175827605,-0.00031743860122592,0.00031743426147704,-0.00034413082691355,0.00034414228928234,-0.00034413409983737,0.00034413894785394,-0.00031743181114888,0.00031744108094642,-0.00031743317553176,0.00031743954331477,-0.00050132005678203,0.00050132298639551,-0.00050132200932988,0.00050132108979483,-0.00050132002993218,0.00050132310752754,-0.00050132318036634,0.00050131988459642,-0.00050808309878568,0.00050807801508502,-0.00050808016467688,0.00050808103778111,-0.00050807912713703,0.00050808194657899,-0.00050807894196049,0.00050808222977507,-0.00034414313282513,0.00034412986181631,0.73621130624097,129487,2954,0.0018296202151307,0.0025240660252519,0.0017553538715719,14.99624488473,-0.00013603004092216,-0.00013603004092216,-0.00013603004092216,3107726.6941693,0.0061279593585317
22791759,0.39580841845965,0.0067440389702561,0.0021311680560356,0.0025461935600619,0.0020666773541586,-0.0004466456392397,0.00044664571055048,6.4869720064286e-10,-5.5818645102237e-10,7.7510235684623e-10,-6.7190446823559e-10,-0.0002553195954987,0.00025531113588359,-0.00045683413995518,0.00045683523940895,-0.00045683661558793,0.00045683287246118,-0.00025531714589428,0.00025531390580801,-0.00025531188070844,0.0002553184207641,-0.00045683478734653,0.00045683475156473,-0.00045683306593782,0.00045683622123945,-0.00052297726338695,0.00052297763698778,-0.00052297705224941,0.00052297773271774,-0.00052297705243143,0.00052297778140282,-0.00052297824517767,0.00052297661477634,-0.00043174748510516,0.00043174981584221,-0.00043175020448866,0.00043174708484439,-0.00043174853213301,0.00043174870382166,-0.00043174821043757,0.00043174905574922,-0.0002553120999365,0.00025531823767516,-1.2090835948702e-10,-1.9539722567535e-10,-5.0062573503773e-09,4.7084134368486e-09,-0.00061755902062771,0.00061755870706761,-0.00063316443697756,0.00063317577032837,-0.00059061329586782,0.00059060813973977,-0.0005906118430842,0.00059060972427123,-0.0006055558572488,0.00060555151648061,-0.00060555176284284,0.00060555564201644,-0.00060555522340087,0.00060555217686273,-0.00060555263423946,0.00060555479459464,-0.00063317435756031,0.00063316604812438,-0.0006331663392837,0.00063317389830123,-0.00059060842478386,0.00059061310476261,-0.00059061004371574,0.00059061134994552,-0.00063317600688325,0.0006331643269163,9.9778515648073e-10,-3.0365730926992e-10,-0.00042797506752547,0.00042797576932581,3.6297942352373e-09,-2.913561179478e-09,-0.0003486192055979,0.00034861880007156,-0.00032159108872766,0.00032158331971068,-0.00032158888587353,0.00032158568421277,-0.00034861384128556,0.00034862423321716,-0.00034861683420986,0.00034862117898449,-0.00032158309725128,0.00032159149517658,-0.00032158437707798,0.00032159004763324,-0.00050941812462773,0.00050942095552201,-0.00050941977007131,0.00050941936275931,-0.00050941811177029,0.0005094210610328,-0.0005094208799966,0.0005094182174351,-0.00051653741026948,0.00051653308840335,-0.00051653466210918,0.00051653592480288,-0.00051653385501769,0.00051653659196078,-0.00051653371255848,0.00051653684069721,-0.0003486247786286,0.00034861320308765,0.74293133753218,129487,2954,0.0018598242141435,0.0025696664948675,0.0017817365032951,15.079034347152,-0.00013536772522279,-0.00013536772522279,-0.00013536772522279,3130333.4555744,0.0062307868946723
22991759,0.40204571785748,0.0068419751432152,0.0021616340474675,0.0025860463459569,0.0020942947497908,-0.000453505722958,0.00045350581031911,5.9886683755125e-10,-4.9285099088024e-10,7.3807039166205e-10,-6.1937712246877e-10,-0.00025782346458925,0.00025781548772065,-0.00046399032844739,0.00046399138563869,-0.00046399265127764,0.00046398915352739,-0.00025782120646027,0.00025781805270058,-0.00025781612443192,0.00025782240604602,-0.00046399095524736,0.00046399091210511,-0.00046398930373894,0.00046399231688473,-0.00053143576845267,0.00053143612780971,-0.00053143555595051,0.00053143622838538,-0.00053143556672128,0.00053143626901047,-0.0005314366867069,0.00053143517382097,-0.00043817655400691,0.00043817870541416,-0.00043817905147978,0.00043817620341139,-0.00043817752358544,0.00043817767725757,-0.00043817720989282,0.00043817803832805,-0.00025781634017311,0.00025782219362871,-2.0217436741038e-10,-1.0258159311819e-10,-4.3384966063332e-09,4.050069430909e-09,-0.00062813144937935,0.00062813114634057,-0.00064423824431197,0.00064424810802595,-0.00060046166976068,0.00060045688372796,-0.00060046014701636,0.00060045853969674,-0.00061576670773333,0.00061576278672069,-0.00061576306531683,0.00061576643915692,-0.00061576605360932,0.00061576347104318,-0.00061576385044607,0.00061576568227512,-0.00064424682593145,0.00064423976293941,-0.00064423997229572,0.00064424640849449,-0.0006004573249175,0.00060046131224104,-0.00060045867301498,0.00060045982194973,-0.00064424841406609,0.00064423810279767,1.042040888675e-09,-1.4622093617026e-10,-0.00043392128501977,0.0004339221914584,3.3085075389907e-09,-2.3723616527336e-09,-0.00035234465187557,0.00035234487288554,-0.00032508463157421,0.00032507807045214,-0.00032508256437483,0.00032508029650746,-0.00035234003329156,0.00035234955225419,-0.00035234280621883,0.00035234675795595,-0.00032507759394342,0.0003250852937247,-0.00032507881015869,0.00032508391317361,-0.000517232298435,0.00051723504250277,-0.00051723369751655,0.0005172337008422,-0.00051723228766721,0.00051723514934236,-0.00051723473585507,0.00051723262964255,-0.0005244736798803,0.0005244700609153,-0.00052447115882344,0.0005244726741126,-0.00052447051903025,0.00052447318154663,-0.00052447038174227,0.00052447342498063,-0.00035234977956526,0.00035233972118759,0.7049475195853,129487,2954,0.0018883821288798,0.0026135944381663,0.001806472292559,15.106487977586,-0.00013514809617931,-0.00013514809617931,-0.00013514809617931,3153812.2524062,0.0063286297741788
23191759,0.40827974095727,0.0069408618034722,0.0021924132669979,0.0026262937371367,0.0021221547993376,-0.00046040879948449,0.00046040888807651,5.756903662236e-10,-4.6892950128298e-10,7.4806977052612e-10,-6.2798457381116e-10,-0.00026073585630631,0.00026072814686202,-0.00047129118846711,0.00047129212232175,-0.00047129339756619,0.00047128999034134,-0.00026073363284822,0.0002607306778717,-0.00026072872602778,0.00026073485017394,-0.0004712917005055,0.00047129175164815,-0.00047129012880179,0.00047129308971109,-0.00053985377445529,0.00053985415709001,-0.00053985358280369,0.0005398542480801,-0.0005398536147636,0.00053985426411274,-0.00053985468504636,0.00053985321311219,-0.00044456096211262,0.00044456297141997,-0.00044456332864017,0.00044456060486903,-0.00044456183414985,0.00044456203657162,-0.00044456156633288,0.00044456236700912,-0.00026072901177539,0.00026073456622964,-2.2087662684861e-10,-7.7550258385486e-11,-3.9355159432482e-09,3.6526158775481e-09,-0.00063863226002832,0.00063863196271952,-0.00065518276218837,0.00065519173111539,-0.00061024233141085,0.00061023785309875,-0.00061024085009811,0.00061023946103304,-0.00062597852794926,0.00062597488691624,-0.00062597517012432,0.00062597824287377,-0.0006259778869532,0.00062597555516625,-0.00062597590814226,0.00062597753282664,-0.00065519055710406,0.00065518420355069,-0.0006551843806267,0.00065519014658479,-0.00061023832273684,0.00061024193314716,-0.00061023954474222,0.0006102405704261,-0.00065519206336567,0.00065518262991743,1.1171094797854e-09,-2.6751582290612e-11,-0.00043993748082236,0.00043993858449741,3.0516045067094e-09,-1.9055922235244e-09,-0.00035635716258052,0.00035635797604414,-0.00032883868569801,0.00032883314814581,-0.00032883671755743,0.00032883526440628,-0.00035635322271877,0.00035636197942796,-0.0003563557751213,0.00035635943265947,-0.00032883244506788,0.00032883956465979,-0.00032883358922511,0.0003288382656195,-0.00052500661041612,0.00052500932401923,-0.00052500779950927,0.00052500818958941,-0.00052500661409621,0.00052500941264636,-0.00052500879384398,0.00052500716360503,-0.00053246923001383,0.00053246616915508,-0.00053246684412142,0.00053246864752696,-0.00053246634070476,0.00053246901594582,-0.0005324662572726,0.00053246920450132,-0.00035636196555862,0.00035635318003388,0.71243094597117,129487,2954,0.0019171167934127,0.0026572229956421,0.0018314986358029,15.116507473241,-0.00013506794021407,-0.00013506794021407,-0.00013506794021407,3179606.5670398,0.0064266504240612
23391759,0.41447897213476,0.0070395027425631,0.0022231186023614,0.002666477532735,0.0021499066074667,-0.0004671494451758,0.00046714953254707,5.6922952775954e-10,-4.6409236613502e-10,7.6753731699712e-10,-6.4859262408761e-10,-0.00026343854044558,0.00026343096390357,-0.00047847703873215,0.0004784778661469,-0.00047847917877122,0.00047847579975361,-0.00026343628081594,0.00026343352388725,-0.00026343153724032,0.00026343754445219,-0.00047847744569887,0.00047847759662841,-0.00047847593752162,0.00047847887643753,-0.00054811322736951,0.00054811364008698,-0.00054811305645898,0.00054811371538503,-0.00054811310499924,0.00054811371246311,-0.00054811414640187,0.00054811268775565,-0.00045073219779066,0.00045073412292226,-0.00045073449878981,0.00045073182969597,-0.00045073299920821,0.00045073325823712,-0.00045073277916777,0.00045073354725816,-0.00026343187472214,0.00026343720892366,-2.2600703083887e-10,-6.7327998628064e-11,-3.7254997297317e-09,3.4471849108819e-09,-0.00064899142761962,0.00064899113489785,-0.00066601202700636,0.00066602051059719,-0.00061988422923328,0.00061987994292291,-0.00061988279481956,0.00061988150063869,-0.00063602548824238,0.00063602200645015,-0.00063602228975834,0.00063602519625951,-0.00063602486231692,0.00063602265768614,-0.00063602299644651,0.00063602451709498,-0.00066601941548183,0.00066601341059754,-0.00066601356545605,0.00066601900675971,-0.00061988041730933,0.00061988381953746,-0.00061988156375759,0.00061988253404182,-0.00066602085489612,0.00066601190653538,1.1857442403642e-09,5.0606511844036e-11,-0.00044579915738716,0.0004458004089248,2.9051575462326e-09,-1.6022284325433e-09,-0.00036023186904498,0.00036023307571314,-0.00033244107206165,0.00033243619948438,-0.00033243916975578,0.000332438245827,-0.00036022837424332,0.00036023663087538,-0.00036023072840995,0.00036023428151641,-0.00033243533658847,0.00033244210565272,-0.00033243641838843,0.0003324408725338,-0.00053262158800189,0.00053262431693971,-0.00053262265095076,0.00053262330742535,-0.00053262160925801,0.00053262438669387,-0.00053262362025122,0.00053262230633202,-0.00054038945945507,0.00054038676815172,-0.00054038715635757,0.00054038916379545,-0.00054038671904222,0.00054038946233155,-0.00054038670530708,0.00054038958311807,-0.0003602364589638,0.0003602284925637,0.71512604304162,129487,2954,0.0019451757134248,0.0027002610355317,0.0018558819483464,15.062823437404,-0.00013549741250077,-0.00013549741250077,-0.00013549741250077,3201785.973172,0.0065227589967145
23591759,0.42103645292689,0.0071438599575974,0.0022556055409289,0.0027090334950745,0.002179220921594,-0.00047575557422412,0.00047575554934023,6.6565516493428e-10,-6.8103306251771e-10,1.0141941480061e-09,-1.0281733072759e-09,-0.00026766593141036,0.00026765739653023,-0.00048762712774425,0.00048762723802108,-0.0004876292754368,0.00048762508531907,-0.00026766278541286,0.00026766094685579,-0.00026765842498051,0.0002676645202958,-0.00048762686308602,0.00048762765676543,-0.00048762546191631,0.00048762875153917,-0.00055838526435382,0.00055838590594926,-0.0005583852358449,0.00055838586897402,-0.00055838538487372,0.00055838576886087,-0.00055838650845665,0.00055838467331725,-0.00045874510872133,0.00045874696513091,-0.00045874769761916,0.00045874444562389,-0.00045874569036037,0.00045874639137395,-0.0004587458632701,0.00045874634297477,-0.00026765908161455,0.00026766379330377,1.4187924999513e-10,-4.4505862211018e-10,-4.9981368510707e-09,4.7028537317673e-09,-0.0006615765014556,0.0006615762016936,-0.00067912355727684,0.00067913466443025,-0.00063170814635094,0.00063170381246247,-0.0006317074402777,0.00063170448935763,-0.00064823580296773,0.00064823177622415,-0.00064823183683074,0.00064823578512893,-0.00064823542478072,0.00064823214423935,-0.00064823273915387,0.00064823488297493,-0.0006791336123582,0.00067912478121448,-0.00067912531155836,0.00067913299997838,-0.00063170350478694,0.00063170840725327,-0.00063170530103259,0.0006317063768158,-0.00067913474329605,0.00067912357037172,1.308403405902e-09,-1.4292446914528e-10,-0.000453486797302,0.00045348797254913,3.2288272108024e-09,-1.9937149766701e-09,-0.00036581803803521,0.00036581862905283,-0.00033769806000118,0.00033769237586492,-0.00033769609295219,0.00033769445072667,-0.00036581422214528,0.00036582263535481,-0.0003658160693523,0.00036582071204037,-0.00033769169484016,0.0003376989521802,-0.00033769261439074,0.00033769785500184,-0.00054220646773215,0.00054220948437334,-0.00054220780913459,0.00054220821403194,-0.00054220660114871,0.00054220941271999,-0.00054220885102795,0.00054220712775192,-0.00055039143540649,0.00055038817025316,-0.00055038892510993,0.00055039086490627,-0.00055038821853196,0.00055039150871643,-0.00055038852894876,0.00055039120560675,-0.00036582273166051,0.00036581387353917,0.71571492145477,129487,2954,0.0019809948748683,0.0027525450424609,0.0018878584024477,15.825400342092,-0.00012939679726327,-0.00012939679726327,-0.00012939679726327,3239835.6643312,0.0066436402048903
23791759,0.4282995640101,0.0072653524655781,0.0022933751051027,0.002758646203786,0.0022133311566894,-0.00048660100008054,0.00048660113409853,4.981340841839e-10,-3.5199056710626e-10,6.2242256013862e-10,-4.5782053988206e-10,-0.0002737288248694,0.00027372178382802,-0.00049951187156655,0.00049951302270374,-0.00049951396237004,0.00049951102401905,-0.0002737271446992,0.00027372383777187,-0.00027372218021539,0.00027372807986538,-0.00049951263687569,0.00049951244043988,-0.00049951104177022,0.00049951375028557,-0.00057102439795231,0.0005710246991232,-0.00057102416908956,0.00057102480984264,-0.00057102416564574,0.00057102487418277,-0.00057102515260412,0.0005710239211039,-0.00046907544175767,0.00046907736117092,-0.0004690775522307,0.00046907525959016,-0.00046907639905588,0.00046907637908755,-0.00046907598944162,0.00046907682720033,-0.00027372234795539,0.00027372791682651,-2.7525948068093e-10,-6.1054780149259e-12,-5.6856669042495e-09,5.4142626831533e-09,-0.00067699506533708,0.00067699478352721,-0.00069530510937884,0.00069531739444194,-0.00064625984797619,0.00064625420784095,-0.00064625828942091,0.00064625583416595,-0.00066313243137004,0.00066312767646458,-0.00066312799133964,0.0006631321650725,-0.00066313179053753,0.00066312833117418,-0.00066312866379931,0.00066313151677938,-0.00069531625202305,0.00069530640835104,-0.00069530659964835,0.00069531596022481,-0.00064625477864696,0.00064625933005376,-0.00064625578927739,0.00064625814859038,-0.00069531771972231,0.00069530487959315,6.709393429548e-10,-2.8616478135133e-10,-0.0004632949937459,0.0004632953840224,4.7195617321655e-09,-4.3263153022835e-09,-0.00037362596957561,0.00037362151360669,-0.00034501531447716,0.00034500515562014,-0.00034501349635558,0.00034500714169493,-0.00037361776625426,0.00037362982927186,-0.00037362019735083,0.00037362730310429,-0.00034500515127482,0.00034501554723643,-0.00034500627054607,0.00034501423637608,-0.00055406921111828,0.00055407255034805,-0.0005540717986235,0.00055407003833305,-0.0005540691852551,0.00055407267560369,-0.00055407270081379,0.00055406908916983,-0.00056303299246684,0.00056302814296009,-0.00056303089952569,0.00056303036499235,-0.00056302893242592,0.00056303218005086,-0.00056302877271085,0.00056303247720605,-0.00037363030762858,0.00037361707967902,0.75201888685246,129487,2954,0.0020261307306838,0.0028165971182037,0.0019286517169256,17.222855266306,-0.00011821715786955,-0.00011821715786955,-0.00011821715786955,3289579.9425783,0.0067946402830673
23991759,0.43559934343962,0.0073903791079343,0.0023321535000115,0.0028099102952335,0.0022483153126893,-0.00049525125973261,0.00049525147495376,2.0346932996046e-10,2.5978865062034e-11,4.3547181498791e-10,-1.8296285975728e-10,-0.00027739948606874,0.00027739345351599,-0.00050927547768603,0.00050927699730818,-0.00050927737884495,0.00050927514203858,-0.00027739889414929,0.000277394397858,-0.00027739308572851,0.00027739947182838,-0.00050927672887659,0.00050927586959103,-0.00050927487104439,0.00050927750696294,-0.00058144940452063,0.000581449392156,-0.00058144893179956,0.00058144975390676,-0.00058144901415691,0.00058144973914038,-0.00058144978005894,0.00058144898624112,-0.00047727068957507,0.00047727220590415,-0.00047727216103959,0.00047727068573931,-0.00047727179227707,0.00047727102627169,-0.00047727070288625,0.00047727219936303,-0.00027739345686231,0.00027739907862948,-6.1660443120935e-10,3.7099637359118e-10,-4.6509464927037e-09,4.412722863125e-09,-0.00069027971882747,0.0006902794700168,-0.00070951449492149,0.00070952462964689,-0.00065869395785543,0.000658688254502,-0.00065869167259919,0.00065869063775606,-0.00067580887507157,0.00067580454401326,-0.00067580505519896,0.00067580838227643,-0.00067580798110178,0.00067580546356798,-0.00067580550819374,0.00067580796813842,-0.00070952343371811,0.00070951591887094,-0.00070951580663489,0.00070952337589046,-0.00065868948920194,0.00065869277654304,-0.00065868986325518,0.00065869226746406,-0.00070952519708072,0.00070951411030513,3.3308385824471e-10,4.6715181666355e-11,-0.00047082519026124,0.00047082557835316,4.7011318618141e-09,-4.3062999855355e-09,-0.00037912513770728,0.00037912023753502,-0.00035002544610366,0.00035001549941464,-0.00035002376638706,0.00035001729059253,-0.00037911633017457,0.0003791291292908,-0.0003791196601606,0.00037912587573108,-0.00035001523940325,0.00035002587219192,-0.00035001666345981,0.00035002432226808,-0.00056370401759719,0.00056370709026043,-0.00056370655919478,0.00056370461044603,-0.00056370374354013,0.00056370745461173,-0.00056370726690322,0.00056370387584577,-0.00057353109970322,0.00057352682845589,-0.00057352957873412,0.00057352843249324,-0.00057352767536918,0.00057353022160419,-0.00057352679490426,0.00057353120291796,-0.00037912901560584,0.00037911639754613,0.77069150133964,129487,2954,0.0020621373396333,0.0028717794149319,0.0019599730678121,17.332077662969,-0.00011734337869624,-0.00011734337869624,-0.00011734337869624,3309708.9358747,0.0069180015948151
24191759,0.4429162597965,0.0075091860781917,0.0023690216069176,0.0028587700923465,0.0022813943789276,-0.00050349798458236,0.00050349808731154,5.6705043907186e-10,-4.5027624820794e-10,7.9460845722766e-10,-6.623372328463e-10,-0.00028033646563161,0.00028032899398805,-0.00051819212060905,0.00051819286625579,-0.00051819416973589,0.00051819082471977,-0.00028033421528135,0.00028033159173543,-0.00028032957410408,0.00028033553330147,-0.0005181924227291,0.00051819266104506,-0.00051819096433356,0.0005181939200484,-0.00059160865321269,0.00059160911307244,-0.00059160849468252,0.00059160918282774,-0.00059160858644682,0.00059160914327982,-0.00059160957538677,0.00059160816958859,-0.00048491703884394,0.00048491881151782,-0.00048491919457676,0.00048491661773525,-0.00048491767764874,0.00048491807676166,-0.0004849175757618,0.0004849183059792,-0.0002803299674357,0.00028033512176427,-2.9581414657352e-10,3.5892925367092e-11,-4.7637045827714e-09,4.5132021148028e-09,-0.00070319729410696,0.00070319703270657,-0.00072323788408865,0.0007232482847914,-0.00067078361938418,0.00067077858945498,-0.00067078209292914,0.00067078016950845,-0.00068815948025249,0.00068815530234541,-0.00068815564025456,0.00068815916671037,-0.00068815881201477,0.00068815598447324,-0.00068815623634077,0.00068815859829073,-0.00072324721981387,0.00072323917677852,-0.00072323930060528,0.00072324693661765,-0.00067077917545724,0.00067078306069021,-0.00067078005735875,0.00067078203151338,-0.00072324864700038,0.00072323771035301,9.8418317848241e-10,-1.4487541076962e-10,-0.0004779280808867,0.00047792893184536,3.852922459235e-09,-2.9669501256441e-09,-0.00038369094351944,0.00038368920115872,-0.00035425530414564,0.00035424780992771,-0.00035425343927212,0.0003542497459084,-0.00038368517598411,0.00038369505227209,-0.00038368737047597,0.00038369299897701,-0.00035424733768808,0.00035425590994012,-0.00035424836598528,0.0003542547798998,-0.00057307019975451,0.00057307330638756,-0.00057307204575415,0.00057307150807427,-0.00057307022438011,0.00057307335286053,-0.00057307298563091,0.00057307054655207,-0.00058348666656126,0.00058348285228011,-0.0005834844278958,0.00058348516724614,-0.00058348313155144,0.00058348636532182,-0.00058348318917904,0.00058348637292311,-0.00038369530119644,0.00038368496875743,0.73179798158037,129487,2954,0.002096465643177,0.0029254333991976,0.0019895179308366,17.407892911584,-0.00011673685670732,-0.00011673685670732,-0.00011673685670732,3329312.6405057,0.0070363622067159
24391759,0.45024675010216,0.0076289269454756,0.0024061934220724,0.0029080463682168,0.0023146871551864,-0.00051184866000259,0.00051184879929426,3.0926202972787e-10,-1.5558536420186e-10,6.9942065242917e-10,-5.2809509663083e-10,-0.00028381412514563,0.00028380729457587,-0.0005272800965097,0.00052728099020338,-0.00052728203362352,0.00052727908572729,-0.00028381264588884,0.00028380911265203,-0.00028380735410224,0.00028381381860563,-0.000527280689448,0.00052728051314649,-0.00052727900534383,0.00052728198476821,-0.00060178520561296,0.00060178542657694,-0.00060178484688335,0.00060178568643171,-0.00060178503980152,0.00060178554951029,-0.00060178586771627,0.00060178474047254,-0.00049256285688988,0.00049256425334152,-0.0004925645234959,0.00049256259528211,-0.00049256365862426,0.0004925634060463,-0.00049256294494669,0.00049256419770437,-0.00028380803730576,0.00028381310058503,-4.8558587336871e-10,2.464162234219e-10,-4.1194801954725e-09,3.8878018562632e-09,-0.00071607754719791,0.00071607730491897,-0.00073685358843009,0.00073686265716163,-0.00068283020891609,0.00068282521158029,-0.00068282823245721,0.00068282723948684,-0.00070056825941393,0.00070056439732176,-0.00070056483895868,0.00070056782004964,-0.00070056744496009,0.00070056523023794,-0.00070056532032971,0.00070056737391765,-0.00073686155463826,0.00073685496648542,-0.00073685490264737,0.00073686141320568,-0.00068282617066765,0.000682829261388,-0.00068282671169327,0.0006828285973568,-0.00073686317244874,0.00073685331313986,7.5040926044602e-10,1.716114742641e-10,-0.00048514822353095,0.00048514915960761,3.8175854266945e-09,-2.8399751077577e-09,-0.00038859086763925,0.00038858892795135,-0.00035877477032172,0.00035876766184756,-0.00035877306719161,0.00035876946730196,-0.00038858471138338,0.00038859515297131,-0.00038858747492053,0.00038859246332156,-0.00035876691996889,0.00035877567198295,-0.00035876817249868,0.00035877429656968,-0.00058244706567678,0.00058245000715942,-0.00058244885184293,0.0005824482777196,-0.00058244689616529,0.00058245025878766,-0.00058244962226619,0.0005824474795574,-0.00059352768156593,0.00059352451973866,-0.00059352595783897,0.00059352633431376,-0.00059352475488261,0.00059352741787214,-0.00059352423714694,0.00059352802914831,-0.00038859476342782,0.00038858505698723,0.73639362017529,129487,2954,0.0021312239860519,0.0029789294467932,0.0020195489549695,17.481531637046,-0.00011614774690363,-0.00011614774690363,-0.00011614774690363,3353539.5022353,0.0071554997101253
24591759,0.45755796266686,0.0077516308447096,0.0024442629337923,0.00295858483202,0.0023487830788973,-0.00052024156547354,0.00052024168307903,3.8706985623747e-10,-2.5592038679315e-10,7.8770065485922e-10,-6.3931679035502e-10,-0.00028739608442118,0.00028738895298551,-0.0005366240065863,0.00053662469647957,-0.00053662595561358,0.00053662276578737,-0.00028739422784869,0.00028739115321915,-0.00028738919518199,0.00028739556793114,-0.00053662436116943,0.0005366244483793,-0.0005366227693919,0.00053662584008888,-0.00061195497121401,0.00061195530142304,-0.0006119546820393,0.00061195550163566,-0.00061195488820831,0.00061195534680892,-0.00061195575156364,0.00061195449950348,-0.00050026458669886,0.00050026601171911,-0.00050026637614259,0.0005002642304531,-0.00050026525556663,0.00050026528524563,-0.00050026478845115,0.00050026585718782,-0.00028738990643813,0.00028739481786534,-4.4979610591272e-10,2.163233150668e-10,-4.0207711227757e-09,3.7930847942015e-09,-0.00072904109285414,0.00072904085606319,-0.00075065375900747,0.00075066261445544,-0.00069495999531556,0.00069495517901558,-0.00069495813655363,0.00069495708451169,-0.00071300303067482,0.00071299926970054,-0.00071299969041079,0.00071300260981652,-0.00071300224646292,0.0007130000710125,-0.00071300017053713,0.00071300216333274,-0.00075066155843533,0.00075065510667399,-0.00075065505538418,0.00075066139434898,-0.00069495606073357,0.00069495911714916,-0.00069495661398541,0.00069495844013968,-0.00075066311419463,0.0007506535217413,9.3477805200305e-10,1.7623061446136e-10,-0.00049238981569326,0.00049239094304895,3.6023191740889e-09,-2.4219166567189e-09,-0.00039366481128711,0.0003936637235101,-0.00036342344276753,0.00036341713476708,-0.00036342171256386,0.0003634189535265,-0.00039365946281559,0.00039366914044258,-0.00039366191142544,0.00039366676469113,-0.0003634162509707,0.00036342447504479,-0.00036341739697919,0.00036342321224208,-0.00059180434990767,0.00059180733657238,-0.00059180593702564,0.00059180580313373,-0.00059180424684756,0.00059180751735707,-0.00059180675228871,0.00059180496202357,-0.00060376030826163,0.00060375739115935,-0.00060375843975119,0.00060375934727644,-0.00060375739705349,0.00060376027131949,-0.00060375710445162,0.00060376065176303,-0.00039366872082859,0.00039365985269441,0.75661008415805,129487,2954,0.0021661579176202,0.0030327680011074,0.0020496689307775,17.498094456496,-0.00011601524434803,-0.00011601524434803,-0.00011601524434803,3374226.0670095,0.0072752621928476
24791759,0.46483742787194,0.0078622773489851,0.0024786597666787,0.003004294044205,0.0023793235381013,-0.00052791694250229,0.00052791707591734,3.1940606296697e-10,-1.7188780758517e-10,7.453379378935e-10,-5.7957954984553e-10,-0.00028979260285451,0.00028978571997748,-0.00054450386428208,0.00054450463159851,-0.00054450577163843,0.00054450274683772,-0.0002897910039093,0.00028978766862109,-0.00028978581145407,0.0002897922757219,-0.00054450432912407,0.00054450427821784,-0.00054450268290057,0.00054450571960235,-0.0006216378760331,0.00062163813360816,-0.00062163753156831,0.00062163838486199,-0.00062163775674205,0.00062163821262666,-0.00062163856839454,0.0006216374179098,-0.00050691361532876,0.00050691493932349,-0.00050691525430663,0.00050691331845192,-0.0005069143243689,0.00050691418162141,-0.00050691370349591,0.00050691489814309,-0.00028978656988769,0.00028979147993351,-5.3442824784123e-10,3.1435123155771e-10,-3.8308162096944e-09,3.6160968778843e-09,-0.00074126705106313,0.00074126682716893,-0.00076345317163283,0.00076346160942994,-0.00070637655102938,0.00070637171006721,-0.00070637451390679,0.0007063737866694,-0.00072481888401062,0.00072481520424714,-0.0007248156717564,0.00072481840877952,-0.00072481803821797,0.00072481606802926,-0.00072481608983736,0.00072481802820213,-0.00076346055186862,0.00076345453922975,-0.00076345440416118,0.00076346046108022,-0.00070637275508135,0.00070637549937857,-0.00070637312783952,0.00070637502038644,-0.00076346217351607,0.00076345289500117,8.6822806164046e-10,2.5925126444889e-10,-0.00049892897660072,0.00049893012093452,3.6617053234012e-09,-2.46382925427e-09,-0.00039725490522226,0.00039725354180765,-0.00036683851044785,0.00036683217441714,-0.00036683683882745,0.00036683393590976,-0.00039724930983658,0.00039725920761874,-0.00039725185262477,0.00039725673477952,-0.00036683121855173,0.00036683961524901,-0.00036683241405499,0.00036683830325624,-0.00060069534663318,0.00060069832850129,-0.00060069696620391,0.00060069676370623,-0.00060069518956849,0.00060069856529986,-0.00060069773157948,0.00060069597231469,-0.00061303652050861,0.00061303374203981,-0.0006130348094187,0.00061303554221712,-0.00061303372096608,0.00061303650772115,-0.0006130332924103,0.00061303702953167,-0.00039725863155541,0.00039724985060039,0.68707271173232,129487,2954,0.0021981084808692,0.0030835400904527,0.0020768672503611,17.494415107114,-0.00011604467914309,-0.00011604467914309,-0.00011604467914309,3395397.0739874,0.0073860051827306
24991759,0.47248701693231,0.0079805166917124,0.0025154323108156,0.0030531218704033,0.0024119625104934,-0.00053751463090878,0.00053751479249095,5.2653144979622e-10,-3.5162200488029e-10,6.655134069193e-10,-4.7029608817439e-10,-0.00029452121155024,0.00029451475139549,-0.00055454880470301,0.00055454971340852,-0.00055455062823009,0.0005545479036765,-0.00029451935794633,0.0002945169129711,-0.00029451523748213,0.00029452043404802,-0.00055454925446742,0.00055454938432502,-0.00055454794256591,0.00055455048273582,-0.00063321733614643,0.0006332177555467,-0.00063321718454935,0.00063321781235995,-0.00063321722960273,0.00063321782360182,-0.00063321808962427,0.00063321697909589,-0.00051530127804761,0.00051530283702984,-0.0005153030651691,0.00051530106306363,-0.00051530182460885,0.00051530225145254,-0.0005153017987699,0.00051530236749917,-0.0002945153556415,0.0002945202476409,-5.6681235783037e-10,3.5772429587493e-10,-4.751654606287e-09,4.5459348603252e-09,-0.00075551684534982,0.00075551663227434,-0.00077818301382608,0.00077819302744759,-0.0007197624505252,0.00071975715233815,-0.00071976056521538,0.00071975908501749,-0.00073876110574956,0.00073875687887483,-0.00073875737868809,0.00073876063081892,-0.00073876030782829,0.00073875769996343,-0.000738757692338,0.00073876035103493,-0.00077819215091837,0.00077818413814265,-0.00077818399586623,0.00077819211283593,-0.00071975827050042,0.00071976133763268,-0.00071975833984988,0.00071976115280202,-0.00077819357841332,0.00077818267926265,9.0712843531222e-10,-9.1058198074627e-11,-0.00050740627616854,0.00050740710553253,4.2994438201043e-09,-3.4350511493027e-09,-0.00040311962970916,0.0004031161052791,-0.00037239264097187,0.00037238446773281,-0.00037239105215832,0.00037238613617788,-0.00040311286625609,0.00040312287710691,-0.00040311431004972,0.00040312162082265,-0.00037238397770326,0.00037239327727169,-0.00037238482407034,0.00037239233220284,-0.00061147131225967,0.00061147470950105,-0.00061147353421786,0.00061147254340191,-0.00061147134771587,0.00061147475403685,-0.0006114743569594,0.00061147169884024,-0.00062441577708228,0.00062441199152715,-0.00062441390645531,0.00062441393868373,-0.0006244120565966,0.00062441568067086,-0.00062441223501618,0.00062441559628477,-0.00040312306878173,0.00040311271519889,0.69912331786554,129487,2954,0.0022380500791625,0.003142714760026,0.0021121229158805,18.241910091224,-0.00011006471927021,-0.00011006471927021,-0.00011006471927021,3438674.6663924,0.0075213940923933
25191759,0.48105629104216,0.0081166832602424,0.002557727771177,0.00310943319289,0.0024495222961754,-0.00054992728086774,0.00054992746918441,2.8949948704821e-10,-8.9683972767664e-11,6.2191457702481e-10,-3.9874772514836e-10,-0.00030132206702132,0.00030131533850036,-0.00056782248748859,0.00056782362634682,-0.00056782440638229,0.00056782174751792,-0.00030132069514543,0.00030131684622145,-0.00030131530960607,0.00030132170679086,-0.00056782328783218,0.00056782295313506,-0.00056782159798952,0.00056782443786804,-0.00064788164176804,0.00064788181018487,-0.00064788124139653,0.00064788209864283,-0.00064788141754595,0.00064788199258021,-0.00064788218374276,0.00064788122269536,-0.00052639096966241,0.00052639235606834,-0.00052639251027876,0.00052639079937335,-0.00052639182349812,0.00052639147947464,-0.00052639099453474,0.00052639232453278,-0.00030131578005201,0.00030132113554374,-5.1079346855869e-10,3.140703348448e-10,-6.2981831671363e-09,6.1051829737627e-09,-0.00077341143010075,0.00077341122536858,-0.00079678458781736,0.00079679791047427,-0.00073665446962342,0.00073664801051451,-0.00073665243952792,0.00073665010444898,-0.00075618232541539,0.00075617703540454,-0.00075617753029134,0.0007561818987082,-0.00075618147527855,0.00075617791366228,-0.00075617794424847,0.00075618151656559,-0.00079679673565815,0.0007967859058038,-0.00079678580763697,0.00079679670917043,-0.00073664905432663,0.00073665349423903,-0.00073664945393219,0.00073665294801206,-0.00079679836561244,0.00079678423335619,2.700354232723e-10,-2.3240004327938e-10,-0.00051856756304023,0.00051856760613352,5.671873816038e-09,-5.6395776686079e-09,-0.00041152144791413,0.00041151394030275,-0.00038034079124564,0.00038032817589898,-0.00038033912392852,0.00038032992797703,-0.00041151062555159,0.00041152461100453,-0.00041151331325608,0.00041152218072164,-0.00038032834649897,0.00038034073927479,-0.00038032959909703,0.00038033941843997,-0.00062525705296242,0.00062526061344493,-0.00062526037103115,0.00062525734570285,-0.00062525684278383,0.00062526090811192,-0.00062526111900968,0.0006252565839508,-0.00063920111576609,0.00063919561147836,-0.00063919948656568,0.00063919729676411,-0.00063919667812443,0.00063919999113189,-0.00063919613108366,0.00063920064522148,-0.00041152513752327,0.00041151020764152,0.71927450457773,129487,2954,0.0022897015385415,0.0032170203507192,0.0021585370517881,19.912379647531,-9.670096281975e-05,-9.670096281975e-05,-9.670096281975e-05,3497406.9998495,0.0076950938861924
25391759,0.49025429061584,0.0082707234454011,0.0026054468436012,0.0031733197471303,0.0024919568546696,-0.00056237239489585,0.00056237245566048,1.1010711277681e-09,-1.0284669748708e-09,1.0288196886324e-09,-9.4213517657883e-10,-0.00030786406886103,0.00030785664595681,-0.00058170786400098,0.00058170783070937,-0.00058170968790622,0.00058170604837296,-0.00030786010266447,0.0003078608852535,-0.00030785838757587,0.00030786188592187,-0.00058170706300038,0.00058170876983365,-0.00058170659871337,0.00058170899924403,-0.00066263652651522,0.00066263767464347,-0.00066263693364754,0.00066263717133245,-0.00066263683758966,0.00066263732013466,-0.00066263795425846,0.00066263621057046,-0.00053762627516641,0.00053762822226084,-0.00053762883700009,0.00053762568080441,-0.00053762609718245,0.00053762838732846,-0.00053762771058604,0.00053762679724119,-0.00030785815618938,0.00030786208588338,-9.7564650503663e-11,-1.2427054093278e-10,-7.4078376983197e-09,7.1943181030203e-09,-0.00079187129024719,0.00079187106292496,-0.00081630152016342,0.00081631658818668,-0.00075401339615376,0.0007540077389122,-0.0007540129050382,0.00075400825910619,-0.00077400600906484,0.00077400048430356,-0.00077400075499749,0.00077400584411342,-0.00077400565085699,0.00077400085550061,-0.0007740011968434,0.00077400541914298,-0.00081631609205016,0.00081630211435024,-0.00081630234708203,0.00081631579998642,-0.00075400795804849,0.00075401323346192,-0.00075400847171224,0.00075401256089835,-0.00081631674606361,0.00081630140883095,1.2150113724351e-09,-1.0414510050779e-09,-0.00052959773871945,0.00052959791641272,5.3402217493802e-09,-5.1666680666827e-09,-0.00041994979701156,0.00041994277583121,-0.00038815578873171,0.0003881442269966,-0.00038815423010403,0.00038814586301011,-0.00041994156190086,0.00041995102348802,-0.00041994036213605,0.00041995227285709,-0.00038814484167276,0.00038815530352001,-0.00038814479457752,0.00038815523928089,-0.00063905667428994,0.00063906091395312,-0.00063905995852156,0.00063905767836694,-0.0006390572608616,0.00063906040121316,-0.00063906105173965,0.0006390565585615,-0.00065444861522311,0.00065444243419951,-0.00065444592963253,0.00065444521730654,-0.00065444271006104,0.00065444829521333,-0.00065444455193829,0.00065444654109654,-0.00041995306649562,0.00041993950274809,0.75830682211862,129487,2954,0.002341490597673,0.0032936654625281,0.0022044079504426,21.020982058449,-8.7832143532406e-05,-8.7832143532406e-05,-8.7832143532406e-05,3540647.9631349,0.0078707724664804
25591759,0.49939943568908,0.0084286948205077,0.002654262155854,0.0032390712013082,0.0025353614633455,-0.00057299493297032,0.00057299504954595,5.4194727338281e-10,-4.1216242222827e-10,8.8819824944728e-10,-7.4202054564932e-10,-0.00031250287016507,0.00031249557080321,-0.00059398231813132,0.00059398273892332,-0.00059398421637628,0.00059398092983801,-0.00031250038653741,0.00031249832655945,-0.00031249618580465,0.00031250191949987,-0.000593982312666,0.00059398292154436,-0.0005939810279316,0.00059398395157649,-0.00067550670783459,0.00067550728232018,-0.00067550660068097,0.00067550728572609,-0.00067550674308289,0.00067550719697384,-0.00067550766200783,0.00067550629382918,-0.00054728918210226,0.00054729078313107,-0.00054729119645448,0.0005472888109352,-0.00054728977994103,0.00054729020194097,-0.00054728960663181,0.00054729036658888,-0.0003124967095148,0.00031250133414541,-4.2253313190286e-10,2.2217296266556e-10,-5.7888691143016e-09,5.5935820484962e-09,-0.00080857481976356,0.00080857461266759,-0.00083432387018651,0.00083433604254079,-0.00076962709477258,0.00076962137682232,-0.0007696254405529,0.00076962310978478,-0.00078995269671146,0.00078994791874618,-0.00078994834073936,0.0007899523380655,-0.00078995200362388,0.00078994863539203,-0.00078994873530797,0.00078995196734817,-0.00083433514512815,0.0008343249717909,-0.0008343249088015,0.00083433503707363,-0.00076962225206334,0.00076962628434296,-0.00076962260883197,0.00076962576481507,-0.00083433645794339,0.000834323602207,8.1076377163507e-10,-2.7353236896874e-10,-0.00053869685050925,0.00053869739716306,4.7928452892267e-09,-4.2256135450685e-09,-0.00042646888389746,0.00042646381889196,-0.00039406417691169,0.00039405444363913,-0.00039406259515806,0.00039405615140158,-0.00042646093180036,0.00042647179105262,-0.00042646209968195,0.00042647063189715,-0.00039405429120366,0.00039406450534421,-0.0003940550754675,0.00039406358349273,-0.0006509395559508,0.00065094314768383,-0.00065094220402247,0.00065094056435947,-0.00065093962844242,0.00065094316562193,-0.00065094308242259,0.00065093964901643,-0.00066784796152967,0.0006678434817854,-0.00066784610541492,0.00066784544111774,-0.000667843768371,0.00066784763505968,-0.00066784406084861,0.00066784746091083,-0.0004264723377987,0.00042646027871687,0.78253496092022,129487,2954,0.0023857037524878,0.0033630102874481,0.002242250575618,21.046939780272,-8.7624481757825e-05,-8.7624481757825e-05,-8.7624481757825e-05,3556581.5264674,0.0080233928478579
25791759,0.50795046215661,0.0085719039191445,0.0026985333696103,0.0032988094758117,0.0025745610737225,-0.00058107164892967,0.00058107132745273,3.1206074869069e-09,-3.4293789809365e-09,2.1130150547082e-09,-2.4407105902168e-09,-0.00031475129734444,0.00031474008119705,-0.00060324117561829,0.00060323845267981,-0.0006032432549732,0.00060323641341162,-0.00031474068972505,0.00031475107702607,-0.00031474638555374,0.00031474456291,-0.0006032366819022,0.0006032431632534,-0.00060323879832748,0.0006032406796249,-0.0006857515434747,0.00068575510095125,-0.00068575390831117,0.00068575269255898,-0.00068575311986177,0.00068575347332194,-0.00068575537214912,0.00068575129636687,-0.00055441471407074,0.00055441871260808,-0.00055442061949944,0.00055441297205298,-0.00055441263165723,0.00055442078890654,-0.00055441972107063,0.00055441385754008,-0.00031474451411389,0.00031474646724059,8.2498936351624e-10,-1.1241973922325e-09,-6.4737777999291e-09,6.1903937697784e-09,-0.00082227413288134,0.00082227383668789,-0.00084922301119529,0.00084923559974193,-0.0007823214737774,0.00078231942585504,-0.00078232399585466,0.00078231682943876,-0.00080297923467392,0.0008029753479924,-0.00080297500036963,0.00080297965518776,-0.00080297994371243,0.00080297460110243,-0.00080297567422373,0.00080297897881923,-0.00084923641977923,0.00084922239392605,-0.00084922338306437,0.00084923540375258,-0.00078231778253474,0.00078232305429376,-0.00078231895346587,0.00078232165658199,-0.00084923523103184,0.00084922356500112,4.5936807759776e-09,-2.0864540306844e-09,-0.00054527092558166,0.00054527345177261,1.5321636934472e-09,1.1329184462919e-09,-0.00043014526210605,0.00043015129398172,-0.00039735966177534,0.00039736027661129,-0.00039735785785831,0.00039736217018096,-0.00043015107648314,0.00043014565347198,-0.00043014235923982,0.00043015429816084,-0.00039735991778533,0.00039736023000876,-0.00039735716552116,0.00039736275073126,-0.00066025181842744,0.00066025693826254,-0.0006602521759056,0.00066025665329589,-0.00066025432731338,0.00066025449400774,-0.00066025434895476,0.00066025440600704,-0.00067826623380731,0.00067826276436764,-0.00067826060071763,0.00067826860416823,-0.00067825947739629,0.00067826957556413,-0.00067826689857775,0.00067826219506428,-0.000430149432779,0.0004301472258078,0.75922183982237,129487,2954,0.0024193294595475,0.0034198762895306,0.0022695983668824,20.189149575789,-9.4486803393685e-05,-9.4486803393685e-05,-9.4486803393685e-05,3551977.7142784,0.0081422026621164
25991759,0.5161708844834,0.0087066401362227,0.0027402711910532,0.0033549763089814,0.0026113926361881,-0.00058940390029769,0.0005894039711881,2.0743862706881e-10,-1.2173145120978e-10,9.9699286044954e-10,-9.0575829264707e-10,-0.00031773495852664,0.00031772753638136,-0.00061257069006511,0.00061257069396506,-0.00061257256409491,0.00061256908052137,-0.00031773286318204,0.00031772991654612,-0.00031772757588961,0.0003177346080417,-0.00061257061719286,0.00061257112073791,-0.00061256893605644,0.00061257236459464,-0.00069617245783772,0.00069617292739398,-0.0006961722037545,0.00069617306319477,-0.0006961725115908,0.0006961727956722,-0.0006961734033765,0.00069617196428857,-0.00056169377872336,0.00056169507336302,-0.00056169558942397,0.00056169349160706,-0.00056169480820193,0.00056169420302456,-0.00056169365473177,0.00056169525627707,-0.0003177289738451,0.00031773313282869,-4.7214560148185e-10,2.6213040417697e-10,-3.4274224065835e-09,3.2224369470574e-09,-0.00083588789379924,0.00083588767711343,-0.00086388180246665,0.0008638895018212,-0.00079497662259263,0.00079497224118617,-0.00079497471066814,0.00079497437974477,-0.00081605388369673,0.0008160506983483,-0.00081605102431882,0.00081605354207128,-0.00081605323844239,0.00081605136447296,-0.00081605149960843,0.00081605308765496,-0.00086388862367694,0.00086388309290969,-0.00086388292376391,0.00086388840286015,-0.00079497327624384,0.00079497574896358,-0.00079497369185474,0.0007949750241895,-0.00086389001272449,0.00086388158632952,1.1717936000319e-09,7.0466931944629e-10,-0.00055216638726625,0.00055216828731788,3.1094352954633e-09,-1.1037010409923e-09,-0.00043421959791906,0.00043422027466696,-0.00040106286614483,0.0004010594941663,-0.00040106147901368,0.0004010611488434,-0.00043421557821698,0.00043422431942608,-0.00043421750547917,0.0004342221639241,-0.00040105774369718,0.000401064936211,-0.00040105881801012,0.00040106358255627,-0.00066977238142268,0.00066977555643064,-0.00066977343831841,0.00066977461094897,-0.00066977230200636,0.00066977576601067,-0.00066977421377797,0.00066977375101174,-0.00068875569361181,0.0006887547514743,-0.00068875445960291,0.00068875618904363,-0.00068875380427403,0.00068875661166284,-0.00068875338475948,0.00068875723837193,-0.00043422290106301,0.00043421661971379,0.74286645444437,129487,2954,0.002454016249582,0.0034763837598465,0.0022982758332546,19.729969296332,-9.8160245629341e-05,-9.8160245629341e-05,-9.8160245629341e-05,3557860.710614,0.0082630756627597
26191759,0.52427868308377,0.0088424806659938,0.0027823688394161,0.003411567860544,0.0026485439660337,-0.00059847272356144,0.00059847274731838,8.9564025323153e-10,-8.577775742192e-10,1.1799922789282e-09,-1.1388084200962e-09,-0.00032182673314732,0.00032181877326778,-0.00062285587479402,0.00062285547336498,-0.00062285777040274,0.00062285371175994,-0.00032182280841832,0.00032182296299026,-0.00032181997654592,0.00032182468717447,-0.00062285497091875,0.00062285661646458,-0.00062285409444139,0.00062285716443428,-0.00070723801128846,0.00070723918078321,-0.00070723836981805,0.00070723874733135,-0.00070723838520933,0.00070723876197328,-0.00070723955750227,0.00070723762327116,-0.00056976077013305,0.00056976270829136,-0.00056976338942682,0.00056976008704242,-0.00056976090820266,0.00056976246474129,-0.00056976187617186,0.00056976169044968,-0.00032182041864077,0.00032182416219227,-2.0007843763078e-10,-2.2645167815962e-11,-4.2826032209554e-09,4.067399788199e-09,-0.00085015112775522,0.0008501508996793,-0.00087921655686121,0.00087922575508698,-0.0008082919988614,0.00080828802069425,-0.0008082912750695,0.00080828901296586,-0.0008297978475591,0.00082979431346875,-0.00082979448849797,0.00082979768655342,-0.00082979753514815,0.00082979463968636,-0.00082979497876195,0.00082979720795457,-0.00087922524148966,0.00087921743613776,-0.00087921751227565,0.00087922480908685,-0.00080828851713507,0.00080829172473823,-0.00080828888717868,0.00080829096735832,-0.00087922603726954,0.00087921652731186,1.9351231060968e-09,4.0367306119007e-11,-0.0005598292309908,0.00055983123170609,3.1341143358959e-09,-1.0219822942858e-09,-0.00043943956680718,0.00043944075144907,-0.00040572626732042,0.00040572295595345,-0.00040572470553113,0.00040572468192484,-0.0004394368956671,0.00043944344970719,-0.0004394368740532,0.00043944356742113,-0.00040572158807388,0.00040572786053477,-0.00040572176065738,0.00040572749269516,-0.00067994081653163,0.0006799446723786,-0.00067994197369903,0.00067994360560096,-0.000679941346216,0.0006799442497666,-0.00067994308825074,0.00067994242331966,-0.00070006244690204,0.00070006040882136,-0.00070006004473147,0.00070006296376459,-0.00070005902637235,0.00070006381384664,-0.00070006041174665,0.00070006255557751,-0.00043944323009537,0.00043943707503506,0.75895828983779,129487,2954,0.0024917625882529,0.0035355830436869,0.0023301445282901,19.640458716777,-9.8876330265785e-05,-9.8876330265785e-05,-9.8876330265785e-05,3571832.5874222,0.0083929797678887
26391759,0.53242435919828,0.008983566243468,0.0028260645991714,0.0034703627549689,0.0026871388893277,-0.00060830822251205,0.00060830829249987,6.8841696974589e-10,-6.0465942263587e-10,1.0753719974913e-09,-9.8326387589e-10,-0.00032667005541737,0.00032666250274179,-0.00063421765848751,0.00063421751868144,-0.00063421950873599,0.00063421580939132,-0.00032666689195313,0.00032666596991156,-0.00032666321022186,0.00032666857839231,-0.00063421709423628,0.00063421833094832,-0.00063421601825467,0.00063421907020183,-0.0007190647423627,0.00071906568782489,-0.00071906491913822,0.00071906543417205,-0.00071906500217173,0.00071906538787658,-0.00071906604729068,0.00071906436735937,-0.00057872397556661,0.00057872566818836,-0.00057872623641809,0.00057872343971644,-0.00057872432083982,0.00057872526284597,-0.0005787246873433,0.00057872503837564,-0.00032666387121741,0.0003266678474738,-2.6398494435292e-10,4.8944025381856e-11,-4.9646654788481e-09,4.7566209372602e-09,-0.00086536267931723,0.00086536245861686,-0.00089569592415272,0.00089570652047111,-0.00082254833693044,0.00082254366992085,-0.00082254733217623,0.00082254488044718,-0.00084437902245123,0.00084437496984628,-0.00084437519027569,0.00084437883206538,-0.00084437862598611,0.00084437537501957,-0.00084437567490985,0.00084437836712922,-0.00089570587681144,0.00089569689226137,-0.00089569693628042,0.00089570552157182,-0.00082254426599486,0.00082254790834288,-0.00082254464886933,0.00082254720143114,-0.00089570682564808,0.00089569583397951,1.5260834926968e-09,8.3601451639656e-11,-0.00056821179462318,0.0005682134256212,3.983608322423e-09,-2.2669132924763e-09,-0.00044555349660976,0.00044555194715684,-0.00041115610455898,0.00041115042901625,-0.00041115462183896,0.00041115207727617,-0.00044554835684621,0.00044555714327271,-0.0004455488657154,0.00044555671797049,-0.00041114928140132,0.00041115748524336,-0.00041114971389668,0.00041115685113487,-0.00069084470895202,0.00069084870014035,-0.00069084652621541,0.00069084697818737,-0.00069084505035402,0.00069084847028952,-0.0006908475106921,0.00069084592348994,-0.00071236155648632,0.00071235886169084,-0.00071235956062583,0.00071236101228255,-0.00071235789632833,0.00071236250785237,-0.00071235876956008,0.00071236176876289,-0.00044555691085829,0.00044554853141986,0.78422789344629,129487,2954,0.0025326982046948,0.0035987134878545,0.0023650042088122,19.821288198707,-9.7429694410345e-05,-9.7429694410345e-05,-9.7429694410345e-05,3587352.7691531,0.008533098132295
26591759,0.54094378572664,0.0091307421590198,0.0028716498884581,0.0035317695724448,0.0027273226981169,-0.00061961735904868,0.00061961758710992,1.904069869546e-09,-1.6629468591958e-09,6.9149345770247e-10,-4.3711295536691e-10,-0.00033247973740355,0.00033247284993934,-0.00064710586033305,0.00064710685978867,-0.00064710779259108,0.00064710510457732,-0.00033247498803987,0.00033247768170423,-0.00033247575486372,0.00033247589350829,-0.00064710546272058,0.00064710749090286,-0.00064710596035446,0.00064710671435242,-0.00073256564635851,0.00073256744215524,-0.00073256679970223,0.00073256617562541,-0.00073256585486393,0.00073256719680925,-0.00073256736358909,0.00073256567167322,-0.00058913407127043,0.00058913767042403,-0.00058913773386714,0.00058913394813187,-0.00058913394493327,0.0005891377348873,-0.00058913725899183,0.00058913447650117,-0.00033247304471845,0.00033247833472998,-6.3781412733387e-10,4.6276772558349e-10,-5.6486735462535e-09,5.4781510375991e-09,-0.00088249978520875,0.00088249960005414,-0.00091425511909275,0.00091426612315909,-0.0008386946550164,0.00083868954845097,-0.00083869372233841,0.00083869084830124,-0.00086077491740595,0.00086077042223972,-0.00086077089201505,0.00086077451186575,-0.000860774535319,0.00086077087018121,-0.00086077085603201,0.0008607745618646,-0.00091426614733487,0.00091425535088515,-0.00091425501953424,0.00091426601633537,-0.00083869098147432,0.00083869358812439,-0.00083868977262155,0.00083869436729391,-0.00091426657762081,0.0009142547187,2.2241560736984e-09,-1.4980424588532e-09,-0.00057796243898578,0.00057796318237106,5.5839092748789e-09,-4.8020806361851e-09,-0.00045275285686761,0.00045274662246179,-0.00041762517735821,0.00041761442888504,-0.00041762363689707,0.00041761617486672,-0.00045274591587027,0.00045275339201724,-0.0004527420021568,0.00045275764141927,-0.00041761501723901,0.00041762479638151,-0.00041761392700649,0.00041762576731417,-0.00070335597726484,0.00070336146158604,-0.00070335941948453,0.00070335811349874,-0.00070335732651505,0.00070336024829932,-0.00070336090718114,0.00070335658386799,-0.00072638075101665,0.0007263743071269,-0.000726377257667,0.0007263778967737,-0.00072637343914533,0.00072638156605963,-0.00072637731922483,0.00072637784390333,-0.00045275638287592,0.00045274291464862,0.78231018952524,129487,2954,0.0025797647551172,0.0036698298595975,0.0024055501222736,20.595949766134,-9.1232401870925e-05,-9.1232401870925e-05,-9.1232401870925e-05,3610777.7016658,0.0086932136725668
26791759,0.54989225116277,0.0092817463217975,0.0029184562485195,0.0035948716624392,0.0027684184108388,-0.00063140586462968,0.00063140597783532,7.4031313961823e-10,-6.1661262667222e-10,1.0268783794969e-09,-8.8841030541029e-10,-0.0003384147380041,0.0003384072078463,-0.00066031667514234,0.00066031669263324,-0.00066031848292479,0.00066031497282278,-0.00033841159713736,0.00033841067021846,-0.00033840789511305,0.00033841308643685,-0.00066031616027474,0.0006603174099303,-0.00066031520408325,0.00066031807539846,-0.00074672828857157,0.0007467292962344,-0.00074672852966274,0.00074672898050671,-0.0007467285286819,0.00074672903240509,-0.00074672959565405,0.00074672796581637,-0.00059983119326529,0.00059983296263154,-0.0005998334693782,0.00059983066419626,-0.00059983154419952,0.00059983253838628,-0.00059983189889463,0.0005998323201274,-0.00033840829845378,0.00033841258668578,-2.5039937195636e-10,5.3371997915482e-11,-7.3736296496316e-09,7.182732016732e-09,-0.00090038450854075,0.00090038430537591,-0.00093353372392855,0.00093354896865593,-0.00085555764607175,0.00085555135820435,-0.00085555667418719,0.00085555257982271,-0.00087795668353431,0.00087795104218485,-0.00087795132322668,0.00087795651863349,-0.00087795627885664,0.00087795146775911,-0.00087795174568381,0.00087795611225945,-0.00093354827975727,0.00093353455078163,-0.00093353463675439,0.00093354799696788,-0.00085555196858728,0.00085555729396361,-0.00085555233147951,0.00085555652815471,-0.00093354915479267,0.00093353353429078,1.0361758520463e-09,-4.8912785764882e-10,-0.00058811856565608,0.00058811912148777,5.8703076317343e-09,-5.2948179921397e-09,-0.00046014412277559,0.00046013664406652,-0.00042416398548772,0.00042415234721545,-0.00042416248854025,0.00042415394131731,-0.00046013444304071,0.00046014640062068,-0.00046013452364088,0.00046014657240183,-0.00042415232929607,0.00042416417651042,-0.00042415270753394,0.00042416366661171,-0.00071648304073657,0.00071648765134085,-0.00071648648547755,0.00071648429352247,-0.00071648343281015,0.00071648736105109,-0.00071648750703811,0.00071648321765397,-0.00074095877496784,0.00074095337876773,-0.00074095678984879,0.00074095547873956,-0.00074095340128199,0.0007409587558582,-0.0007409543773399,0.00074095786683065,-0.00046014755475075,0.00046013336648665,0.76473034700974,129487,2954,0.0026288249383596,0.0037440419462953,0.002447783338668,21.456825856907,-8.4345393144743e-05,-8.4345393144743e-05,-8.4345393144743e-05,3636648.9399267,0.0088601940662766
26991759,0.55890086175363,0.0094298172503432,0.0029643934985542,0.0036568352757791,0.0028085884760098,-0.00064195707675551,0.0006419571852754,7.5940719254331e-10,-6.3800005287456e-10,1.0473071249274e-09,-9.1500526584957e-10,-0.00034314326807367,0.0003431357735505,-0.00067202610368392,0.00067202608105122,-0.00067202792946471,0.0006720243826008,-0.00034313997060705,0.000343139331183,-0.00034313665631834,0.00034314160368572,-0.00067202556566286,0.00067202684978982,-0.00067202460240647,0.00067202749983673,-0.00075967473010111,0.00075967575533567,-0.00075967497346442,0.00075967541898052,-0.00075967498283103,0.00075967546324146,-0.00075967604185813,0.00075967441101493,-0.00060907875899087,0.00060908053434676,-0.00060908107466962,0.00060907828016718,-0.00060907910464729,0.00060908021180643,-0.0006090795212134,0.00060907980218596,-0.00034313701627938,0.00034314112526641,-3.3859906711916e-10,1.5150632169616e-10,-7.095540490491e-09,6.9142921274158e-09,-0.00091689132269575,0.00091689112806141,-0.00095125205900997,0.00095126669218102,-0.00087106014963308,0.00087105401190639,-0.00087105908987875,0.00087105534005951,-0.00089390713965617,0.00089390167754953,-0.00089390200696439,0.00089390691061246,-0.00089390668816651,0.00089390214949063,-0.0008939023560518,0.00089390658513395,-0.00095126602201161,0.00095125290528822,-0.00095125289290146,0.00095126580955517,-0.00087105481417306,0.00087105962440065,-0.00087105489163394,0.00087105915073837,-0.00095126695882074,0.00095125183553559,1.0713340785528e-09,-4.9124555062019e-10,-0.00059708214935308,0.00059708274012869,5.7200124872728e-09,-5.1062974437248e-09,-0.00046646998169768,0.0004664628923493,-0.00042942619706736,0.00042941490828285,-0.00042942470952741,0.00042941652829422,-0.00046646056165448,0.00046647235467887,-0.00046646072837644,0.00046647235114423,-0.0004294149009599,0.00042942639865398,-0.00042941520488956,0.00042942594749929,-0.00072842134280975,0.0007284259070996,-0.00072842469186465,0.00072842264941504,-0.00072842176213551,0.0007284255994961,-0.0007284257181052,0.00072842156332691,-0.00075419893606285,0.00075419362176438,-0.0007541968888625,0.00075419579059841,-0.00075419358508072,0.00075419895606445,-0.00075419466521295,0.00075419798785325,-0.00046647337121635,0.00046645953371415,0.74558024730789,129487,2954,0.0026727382640274,0.0038125298635954,0.0024850603939116,21.710750841228,-8.2313993270178e-05,-8.2313993270178e-05,-8.2313993270178e-05,3653327.7344974,0.0090112331163928
27191759,0.56782681080446,0.0095723655253578,0.0030086625321877,0.0037165306952178,0.0028471722979523,-0.0006517720230453,0.00065177209353617,1.0713874860977e-09,-9.876007161378e-10,1.1558217988492e-09,-1.064427043808e-09,-0.00034722833737245,0.00034722035250061,-0.00068274800893061,0.00068274775974845,-0.00068274990349957,0.00068274599333646,-0.00034722414677241,0.00034722480993141,-0.00034722192026556,0.00034722600549145,-0.00068274705806227,0.00068274894731117,-0.00068274647917764,0.00068274920328215,-0.00077187988104283,0.00077188121555253,-0.00077188038935252,0.0007718806195174,-0.00077188026972167,0.00077188078617954,-0.00077188148889891,0.00077187957989862,-0.00061738520856506,0.00061738733408353,-0.00061738799854968,0.00061738461624251,-0.00061738529557439,0.00061738726552789,-0.00061738654191281,0.00061738604433116,-0.00034722190147458,0.00034722590914585,-3.0804572632628e-10,1.2312903367636e-10,-6.6052899114567e-09,6.4264176987623e-09,-0.00093246650693297,0.00093246631474237,-0.00096782174611411,0.0009678353015485,-0.00088566511490642,0.00088565952838712,-0.00088566425617753,0.00088566061768877,-0.0009090748372184,0.00090906977296749,-0.00090907007124976,0.00090907462139204,-0.00090907445394241,0.0009090701713889,-0.00090907039022215,0.00090907432764826,-0.00096783479680691,0.00096782246841811,-0.00096782246045512,0.00096783455123846,-0.00088566024959173,0.00088566462784841,-0.00088566023772962,0.00088566427711269,-0.00096783556632782,0.00096782157142312,1.5471472655807e-09,-6.8010860497617e-10,-0.00060541210004476,0.00060541298127974,5.1747123986177e-09,-4.2501915016296e-09,-0.00047231516275065,0.00047230991768869,-0.00043403689072994,0.00043402723236191,-0.00043403534538162,0.00043402890791358,-0.00047230779293106,0.00047231733988815,-0.00047230679923473,0.00047231848681863,-0.00043402713517183,0.00043403718247816,-0.00043402705935266,0.00043403710775786,-0.00073968467005601,0.00073968931999324,-0.00073968760974815,0.00073968647355136,-0.00073968535233906,0.00073968874920773,-0.00073968879543376,0.00073968522387002,-0.00076660070291358,0.00076659564762361,-0.00076659816812203,0.00076659830964296,-0.00076659516776831,0.00076660117076449,-0.00076659706194862,0.00076659938629477,-0.00047231871316006,0.00047230640726743,0.7251022243709,129487,2954,0.0027135865021561,0.003877147846616,0.0025197038669784,21.737032218017,-8.2103742255866e-05,-8.2103742255866e-05,-8.2103742255866e-05,3668393.4316342,0.009152639063802
27391759,0.57671167043136,0.0097173399943368,0.0030536597034857,0.003777228590164,0.0028864517006871,-0.0006618315618209,0.00066183169033297,4.3554389084487e-10,-2.9305503695802e-10,1.0027398662207e-09,-8.4727535836351e-10,-0.00035190951513892,0.00035190231729805,-0.00069396108148726,0.00069396112406811,-0.00069396284456589,0.00069395951141864,-0.00035190701123727,0.00035190506135398,-0.00035190252911896,0.0003519085933704,-0.00069396080111298,0.00069396164629675,-0.00069395949027003,0.00069396264413559,-0.00078423005166134,0.00078423078459948,-0.00078423001969673,0.00078423072124627,-0.00078423021470342,0.00078423057596558,-0.00078423110008357,0.00078422970193685,-0.00062595372799641,0.00062595504719443,-0.00062595551573497,0.00062595332644315,-0.00062595425732023,0.00062595453137889,-0.00062595388131208,0.00062595492477751,-0.00035190345312632,0.00035190753955098,-5.291154087257e-10,3.6484894567398e-10,-5.906972523103e-09,5.7475938696879e-09,-0.00094824683376642,0.00094824666068711,-0.00098458174053285,0.00098459411872749,-0.00090046973572247,0.00090046386430073,-0.00090046811024544,0.00090046573342662,-0.00092446828016032,0.00092446343905498,-0.00092446384878863,0.00092446792262139,-0.00092446765353277,0.00092446408615027,-0.00092446413284247,0.00092446767778449,-0.00098459331971017,0.00098458281461518,-0.00098458260964329,0.00098459322566975,-0.00090046502021806,0.00090046880632104,-0.00090046488055077,0.00090046861813984,-0.0009845945553294,0.00098458147686061,9.1140909599685e-10,1.0547628593363e-11,-0.00061404692821609,0.00061404786757444,5.1442318107751e-09,-4.1566918507665e-09,-0.00047881511697808,0.00047880964868573,-0.00043921115929669,0.00043920183131407,-0.00043920976021514,0.00043920336616253,-0.00047880654688438,0.00047881824426729,-0.00047880776205071,0.00047881722173373,-0.00043920121887239,0.00043921195841405,-0.00043920190162438,0.00043921113618249,-0.00075112528063059,0.00075112940552875,-0.00075112807482521,0.00075112670581001,-0.00075112542941219,0.00075112937735036,-0.00075112893018776,0.00075112578971991,-0.00077934914369591,0.00077934519899386,-0.00077934761695693,0.00077934683422115,-0.00077934494733579,0.00077934935751058,-0.00077934524451525,0.00077934919091104,-0.00047881828937943,0.00047880652631125,0.74094224944197,129487,2954,0.0027554483108196,0.0039426136400527,0.0025556131256043,21.838585739904,-8.1291314080767e-05,-8.1291314080767e-05,-8.1291314080767e-05,3686691.5556977,0.0092972195096321
27591759,0.58572078725736,0.0098662397272489,0.0030998360546952,0.0038396130106456,0.0029267906619082,-0.00067260738371839,0.00067260746152429,1.6538170295985e-09,-1.5625847100656e-09,1.1585875765036e-09,-1.0587982744395e-09,-0.00035717787496599,0.00035716980180648,-0.00070607893263653,0.00070607871774522,-0.00070608085021055,0.00070607692970344,-0.00035717246345862,0.00035717542862844,-0.00035717250106132,0.00035717430358265,-0.00070607761490561,0.00070608026905311,-0.00070607779830755,0.00070607977186908,-0.00079734891589843,0.00079735075308082,-0.00079734992157794,0.00079734966338012,-0.00079734943298612,0.00079735019599616,-0.00079735088935165,0.00079734875128442,-0.00063528972712377,0.00063529259195011,-0.00063529325121541,0.00063528913796968,-0.00063528939531262,0.00063529292421513,-0.00063529220767109,0.00063529016945852,-0.0003571712877152,0.00035717536571596,-3.3116426682073e-10,1.6022717227281e-10,-6.3482271288129e-09,6.1832130087928e-09,-0.00096498382953575,0.00096498365115763,-0.0010024230377738,0.0010024357238172,-0.00091620678006654,0.00091620170869306,-0.00091620626422206,0.00091620245173265,-0.0009407345404574,0.00094072975318994,-0.0009407300555031,0.0009407343103825,-0.00094073426256543,0.00094073004934005,-0.00094073022658022,0.00094073416519908,-0.0010024355991011,0.0010024234135016,-0.0010024233481935,0.0010024353602456,-0.00091620246765385,0.00091620624360905,-0.00091620200037071,0.0009162063571647,-0.0010024360071734,0.0010024228753605,2.212432198068e-09,-1.1741790259934e-09,-0.00062336198085835,0.00062336303757812,5.0274643271364e-09,-3.9130623136434e-09,-0.00048600839020403,0.00048600389393713,-0.00044502329465884,0.00044501427055415,-0.00044502171523604,0.00044501597191842,-0.00048600263983433,0.00048600965738985,-0.00048599943660772,0.00048601306437185,-0.00044501437864621,0.00044502336640688,-0.00044501354243089,0.00044502406865331,-0.00076332283567688,0.00076332799309741,-0.00076332573876226,0.0007633251809578,-0.00076332401749742,0.00076332692285446,-0.00076332717533772,0.0007633236839501,-0.00079298038166422,0.00079297486012427,-0.00079297705819723,0.00079297830060408,-0.00079297383985478,0.00079298138592947,-0.00079297726091314,0.0007929780713685,-0.00048601200075451,0.00048600032376967,0.75071708589585,129487,2954,0.0028002896153252,0.0040120431896652,0.0025943490934865,22.226704792296,-7.8186361661634e-05,-7.8186361661634e-05,-7.8186361661634e-05,3707321.4846164,0.0094516838078073
27791759,0.59473447989502,0.010017289870944,0.0031466341711622,0.0039029683200863,0.0029676873796955,-0.00068313572096097,0.00068313582720245,5.1204458659524e-10,-3.9226280774343e-10,1.0872713704295e-09,-9.5674912502979e-10,-0.00036224528866211,0.00036223761108277,-0.00071807640749362,0.00071807627696749,-0.0007180782127458,0.00071807462083267,-0.00036224239023241,0.0003622407509558,-0.00036223803796381,0.00036224414823207,-0.00071807592192782,0.00071807701129876,-0.00071807468124535,0.00071807792462715,-0.00081019612209283,0.00081019696485247,-0.0008101961610164,0.00081019683367008,-0.00081019634844007,0.00081019669251166,-0.00081019730139521,0.00081019575575987,-0.00064443724263688,0.0006444386635376,-0.00064443923687244,0.00064443677214701,-0.00064443774181049,0.00064443820000674,-0.00064443751090253,0.00064443845329282,-0.00036223896804445,0.00036224307900947,-4.3165747538102e-10,2.7255620324949e-10,-6.1080188519521e-09,5.9539476033112e-09,-0.00098154064526053,0.00098154047798059,-0.0010201768824371,0.0010201897031493,-0.00093176046767717,0.00093175464376014,-0.00093175901063319,0.00093175634094326,-0.00095677783885377,0.00095677294349512,-0.00095677329288759,0.00095677754978281,-0.00095677727357449,0.00095677352622151,-0.00095677362507375,0.00095677725007186,-0.0010201889249178,0.0010201779369874,-0.0010201777891105,0.0010201887684025,-0.00093175560552253,0.00093175973240093,-0.00093175566135217,0.00093175932244851,-0.0010201900708841,0.0010201766846514,1.0631884637487e-09,-2.3701557871176e-11,-0.00063237980403666,0.00063238086270787,5.1459697998976e-09,-4.0292639939383e-09,-0.0004929660186147,0.00049296103672265,-0.00045058768502587,0.00045057856886178,-0.00045058623910588,0.00045058014108311,-0.00049295789073383,0.00049296919502126,-0.0004929587130305,0.00049296855153014,-0.00045057788068463,0.00045058855842115,-0.0004505784976348,0.00045058780217716,-0.00077523304644788,0.00077523731846693,-0.00077523580664554,0.00077523465026307,-0.00077523326135525,0.0007752372164159,-0.00077523672256216,0.00077523367402717,-0.0008064065278109,0.00080640259430832,-0.00080640486731814,0.00080640437403716,-0.0008064022205635,0.00080640688297971,-0.00080640268451215,0.00080640653463619,-0.00049296940837669,0.00049295768209737,0.76134970350162,129487,2954,0.0028441037324903,0.0040807190368276,0.0026318485542819,22.425941338488,-7.6592469292099e-05,-7.6592469292099e-05,-7.6592469292099e-05,3722316.0018912,0.0096031255388858
27991759,0.60373366884752,0.010170383617093,0.0031940319883483,0.0039672356128784,0.0030091160158667,-0.00069371811295726,0.00069371821821522,7.8067138028991e-10,-6.6117943642207e-10,1.1087735025541e-09,-9.7868746509327e-10,-0.00036742569896309,0.00036741802497939,-0.00073026742637621,0.00073026727647048,-0.00073026925593461,0.00073026559299034,-0.00036742220194498,0.00036742175999211,-0.00036741895980515,0.0003674239648315,-0.00073026674637141,0.00073026820048004,-0.00073026583005919,0.00073026879740605,-0.00082307374987214,0.00082307482977018,-0.00082307401404909,0.0008230744760722,-0.00082307405294629,0.00082307448096049,-0.00082307510526844,0.00082307344466514,-0.00065370747967917,0.00065370920288184,-0.00065370978628426,0.00065370698513368,-0.0006537077268854,0.00065370897018132,-0.00065370827703091,0.00065370846720803,-0.00036741938335741,0.00036742339806618,-4.2213683895051e-10,2.6747214509339e-10,-6.1154125896373e-09,5.9660701108593e-09,-0.00099822748544966,0.00099822732255481,-0.0010381522205252,0.0010381649136687,-0.00094743575211893,0.00094743017472809,-0.00094743455551766,0.00094743161376033,-0.00097289125995681,0.00097288642206795,-0.00097288676316492,0.00097289097859292,-0.00097289075951092,0.00097288693798162,-0.00097288703824312,0.00097289073687802,-0.0010381642976452,0.0010381531221211,-0.0010381529701719,0.0010381641336929,-0.0009474311161161,0.00094743503816381,-0.00094743094392276,0.00094743485565815,-0.0010381652729426,0.0010381520405719,1.3598875520158e-09,-2.5590543835643e-10,-0.00064139731157552,0.00064139843642785,5.1424548899669e-09,-3.9556796040343e-09,-0.00049993385240914,0.00049992898977579,-0.00045619734704365,0.0004561883417943,-0.00045619586083633,0.00045618994733807,-0.00049992618290894,0.00049993669235466,-0.0004999262226994,0.00049993683852766,-0.0004561877816873,0.00045619808645855,-0.00045618803548948,0.00045619769878374,-0.00078714926425575,0.00078715380508989,-0.00078715205457483,0.00078715110493745,-0.00078714970797753,0.00078715347230969,-0.00078715308722185,0.00078715001211906,-0.00081995714340221,0.00081995286395669,-0.00081995505494877,0.00081995507153196,-0.00081995228051514,0.00081995770570403,-0.00081995346293736,0.00081995663967037,-0.00049993723410736,0.00049992566029357,0.77289277905333,129487,2954,0.002888143922358,0.0041499280284683,0.0026693459644688,22.602805452334,-7.5177556381325e-05,-7.5177556381325e-05,-7.5177556381325e-05,3734876.2842119,0.0097553547211932
28191759,0.61289879063836,0.010328846087475,0.0032430616360379,0.0040338122858662,0.0030519721655712,-0.00070519040723672,0.00070519056233966,5.5784932351256e-10,-3.8879254421348e-10,9.9622782112979e-10,-8.1241861003678e-10,-0.00037330535107714,0.00037329814941625,-0.00074354608501809,0.00074354619386873,-0.00074354784978098,0.00074354458886765,-0.00037330253146708,0.00037330113047486,-0.00037329859245891,0.00037330410099983,-0.0007435457580104,0.00074354676277823,-0.00074354462110567,0.00074354759369147,-0.00083689533118948,0.00083689616645824,-0.00083689538651662,0.00083689600786118,-0.00083689551064393,0.00083689593812456,-0.00083689641434306,0.00083689504023118,-0.00066391857178548,0.00066392001252515,-0.00066392044296714,0.00066391821139093,-0.00066391898112032,0.00066391961676275,-0.00066391895783682,0.00066391966202207,-0.00037329917511425,0.00037330332509819,-5.280234149236e-10,3.8949828792555e-10,-6.3312817137779e-09,6.1969827536954e-09,-0.0010160686162937,0.0010160684673719,-0.0010574126671431,0.0010574258262116,-0.00096423160706391,0.00096422559070841,-0.00096423009917484,0.00096422734721854,-0.000990058893793,0.00099005381931236,-0.00099005422554171,0.00099005855135065,-0.00099005829140123,0.00099005444805219,-0.00099005445823141,0.00099005835411445,-0.0010574251033807,0.0010574136695891,-0.0010574134100671,0.0010574250150182,-0.00096422674770854,0.0009642306915481,-0.0009642264431205,0.00096423064650577,-0.001057426234199,0.0010574124169971,9.9367315802593e-10,-1.305835555451e-10,-0.00065122263670681,0.00065122351989017,5.6669315715128e-09,-4.73603338517e-09,-0.0005076491375272,0.00050764251495948,-0.00046255832373686,0.00046254785855158,-0.00046255692065251,0.00046254938610734,-0.0005076397345308,0.00050765189060544,-0.00050764038155031,0.00050765147797642,-0.00046254738527895,0.00046255896168765,-0.00046254789003649,0.00046255834135361,-0.00079995699157498,0.00079996152367062,-0.00079996018386235,0.00079995841994347,-0.00079995723371814,0.00079996139799426,-0.00079996107676258,0.00079995747309731,-0.00083459107028379,0.00083458651950238,-0.00083458938287705,0.00083458831131429,-0.00083458624794399,0.00083459130654388,-0.00083458686619772,0.00083459081169615,-0.00050765225700598,0.00050763941056484,0.78542544213399,129487,2954,0.0029358860923713,0.0042239182321717,0.0027101992267889,23.094189963708,-7.1246480290337e-05,-7.1246480290337e-05,-7.1246480290337e-05,3751626.9771714,0.0099195641271639
28391759,0.62198114559444,0.010488591713473,0.003292457690475,0.0041010000854154,0.003095133937583,-0.00071596775254112,0.00071596776860118,1.4241124598419e-09,-1.3936228050005e-09,1.3906942736122e-09,-1.3558743595131e-09,-0.00037843789702714,0.00037842875540629,-0.00075623423879408,0.00075623358922776,-0.00075623630425087,0.00075623165341887,-0.00037843246055531,0.00037843446944024,-0.0003784310716877,0.00037843476774992,-0.00075623269169178,0.00075623538366894,-0.00075623245121057,0.00075623529104554,-0.00084998518624982,0.00084998691653864,-0.00084998597675789,0.00084998604989747,-0.00084998578417464,0.00084998627031584,-0.00084998721035441,0.00084998487486412,-0.0006734979276257,0.0006735004112483,-0.00067350132737165,0.00067349712605441,-0.00067349767964574,0.0006735006672978,-0.00067349985093507,0.00067349858701232,-0.00037843085911011,0.00037843486815227,-1.3575036525776e-10,-3.1770643406593e-11,-6.9914295659494e-09,6.8312692746481e-09,-0.0010332237541664,0.001033223580005,-0.0010760724521788,0.0010760868232033,-0.000980351212522,0.00098034583100479,-0.0009803507654317,0.00098034642153974,-0.001006482136346,0.0010064769723867,-0.0010064771512527,0.0010064820417978,-0.0010064818828393,0.0010064772232459,-0.0010064775390526,0.0010064816842483,-0.0010760864008468,0.0010760731186819,-0.001076073220948,0.0010760860709837,-0.00098034616491675,0.00098035101957955,-0.00098034636861337,0.00098035050788668,-0.0010760869881956,0.0010760724556938,2.1595865954501e-09,-8.3566545978427e-10,-0.00066031321095996,0.00066031455637361,4.9980485902081e-09,-3.5780026787977e-09,-0.00051473005583155,0.0005147264920868,-0.00046822380483215,0.00046821530944904,-0.00046822207689687,0.00046821712838697,-0.00051472421059653,0.00051473240736147,-0.000514722228198,0.00051473457428768,-0.00046821495859749,0.00046822432575371,-0.00046821454481278,0.00046822460175144,-0.00081201845187864,0.00081202355339993,-0.0008120211378267,0.00081202095693115,-0.00081201941185196,0.00081202269466495,-0.00081202254258645,0.00081201948395893,-0.00084858698882875,0.00084858195464114,-0.00084858377036154,0.00084858530641318,-0.00084858094628633,0.0008485879966039,-0.00084858369534074,0.00084858534184552,-0.00051473405440581,0.00051472261812038,0.79904055865508,129487,2954,0.0029807405408815,0.0042950556343703,0.0027480004880677,23.181812224402,-7.0545502204783e-05,-7.0545502204783e-05,-7.0545502204783e-05,3758639.1825058,0.010074919089016
28591759,0.63089681059872,0.010647170742259,0.0033415021424497,0.0041677143711423,0.0031379542286668,-0.00072638969938202,0.00072638975734174,9.7717741328314e-10,-9.0656679927128e-10,1.2596334170343e-09,-1.1857574927608e-09,-0.00038326444804204,0.00038325618601606,-0.0007685982895128,0.00076859778088445,-0.00076860016828166,0.00076859604998033,-0.00038326022215969,0.00038326073005384,-0.00038325767544314,0.00038326230679065,-0.00076859719444942,0.00076859917545233,-0.00076859647492439,0.00076859948211653,-0.00086268982063811,0.00086269116250712,-0.00086269027483463,0.00086269061694082,-0.00086269027090675,0.00086269066178636,-0.00086269145828177,0.00086268952505127,-0.00068276843119712,0.00068277032810198,-0.00068277111831952,0.00068276787484481,-0.00068276854895748,0.00068277035187098,-0.00068276962115744,0.0006827693020731,-0.0003832580049521,0.00038326180125408,-3.4495885922893e-10,2.0147749122888e-10,-6.4317196584676e-09,6.2896146223554e-09,-0.0010499806819976,0.001049980530808,-0.001094384740157,0.0010943980529116,-0.00099611087893396,0.00099610535405765,-0.00099610985334476,0.00099610654959931,-0.0010224542410886,0.0010224493396812,-0.0010224496006487,0.0010224540499035,-0.0010224538316586,0.0010224497578451,-0.0010224499067086,0.0010224537757256,-0.0010943975120887,0.0010943855363818,-0.0010943854869409,0.0010943973302476,-0.00099610611901677,0.00099611026785761,-0.00099610599495933,0.00099611000321163,-0.0010943983531152,0.0010943846025438,1.7147556763911e-09,-3.533525093528e-10,-0.00066902329594047,0.00066902467775118,5.1455644766219e-09,-3.6778698807909e-09,-0.00052140006083158,0.0005213957989119,-0.00047353987417713,0.00047353139655491,-0.00047353836154096,0.00047353303434929,-0.00052139314439097,0.00052140280673934,-0.00052139224376606,0.00052140390301617,-0.00047353069937476,0.00047354079993999,-0.00047353071227589,0.00047354061165778,-0.00082368042977355,0.00082368532857495,-0.00082368318882622,0.00082368267744076,-0.00082368106102968,0.00082368480322157,-0.00082368432972595,0.0008236814687864,-0.0008622608772749,0.00086225663424759,-0.00086225850506644,0.00086225918103055,-0.00086225573860742,0.00086226184491467,-0.00086225742005531,0.00086226024901636,-0.00052140361993758,0.00052139229412029,0.8078767118434,129487,2954,0.0030241190613884,0.0043645348214705,0.0027842192401771,23.131395478367,-7.0948836173067e-05,-7.0948836173067e-05,-7.0948836173067e-05,3760558.8035698,0.010225533345138
28791759,0.64006817778262,0.010806373647295,0.00339081491697,0.0042347015239173,0.0031808572064074,-0.00073823365586492,0.00073823379444409,1.1348027957741e-09,-9.8195388217412e-10,1.0807072629879e-09,-9.1401836066061e-10,-0.0003889866328423,0.00038897879640684,-0.0007822045762549,0.00078220464830802,-0.00078220651268591,0.00078220288586169,-0.00038898262557145,0.00038898309302586,-0.00038898033552383,0.00038898431457594,-0.00078220389016683,0.00078220562245553,-0.00078220328370891,0.00078220585443631,-0.00087703159070816,0.00087703295189826,-0.00087703213204173,0.00087703230718122,-0.00087703189695025,0.00087703258728799,-0.00087703315157197,0.00087703136477345,-0.00069330217755658,0.00069330451721297,-0.00069330501973964,0.00069330180472886,-0.00069330237070719,0.00069330437171339,-0.00069330371297856,0.00069330306358696,-0.00038898004305608,0.00038898449832603,-5.0310830979825e-10,3.7332438415956e-10,-6.8532302521083e-09,6.7254271581992e-09,-0.0010684627023243,0.0010684625611436,-0.0011143771051994,0.0011143911703527,-0.0010135841965218,0.0010135781070275,-0.0010135829239365,0.0010135796078461,-0.0010401220012505,0.0010401167079402,-0.0010401170700734,0.001040121710903,-0.0010401215043459,0.0010401172157291,-0.0010401172682956,0.0010401215566009,-0.0011143906396249,0.0011143779031225,-0.0011143777240336,0.001114390579523,-0.0010135792021016,0.0010135833086849,-0.0010135787325261,0.0010135834257622,-0.0011143915662766,0.0011143769032512,1.595397935475e-09,-7.0623380526997e-10,-0.00067909908050535,0.00067909998845954,6.0515717402292e-09,-5.0929082330832e-09,-0.0005290364097311,0.00052902946344346,-0.00047987168350615,0.00047986038486563,-0.0004798701178266,0.00047986207156176,-0.00052902735509107,0.00052903857321212,-0.00052902622611899,0.00052903987487561,-0.00047986026408607,0.00047987200751425,-0.00047986016762202,0.00047987194995519,-0.00083693858032485,0.00083694389010417,-0.00083694211298923,0.00083694045100462,-0.00083693931136357,0.00083694326988993,-0.00083694333851528,0.00083693916345074,-0.0008774682792767,0.00087746256060131,-0.00087746566987476,0.00087746530787396,-0.00087746206189443,0.00087746875875692,-0.00087746404500231,0.00087746692029515,-0.00052904007709374,0.0005290258781661,0.78846979319317,129487,2954,0.0030734102402779,0.0044411619496705,0.0028261114133124,23.813076510636,-6.549538791491e-05,-6.549538791491e-05,-6.549538791491e-05,3774754.0207264,0.010395102088423
28991759,0.64891205197502,0.01095323646098,0.0034363774772749,0.0042965693897994,0.003220289593906,-0.00074757868426611,0.0007475789670025,1.0449469266181e-09,-7.4701108860342e-10,7.0322317277949e-10,-3.8340421098512e-10,-0.00039246080209555,0.00039245425816752,-0.00079272199296608,0.00079272299565058,-0.00079272381328951,0.00079272133382229,-0.00039245786246131,0.00039245735440208,-0.00039245541512155,0.00039245884394964,-0.00079272215727391,0.00079272306899109,-0.00079272150772236,0.00079272341847817,-0.00088880557868429,0.00088880668455012,-0.00088880601325401,0.00088880613591922,-0.00088880559783741,0.00088880662320217,-0.00088880672334064,0.00088880549012665,-0.00070110797245617,0.00070111041018796,-0.00070111043051212,0.00070110797663108,-0.00070110840958351,0.00070110995883627,-0.00070110945639311,0.00070110896916642,-0.00039245441651259,0.00039245959520429,-1.0419798461868e-09,9.6995789677559e-10,-5.2519370780156e-09,5.1774431436659e-09,-0.0010839077274312,0.0010839076383706,-0.0011309597213808,0.0011309703380204,-0.0010281201068111,0.0010281139985198,-0.0010281177952751,0.001028116644996,-0.0010550153680223,0.0010550107684647,-0.0010550114410289,0.0010550147205609,-0.0010550145108925,0.0010550116716078,-0.0010550112534181,0.0010550149630784,-0.0011309698279145,0.0011309606181398,-0.0011309598972673,0.0011309700973228,-0.0010281161934133,0.0010281182030571,-0.0010281145809131,0.0010281194407032,-0.001130971102007,0.0011309592316027,1.3366882476651e-09,-6.4369406984169e-10,-0.00068679492457761,0.00068679564068271,6.3257828955644e-09,-5.5628081616541e-09,-0.00053414324929387,0.00053413518916879,-0.00048384329981188,0.0004838311912213,-0.00048384183801016,0.00048383276441429,-0.00053413323549299,0.00053414515532549,-0.0005341323477878,0.00053414637226278,-0.00048383115248618,0.00048384349932843,-0.0004838311601886,0.00048384340230062,-0.00084773416419152,0.00084773942724389,-0.00084773794558177,0.00084773573311683,-0.0008477347981175,0.00084773891097898,-0.00084773906892113,0.00084773457001136,-0.00088975262112471,0.00088974677729829,-0.00088975032680879,0.00088974916646499,-0.00088974644745017,0.00088975291650286,-0.00088974813128679,0.00088975137075762,-0.00053414661447197,0.00053413185980417,0.7549051123566,129487,2954,0.0031123087412319,0.0045051904141413,0.0028581149008213,23.508897090277,-6.7928823277782e-05,-6.7928823277782e-05,-6.7928823277782e-05,3773357.6071116,0.01053147248372
29191759,0.65783665744397,0.011097976394949,0.0034813235010669,0.0043575423337595,0.0032591105601228,-0.0007581409916742,0.00075814100446421,9.8592837718249e-10,-9.5903358541757e-10,1.4680616924877e-09,-1.43881856011e-09,-0.0003972775134057,0.0003972685905421,-0.00080431094554932,0.00080430995080699,-0.0008043128104203,0.00080430817022317,-0.00039727253746341,0.0003972737110334,-0.00039727012698906,0.00039727499440589,-0.00080430932841998,0.00080431178455008,-0.0008043086988429,0.00080431209960485,-0.00090183568096489,0.00090183716459344,-0.00090183618526824,0.00090183660285739,-0.00090183630018758,0.00090183651484418,-0.00090183749606181,0.00090183533448297,-0.00070997158053548,0.00070997325379825,-0.00070997423783918,0.00070997067876891,-0.00070997136052165,0.00070997343213494,-0.00070997257918134,0.00070997237934874,-0.00039727079968496,0.00039727411166873,-1.1425411986507e-10,-2.0929867011341e-11,-7.7236124134425e-09,7.5933328851868e-09,-0.0011005358157929,0.001100535669909,-0.0011484428009718,0.0011484587404516,-0.0010438605098182,0.0010438545153263,-0.0010438600326427,0.0010438552631898,-0.0010712454021627,0.0010712397192862,-0.0010712399094726,0.0010712453307155,-0.0010712451095951,0.0010712400264588,-0.0010712402966001,0.001071244963245,-0.0011484581701909,0.0011484435733739,-0.0011484436339323,0.0011484578361305,-0.0010438548820086,0.0010438604310665,-0.0010438551288105,0.0010438597185474,-0.0011484588228279,0.0011484427867013,1.7601426070942e-09,-3.7627669463027e-10,-0.00069579677123813,0.00069579817873215,5.1319829987289e-09,-3.6377928339995e-09,-0.00054062208481119,0.00054061824989479,-0.00048915952072214,0.00048915108995934,-0.00048915795012943,0.00048915271999333,-0.00054061549507129,0.00054062481088191,-0.00054061447347262,0.00054062609033112,-0.00048915038828677,0.00048916036107991,-0.00048915035438273,0.00048916030011657,-0.00085981438296534,0.00085981933622996,-0.00085981711824776,0.00085981667607459,-0.00085981505332686,0.00085981875413494,-0.00085981828862991,0.00085981545454639,-0.00090325272064583,0.00090324838975462,-0.00090325025473585,0.00090325097248895,-0.00090324742657442,0.00090325368965901,-0.00090324921881711,0.00090325197319557,-0.00054062570847267,0.00054061468631068,0.73755968337547,129487,2954,0.0031562596501462,0.0045741204756214,0.0028955456047972,23.915498637812,-6.4676010897506e-05,-6.4676010897506e-05,-6.4676010897506e-05,3790883.5222913,0.01068340706648
29391759,0.66687094180564,0.011237243187072,0.0035246003711136,0.0044163043808335,0.0032963384351253,-0.00076852879208875,0.00076852901669023,9.6946446907006e-10,-7.3017169202073e-10,8.1928346304082e-10,-5.6045058035477e-10,-0.00040172715681305,0.00040172042414749,-0.00081522687526449,0.00081522752850955,-0.00081522870575302,0.00081522590697657,-0.00040172408781599,0.00040172368930805,-0.00040172170984448,0.00040172543766289,-0.00081522681173019,0.00081522789021093,-0.00081522607409637,0.00081522825886751,-0.0009148233591376,0.00091482447381999,-0.0009148237535328,0.00091482394337975,-0.00091482345839561,0.0009148243054888,-0.00091482457771297,0.00091482320860882,-0.00071840183556071,0.0007184040363638,-0.00071840425590223,0.00071840175384796,-0.00071840224579877,0.00071840372462068,-0.00071840313450157,0.00071840278295701,-0.00040172109545853,0.00040172584605871,-8.2614600404196e-10,7.4752502779264e-10,-6.3487129276192e-09,6.2691315672751e-09,-0.0011169832427471,0.0011169831491119,-0.0011654589470005,0.0011654718074473,-0.0010595115919784,0.0010595052732714,-0.0010595096820948,0.0010595074797564,-0.0010874524355989,0.0010874473043383,-0.0010874478639835,0.001087451933694,-0.0010874517047026,0.0010874480663913,-0.0010874478059266,0.001087452041911,-0.001165471257857,0.0011654598047916,-0.001165459279471,0.0011654714426831,-0.0010595070485279,0.0010595100959142,-0.0010595058516765,0.0010595109124301,-0.0011654724143507,0.0011654585575663,1.1841598283183e-09,-7.0904611905424e-10,-0.00070470297442752,0.00070470346798467,6.8132583167602e-09,-6.2905599438661e-09,-0.00054665992648877,0.00054665022092226,-0.00049416568448042,0.0004941521117069,-0.0004941642305732,0.00049415366852289,-0.00054664850784718,0.00054666163726382,-0.00054664778148212,0.0005466626958261,-0.00049415228056386,0.00049416567721068,-0.00049415233091991,0.00049416552743289,-0.00087190122268642,0.00087190664908712,-0.00087190540277106,0.00087190255425273,-0.00087190183729328,0.00087190614401385,-0.00087190649476585,0.00087190141683131,-0.00091646729127554,0.00091646088700429,-0.00091646506229281,0.00091646323173831,-0.00091646079767145,0.00091646735625114,-0.00091646239338622,0.00091646590612745,-0.00054666324518119,0.00054664702547081,0.70228761577229,129487,2954,0.0031994823694423,0.0046422974109274,0.0029325754793233,24.389100808941,-6.0887193528471e-05,-6.0887193528471e-05,-6.0887193528471e-05,3812607.249744,0.01083346409757
29591759,0.67603181761148,0.011372326138594,0.0035665852830685,0.0044733854748933,0.0033323553806322,-0.000778778358297,0.00077877846416963,9.8880026147781e-10,-8.6819656133806e-10,1.1746280543016e-09,-1.0429183709567e-09,-0.00040602455451716,0.00040601659083383,-0.00082556833604806,0.00082556809775057,-0.00082557018612338,0.00082556636159055,-0.00040602043388681,0.00040602094476706,-0.00040601789117315,0.00040602227860397,-0.0008255674232588,0.00082556924648888,-0.00082556673369556,0.00082556959748941,-0.00092773644462813,0.00092773775770594,-0.00092773690419558,0.00092773720423385,-0.00092773682054709,0.00092773733320248,-0.00092773799220761,0.00092773618038819,-0.00072643587281632,0.00072643781523268,-0.00072643846952941,0.00072643535506625,-0.00072643595586291,0.0007264377831484,-0.00072643703662561,0.00072643674137003,-0.00040601803743924,0.00040602198109192,-3.8083355516395e-10,2.7688603945391e-10,-7.6870809897171e-09,7.5861149708656e-09,-0.0011332478196944,0.0011332477045095,-0.0011819165535921,0.0011819323058748,-0.0010751126214309,0.0010751061882264,-0.0010751115961294,0.0010751074797573,-0.0011036567197935,0.0011036509371245,-0.0011036512722048,0.0011036564951892,-0.0011036562500835,0.0011036514219241,-0.001103651481618,0.0011036563202981,-0.0011819317098822,0.0011819173466577,-0.001181917202574,0.0011819316284863,-0.0010751070816098,0.0010751120095355,-0.0010751067767017,0.0010751118960865,-0.0011819325716783,0.0011819163914466,1.390623009554e-09,-6.6130071179807e-10,-0.0007135700527858,0.00071357080044282,6.1358696941721e-09,-5.3442431063945e-09,-0.00055241252399173,0.00055240516252917,-0.00049910610919752,0.0004990943255527,-0.000499104566293,0.00049909593770399,-0.00055240312631129,0.00055241459214652,-0.0005524022796358,0.00055241569241637,-0.00049909427901452,0.00049910629827747,-0.00049909429163064,0.00049910618679169,-0.00088398995285728,0.00088399515286992,-0.00088399359883129,0.00088399158134404,-0.00088399060919384,0.00088399458787133,-0.00088399474483958,0.00088399039007349,-0.00092943452974912,0.00092942868068866,-0.00092943212355671,0.00092943120484082,-0.00092942837108556,0.00092943483381161,-0.00092943008789624,0.00092943321881596,-0.00055241608165923,0.00055240173377861,0.67338132324332,129487,2954,0.0032421233926253,0.0047097122501621,0.0029694447187311,24.909962159129,-5.6720302726966e-05,-5.6720302726966e-05,-5.6720302726966e-05,3841582.7319225,0.010982023187329
29791759,0.68537489532015,0.011517367022785,0.0036115556625768,0.0045346348047234,0.0033711765554849,-0.00078975904845717,0.00078975920651179,9.549162574197e-10,-7.8233355352637e-10,9.9099624909778e-10,-8.0262939112011e-10,-0.00041147607219994,0.00041146884835101,-0.00083719572258372,0.00083719590979493,-0.00083719754405371,0.00083719426316039,-0.0004114725367591,0.00041147258871232,-0.00041147020272295,0.00041147419926668,-0.00083719523524969,0.00083719666801365,-0.00083719451522484,0.00083719703204552,-0.00094125111932062,0.00094125231540019,-0.00094125153990332,0.00094125178319691,-0.00094125136022307,0.00094125201778416,-0.00094125248628794,0.00094125090932915,-0.00073535265544084,0.0007353546679235,-0.00073535510015742,0.00073535234892414,-0.00073535287851469,0.0007353545120729,-0.00073535385310504,0.00073535352867483,-0.00041146999227386,0.00041147424097776,-5.4166808345598e-10,4.539033231974e-10,-7.4222542173462e-09,7.3359129183371e-09,-0.0011504212920882,0.0011504211921049,-0.0011993206976132,0.0011993358039556,-0.001091695750037,0.0010916892766353,-0.0010916944297476,0.0010916908763589,-0.0011207345925038,0.0011207289221681,-0.0011207293402642,0.0011207342785368,-0.0011207340307916,0.0011207294992715,-0.001120729438232,0.0011207342151369,-0.001199335224429,0.0011993214917204,-0.0011993212069074,0.0011993352646096,-0.0010916904984442,0.0010916948279326,-0.0010916898282077,0.0010916950878859,-0.0011993361820371,0.0011993204462812,1.172081451378e-09,-7.6281896052202e-10,-0.00072320347622599,0.00072320390072036,6.6890601412565e-09,-6.2396915897492e-09,-0.00055957114144789,0.00055956169068535,-0.00050526789959662,0.00050525440155741,-0.00050526642825981,0.00050525595513218,-0.00055956003944569,0.00055957279844008,-0.00055955929040055,0.00055957391323599,-0.00050525464970369,0.00050526778658635,-0.00050525468662407,0.00050526766509756,-0.00089665866811202,0.00089666399916372,-0.0008966627959855,0.00089665994322937,-0.00089665929919966,0.00089666345774686,-0.0008966638959452,0.00089665880064225,-0.00094348148806556,0.00094347499256949,-0.00094347921566418,0.00094347738097648,-0.00094347497291733,0.00094348148791959,-0.00094347660396704,0.00094347997866037,-0.00055957454995884,0.00055955847822614,0.70918215253536,129487,2954,0.0032877989376713,0.0047808884892701,0.003009497183816,25.54617472552,-5.1630602195842e-05,-5.1630602195842e-05,-5.1630602195842e-05,3873449.5603893,0.011140691384308
29991759,0.69470900409417,0.011669933419334,0.0036587121230888,0.0045991066659765,0.0034121146302689,-0.00080049220999439,0.00080049237018057,9.2398335932497e-10,-7.4839846604353e-10,9.1050231724979e-10,-7.2019965921831e-10,-0.00041681208668064,0.0004168052411236,-0.00084913671271658,0.00084913698818165,-0.00084913845337848,0.00084913540018047,-0.0004168087667319,0.00041680878375566,-0.00041680646494946,0.00041681020390603,-0.00084913633146513,0.00084913762522532,-0.00084913563851489,0.0008491379739836,-0.0009544467966547,0.00095444793687259,-0.0009544472108684,0.00095444740782941,-0.00095444700218754,0.00095444767550534,-0.00095444808699648,0.0009544466058581,-0.00074423697259429,0.00074423891374256,-0.00074423928278449,0.00074423670939781,-0.00074423717988919,0.00074423876479537,-0.00074423816152772,0.00074423778692342,-0.00041680616809376,0.00041681033808998,-6.0227050278485e-10,5.2477332700567e-10,-6.7833531982455e-09,6.7068578875953e-09,-0.0011675925730691,0.0011675924837222,-0.0012170343731074,0.0012170481480069,-0.0011083461210266,0.0011083399888406,-0.0011083447359817,0.0011083416629759,-0.0011376116769242,0.0011376064014658,-0.0011376068493253,0.001137611324929,-0.0011376110909877,0.0011376070101958,-0.0011376068878428,0.0011376113306896,-0.0012170476137905,0.0012170351260425,-0.0012170347900694,0.001217047712684,-0.0011083413259796,0.0011083450709868,-0.0011083404708483,0.001108345526093,-0.0012170485702907,0.0012170340884706,1.0806376325121e-09,-7.9147636803216e-10,-0.00073253660661343,0.00073253691036592,6.2866742182709e-09,-5.9642513321864e-09,-0.00056671113258182,0.00056670203698244,-0.00051131697403066,0.00051130407728966,-0.00051131556591339,0.00051130555229623,-0.00056670067038741,0.0005667125126409,-0.00056669984206703,0.00056671373085897,-0.00051130442616303,0.00051131675578874,-0.0005113044417899,0.00051131666382897,-0.00090896316214182,0.00090896814992759,-0.00090896708372444,0.00090896429886517,-0.00090896379492177,0.00090896760680032,-0.0009089681452263,0.00090896320104582,-0.0009577101248391,0.00095770382583597,-0.00095770795191633,0.00095770610693065,-0.00095770388335619,0.00095771005623865,-0.00095770549720146,0.00095770855345592,-0.00056671433266987,0.00056669905559638,0.74657578617555,129487,2954,0.0033324515542221,0.0048520455652362,0.0030483042544433,25.876327183836,-4.8989382529311e-05,-4.8989382529311e-05,-4.8989382529311e-05,3889932.4407468,0.011297070656806
30191759,0.70391651710287,0.01181078867594,0.0037022230573098,0.0046588304801551,0.0034497351384751,-0.00081015801204873,0.00081015812569921,9.591441855241e-10,-8.2951220516271e-10,1.0357538526661e-09,-8.9513266667912e-10,-0.00042059764263249,0.00042059002419471,-0.00085922034556968,0.00085922041957567,-0.00085922222097243,0.0008592186875155,-0.0004205938845394,0.00042059400240497,-0.00042059140372678,0.00042059558345944,-0.00085921976892274,0.00085922124255552,-0.00085921901434516,0.00085922165895317,-0.00096678258950852,0.00096678378410034,-0.00096678301525661,0.0009667832587493,-0.00096678286124697,0.00096678346106786,-0.00096678401578652,0.00096678232382935,-0.00075182754369685,0.00075182954492922,-0.00075183007017189,0.00075182712792645,-0.0007518277299891,0.00075182939473621,-0.00075182874772428,0.00075182841957855,-0.00042059131011894,0.00042059552823656,-4.3395093437624e-10,3.4984886732784e-10,-6.4091483148302e-09,6.3276267716103e-09,-0.0011837121761643,0.0011837120810569,-0.0012335680314588,0.0012335812522256,-0.0011241635997682,0.0011241579568307,-0.0011241624677376,0.0011241593746015,-0.0011534543014205,0.0011534493438099,-0.001153449692799,0.0011534540405045,-0.0011534537838641,0.0011534498792186,-0.0011534498608167,0.001153453911598,-0.0012335806421873,0.0012335688826847,-0.0012335686492615,0.0012335806147492,-0.0011241589562883,0.0011241628818436,-0.0011241585197183,0.0011241629008239,-0.0012335815769124,0.0012335678639823,1.3442265432503e-09,-6.4649896890763e-10,-0.00074080989302248,0.00074081060883163,5.4484870615669e-09,-4.6864306559295e-09,-0.00057200332507257,0.00057199722945294,-0.00051579918803507,0.00051578866277132,-0.00051579763628872,0.00051579027401041,-0.00057199512561252,0.00057200544459943,-0.00057199447730124,0.00057200645488518,-0.00051578861414211,0.00051579935832267,-0.00051578869148086,0.00051579920617435,-0.00092048542163607,0.00092049012547895,-0.00092048861545654,0.00092048699844021,-0.00092048606065619,0.00092048957099034,-0.00092048974408283,0.00092048583284479,-0.00097073154080154,0.00097072613717385,-0.00097072915583817,0.0009707286338995,-0.00097072588656713,0.00097073177866915,-0.00097072752444797,0.0009707302476304,-0.00057200695314068,0.00057199381998445,0.7001942434156,129487,2954,0.0033726735388927,0.0049188359022437,0.0030827102925771,26.017921641819,-4.7856626865447e-05,-4.7856626865447e-05,-4.7856626865447e-05,3897689.0464862,0.011440129790056
30391759,0.71280245594404,0.011941756889072,0.0037426989827238,0.0047143980341526,0.0034846598721953,-0.00081862633532311,0.0008186264504102,9.7945626723924e-10,-8.4820346856921e-10,1.0083029725069e-09,-8.6636879817497e-10,-0.00042370158780368,0.00042369395859166,-0.00086761071783515,0.0008676108894131,-0.00086761264586262,0.00086760913714692,-0.00042369782193196,0.00042369791365213,-0.00042369542510218,0.00042369951409404,-0.00086761023619733,0.00086761164235708,-0.00086760945740899,0.00086761205942619,-0.00097778420029813,0.00097778538781337,-0.00097778463866112,0.00097778485194928,-0.00097778444715725,0.00097778508725937,-0.00097778562241225,0.00097778393372617,-0.00075807915687819,0.00075808121514358,-0.00075808173006667,0.00075807880120855,-0.00075807937305906,0.00075808106393068,-0.00075808043868384,0.00075808002211617,-0.00042369522395057,0.00042369955932126,-4.6992892564095e-10,3.9269736092401e-10,-5.5247570576701e-09,5.4503470379334e-09,-0.0011981455508491,0.001198145462393,-0.0012479971176737,0.0012480086253472,-0.0011385783010474,0.0011385732273575,-0.0011385771151201,0.0011385747231606,-0.0011678336237027,0.0011678292425363,-0.0011678295941289,0.0011678333290282,-0.0011678330802022,0.001167829807131,-0.001167829741591,0.0011678332205608,-0.001248008018816,0.0012479980422101,-0.0012479977340294,0.0012480079826608,-0.0011385742972576,0.0011385775076901,-0.0011385737671482,0.001138577618008,-0.001248009000059,0.0012479969726044,1.5879364403523e-09,-4.4824771896488e-10,-0.00074802772451118,0.00074802888827906,4.7729855363807e-09,-3.5322701782692e-09,-0.00057633316911959,0.00057632948240496,-0.00051948412099436,0.0005194758330863,-0.00051948254521713,0.0005194774761871,-0.00057632682124812,0.00057633582492686,-0.00057632617530662,0.00057633681672021,-0.00051947532605934,0.000519484747319,-0.00051947540223373,0.00051948459621174,-0.00093078411716832,0.00093078867577584,-0.00093078671083939,0.0009307861459233,-0.00093078477239023,0.00093078810421253,-0.00093078785614736,0.00093078496630504,-0.00098226358784146,0.00098225915341573,-0.00098226113424223,0.00098226172602392,-0.00098225848836728,0.000982264232178,-0.00098226015651423,0.00098226268585343,-0.00057633692651436,0.0005763259088292,0.67548584567624,129487,2954,0.0034079087184163,0.0049786342857133,0.0031127308908195,25.816031225488,-4.9471750196094e-05,-4.9471750196094e-05,-4.9471750196094e-05,3907531.9840964,0.011566653653995
30591759,0.72126018172661,0.012070759499863,0.0037825198832711,0.0047690495159372,0.0035191901006545,-0.00082647775542064,0.00082647786347256,9.7172381662207e-10,-8.475848064395e-10,9.3213692685673e-10,-7.9807283030521e-10,-0.00042679243242754,0.00042678510061655,-0.0008756999509958,0.00087570020906202,-0.00087570182792174,0.00087569850151099,-0.00042678881195781,0.00042678889042002,-0.00042678657430273,0.00042679037017777,-0.00087569955469445,0.00087570086142754,-0.00087569883438148,0.000875701238624,-0.00098789679585957,0.00098789794355272,-0.00098789725035367,0.00098789739577429,-0.00098789700916158,0.00098789767696007,-0.00098789817215569,0.00098789653857555,-0.0007639856424876,0.00076398766806342,-0.00076398812831897,0.0007639853199832,-0.00076398581661731,0.00076398752852507,-0.00076398697798434,0.00076398642865999,-0.00042678623411863,0.00042679054514474,-4.9581770508004e-10,4.250585008281e-10,-4.7326261710779e-09,4.6649995561716e-09,-0.0012116137183929,0.001211613636985,-0.0012613931704506,0.0012614030966253,-0.0011521152530991,0.0011521106854411,-0.001152114049629,0.0011521122070986,-0.0011812706447733,0.0011812667836927,-0.0011812671329425,0.0011812703285148,-0.0011812701005252,0.0011812673510961,-0.0011812672487745,0.0011812702511083,-0.0012614025485933,0.001261394094158,-0.0012613937314175,0.0012614025055042,-0.0011521118022826,0.0011521144062394,-0.0011521111831256,0.0011521146184258,-0.001261403507595,0.0012613930471903,1.7565997830089e-09,-2.7591816860626e-10,-0.00075473887332115,0.00075474038233452,4.3214741867535e-09,-2.713960605462e-09,-0.00058075447495763,0.00058075225391906,-0.00052322125244065,0.00052321461616467,-0.00052321971529585,0.00052321621044304,-0.00058074936468044,0.00058075734877458,-0.00058074860214383,0.00058075850353322,-0.00052321373525078,0.00052322222792846,-0.00052321377937057,0.00052322213033918,-0.00094024669696998,0.00094025118942833,-0.00094024888382484,0.00094024906017089,-0.00094024736858768,0.00094025059428904,-0.00094025001474395,0.00094024789995497,-0.00099302605237758,0.00099302241533837,-0.0009930236172365,0.00099302496861071,-0.00099302139949238,0.00099302704213562,-0.00099302306607544,0.00099302549664102,-0.00058075812578175,0.00058074882376395,0.69871029048228,129487,2954,0.0034405735070833,0.0050344299984089,0.0031406444854318,25.392566420106,-5.2859468639152e-05,-5.2859468639152e-05,-5.2859468639152e-05,3914520.0985078,0.011684407525982
30791759,0.72976425498176,0.012204962726182,0.0038238690752009,0.0048258742026207,0.0035552194483601,-0.00083615997598599,0.00083616007146663,9.5685825982815e-10,-8.4578600805332e-10,9.6367591353881e-10,-8.4240807964377e-10,-0.00043154576005523,0.0004315378813599,-0.00088621050069265,0.00088621079864745,-0.00088621250349568,0.000886208945774,-0.00043154209546817,0.00043154175246071,-0.00043153930828322,0.00043154370334462,-0.00088621016910032,0.00088621139218036,-0.00088620929583129,0.00088621190763684,-0.00099988573330322,0.00099988683898405,-0.00099988613521761,0.00099988634189409,-0.00099988591898048,0.00099988659776064,-0.00099988713017062,0.00099988541648027,-0.00077202131611663,0.0007720234465401,-0.00077202394989876,0.00077202095039324,-0.00077202162474271,0.00077202318419822,-0.00077202261847006,0.0007720222527299,-0.00043153910177368,0.00043154375174992,-1.902824205762e-10,9.5451133592213e-11,-5.803583161077e-09,5.7130656709712e-09,-0.0012272343095233,0.0012272342075326,-0.001277190932952,0.0012772032851428,-0.0011675845210117,0.0011675796707261,-0.0011675837559053,0.0011675807114172,-0.0011967235204407,0.0011967191002704,-0.0011967192783833,0.0011967234070073,-0.0011967231262301,0.0011967195074444,-0.0011967196437858,0.0011967230726841,-0.0012772025699951,0.0012771919358091,-0.0012771918615274,0.0012772023358554,-0.0011675801778702,0.0011675842768945,-0.0011675803452316,0.0011675836786933,-0.0012772034674206,0.0012771909483536,1.6292905186607e-09,-3.8918738414403e-10,-0.00076323862907985,0.00076323989408632,4.8860392637074e-09,-3.5414894163631e-09,-0.00058716455186729,0.00058716112771267,-0.00052878903950035,0.00052878063477133,-0.0005287873530307,0.00052878237465757,-0.00058715807412659,0.00058716763412738,-0.00058715775648722,0.00058716827500496,-0.00052878001542769,0.00052878977744489,-0.00052878021249455,0.00052878950908445,-0.00095155084671983,0.0009515555143348,-0.00095155345090139,0.00095155297150433,-0.00095155146831063,0.00095155496840323,-0.00095155462628018,0.00095155176262601,-0.0010057399972346,0.0010057355356451,-0.0010057374349074,0.0010057382245125,-0.0010057349171571,0.0010057406116125,-0.0010057364078281,0.0010057392314789,-0.00058716861921848,0.00058715726581144,0.72242423177407,129487,2954,0.0034808512830551,0.0050991403176164,0.0031759851631443,25.854861016857,-4.916111186514e-05,-4.916111186514e-05,-4.916111186514e-05,3931366.3124383,0.011826414269571
30991759,0.73875965379771,0.012351811164703,0.0038689985637675,0.0048881267939971,0.0035946858069384,-0.00084811653993466,0.0008481170355637,8.7996103211803e-10,-3.7103386771415e-10,-2.3047208300077e-10,7.8636370504036e-10,-0.00043801517490619,0.00043801477007478,-0.00089958487389029,0.00089958698399121,-0.00089958546738566,0.00089958657419826,-0.00043801469971452,0.00043801524789179,-0.00043801543661857,0.00043801401120418,-0.0008995860486486,0.0008995860092563,-0.00089958634904696,0.00089958550233613,-0.0010143382647543,0.0010143390783072,-0.0010143388949693,0.0010143383271817,-0.0010143379522684,0.0010143393412501,-0.0010143385372041,0.0010143387518234,-0.00078246504248022,0.00078246670882041,-0.00078246579020317,0.00078246597006637,-0.0007824649987846,0.00078246674906169,-0.00078246669287727,0.00078246504685803,-0.00043801277657774,0.00043801638387095,-1.2308356032584e-09,1.2227420687677e-09,-5.9197836321147e-09,5.9048624936511e-09,-0.001245810496305,0.001245810473236,-0.0012962181815087,0.0012962289035039,-0.0011857488192048,0.0011857430913636,-0.0011857472454724,0.0011857450748331,-0.0012149623574081,0.0012149576395602,-0.0012149584527533,0.0012149616461586,-0.0012149617079429,0.0012149583242869,-0.0012149576929265,0.0012149624375887,-0.0012962293521151,0.0012962179747788,-0.0012962170662717,0.0012962298967161,-0.0011857457262704,0.0011857465795729,-0.0011857425031524,0.0011857494208588,-0.0012962297324799,0.0012962175174213,6.1112583801044e-10,-8.5870939742176e-10,-0.00077388428735024,0.00077388405419307,7.5167683380929e-09,-7.7637083279589e-09,-0.00059570932099939,0.00059569335493093,-0.00053634089912006,0.00053632558060559,-0.00053634064582764,0.00053632587208231,-0.00059569547504845,0.00059570703938741,-0.00059569197839249,0.00059571119047571,-0.00053632633844209,0.00053634016900306,-0.00053632549039875,0.0005363411065064,-0.0009652164339873,0.00096522213041092,-0.0009652217082237,0.00096521689923757,-0.00096521729411164,0.00096522134113974,-0.00096522228967366,0.00096521631206978,-0.0010211497827774,0.0010211433467876,-0.0010211489649486,0.0010211441875438,-0.0010211429023479,0.0010211501245231,-0.0010211451318628,0.0010211480493676,-0.00059570916043889,0.00059569373809547,0.74699165971211,129487,2954,0.0035305890515482,0.0051760895314587,0.0032202372216464,27.173067080958,-3.8615463352336e-05,-3.8615463352336e-05,-3.8615463352336e-05,3958624.4423771,0.011999421164647
31191759,0.74820727177431,0.012513074511968,0.0039183938869483,0.0049566518349467,0.0036380287900732,-0.00086078681744327,0.00086078729750408,8.4003693838933e-10,-3.4713805277371e-10,-1.1086281142309e-10,6.5602401062267e-10,-0.00044466589992,0.00044466568189537,-0.00091423709773836,0.000914238690954,-0.00091423737705328,0.00091423845159289,-0.00044466530274128,0.00044466640377567,-0.00044466623963481,0.00044466487541877,-0.00091423775943796,0.00091423812687452,-0.00091423826700135,0.00091423746810106,-0.0010296026256171,0.0010296035315379,-0.0010296032784966,0.0010296027590962,-0.0010296024618974,0.0010296036609295,-0.001029602951484,0.0010296031427284,-0.00079377237642787,0.0007937736814847,-0.00079377288794611,0.0007937729550626,-0.00079377196377481,0.00079377388736421,-0.00079377374732621,0.00079377230724967,-0.00044466404656393,0.00044466688109448,-9.7261792454298e-10,9.6902520798918e-10,-7.1664524484734e-09,7.1613695552817e-09,-0.001265686183881,0.0012656861664955,-0.0013168313404462,0.0013168442468359,-0.001205030402648,0.0012050242896812,-0.0012050293402665,0.0012050256661473,-0.0012343255720635,0.0012343201611622,-0.0012343208849728,0.0012343249631593,-0.0012343250827849,0.0012343206917846,-0.0012343201676226,0.0012343257437878,-0.0013168449227033,0.0013168308156117,-0.0013168300949693,0.001316845425518,-0.0012050263579059,0.0012050286537258,-0.0012050236410729,0.0012050310213628,-0.0013168449022449,0.0013168307958177,3.0490925858439e-10,-1.1012539014787e-09,-0.00078509555785117,0.00078509476932808,8.1621947920298e-09,-9.0053101414273e-09,-0.00060484873890933,0.00060482980896873,-0.00054438353326341,0.00054436597138037,-0.00054438343251405,0.00054436599972011,-0.0006048330938504,0.00060484541799089,-0.00060482926542839,0.000604849874232,-0.00054436723964763,0.00054438222468019,-0.00054436627284081,0.00054438330210472,-0.0009795994398505,0.00097960522816434,-0.00097960537634612,0.00097959934244261,-0.00097960033066239,0.00097960442317561,-0.00097960588502241,0.00097959883435615,-0.0010376825656409,0.0010376752102809,-0.0010376819471408,0.0010376757589402,-0.0010376751316526,0.0010376825962214,-0.0010376774275988,0.0010376803035772,-0.00060484802128692,0.00060483090750549,0.78083050348193,129487,2954,0.0035832998250653,0.0052584118695512,0.0032668421289619,28.437081914876,-2.8503344680995e-05,-2.8503344680995e-05,-2.8503344680995e-05,3979568.6421629,0.012183288406833
31391759,0.75779252835582,0.012670353939282,0.0039665060940584,0.0050237371671865,0.0036801106780372,-0.00087227541860007,0.00087227569522499,1.0504486538235e-09,-7.5994600393593e-10,4.6580500597681e-10,-1.3930862554064e-10,-0.00044920793053263,0.00044920214575155,-0.00092713891022145,0.00092714032652521,-0.00092714054864342,0.00092713869777878,-0.00044920533663867,0.00044920487010326,-0.00044920358605508,0.00044920613097635,-0.00092713938592497,0.00092713993300936,-0.00092713894749385,0.00092714022218067,-0.0010439083098988,0.0010439092598086,-0.0010439087684606,0.001043908692791,-0.0010439081892781,0.0010439093359595,-0.0010439092809758,0.0010439082366963,-0.00080372755307734,0.00080373004349832,-0.00080373000423674,0.00080372748505198,-0.00080372795529739,0.00080372950628705,-0.00080372904139502,0.00080372857844098,-0.00044920216065219,0.00044920737554509,-4.6816902628702e-10,4.3636748436112e-10,-7.8427882832015e-09,7.8133130184447e-09,-0.0012846125039162,0.0012846124608585,-0.0013364345974346,0.0013364501063939,-0.0012233986060707,0.0012233918460166,-0.0012233973245112,0.0012233933870458,-0.0012526884862434,0.0012526825786305,-0.0012526830630063,0.0012526881469478,-0.0012526879021799,0.001252683190727,-0.0012526829896069,0.0012526882653505,-0.001336449700729,0.0013364351146803,-0.0013364347514618,0.0013364498868437,-0.0012233929242009,0.0012233978398685,-0.0012233923984344,0.0012233979718372,-0.0013364504414362,0.0013364343187097,8.4800601146903e-10,-1.1807217201443e-09,-0.00079504786913096,0.00079504754516023,7.1396391802732e-09,-7.4860471050687e-09,-0.00061195438738307,0.00061194257270726,-0.0005506574561541,0.0005506414675747,-0.00055065598092376,0.0005506428576441,-0.00061194190888288,0.00061195502579084,-0.00061194088644669,0.00061195658398594,-0.00055064245880005,0.00055065642181637,-0.0005506424310515,0.00055065654593963,-0.0009930517710656,0.00099305697746415,-0.00099305647392037,0.00099305233119794,-0.00099305245474338,0.00099305637489321,-0.00099305757249133,0.00099305121075142,-0.0010528995041791,0.001052891668126,-0.0010528971190581,0.0010528939787653,-0.0010528922971681,0.0010528988488581,-0.0010528940165485,0.0010528970646865,-0.00061195771674821,0.00061193958354916,0.75166471300244,129487,2954,0.0036311078485643,0.0053367917310991,0.0033082212256478,29.181334779892,-2.2549321760863e-05,-2.2549321760863e-05,-2.2549321760863e-05,3985901.254714,0.012352949179776
31591759,0.7670259554482,0.012815319649919,0.0040108987934218,0.0050856391429894,0.0037187817135074,-0.00088157000331225,0.0008815702583125,8.7647973057234e-10,-6.0597086581483e-10,5.0525200842737e-10,-2.038090575379e-10,-0.00045186948106047,0.00045186553484883,-0.00093723943469927,0.00093724012055747,-0.00093724048591281,0.00093723912151373,-0.00045186713127256,0.0004518680132633,-0.00045186667279607,0.00045186800512387,-0.00093723933742214,0.00093724034064785,-0.00093723926478589,0.00093724022708167,-0.0010558873890056,0.0010558884278054,-0.0010558879237524,0.0010558877687739,-0.0010558874721565,0.0010558882807934,-0.0010558882847967,0.0010558874840075,-0.00081136941197926,0.00081137103383581,-0.00081137110513805,0.00081136944946404,-0.00081136938483682,0.00081137113598476,-0.00081137060891176,0.00081136987380877,-0.00045186566725628,0.00045186882131314,-7.3347059894727e-10,7.278625518869e-10,-6.0853888096079e-09,6.0793544876582e-09,-0.0013007181309115,0.0013007181122717,-0.0013528160894777,0.0013528276374468,-0.0012390465615411,0.0012390411469573,-0.0012390453575239,0.0012390426244424,-0.0012684925570754,0.0012684878992154,-0.0012684885129448,0.0012684920297823,-0.0012684919871427,0.0012684885065886,-0.0012684880667509,0.00126849252982,-0.0013528277008557,0.0013528162828505,-0.0013528156394169,0.0013528280386135,-0.0012390427491088,0.0012390452360587,-0.0012390410363513,0.0012390465845388,-0.0013528282134332,0.0013528157115564,9.5868160881727e-10,-7.446230587436e-10,-0.0008029213624745,0.00080292159274293,6.1414102905945e-09,-5.8928812755e-09,-0.00061697973827083,0.00061696932581996,-0.00055494061228367,0.00055492838584464,-0.00055493980868896,0.00055492914629297,-0.00061696945964828,0.00061697957326894,-0.00061696733380959,0.00061698217470605,-0.00055492868895844,0.00055494030382595,-0.00055492822822917,0.00055494083014455,-0.0010042871205331,0.0010042921181307,-0.0010042911785694,0.0010042881207591,-0.0010042878965382,0.0010042914268257,-0.0010042919787547,0.0010042872961012,-0.0010653126015288,0.0010653069913032,-0.0010653110522376,0.001065308492299,-0.0010653065838099,0.001065312982789,-0.0010653084857395,0.0010653110480411,-0.00061698137399112,0.0006169679569392,0.71981901051625,129487,2954,0.0036697906170887,0.0054034825171531,0.0033409646643742,29.085358138857,-2.3317134889141e-05,-2.3317134889141e-05,-2.3317134889141e-05,3984762.23414,0.012492818553269
31791759,0.77573576555227,0.012944727217369,0.0040505950477824,0.0051409093377897,0.0037532228317967,-0.00088934502357412,0.00088934519531745,9.9156773784507e-10,-8.0320233308771e-10,7.1928194148925e-10,-5.0800953877495e-10,-0.0004535724249581,0.00045356543978976,-0.00094521399965923,0.00094521487257365,-0.00094521583504544,0.00094521307386326,-0.00045356929441721,0.00045356876148633,-0.00045356696157935,0.0004535705865927,-0.00094521407976015,0.00094521491669383,-0.00094521340773264,0.00094521539143064,-0.0010661763969264,0.0010661773882282,-0.0010661768089991,0.001066176872359,-0.0010661764121969,0.0010661773120624,-0.0010661775720107,0.0010661761809829,-0.00081742841543419,0.00081743081626188,-0.00081743114808091,0.00081742822128283,-0.00081742893249683,0.0008174303611874,-0.00081742978066739,0.00081742953468061,-0.00045356618804045,0.00045357120282779,-6.8490823174425e-10,6.8091384061574e-10,-4.9180199568368e-09,4.9132700710896e-09,-0.0013145760636342,0.0013145760480936,-0.0013665106271393,0.0013665206219816,-0.0012526005467581,0.0012525952522786,-0.001252598688421,0.0012525973714071,-0.0012823175238055,0.0012823134263434,-0.0012823139872083,0.0012823170096395,-0.0012823167441771,0.0012823142389399,-0.0012823138042878,0.0012823172458898,-0.0013665200349095,0.0013665115597543,-0.0013665109184218,0.001366520306644,-0.0012525967410378,0.0012525992923019,-0.0012525958576522,0.0012525998169174,-0.0013665212066879,0.0013665103323322,1.507228900927e-09,-5.1115974361924e-10,-0.00080946011505377,0.00080946113789899,4.8680456959316e-09,-3.7761862190443e-09,-0.00062082905947291,0.0006208251556115,-0.00055805040504648,0.00055804154047979,-0.00055804878174324,0.00055804311946259,-0.00062082244468311,0.00062083178908677,-0.0006208220982854,0.00062083255599879,-0.00055804111554946,0.00055805083546856,-0.00055804126017973,0.0005580507416756,-0.0010139717779128,0.0010139762967235,-0.0010139744766316,0.0010139736574457,-0.0010139724196701,0.0010139757328799,-0.0010139756181512,0.0010139724877985,-0.0010756009560817,0.0010755962386813,-0.0010755984069217,0.0010755987637918,-0.0010755957616859,0.0010756014185085,-0.0010755972831446,0.0010755998690877,-0.00062083306275605,0.00062082143298998,0.68197346919601,129487,2954,0.0037021472299819,0.0054608612555589,0.0033681623985892,28.640418465241,-2.6876652278069e-05,-2.6876652278069e-05,-2.6876652278069e-05,3985322.6657504,0.012611254005707
31991759,0.78413770703169,0.01308224362395,0.0040926898940708,0.0051994412731435,0.0037901124567359,-0.00089819407458664,0.00089819425888362,9.5087109396725e-10,-7.4989791342761e-10,6.7387876993674e-10,-4.4933373578045e-10,-0.00045741451666771,0.00045740764800259,-0.00095534266863491,0.00095534367421923,-0.00095534453471392,0.00095534186827437,-0.00045741153407016,0.00045741075114508,-0.00045740909105279,0.00045741276937873,-0.00095534289912181,0.00095534357778821,-0.00095534215624683,0.0009553441278158,-0.0010771531554269,0.0010771540965743,-0.0010771535404076,0.0010771536075758,-0.0010771531339629,0.0010771540549568,-0.0010771542664844,0.0010771529528256,-0.00082495019388393,0.00082495253125241,-0.00082495281359249,0.00082495008050281,-0.00082495073399057,0.00082495207560564,-0.0008249515231747,0.00082495128552572,-0.00045740827116339,0.00045741339117541,-6.8119874390479e-10,6.8538664912893e-10,-4.6417794601179e-09,4.6441947430679e-09,-0.0013292331651581,0.0013292331567954,-0.0013810891773222,0.0013810988021884,-0.0012667740581288,0.0012667689960715,-0.0012667722328677,0.0012667710958382,-0.0012969665499255,0.0012969626471834,-0.0012969631922884,0.0012969660443394,-0.0012969657688437,0.0012969634630049,-0.0012969630199149,0.001296966264103,-0.0013810980958016,0.0013810902438088,-0.0013810895901946,0.0013810983482337,-0.0012667704917161,0.0012667728183602,-0.0012667695635045,0.0012667733681973,-0.0013810993743443,0.0013810888992085,1.5358349558552e-09,-3.9187908736288e-10,-0.00081717091279543,0.00081717208685609,4.7923355931799e-09,-3.5395017265342e-09,-0.00062709844140105,0.00062709517786913,-0.00056325981284593,0.00056325141233475,-0.0005632581960095,0.0005632530009269,-0.00062709206242835,0.00062710153736191,-0.00062709198155817,0.00062710202544214,-0.0005632508055627,0.00056326042918238,-0.00056325100529259,0.00056326028186139,-0.0010242997195497,0.0010243042608883,-0.0010243023212516,0.0010243017166536,-0.001024300336392,0.0010243037204646,-0.0010243034347315,0.0010243005757034,-0.00108719519823,0.0010871907791369,-0.0010871926987641,0.0010871932637964,-0.0010871901988384,0.0010871957529312,-0.0010871915913013,0.0010871943532681,-0.00062710256809201,0.00062709127453446,0.74979525080565,129487,2954,0.0037389560086495,0.005521546965568,0.0034002235406955,28.568142519644,-2.7454859842846e-05,-2.7454859842846e-05,-2.7454859842846e-05,3997541.0778331,0.012742478573545
32191759,0.79231712132013,0.013218705053427,0.0041343552404783,0.0052576097258489,0.0038267400870997,-0.00090710656358154,0.00090710678901046,9.006865229391e-10,-6.5963441906247e-10,5.4366859359177e-10,-2.7346301426027e-10,-0.00046065147356809,0.00046064753728665,-0.00096569398293838,0.00096569450309731,-0.00096569502028165,0.00096569353130865,-0.00046064895192282,0.00046065018482079,-0.00046064879807199,0.0004606499217902,-0.00096569372269318,0.00096569488815297,-0.00096569372688109,0.00096569470919707,-0.0010883061530987,0.0010883072537663,-0.0010883067567857,0.0010883065435477,-0.0010883062944112,0.0010883070492889,-0.0010883071190918,0.0010883062531534,-0.00083265846307248,0.000832659981446,-0.00083266011269285,0.00083265849151746,-0.00083265827459504,0.00083266024362879,-0.00083265976205625,0.00083265876585284,-0.00046064781270547,0.00046065071627066,-6.9913088157559e-10,7.1242513271005e-10,-4.8586675843051e-09,4.8698789406588e-09,-0.0013442872978835,0.0013442872981507,-0.0013963955506737,0.0013964048518692,-0.0012813127173054,0.0012813082674318,-0.0012813116439522,0.0012813096169483,-0.0013117072231209,0.0013117034264729,-0.0013117039790836,0.0013117067200812,-0.0013117066875105,0.001311703993011,-0.0013117035368409,0.0013117072065246,-0.0013964048853988,0.0013963958563616,-0.0013963951892745,0.00139640517083,-0.0012813097958539,0.0012813114458066,-0.0012813080342813,0.0012813128349093,-0.0013964054216314,0.0013963952656689,1.3891922021171e-09,-4.0042855998751e-10,-0.00082488659142852,0.00082488760901461,5.2153364698854e-09,-4.1312867811644e-09,-0.00063302635659393,0.00063301931658513,-0.00056822325977489,0.00056821452967104,-0.00056822247584745,0.00056821528262286,-0.00063301881642746,0.00063302684311993,-0.00063301644418985,0.00063302963143671,-0.00056821404049192,0.00056822374852596,-0.00056821350255453,0.00056822434727865,-0.0010347936605413,0.0010347986046325,-0.0010347968586252,0.0010347954605137,-0.0010347944994958,0.001034797837928,-0.0010347976648437,0.0010347946287808,-0.0010991786674525,0.0010991746739213,-0.0010991770833245,0.0010991762441021,-0.0010991734646798,0.0010991798475014,-0.0010991755065799,0.0010991778036103,-0.00063302790194925,0.00063301800568471,0.76436440346829,129487,2954,0.0037760430627182,0.0055838684736558,0.0034323055437218,28.656534055809,-2.6747727553525e-05,-2.6747727553525e-05,-2.6747727553525e-05,3996505.8958219,0.012875683881491
32391759,0.80036302822493,0.013355969805025,0.0041762079798218,0.0053161512663309,0.003863610558872,-0.00091634339381635,0.00091634362485029,9.3795384612443e-10,-6.9142901123009e-10,5.3689742915208e-10,-2.5956468153598e-10,-0.00046407306677167,0.00046406679723198,-0.00097655393495535,0.00097655526349992,-0.00097655575298424,0.00097655349855073,-0.00046407051030524,0.00046406949376559,-0.0004640681156791,0.00046407145535135,-0.00097655445939987,0.00097655486782919,-0.00097655371409893,0.00097655542644062,-0.001099786156773,0.0010997870052421,-0.0010997865061993,0.0010997865435116,-0.0010997860171904,0.0010997870790008,-0.0010997871385381,0.0010997859872222,-0.00084076978867521,0.00084077220597463,-0.00084077232285929,0.00084076981211855,-0.00084077042271535,0.00084077163598399,-0.00084077115848008,0.00084077092245457,-0.0004640670461518,0.00046407234561277,-5.6798819935039e-10,5.7485735103929e-10,-5.6423847796945e-09,5.648641951454e-09,-0.0013597664211495,0.0013597664163348,-0.0014122138435243,0.0014122254663019,-0.001296235007767,0.0012962294291063,-0.001296233334977,0.0012962313601622,-0.0013267788703499,0.001326774364208,-0.0013267748452496,0.0013267784625103,-0.0013267781483483,0.0013267751172975,-0.0013267747654831,0.0013267785882221,-0.0014122247635865,0.0014122148245682,-0.0014122142873173,0.0014122249884353,-0.0012962306990666,0.0012962339929501,-0.001296230050779,0.0012962342563676,-0.0014122259223359,0.0014122136115425,1.3114398353103e-09,-5.4916973197695e-10,-0.00083289222346247,0.00083289301080119,5.687710386499e-09,-4.8513667408335e-09,-0.00063919453749423,0.00063918835581878,-0.00057354313963378,0.00057353218784656,-0.00057354154626832,0.0005735337449721,-0.00063918589666171,0.00063919699515536,-0.00063918566219535,0.0006391976353535,-0.00057353196955236,0.00057354336851955,-0.00057353218827716,0.00057354319789738,-0.0010455970529074,0.0010456019107154,-0.0010456003665735,0.0010455986548022,-0.0010455976408981,0.0010456013998226,-0.0010456014745212,0.0010455975204952,-0.0011116068300458,0.0011116013712918,-0.0011116043958225,0.0011116037887663,-0.001111601167262,0.0011116070153137,-0.0011116024986985,0.0011116056737161,-0.00063919835477694,0.00063918478102347,0.78118730096768,129487,2954,0.0038144812443286,0.0056479436363697,0.0034655912961582,28.932798200333,-2.4537614397332e-05,-2.4537614397332e-05,-2.4537614397332e-05,3995247.3629637,0.013013271838236
32591759,0.80849028952931,0.0134863529136,0.0042160086188086,0.0053718501327245,0.003898494162067,-0.00092605934361863,0.00092605955081544,1.0436553678831e-09,-8.2156878406407e-10,5.9363209341762e-10,-3.3828493374513e-10,-0.00046731187023174,0.00046730351385489,-0.00098728947038116,0.00098729136193215,-0.00098729200545657,0.00098728888626209,-0.00046730898673065,0.00046730656425006,-0.00046730505564101,0.00046731003189003,-0.00098729050804201,0.00098729046653519,-0.00098728918881452,0.00098729157825002,-0.0011120024922163,0.0011120032243283,-0.0011120027009319,0.0011120028944714,-0.0011120021757117,0.0011120034648711,-0.0011120035977085,0.0011120020800754,-0.00084917330388039,0.00084917648891599,-0.00084917668532157,0.00084917326521749,-0.00084917450795246,0.00084917537044398,-0.0008491748530395,0.0008491750097278,-0.00046730392718206,0.00046731102263557,-3.247877229286e-10,3.1317117011513e-10,-7.0862273332956e-09,7.0754360405799e-09,-0.0013759136830584,0.0013759136610484,-0.001428544244977,0.0014285595121857,-0.0013119366637359,0.001311930045287,-0.0013119348944539,0.0013119320317463,-0.0013425287518392,0.0013425232484699,-0.0013425236039541,0.0013425285168778,-0.0013425279813207,0.0013425240391992,-0.0013425238991022,0.001342528261311,-0.0014285581012777,0.0014285458276245,-0.001428545540832,0.0014285582020718,-0.0013119308368319,0.0013119361325354,-0.0013119312518986,0.001311935320286,-0.0014285597668364,0.0014285441196826,1.2562273449405e-09,-8.4221782916168e-10,-0.00084134724985499,0.00084134768168931,6.3167858899388e-09,-5.8642681902645e-09,-0.00064511690995181,0.00064511075783535,-0.00057882358631929,0.00057880994411426,-0.00057882130906192,0.00057881219075118,-0.00064510686039236,0.0006451208201617,-0.00064510820380753,0.00064511983367449,-0.00057881018242201,0.00057882336130886,-0.00057881093297182,0.00057882264234235,-0.001057180921861,0.0010571858495589,-0.0010571845678755,0.0010571822615702,-0.0010571813800966,0.0010571854674513,-0.0010571859663658,0.0010571808312261,-0.0011243708878794,0.0011243636563938,-0.0011243675716413,0.0011243669630135,-0.0011243644466661,0.001124370074884,-0.0011243653585815,0.0011243691573078,-0.00064512276699269,0.0006451051468104,0.73524963861023,129487,2954,0.0038549141229931,0.0057147797065031,0.0035007434672525,29.68255959688,-1.853952322496e-05,-1.853952322496e-05,-1.853952322496e-05,3999449.7012678,0.013157593526533
32791759,0.81601916321085,0.01359835521049,0.0042502759213668,0.0054197570430712,0.003928322246052,-0.00093216077096392,0.00093216104754358,1.1046394689637e-09,-8.1004844263494e-10,4.0547035568837e-10,-7.9722620499256e-11,-0.00046779143378918,0.00046778066819641,-0.00099355199705012,0.00099355535904865,-0.00099355549885348,0.00099355193532509,-0.00046778883328505,0.00046778333053204,-0.00046778227867634,0.00046778952509949,-0.00099355441381424,0.00099355309052363,-0.00099355219523203,0.00099355511308125,-0.0011203186882711,0.0011203190574013,-0.001120318603102,0.0011203190042615,-0.0011203179200023,0.0011203197429764,-0.0011203196570336,0.0011203180339829,-0.00085382718408505,0.00085383150997156,-0.00085383146390531,0.00085382738338874,-0.00085382940717783,0.00085382938599622,-0.00085382892845119,0.00085382979215252,-0.00046778054939161,0.00046779105203506,-7.7620409167428e-10,7.9880119336304e-10,-5.3985741498831e-09,5.4221381968412e-09,-0.0013873866265905,0.0013873866371694,-0.0014397099404026,0.0014397227278937,-0.0013231083817941,0.0013231011242249,-0.0013231048807203,0.0013231049753722,-0.0013539930176645,0.0013539880362302,-0.0013539886343409,0.0013539924904069,-0.0013539916502531,0.0013539894561245,-0.0013539889519514,0.0013539922236213,-0.0014397203183671,0.0014397126763581,-0.0014397119283605,0.0014397206559598,-0.0013231028489328,0.0013231069811918,-0.0013231032115916,0.0013231062402994,-0.0014397233139244,0.0014397096016083,1.394977447176e-09,-7.5637775548392e-10,-0.00084637308189828,0.00084637374333439,5.8505064868295e-09,-5.1459470586512e-09,-0.00064767331561785,0.00064767163738835,-0.00058085170520699,0.00058083851866254,-0.00058084847859329,0.00058084173944305,-0.00064766450799599,0.00064768036096535,-0.0006476686473429,0.0006476766468204,-0.00058083854523334,0.00058085170729558,-0.0005808402001256,0.00058085010042139,-0.0010650430858932,0.0010650475718591,-0.0010650460457412,0.0010650446670077,-0.0010650432725158,0.0010650474725344,-0.0010650477630682,0.0010650429293712,-0.0011325966945312,0.00113258908683,-0.0011325923765157,0.0011325933785136,-0.0011325905816852,0.0011325951355402,-0.00113259061233,0.0011325951330198,-0.0006476821775685,0.00064766294385172,0.68274153400837,129487,2954,0.0038803140757282,0.0057622611893576,0.0035216533848938,28.986110977305,-2.411111218156e-05,-2.411111218156e-05,-2.411111218156e-05,3990038.7452519,0.013252655785121
32991759,0.82312324021468,0.013708978192776,0.0042840937392152,0.0054669444876404,0.0039579399659208,-0.00093870734342352,0.00093870756145415,9.648122668534e-10,-7.3022550595028e-10,5.6979459746029e-10,-3.0576337137418e-10,-0.00046985866724799,0.00046985179770675,-0.0010007234184943,0.0010007249666002,-0.0010007255447505,0.0010007228927629,-0.00046985596061176,0.00046985462790712,-0.00046985317142779,0.00046985696680681,-0.0010007241528717,0.0010007243625943,-0.0010007231405596,0.0010007251820092,-0.0011287240628272,0.0011287248892692,-0.001128724368719,0.0011287244566107,-0.001128723875325,0.0011287249959612,-0.0011287251010333,0.0011287238101449,-0.00085912393016271,0.00085912638511816,-0.00085912654774424,0.00085912390588031,-0.00085912454188112,0.00085912584078246,-0.00085912532978789,0.00085912505867708,-0.000469852123705,0.00046985783220982,-6.1915024285567e-10,6.3942353675575e-10,-5.2372405875715e-09,5.256185313382e-09,-0.0013987683687296,0.0013987683774174,-0.0014506562469728,0.0014506676210049,-0.0013341079740106,0.0013341024803462,-0.0013341061378993,0.0013341046064779,-0.0013655157310572,0.0013655113479787,-0.0013655118503456,0.0013655152976591,-0.0013655148720269,0.0013655122473962,-0.0013655118385701,0.0013655153543969,-0.001450666354197,0.001450657825831,-0.0014506572063894,0.0014506666093682,-0.0013341038619587,0.0013341068770049,-0.0013341031660351,0.001334107176815,-0.001450668118788,0.0014506560003785,1.4204875656976e-09,-5.1535201386811e-10,-0.00085201429244702,0.00085201522333494,5.374451986953e-09,-4.3841826336123e-09,-0.00065179673892281,0.00065179232700258,-0.00058422060544194,0.00058421034086994,-0.00058421876714655,0.00058421214695163,-0.00065178893660488,0.00065180010973932,-0.00065178935768812,0.00065180006436651,-0.0005842099940286,0.00058422096012217,-0.0005842104093757,0.00058422059544733,-0.0010730054464995,0.0010730101695501,-0.001073008447068,0.0010730072261641,-0.0010730060194636,0.0010730096756566,-0.0010730096417391,0.0010730060047221,-0.0011411683417461,0.0011411629001192,-0.0011411655148234,0.0011411657033746,-0.0011411628721238,0.0011411683473133,-0.0011411639474932,0.0011411672539099,-0.00065180139931099,0.00065178786468625,0.71399676951005,129487,2954,0.0039075463567381,0.0058093670509794,0.0035451141058781,28.588483039366,-2.7292135685074e-05,-2.7292135685074e-05,-2.7292135685074e-05,3996775.6175626,0.013351780045164
33191759,0.83001345346738,0.013823056915041,0.0043188753792997,0.0055155643834987,0.0039886171522426,-0.00094616187232489,0.00094616212969573,1.0240327770898e-09,-7.5058517135883e-10,4.5135100821299e-10,-1.4377013642102e-10,-0.00047272340552573,0.00047271429227267,-0.0010093788620547,0.0010093814826031,-0.0010093817381951,0.0010093786566298,-0.00047272089796406,0.00047271691932708,-0.00047271575670961,0.0004727216937025,-0.0010093805993295,0.0010093798746931,-0.0010093788895681,0.0010093813937254,-0.0011379936026867,0.0011379941297808,-0.0011379936610085,0.0011379939382077,-0.0011379930499064,0.00113799460039,-0.0011379945724013,0.0011379931153187,-0.00086556421164353,0.00086556766470977,-0.00086556769384011,0.00086556432387443,-0.00086556571026414,0.00086556624767687,-0.00086556578265638,0.00086556615768788,-0.0004727143301525,0.0004727229353606,-6.551820566232e-10,6.8255969216699e-10,-5.4945983594388e-09,5.5198886586317e-09,-0.0014112509169228,0.0014112509325128,-0.0014629696133419,0.0014629821620435,-0.0013461072154601,0.0013461006132381,-0.001346104430205,0.0013461036922629,-0.0013779233163342,0.0013779184715702,-0.0013779189976886,0.0013779228671185,-0.0013779221522878,0.0013779196788864,-0.0013779192379323,0.0013779226731792,-0.0014629801908675,0.0014629718722385,-0.0014629712300808,0.0014629804927388,-0.0013461020742242,0.0013461060460553,-0.0013461021632813,0.0013461055580162,-0.0014629826721513,0.0014629693311531,1.3575611258218e-09,-6.603584111803e-10,-0.00085855077088325,0.00085855149190837,5.8005377467006e-09,-5.0350400224247e-09,-0.00065701083759755,0.0006570074524827,-0.00058866981154866,0.00058865744065317,-0.00058866715495153,0.0005886600646596,-0.00065700205445506,0.00065701621356525,-0.00065700462833723,0.00065701403985905,-0.0005886573459511,0.00058866991536435,-0.00058865852236887,0.00058866879305181,-0.0010817885804185,0.0010817932148634,-0.0010817916695342,0.0010817901837971,-0.0010817889157728,0.0010817929611002,-0.0010817931610746,0.0010817886673189,-0.001151027725249,0.0011510208834469,-0.0011510240567238,0.0011510245180027,-0.00115102181371,0.001151026770841,-0.0011510222154245,0.001151026349829,-0.0006570178147429,0.00065700069205225,0.75848444577316,129487,2954,0.0039385577266146,0.0058610252358137,0.0035722912098251,28.653432687064,-2.6772538503491e-05,-2.6772538503491e-05,-2.6772538503491e-05,4002599.567309,0.013463123992085
33391759,0.83685910515553,0.01393833816212,0.0043539590445312,0.0055647503669643,0.0040196287506247,-0.00095435082979565,0.00095435108399279,8.9724116125136e-10,-6.27912437309e-10,4.6811300182206e-10,-1.6181695169144e-10,-0.00047577695934637,0.00047577244726339,-0.0010189195562641,0.0010189205925749,-0.0010189208873019,0.0010189193167677,-0.00047577464334538,0.00047577486978237,-0.00047577364526064,0.0004757754542016,-0.001018919789396,0.0010189204911128,-0.0010189194685514,0.0010189206202701,-0.0011481324665037,0.0011481334215857,-0.0011481329431012,0.0011481328061155,-0.0011481324258551,0.0011481333769735,-0.001148133362325,0.0011481324766221,-0.00087282348340267,0.00087282513350111,-0.00087282517242349,0.00087282355903064,-0.00087282341660201,0.00087282526107474,-0.0008728247851109,0.00087282388134224,-0.00047577249639574,0.00047577641553733,-4.8842074787554e-10,5.0719289929625e-10,-6.4624857268794e-09,6.4799797853597e-09,-0.0014248145805059,0.001424814587893,-0.0014765719972537,0.0014765851031234,-0.0013591836314572,0.0013591782269932,-0.0013591826868501,0.0013591794523941,-0.0013912098790132,0.0013912049928734,-0.001391205437888,0.0013912095454849,-0.0013912093145594,0.0013912055979395,-0.0013912052891554,0.0013912097336221,-0.0014765845286317,0.0014765727801891,-0.0014765722914783,0.0014765847450443,-0.0013591793708408,0.0013591828069456,-0.0013591782715552,0.0013591834752317,-0.001476585467044,0.0014765717780026,1.0796252832475e-09,-6.9213045035675e-10,-0.0008657493520683,0.0008657497588342,6.3463584504512e-09,-5.9176748709845e-09,-0.00066259996172737,0.0006625902670627,-0.00059360594085345,0.00059359338364771,-0.00059360484161849,0.0005935944540301,-0.00066258955143385,0.00066260065499991,-0.00066258796668652,0.00066260258914103,-0.00059359354542122,0.00059360578551381,-0.00059359331874047,0.00059360606110744,-0.001091419122644,0.0010914243491497,-0.0010914231910476,0.0010914203396212,-0.0010914198854014,0.0010914236690677,-0.0010914240933461,0.0010914194094969,-0.0011618980839853,0.0011618921863609,-0.0011618961374767,0.001161894099236,-0.0011618919414888,0.0011618983037961,-0.0011618935797116,0.0011618966438062,-0.00066260232600784,0.00066258807987016,0.77139746781774,129487,2954,0.0039726318454862,0.0059171515725896,0.0036022188375648,29.140658325598,-2.2874733395213e-05,-2.2874733395213e-05,-2.2874733395213e-05,4005025.2355949,0.013584905340383
33591759,0.84355902650944,0.014053249106352,0.0043888904206178,0.0056138105053957,0.0040505481803386,-0.0009620547803217,0.0009620550333937,9.2516413544425e-10,-6.5630258933287e-10,4.7351926742906e-10,-1.6894914183734e-10,-0.00047827328062274,0.00047826759134947,-0.0010280426934321,0.0010280440735397,-0.0010280443828567,0.0010280424344004,-0.00047827094249187,0.00047827007185918,-0.00047826881949785,0.00047827173936103,-0.001028043260027,0.0010280436403314,-0.0010280426054825,0.0010280440970742,-0.001157752342102,0.0011577531779234,-0.0011577526978972,0.0011577526836356,-0.0011577521657297,0.0011577532686788,-0.0011577532603331,0.0011577522120706,-0.00087965692727975,0.00087965906881937,-0.00087965911183668,0.00087965700927335,-0.00087965730529799,0.0008796587670524,-0.00087965828561844,0.00087965776257702,-0.0004782676562971,0.00047827274407424,-4.976167266947e-10,5.1799348044886e-10,-6.6669321980624e-09,6.6872228670199e-09,-0.0014378700988026,0.0014378701085695,-0.0014897054419404,0.0014897191970891,-0.0013717434067913,0.001371737369682,-0.0013717419536769,0.0013717390916506,-0.001403942956489,0.0014039377939704,-0.0014039382471414,0.0014039426225561,-0.0014039422388554,0.0014039385492442,-0.0014039382376519,0.0014039426753975,-0.0014897183751042,0.0014897064700999,-0.0014897059850644,0.0014897186166513,-0.0013717385227947,0.0013717425500451,-0.0013717378967571,0.0013717427715847,-0.001489719572533,0.0014897052275312,1.0690090689773e-09,-7.6195637488445e-10,-0.00087243641210344,0.00087243673645699,6.4930140271836e-09,-6.1526959666998e-09,-0.00066766103012992,0.00066765188541251,-0.00059809111411332,0.00059807769971006,-0.00059808962033575,0.00059807916543775,-0.00066765027922997,0.00066766262865409,-0.00066764966101335,0.00066766359283641,-0.00059807796906478,0.00059809086504087,-0.00059807809881429,0.00059809077393111,-0.0011005363773837,0.0011005415247561,-0.0011005404253106,0.001100537536902,-0.0011005370112856,0.0011005409731531,-0.0011005414967431,0.0011005364360174,-0.0011722946052183,0.0011722880832859,-0.0011722922441857,0.0011722904152887,-0.0011722882741229,0.0011722943933106,-0.0011722896209888,0.0011722930242929,-0.00066766442329491,0.0006676486843351,0.78538558268354,129487,2954,0.0040046940692963,0.0059711686781724,0.0036300232937979,29.396543468642,-2.0827652250867e-05,-2.0827652250867e-05,-2.0827652250867e-05,4000557.9372936,0.013700371483798
33791759,0.85013185775295,0.014165763770352,0.0044230893975614,0.0056618643055161,0.0040808100672745,-0.00096969469526756,0.00096969493468095,1.009017357977e-09,-7.5362276369482e-10,5.1604441793255e-10,-2.2511101657179e-10,-0.00048055843939802,0.00048055047181094,-0.0010370272537851,0.0010370293114366,-0.0010370297302482,0.0010370268800214,-0.00048055585984597,0.00048055321353986,-0.00048055186671328,0.00048055672806939,-0.0010370284569091,0.0010370282459276,-0.0010370271223633,0.0010370293760988,-0.0011673317665052,0.0011673324347601,-0.0011673319373899,0.0011673321281966,-0.0011673313756918,0.0011673327386593,-0.0011673327794379,0.0011673313779527,-0.0008864461688566,0.00088644920404893,-0.00088644929789245,0.00088644621054089,-0.00088644727897633,0.00088644817762919,-0.0008864476766885,0.00088644775364477,-0.00048055064857171,0.0004805578097804,-4.7837677571199e-10,4.9818007714649e-10,-6.8726928241283e-09,6.8918590346137e-09,-0.0014508613763848,0.0014508613857996,-0.0015027648980019,0.0015027797715045,-0.0013842722907615,0.0013842654488462,-0.0013842701601926,0.001384267825182,-0.0014165780401371,0.0014165725186457,-0.0014165729618303,0.0014165777242007,-0.0014165770961942,0.0014165734974638,-0.0014165732052636,0.0014165775256873,-0.0015027782407386,0.0015027666218697,-0.0015027661694618,0.0015027784859152,-0.0013842665537053,0.0013842714598432,-0.0013842666753916,0.0013842709463959,-0.0015027801382036,0.0015027646940141,1.167601528516e-09,-8.4613980177458e-10,-0.00087904612721411,0.00087904646511388,6.4867333199777e-09,-6.1331336537783e-09,-0.00067254343722504,0.0006725365768493,-0.00060244809661749,0.00060243395596187,-0.00060244583889753,0.00060243618799939,-0.00067253288044493,0.00067254713516521,-0.00067253418004986,0.00067254616613511,-0.00060243427058903,0.00060244781061591,-0.00060243505154955,0.00060244705980052,-0.0011096237498712,0.0011096287150446,-0.0011096275392451,0.0011096249865989,-0.0011096241954037,0.0011096283511593,-0.001109628922284,0.0011096235719347,-0.0011826102106223,0.0011826028134175,-0.0011826069511891,0.0011826060469227,-0.0011826037115463,0.001182609293985,-0.0011826045175876,0.0011826084665906,-0.00067254908306391,0.00067253112926404,0.78367913374194,129487,2954,0.0040364926726774,0.006024914944154,0.0036575069495027,29.711243457718,-1.8310052338256e-05,-1.8310052338256e-05,-1.8310052338256e-05,3994395.784286,0.013814984888431
33991759,0.85662732576608,0.014273121555518,0.0044557599636775,0.0057077329698454,0.0041096286219956,-0.00097732965613159,0.00097732988898824,1.1018693741323e-09,-8.5252035435307e-10,5.5106563379374e-10,-2.6752957391986e-10,-0.00048278487565265,0.00048277524947687,-0.0010456915429761,0.0010456940699643,-0.0010456945851549,0.0010456911123304,-0.00048278192089421,0.00048277824753226,-0.00048277685475787,0.00048278289306677,-0.0010456931356925,0.0010456926028708,-0.0010456914199383,0.0010456941386041,-0.0011769519178758,0.0011769525080287,-0.0011769519817542,0.0011769522890584,-0.0011769513864295,0.0011769529414259,-0.0011769530072524,0.0011769513526065,-0.00089314804300628,0.00089315166995485,-0.00089315179219204,0.00089314804871996,-0.00089314955552501,0.00089315023070432,-0.00089314968612985,0.00089315002646731,-0.00048277547595107,0.00048278407649133,-4.471102320305e-10,4.7247562479692e-10,-7.0998668033251e-09,7.1289361624526e-09,-0.0014637579362535,0.0014637579483343,-0.0015155854739466,0.0015156013760121,-0.0013967709335656,0.0013967636056554,-0.0013967684847535,0.0013967663623789,-0.0014291839406087,0.0014291781323615,-0.0014291785643154,0.0014291836366154,-0.0014291828709273,0.0014291792496376,-0.001429178977329,0.0014291832640161,-0.00151559931214,0.0015155877500343,-0.0015155872532134,0.0015155995145698,-0.0013967646981068,0.0013967702149104,-0.0013967652527349,0.0013967692324911,-0.0015156016913095,0.0015155853099433,1.2486478764292e-09,-9.5943340084319e-10,-0.00088566062826883,0.00088566093526615,6.5217273313758e-09,-6.1999598084102e-09,-0.00067721234454316,0.0006772070390627,-0.00060667980826833,0.00060666499804655,-0.00060667703647093,0.00060666777181211,-0.00067720189753655,0.00067721741501838,-0.00067720434974336,0.00067721526857855,-0.00060666541673292,0.00060667938804011,-0.00060666656845192,0.00060667827001404,-0.0011187918511453,0.0011187967332518,-0.0011187955212693,0.0011187931177036,-0.0011187922109068,0.0011187964614863,-0.001118797121259,0.001118791489126,-0.0011927372946245,0.001192729162151,-0.0011927333613829,0.0011927330706577,-0.001192730554548,0.0011927358436449,-0.0011927310733522,0.0011927353218885,-0.00067721958285633,0.00067719989965672,0.75679231359762,129487,2954,0.0040682688093951,0.0060782661642375,0.0036850098044137,30.174118903797,-1.460704876962e-05,-1.460704876962e-05,-1.460704876962e-05,3992045.0298693,0.013929208841609
34191759,0.86291833164864,0.014374989682994,0.0044867823002646,0.0057512586585135,0.0041369487242158,-0.00098411487755667,0.00098411510956432,1.0401379974982e-09,-7.9016906328928e-10,5.5876877905618e-10,-2.7541314746446e-10,-0.0004846358385438,0.00048462719305311,-0.0010532878884234,0.0010532900461366,-0.0010532905738397,0.001053287432422,-0.00048463308262501,0.00048463009302429,-0.00048462867762311,0.00048463406721909,-0.0010532891749157,0.0010532889001399,-0.001053287697492,0.001053290182342,-0.0011855783234833,0.0011855789885101,-0.0011855784630065,0.0011855787008214,-0.0011855779056037,0.0011855793082396,-0.0011855793877836,0.001185577867924,-0.00089896806487528,0.00089897121664465,-0.00089897134693067,0.00089896808245582,-0.0008989692313602,0.00089897014125963,-0.00089896959791317,0.00089896970829,-0.00048462747780645,0.00048463511709898,-5.3675832579865e-10,5.6586617882372e-10,-6.5952247926156e-09,6.6271134817322e-09,-0.001475394618263,0.0014753946357311,-0.0015269584487664,0.0015269731098087,-0.0014080164999332,0.0014080096492935,-0.0014080141849733,0.0014080122595443,-0.0014406997768623,0.0014406943558444,-0.0014406948272924,0.0014406994179945,-0.0014406987528748,0.0014406954266434,-0.0014406950835205,0.0014406992086994,-0.0015269712735174,0.001526960536134,-0.0015269599840343,0.0015269715380795,-0.001408010890716,0.0014080155741263,-0.0014080109690771,0.0014080151076553,-0.0015269735176099,0.00152695825464,1.2503314547764e-09,-8.3785267827875e-10,-0.00089150037988474,0.0008915008130448,6.3162341272764e-09,-5.860320754481e-09,-0.00068128458414137,0.00068127896934122,-0.00061027226222702,0.00061025847550671,-0.00061026982679741,0.00061026090521686,-0.00068127455152079,0.00068128897156898,-0.00068127634776159,0.00068128748643939,-0.00061025871256613,0.00061027204517543,-0.00061025962415405,0.00061027115887088,-0.0011270238024872,0.0011270287136442,-0.0011270274117772,0.0011270251610147,-0.001127024244744,0.0011270283580633,-0.0011270288604757,0.0011270236825588,-0.0012016738310607,0.0012016664011018,-0.0012016702947808,0.0012016699100168,-0.0012016674002568,0.0012016727806038,-0.0012016680788756,0.0012016721014143,-0.00068129092187083,0.0006812727960225,0.74153925687095,129487,2954,0.0040965053015414,0.0061264027271907,0.0037092938641238,30.313352935759,-1.349317651393e-05,-1.349317651393e-05,-1.349317651393e-05,3991234.1235084,0.014031301505426
34391759,0.86903984627382,0.014473306899815,0.004516723351171,0.0057932632524629,0.0041633202961807,-0.00099087898671513,0.00099087922879131,9.9875506717415e-10,-7.39106810059e-10,5.1850601496775e-10,-2.225997525833e-10,-0.00048675999421112,0.00048675172191747,-0.0010607996189299,0.0010608017918001,-0.0010608022064921,0.0010607992460854,-0.00048675753053249,0.00048675443171773,-0.00048675308068981,0.00048675840878761,-0.0010608009519757,0.0010608005960705,-0.0010607994665786,0.0010608018785058,-0.0011940949174597,0.0011940955484687,-0.0011940950477584,0.0011940952785197,-0.0011940944853754,0.0011940958899563,-0.0011940959303093,0.0011940944889221,-0.00090477508826174,0.00090477814214115,-0.00090477823556281,0.00090477514426239,-0.00090477624294791,0.00090477708714206,-0.00090477657850994,0.0009047767094774,-0.00048675193110793,0.00048675945324786,-6.0445895934077e-10,6.3826496459787e-10,-6.1999497693786e-09,6.2319533397209e-09,-0.0014867890891462,0.0014867891129702,-0.001537979889007,0.0015379936830926,-0.0014190157338801,0.0014190090157951,-0.0014190132720149,0.0014190117263511,-0.0014520518993881,0.0014520466958617,-0.0014520471933659,0.0014520515018243,-0.0014520508275507,0.0014520478075442,-0.0014520474034414,0.0014520513435524,-0.0015379918857887,0.0015379819471385,-0.0015379813759698,0.0015379922169924,-0.0014190103573275,0.0014190146442087,-0.0014190102985688,0.0014190143374775,-0.0015379941691279,0.0015379796594688,1.2051454568247e-09,-7.9259724180127e-10,-0.00089739063924498,0.00089739107306794,6.3370439839871e-09,-5.8832783872734e-09,-0.00068556287359412,0.0006855568984575,-0.00061403574600324,0.00061402198835622,-0.00061403336630221,0.00061402434692626,-0.00068555266735822,0.00068556714993216,-0.00068555451552496,0.00068556562282887,-0.00061402218439831,0.00061403558353689,-0.00061402312032493,0.00061403467043712,-0.0011351774069443,0.0011351823191195,-0.001135181041787,0.0011351787438656,-0.0011351778371035,0.0011351819708231,-0.0011351824524503,0.0011351773027611,-0.0012104720455456,0.0012104647219827,-0.0012104686261895,0.0012104681194243,-0.0012104657059843,0.0012104710405898,-0.0012104663209338,0.0012104704136737,-0.00068556899886523,0.00068555101437082,0.73560443975934,129487,2954,0.0041246473520724,0.0061735371210387,0.0037337850174187,30.547618898998,-1.1619048808018e-05,-1.1619048808018e-05,-1.1619048808018e-05,3996336.0666329,0.014132500514561
34591759,0.87532589481178,0.014577966435765,0.0045485427835641,0.0058379608695698,0.0041914627826314,-0.00099974974935139,0.00099974999158145,1.0026302227614e-09,-7.448351128427e-10,5.2700462431165e-10,-2.2950026786553e-10,-0.00049091938155532,0.00049091111723939,-0.0010708219482302,0.0010708240776226,-0.0010708245117407,0.0010708215743804,-0.00049091675975047,0.00049091384756084,-0.00049091246981042,0.00049091765413948,-0.0010708232150877,0.0010708229398611,-0.0010708217927566,0.0010708241688734,-0.0012047789886616,0.0012047796371422,-0.0012047791260439,0.0012047793503475,-0.0012047785691875,0.0012047799617871,-0.0012047800026183,0.0012047785670212,-0.00091275970040165,0.00091276270464738,-0.00091276280329282,0.00091275973036756,-0.00091276078447217,0.00091276170123796,-0.00091276117871813,0.00091276125653779,-0.0004909112720024,0.00049091869113133,-3.7832576977507e-10,4.0434885464064e-10,-7.4262868417993e-09,7.4530494975715e-09,-0.0015006229037666,0.0015006229182987,-0.0015514873681754,0.001551503641829,-0.0014323620898489,0.0014323550367609,-0.0014323601226783,0.0014323572585589,-0.0014657784721954,0.0014657725974485,-0.0014657729846512,0.0014657782295189,-0.0014657775517859,0.001465773554998,-0.0014657733307277,0.0014657779220162,-0.0015515018395173,0.0015514893221277,-0.0015514889318995,0.0015515020425049,-0.0014323559695167,0.0014323614892146,-0.001432356289322,0.0014323607330792,-0.0015515039068096,0.0015514872206298,1.0205147197994e-09,-9.8913440959335e-10,-0.00090536751734876,0.00090536756391926,6.9469576258822e-09,-6.9056322586233e-09,-0.00069209477541921,0.00069208676530203,-0.00061999117566322,0.00061997541295261,-0.00061998881768824,0.00061997775943558,-0.0006920829975846,0.0006920985480768,-0.00069208465072303,0.00069209717052868,-0.00061997603177322,0.00061999056500579,-0.00061997691513323,0.00061998970341055,-0.0011454495131645,0.0011454545979973,-0.0011454536970426,0.0011454504720509,-0.0011454499584175,0.0011454542355825,-0.0011454550974039,0.0011454490394323,-0.0012216970142459,0.001221688800758,-0.0012216936249608,0.0012216921726712,-0.0012216901147846,0.0012216956743283,-0.001221690782319,0.0012216949911093,-0.00069210078783468,0.00069208092172523,0.76226513274914,129487,2954,0.0041615397313731,0.0062307636688534,0.0037669379615284,31.751041459022,-1.9916683278213e-06,-1.9916683278213e-06,-1.9916683278213e-06,4019077.6215712,0.014261606533708
34791759,0.88191476940787,0.01469190523209,0.0045830930521487,0.0058866861777122,0.0042221260022292,-0.0010099126890383,0.0010099129236752,1.0407241875169e-09,-7.903665224188e-10,5.4853219492386e-10,-2.5828181475609e-10,-0.00049574944940309,0.00049574124131581,-0.0010825134341264,0.001082515473038,-0.0010825159622594,0.0010825129998693,-0.00049574678255521,0.00049574412217688,-0.00049574269978052,0.00049574770501025,-0.0010825146069663,0.00108251445082,-0.0010825132502659,0.0010825155851517,-0.0012169187756092,0.0012169194775549,-0.001216918958537,0.0012169191431998,-0.0012169183865609,0.0012169197659988,-0.0012169198378839,0.001216918364618,-0.0009221173866489,0.00092212039827016,-0.00092212052646765,0.00092211741271313,-0.00092211842104628,0.000922119481761,-0.00092211893591482,0.00092211887969019,-0.00049574150263146,0.00049574879647143,-1.9252970814369e-10,1.9738365138112e-10,-8.7504714761618e-09,8.7575573765453e-09,-0.001516329217959,0.0015163292142445,-0.0015670353873215,0.0015670542830163,-0.0014475117014711,0.0014475042008588,-0.0014475101552211,0.0014475059726937,-0.0014811958408302,0.0014811892482923,-0.0014811895443264,0.0014811957392182,-0.0014811950610797,0.001481190054815,-0.0014811900041802,0.0014811953127291,-0.0015670525385854,0.0015670371892077,-0.0015670370157975,0.0015670526472077,-0.0014475047612338,0.0014475114559562,-0.0014475054196181,0.0014475103642251,-0.0015670543967189,0.0015670353068419,8.8005101111923e-10,-1.2159662095817e-09,-0.00091453353985467,0.00091453321213417,7.5560638876371e-09,-7.9165799481962e-09,-0.00069967411419416,0.00069966399208597,-0.00062702678305246,0.00062700904130128,-0.00062702444013208,0.00062701137175655,-0.00069966082827796,0.00069967731098017,-0.00069966221118145,0.00069967619267682,-0.0006270100926213,0.00062702577103276,-0.00062701090346658,0.00062702496110848,-0.0011571128411821,0.0011571181526544,-0.0011571175832271,0.0011571134704831,-0.0011571133340518,0.0011571177400751,-0.001157118994151,0.0011571120224956,-0.0012346463149138,0.0012346371725987,-0.0012346429030782,0.0012346405754734,-0.0012346387996574,0.0012346446718175,-0.0012346396075102,0.0012346438503191,-0.00069968002712612,0.000699658277106,0.79180580033191,129487,2954,0.0042038095966539,0.0062957305183969,0.0038050305891144,33.403264039886,1.1226112319091e-05,1.1226112319091e-05,1.1226112319091e-05,4042387.4199049,0.014409050278265
34991759,0.8885590860361,0.014801296914448,0.0046162692954799,0.0059335926396134,0.0042514349793542,-0.001018723437895,0.0010187236860113,9.8038862041826e-10,-7.1546130175129e-10,5.1705199382827e-10,-2.1635059340259e-10,-0.00049862511140032,0.00049861722899791,-0.0010923621427455,0.0010923641576304,-0.0010923645758094,0.0010923618048345,-0.000498622544861,0.00049861991036209,-0.00049861863435309,0.00049862346590964,-0.0010923633103902,0.0010923631317642,-0.0010923620024217,0.0010923642332982,-0.0012278624113159,0.0012278630794122,-0.001227862563431,0.0012278627624744,-0.0012278620176797,0.0012278633685703,-0.0012278633953898,0.0012278620315246,-0.00092999934861661,0.00093000220935774,-0.00093000228642882,0.00092999942848031,-0.00093000035655503,0.00093000133590026,-0.000930000788123,0.00093000076704219,-0.00049861741942631,0.00049862451126408,-3.4707378325181e-10,3.6762477681542e-10,-8.2721204118702e-09,8.2978022517194e-09,-0.0015307876208369,0.0015307876310982,-0.0015813086934408,0.0015813265358206,-0.0014615088589835,0.0014615014479106,-0.0014615070990443,0.0014615035074161,-0.0014953347276728,0.0014953283832072,-0.001495328763643,0.0014953345294075,-0.0014953338753218,0.0014953292783106,-0.0014953291043022,0.00149533422168,-0.0015813248930756,0.0015813104633847,-0.0015813100919853,0.0015813250675568,-0.0014615023516337,0.0014615083443676,-0.0014615026050547,0.001461507635311,-0.0015813267457779,0.0015813085505405,8.2711027427534e-10,-1.133872600088e-09,-0.00092229688475587,0.00092229658706118,7.4502010139988e-09,-7.7732312716939e-09,-0.00070526675516498,0.00070525661334487,-0.00063223048439575,0.00063221310820194,-0.00063222824521134,0.00063221536300888,-0.00070525360593518,0.00070526974094171,-0.00070525484677862,0.0007052687746485,-0.00063221409731493,0.00063222953478999,-0.00063221487324437,0.00063222876378344,-0.0011676261188456,0.0011676313590777,-0.0011676308042694,0.0011676267307117,-0.0011676265896364,0.0011676309725647,-0.0011676321508889,0.0011676253520951,-0.0012460883536715,0.0012460795371188,-0.0012460851523779,0.0012460827346721,-0.0012460810465756,0.001246086812444,-0.0012460818094043,0.0012460860474964,-0.0007052722718526,0.00070525120894351,0.75495090316253,129487,2954,0.004240471427172,0.0063555261201265,0.0038373030589479,34.46829468676,1.9746357494078e-05,1.9746357494078e-05,1.9746357494078e-05,4048261.1557607,0.014539679017306
35191759,0.89513418695257,0.014906715837074,0.0046482633735478,0.0059788203231295,0.0042796321403971,-0.001026892468575,0.0010268926112193,1.1769610394276e-09,-1.0165648979931e-09,8.1626890042776e-10,-6.2722833245793e-10,-0.00050135993590219,0.00050135089905246,-0.0011013466525936,0.0011013479929967,-0.0011013492075376,0.001101345473795,-0.00050135640943744,0.0005013547722958,-0.00050135277856126,0.00050135782629571,-0.0011013471277228,0.001101347686405,-0.0011013459379471,0.0011013486189892,-0.0012380470943634,0.0012380480664067,-0.0012380474386704,0.0012380475915022,-0.0012380469425442,0.0012380481187279,-0.0012380485026359,0.0012380466287078,-0.00093716152249731,0.00093716453263783,-0.00093716496822139,0.00093716127719234,-0.00093716229718798,0.00093716389487245,-0.00093716324482624,0.00093716288103466,-0.00050135192719899,0.00050135866049873,-1.8078734571774e-10,1.76267751825e-10,-8.0134001674785e-09,8.0112052208267e-09,-0.001544256856708,0.0015442568468117,-0.0015943770247813,0.0015943944062441,-0.0014745035188841,0.0014744965909743,-0.0014745020514222,0.0014744982507584,-0.0015086926111146,0.0015086865428046,-0.0015086868105125,0.0015086925206442,-0.0015086918677713,0.0015086873037088,-0.0015086872707511,0.0015086920948237,-0.0015943928191226,0.0015943787525744,-0.0015943786039471,0.0015943928932695,-0.0014744970857718,0.0014745032588652,-0.0014744977405659,0.0014745022088317,-0.0015943945690893,0.0015943770041045,1.35779016781e-09,-1.1038208853973e-09,-0.00092949053299603,0.00092949080012062,6.4775807758463e-09,-6.2031554400946e-09,-0.00071049618475333,0.00071048941821374,-0.00063696983950734,0.0006369554298226,-0.00063696743535087,0.0006369578194592,-0.00071048598893974,0.00071049971869045,-0.00071048679162287,0.00071049913728308,-0.00063695597936482,0.00063696937494439,-0.00063695661035057,0.00063696870967518,-0.0011774304050637,0.0011774355318196,-0.0011774342496822,0.0011774317482864,-0.001177431046063,0.0011774349623825,-0.0011774357618819,0.0011774301919035,-0.0012565483044691,0.0012565404058139,-0.0012565446286406,0.0012565441004433,-0.001256541378682,0.0012565473393668,-0.0012565426322527,0.0012565460729513,-0.00071050214186238,0.00071048370647432,0.73557131921843,129487,2954,0.0042744552156133,0.006411228951664,0.0038672089876524,35.26556491659,2.6124519332722e-05,2.6124519332722e-05,2.6124519332722e-05,4058827.7473835,0.014661049887329
35391759,0.90153990649557,0.01500645349997,0.0046785382595947,0.0060216497077186,0.0043062655326568,-0.0010343454422871,0.0010343456643825,8.0674024835977e-10,-5.6618989450796e-10,5.7624870723284e-10,-3.041582784969e-10,-0.00050373707829685,0.00050372969321271,-0.0011093704213141,0.0011093720412575,-0.0011093726272677,0.0011093698962427,-0.00050373477412841,0.00050373215131103,-0.00050373081836942,0.0005037358380669,-0.0011093713475254,0.001109371262681,-0.0011093700073824,0.0011093723832835,-0.001247425153594,0.0012474257818278,-0.0012474252511899,0.0012474255395897,-0.001247424848636,0.0012474259909078,-0.0012474260979049,0.0012474247897191,-0.00094356023224267,0.00094356264217476,-0.00094356279404439,0.00094356027632258,-0.00094356113651744,0.0009435618962781,-0.00094356134672546,0.00094356155921182,-0.00050373010620044,0.00050373641840986,-5.8721775557712e-10,6.2426514041524e-10,-6.4456413254349e-09,6.4828842781295e-09,-0.0015566995681446,0.0015566995953254,-0.0016062965104516,0.001606310557178,-0.0014864840963502,0.0014864775066844,-0.0014864819249061,0.0014864799582118,-0.0015211471947638,0.0015211419464351,-0.0015211424195787,0.0015211468377247,-0.0015211462245839,0.0015211429579093,-0.001521142586135,0.0015211467156657,-0.0016063091043375,0.0016062982397126,-0.0016062976655065,0.0016063094124487,-0.0014864788393522,0.0014864830676109,-0.0014864785495627,0.0014864829545069,-0.0016063110173779,0.0016062963040391,9.9609048275185e-10,-6.446814744529e-10,-0.00093605343714305,0.00093605380671687,6.3825648974206e-09,-5.9915370347152e-09,-0.00071517017148221,0.00071516283689738,-0.00064111422703523,0.00064110057231943,-0.00064111219409479,0.00064110262463472,-0.00071515948542841,0.00071517354996056,-0.00071516081869119,0.00071517249694924,-0.00064110073939258,0.00064111412893396,-0.000641101550973,0.0006411133052697,-0.0011864753227022,0.0011864802073058,-0.0011864790969401,0.0011864764909895,-0.0011864757288239,0.0011864798806005,-0.0011864803157789,0.0011864752395894,-0.0012660308167627,0.0012660240294405,-0.0012660280354786,0.0012660268155395,-0.0012660247907817,0.0012660300393142,-0.0012660253462737,0.0012660294854379,-0.00071517506455145,0.00071515812166376,0.71497358569241,129487,2954,0.0043054569654685,0.0064626849984647,0.0038944928372418,35.835647987078,3.0685183896623e-05,3.0685183896623e-05,3.0685183896623e-05,4070634.8558112,0.014772436660985
35591759,0.90782271912384,0.015099458556311,0.0047067869101832,0.006061639063049,0.0043310325830784,-0.0010417409142131,0.0010417413399233,-5.4440991528314e-10,9.8824597308741e-10,-6.4389330597208e-12,5.0666162289403e-10,-0.00050629614524058,0.00050629417501331,-0.0011170148963325,0.0011170169112533,-0.0011170158712952,0.0011170159405423,-0.00050629842895416,0.0005062922459937,-0.00050629210909858,0.00050629824674446,-0.0011170169483117,0.0011170149476714,-0.0011170148883412,0.0011170168696604,-0.0012567405297021,0.0012567400200543,-0.001256739734185,0.0012567406530526,-0.0012567398545476,0.0012567406100857,-0.0012567400557297,0.0012567404280627,-0.0009498102688335,0.0009498102593053,-0.00094980967958607,0.00094981088144393,-0.00094981135214086,0.00094980922253992,-0.00094980896383358,0.00094981156420114,-0.00050629299990795,0.00050629729678694,-1.2570057189558e-09,1.3508553671414e-09,-4.5701490641714e-09,4.6537340880887e-09,-0.0015688823157335,0.0015688823975036,-0.0016178243763036,0.001617833999221,-0.0014982284044803,0.0014982218876924,-0.0014982250418605,0.0014982254775147,-0.0015334570429275,0.0015334526277902,-0.0015334534428618,0.001533456251337,-0.0015334556983842,0.0015334540139753,-0.0015334531079771,0.0015334566791685,-0.001617832816659,0.0016178259542421,-0.0016178248745601,0.0016178336533277,-0.0014982244889569,0.0014982259908174,-0.0014982226760422,0.0014982275563249,-0.0016178350241733,0.0016178238682066,-7.4674813306301e-10,5.1899464138246e-10,-0.00094263974734509,0.00094263954059032,7.3934629859095e-09,-7.6233324110527e-09,-0.00071978773684809,0.00071977316125049,-0.00064521808491324,0.0006452024274133,-0.00064521723449862,0.00064520324078464,-0.00071977125647833,0.00071978975636874,-0.00071977506847365,0.00071978646211936,-0.00064520217862299,0.00064521836700707,-0.00064520380792198,0.00064521678700413,-0.0011955099957793,0.0011955142809507,-0.0011955146872515,0.0011955096472826,-0.0011955095281619,0.0011955148371311,-0.0011955148847425,0.001195509434571,-0.0012752163881507,0.0012752112163022,-0.0012752166436341,0.0012752108949183,-0.0012752123104901,0.0012752152587205,-0.0012752102463593,0.0012752173188105,-0.00071978899175752,0.00071977237450445,0.68077661458733,129487,2954,0.0043362126303603,0.0065130664725537,0.0039218693485697,36.580046874947,3.6640374999579e-05,3.6640374999579e-05,3.6640374999579e-05,4090483.2014724,0.014882589000314
35791759,0.91405490821955,0.015197078095679,0.0047363535961536,0.0061035855859444,0.0043571389135814,-0.0010498876054809,0.0010498878489848,1.0742889588127e-09,-8.1391607861367e-10,6.0755422587074e-10,-3.0668034659651e-10,-0.0005101198627314,0.00051011161664682,-0.0011259411548979,0.0011259429528785,-0.0011259435166824,0.0011259405927495,-0.00051011675496319,0.00051011480676508,-0.00051011293605719,0.00051011753002441,-0.0011259420272942,0.0011259421837433,-0.0011259408775891,0.0011259431496107,-0.0012666415818231,0.0012666423573507,-0.0012666417964945,0.0012666420004458,-0.0012666412834039,0.0012666425601469,-0.00126664265866,0.0012666412330288,-0.00095693489719911,0.00095693776921389,-0.00095693790739098,0.00095693479325977,-0.00095693565778742,0.00095693698157784,-0.0009569364279676,0.00095693628587315,-0.00051011164473137,0.00051011866764378,-4.8600685770646e-10,5.3456732098235e-10,-6.4783263708116e-09,6.524601819099e-09,-0.0015817575241013,0.0015817575629096,-0.0016300578968639,0.0016300717802414,-0.0015104758026153,0.0015104692662741,-0.0015104737534436,0.0015104715031005,-0.0015465006927166,0.001546495363073,-0.0015464957955029,0.0015465003783413,-0.0015464997412943,0.001546496337445,-0.0015464959988851,0.0015465002304135,-0.0016300703235571,0.0016300595347531,-0.0016300590566148,0.0016300706204253,-0.001510470373813,0.0015104749469359,-0.0015104703040431,0.0015104746521335,-0.0016300721337424,0.0016300577227119,1.1817245340972e-09,-9.7352924871736e-10,-0.00095004250389738,0.00095004273223338,6.1477186231881e-09,-5.9114595669533e-09,-0.00072573123072181,0.00072572459468497,-0.00065057840179464,0.00065056471853994,-0.00065057611179271,0.00065056695576187,-0.00072572136226762,0.00072573450085248,-0.00072572226047583,0.00072573396628508,-0.00065056520758574,0.00065057791374687,-0.00065056587454365,0.00065057728965705,-0.0012051048746228,0.0012051096072471,-0.0012051085115047,0.0012051060303131,-0.0012051054049872,0.0012051091590891,-0.0012051098590222,0.0012051046482774,-0.0012852833984021,0.0012852760323844,-0.0012852800766715,0.0012852793260986,-0.001285276934677,0.0012852824819206,-0.001285278001746,0.0012852813772467,-0.00072573672744536,0.00072571939735882,0.72027651052016,129487,2954,0.0043700775560013,0.0065663129017762,0.003952633911052,37.602228052679,4.481782442143e-05,4.481782442143e-05,4.481782442143e-05,4121896.8730764,0.015002250971169
35991759,0.92000678348599,0.015296082659281,0.0047662259207556,0.006146172323828,0.0043836844146971,-0.0010568226323978,0.0010568228613704,1.1283926583641e-09,-8.8022919630815e-10,6.2894890874845e-10,-3.4246967337479e-10,-0.0005125413286708,0.00051253316614088,-0.0011340514069451,0.0011340531696527,-0.0011340538148541,0.0011340508204727,-0.00051253821957905,0.00051253640651835,-0.00051253484307347,0.00051253931970836,-0.0011340522304433,0.0011340524627809,-0.0011340511350152,0.0011340533852468,-0.0012752295717611,0.0012752303933748,-0.0012752298263949,0.001275229982181,-0.0012752292870281,0.001275230568243,-0.0012752306990597,0.0012752292032243,-0.00096306932780203,0.00096307228743776,-0.00096307250115855,0.00096306929434486,-0.00096307014166566,0.00096307157798936,-0.00096307094362863,0.00096307065943152,-0.00051253357927934,0.00051254049031438,-5.5798525733046e-10,6.1874919782791e-10,-5.9235924456698e-09,5.9897736075573e-09,-0.0015934223176251,0.0015934223664712,-0.001641294078142,0.0016413069399502,-0.001521489026533,0.0015214828046292,-0.0015214868595482,0.0015214852066164,-0.0015581538396608,0.0015581488984182,-0.0015581493723172,0.0015581534522098,-0.0015581528457846,0.0015581499289214,-0.0015581495166119,0.0015581533698867,-0.0016413055105216,0.0016412957975428,-0.0016412951804783,0.0016413058484478,-0.0015214840858981,0.0015214880238682,-0.0015214838351852,0.0015214879571412,-0.0016413073731051,0.0016412939528635,1.3891237942363e-09,-8.8492641884064e-10,-0.00095622437457295,0.00095622490290618,5.802079876141e-09,-5.2467557122439e-09,-0.00073060900131601,0.00073060376863718,-0.00065492223755369,0.0006549098382542,-0.00065491997128335,0.00065491208791095,-0.00073060024428282,0.0007306125145605,-0.00073060095531226,0.00073061215351691,-0.00065491001998642,0.00065492204556814,-0.00065491064464407,0.00065492145218606,-0.0012133741734245,0.0012133789308512,-0.0012133774920531,0.001213375666584,-0.0012133747562502,0.0012133784377842,-0.0012133788800658,0.0012133742456486,-0.0012943755991533,0.001294368789476,-0.0012943721932023,0.0012943721545937,-0.0012943693534001,0.0012943749601085,-0.0012943705408316,0.0012943737674508,-0.00073061459915248,0.00073059845162886,0.76500084157234,129487,2954,0.004398921694717,0.0066145436146403,0.0039783323751281,37.99091446116,4.7927315689284e-05,4.7927315689284e-05,4.7927315689284e-05,4130311.4618618,0.015106596145777
36191759,0.92556015410365,0.015385804992471,0.0047932825898953,0.0061848348414761,0.0044076875610997,-0.00106237763479,0.0010623778914378,1.4999332064966e-09,-1.2250223710398e-09,5.3555587940021e-10,-2.2302244261158e-10,-0.00051331898725091,0.00051331029852848,-0.0011404409544503,0.0011404431913824,-0.0011404436024915,0.0011404405862696,-0.00051331535331758,0.00051331402296865,-0.00051331267554025,0.00051331629170557,-0.0011404419808974,0.0011404422690106,-0.0011404411265066,0.0011404429595089,-0.0012824630839872,0.0012824641114405,-0.0012824635883777,0.0012824634557249,-0.0012824627321063,0.0012824643648235,-0.001282464388977,0.0012824627475216,-0.00096785298342479,0.00096785676356299,-0.00096785687486621,0.00096785306249639,-0.00096785390029693,0.00096785597905893,-0.00096785541212597,0.00096785436220632,-0.00051331043896995,0.00051331831405825,-7.6314567890865e-10,8.4900817105228e-10,-4.9379388029473e-09,5.0227704036649e-09,-0.0016035495752119,0.0016035496467673,-0.0016510589412152,0.0016510697638399,-0.0015311416755902,0.0015311356969681,-0.0015311390986652,0.001531138554658,-0.001568170207372,0.0015681658021995,-0.0015681663771524,0.0015681696943701,-0.0015681690788433,0.0015681669812923,-0.0015681663783081,0.0015681697514082,-0.0016510683431101,0.0016510607023308,-0.0016510598835355,0.001651068807235,-0.0015311373936702,0.0015311402833811,-0.001531136695474,0.001531140604157,-0.0016510703608136,0.0016510586902581,1.8306442596333e-09,-1.1621805163889e-09,-0.00096102047682983,0.00096102117323937,5.5810707116061e-09,-4.8394685007945e-09,-0.0007337618515133,0.00073375815300044,-0.00065769500278322,0.00065768314841357,-0.00065769247924212,0.00065768565774029,-0.00073375439019443,0.00073376558801268,-0.00073375445415527,0.00073376590958379,-0.00065768340018809,0.00065769474914058,-0.00065768379081778,0.00065769440662618,-0.0012203385765741,0.0012203435356373,-0.0012203416902717,0.0012203404781709,-0.0012203394063282,0.0012203427931651,-0.0012203433305049,0.0012203388102791,-0.0013019726016543,0.0013019654538016,-0.0013019684888576,0.0013019695314329,-0.0013019658846709,0.0013019721393047,-0.0013019677549695,0.0013019702400932,-0.00073376814552773,0.00073375207436438,0.74361145785291,129487,2954,0.0044220456819883,0.0066564070782617,0.0039982797466887,37.973944173692,4.7791553389538e-05,4.7791553389538e-05,4.7791553389538e-05,4120101.2640975,0.015192845973048
36391759,0.93050762972023,0.01546473757072,0.004817099043095,0.0062188338866894,0.0044288046409351,-0.0010657380699728,0.001065738326178,1.5111423689467e-09,-1.2361724961758e-09,5.4333753467598e-10,-2.339694030424e-10,-0.0005127751760821,0.00051276657245403,-0.001144405512567,0.0011444076788423,-0.0011444081031942,0.0011444051114512,-0.00051277144657385,0.0005127703266043,-0.00051276898842784,0.00051277241415269,-0.0011444064453381,0.001144406814915,-0.001144405675922,0.0011444074593191,-0.0012871888117136,0.0012871898851514,-0.0012871893577822,0.0012871891956214,-0.0012871884913849,0.0012871901150122,-0.0012871901419692,0.00128718849482,-0.00097049657334963,0.00097050032331258,-0.00097050042100372,0.00097049662242959,-0.00097049740628163,0.00097049957350304,-0.00097049902175635,0.00097049790722823,-0.00051276670724457,0.00051277444100418,-9.4811399569471e-10,1.0583732488208e-09,-3.4967232950624e-09,3.6073254059791e-09,-0.0016106825115309,0.0016106826056127,-0.0016577163193442,0.0016577241488351,-0.0015378371386521,0.0015378317723663,-0.0015378342556748,0.0015378349870683,-0.0015753536657199,0.0015753500836343,-0.0015753507465293,0.0015753530206057,-0.0015753524346055,0.001575351381667,-0.0015753505971938,0.0015753532275505,-0.0016577228089497,0.0016577181113455,-0.0016577170592314,0.0016577233641186,-0.001537833845712,0.0015378353876053,-0.0015378326967896,0.0015378361507368,-0.0016577248968192,0.0016577160111304,2.0482296139766e-09,-9.7354640490281e-10,-0.00096373908604463,0.00096374019639919,4.9192763345215e-09,-3.7308921884296e-09,-0.00073516533868644,0.00073516375297797,-0.00065871882092432,0.00065870919398671,-0.00065871633869062,0.00065871165497483,-0.00073515968551226,0.00073516935438633,-0.00073515953770259,0.00073516988639197,-0.00065870900717433,0.00065871899332436,-0.00065870933985966,0.00065871872543082,-0.0012248700646984,0.0012248748674622,-0.0012248726027296,0.0012248723857612,-0.0012248709342375,0.0012248740879033,-0.0012248742424469,0.0012248707203576,-0.0013068636065494,0.0013068574814626,-0.0013068595236029,0.0013068615259769,-0.0013068574503556,0.0013068636034197,-0.0013068594079988,0.0013068616142641,-0.0007351715262648,0.00073515774755648,0.73413663694383,129487,2954,0.0044360435645664,0.006685887415389,0.0040095997832845,37.086502418371,4.0692019346972e-05,4.0692019346972e-05,4.0692019346972e-05,4101444.9404489,0.015248500032814
36591759,0.93498275319037,0.015531928188522,0.0048374142310874,0.0062477706147849,0.0044467433426493,-0.0010688412281587,0.0010688414988724,1.6664687595968e-09,-1.377221348539e-09,5.0763322327113e-10,-1.7681071243646e-10,-0.00051239415157906,0.00051238561746684,-0.0011477624672492,0.0011477647822051,-0.0011477650748785,0.0011477621570923,-0.00051239039714829,0.00051238955905122,-0.00051238821882961,0.00051239122700472,-0.001147763446121,0.001147763869238,-0.001147762800366,0.0011477643908892,-0.001291564225777,0.001291565412192,-0.0012915649082907,0.0012915645951256,-0.0012915638939386,0.0012915656577224,-0.0012915656458363,0.0012915639412628,-0.00097286173774615,0.00097286578233412,-0.00097286583177025,0.0009728618132793,-0.00097286254350555,0.00097286503984399,-0.00097286451746147,0.0009728630553381,-0.00051238566489019,0.00051239363100704,-9.6206050780011e-10,1.0712103312009e-09,-3.2175253081634e-09,3.3203415212575e-09,-0.001617099987639,0.0016171000823306,-0.0016635382527912,0.0016635454022442,-0.0015439216288559,0.0015439164432148,-0.0015439187388971,0.0015439196246582,-0.0015819103732593,0.0015819069653848,-0.0015819076269906,0.0015819097182447,-0.0015819091434882,0.0015819082576285,-0.0015819074483622,0.0015819099556411,-0.0016635441199043,0.0016635399740872,-0.0016635389753963,0.0016635447160234,-0.0015439185104308,0.0015439198193661,-0.0015439173054398,0.0015439206543138,-0.0016635461968591,0.0016635379282615,2.2202402744778e-09,-1.1030750952946e-09,-0.00096629900640919,0.00096630016128617,4.9651673788904e-09,-3.7374877709465e-09,-0.00073642289703393,0.00073642129299772,-0.00065964144075153,0.00065963176858056,-0.00065963890242596,0.00065963425591876,-0.00073641743541789,0.00073642679078834,-0.00073641692292231,0.0007364276996702,-0.00065963162084853,0.00065964158292506,-0.00065963183425649,0.00065964143020264,-0.0012291117336766,0.0012291167215992,-0.0012291142968599,0.0012291142174653,-0.0012291127356199,0.0012291158078223,-0.0012291160353462,0.001229112451149,-0.0013111916996099,0.0013111853432864,-0.0013111873563452,0.0013111896346599,-0.0013111852297256,0.0013111917908668,-0.0013111875309432,0.0013111894537317,-0.00073642923138834,0.00073641526908112,0.69114877913474,129487,2954,0.0044489657364289,0.0067124107201199,0.0040202562250761,36.437871656882,3.5502973255056e-05,3.5502973255056e-05,3.5502973255056e-05,4089895.7063613,0.015299387628637
36791759,0.93917072210537,0.015593011130786,0.0048558997964091,0.0062740605231479,0.0044630508112286,-0.001072719782811,0.0010727200292915,8.0890331001502e-10,-5.446463386341e-10,5.6814293718208e-10,-2.6574572479758e-10,-0.00051347324419719,0.00051346615964286,-0.0011518245202965,0.001151826097598,-0.0011518265681272,0.001151824043773,-0.00051347087407647,0.00051346853288461,-0.00051346702211846,0.00051347180482856,-0.0011518253417043,0.0011518253466676,-0.001151824147979,0.0011518263985761,-0.0012965936228729,0.0012965942875719,-0.0012965937576954,0.0012965940148348,-0.0012965933365822,0.0012965944808084,-0.0012965945403782,0.0012965933183739,-0.00097599161278606,0.0009759939190491,-0.00097599406308122,0.00097599162172081,-0.00097599236196882,0.00097599324658571,-0.00097599268540177,0.00097599289710319,-0.000513466276327,0.00051347232631878,-6.4800464969688e-10,7.3965816423022e-10,-4.8330476758287e-09,4.9237948661526e-09,-0.0016239381024745,0.0016239381804585,-0.0016696202410872,0.0016696307010672,-0.0015504021029304,0.0015503964762009,-0.0015503998748124,0.0015503990175829,-0.001589041698946,0.0015890374219989,-0.0015890379293416,0.0015890412558412,-0.0015890406741245,0.001589038504481,-0.0015890379438266,0.0015890412838902,-0.0016696293851073,0.0016696218611287,-0.0016696211353488,0.0016696298028358,-0.0015503979649174,0.0015504009507908,-0.0015503973429118,0.0015504011314485,-0.0016696312140964,0.001669620049457,1.2917684351845e-09,-3.4854044211183e-10,-0.00096974374323456,0.00096974471909005,5.3301289323669e-09,-4.2914868202955e-09,-0.00073886431705011,0.00073886009196717,-0.00066168854759241,0.00066167835042222,-0.00066168657973811,0.00066168027666898,-0.0007388563381623,0.00073886803112764,-0.00073885741546876,0.00073886731177744,-0.00066167784000523,0.00066168903849468,-0.00066167859418727,0.00066168834693035,-0.0012340437503327,0.0012340483260347,-0.0012340466250006,0.0012340455109766,-0.0012340442094435,0.0012340479555536,-0.0012340478113284,0.0012340442921002,-0.0013160721330692,0.0013160669556699,-0.0013160694590574,0.0013160695924843,-0.001316066999991,0.0013160720673439,-0.001316067667287,0.0013160713595079,-0.00073886894029063,0.00073885567337402,0.67162772457497,129487,2954,0.0044650927831527,0.0067406791032345,0.00403457931586,36.394450933838,3.5155607470705e-05,3.5155607470705e-05,3.5155607470705e-05,4099475.5562565,0.015359022734383
36991759,0.94315350617723,0.015654541420063,0.0048744750364154,0.0063005149893763,0.004479551394271,-0.0010771442502873,0.0010771445148609,6.4080813857476e-10,-3.5892314933534e-10,5.1480252413626e-10,-1.8979762904801e-10,-0.00051543793188296,0.00051543135779039,-0.0011567682346121,0.0011567698733865,-0.0011567702000516,0.0011567679121239,-0.00051543622199838,0.00051543326227628,-0.00051543184773558,0.00051543705071075,-0.0011567692257043,0.0011567689736354,-0.0011567678694488,0.0011567701600486,-0.0013020440261156,0.0013020445383786,-0.0013020440358314,0.0013020443857606,-0.0013020436837655,0.00130204478529,-0.001302044784653,0.0013020437274873,-0.00097978146199363,0.00097978352729354,-0.00097978362260733,0.00097978156236691,-0.00097978232691452,0.0009797827940753,-0.00097978223718559,0.0009797827951976,-0.00051543143875535,0.00051543733110199,-5.0055135830842e-10,5.7743999520746e-10,-6.1533855588539e-09,6.2300576011344e-09,-0.0016312158851808,0.0016312159513019,-0.0016761771808348,0.0016761903716164,-0.001557216289019,0.0015572100961068,-0.0015572143103541,0.0015572123371863,-0.0015966068718387,0.0015966018574002,-0.001596602295098,0.0015966065347743,-0.0015966059256568,0.0015966028423584,-0.0015966024192167,0.001596606459186,-0.0016761890085567,0.0016761787512335,-0.00167617821801,0.0016761893846126,-0.0015572112780521,0.0015572154186078,-0.0015572110067205,0.0015572152759274,-0.0016761907634631,0.0016761770507263,8.7522091166075e-10,-4.1648144664901e-10,-0.00097379127446014,0.00097379175847885,6.1540534767362e-09,-5.6479919283412e-09,-0.00074223603167622,0.00074222874147143,-0.00066465301574515,0.00066464021894059,-0.00066465112688525,0.00066464206891035,-0.0007422254936259,0.00074223933100837,-0.00074222710161834,0.00074223804172538,-0.00066464011646024,0.00066465311670588,-0.00066464102336354,0.00066465225067891,-0.0012393892637252,0.0012393939746982,-0.0012393928631705,0.001239390435649,-0.0012393895983978,0.0012393937272368,-0.0012393939452878,0.001239389318753,-0.0013215869747619,0.0013215809025694,-0.001321584611029,0.0013215832372003,-0.0013215814540171,0.0013215864041641,-0.0013215817608558,0.0013215860660369,-0.00074224035638805,0.00074222467803679,0.71099831454323,129487,2954,0.0044834808576932,0.0067707675066507,0.004051401063555,36.657666642153,3.7261333137225e-05,3.7261333137225e-05,3.7261333137225e-05,4117313.6387959,0.015425339114592
37191759,0.94704006832965,0.015718236314841,0.0048936438457202,0.006327909390908,0.0044966830782129,-0.001082495362135,0.0010824955925357,-4.365650654428e-10,6.8443395818886e-10,6.2278585149621e-10,-3.2975537531728e-10,-0.0005178153201521,0.00051780974750599,-0.0011629633807892,0.0011629643251019,-0.0011629649330227,0.0011629627827849,-0.00051781564795067,0.00051780981638445,-0.00051780808494143,0.00051781660707188,-0.001162964456996,0.0011629633787596,-0.0011629620316024,0.0011629655787186,-0.0013085286132134,0.0013085283582308,-0.0013085278147519,0.0013085290180055,-0.0013085282440678,0.0013085286235939,-0.0013085287502231,0.001308528181192,-0.00098462638511364,0.00098462656870083,-0.00098462680077219,0.00098462639516123,-0.00098462750216495,0.00098462561780039,-0.00098462500206856,0.00098462800630374,-0.00051781016392554,0.00051781457037454,-2.0563054406921e-10,2.4787485040229e-10,-8.0436960426661e-09,8.0873607955614e-09,-0.0016397741215426,0.0016397741584363,-0.0016842225402632,0.0016842399556035,-0.001565339459018,0.0015653323164893,-0.0015653377249036,0.0015653341895773,-0.0016052218259593,0.0016052156840781,-0.0016052159715886,0.0016052216967396,-0.0016052209640087,0.0016052165494994,-0.0016052164058185,0.0016052213175059,-0.0016842382457989,0.0016842243252395,-0.0016842241716306,0.0016842385053845,-0.0015653328587242,0.0015653391275634,-0.0015653335613836,0.0015653380950423,-0.0016842401382386,0.0016842225708407,-3.2981919897046e-10,5.0033154718526e-10,-0.00097870795399558,0.00097870814192442,6.5863539500844e-09,-6.4091235445648e-09,-0.00074633027771857,0.00074632015769651,-0.00066845566042058,0.00066844179464394,-0.00066845418482293,0.00066844322398196,-0.00074631640102664,0.00074633418548114,-0.00074632110109939,0.00074632973135567,-0.00066844128258886,0.00066845619601255,-0.00066844323480022,0.00066845424494337,-0.0012457299830263,0.0012457340120567,-0.0012457338846154,0.0012457301708233,-0.0012457295072387,0.001245734567309,-0.0012457343638498,0.0012457296487341,-0.0013284445330756,0.0013284395432245,-0.0013284439395783,0.0013284401255127,-0.0013284406927519,0.001328443369987,-0.0013284386161822,0.0013284454247795,-0.00074633340809678,0.00074631737372009,0.75399799245929,129487,2954,0.0045057312153545,0.0068061445146872,0.0040718335439107,37.435411084309,4.3483288674475e-05,4.3483288674475e-05,4.3483288674475e-05,4130592.9571587,0.015504623751508
37391759,0.95075461784732,0.015776470838393,0.0049111661385859,0.0063530093511605,0.0045122953486462,-0.0010868454997338,0.0010868459376065,5.5406655207657e-09,-5.0850796632039e-09,7.3954367509543e-12,5.0896407334987e-10,-0.00051870206607632,0.00051869102452914,-0.0011678393362559,0.0011678443208596,-0.0011678432781592,0.0011678403980099,-0.00051869206236186,0.00051870115139022,-0.00051870091966452,0.00051869199640138,-0.0011678402882149,0.0011678434461278,-0.0011678433656771,0.001167840237773,-0.0013141206630299,0.0013141245465219,-0.0013141242504959,0.0013141207696062,-0.0013141203469648,0.0013141247664981,-0.0013141241796838,0.0013141209377313,-0.00098845945960379,0.00098847030488909,-0.00098846978714019,0.00098846014028805,-0.00098845954138323,0.00098847041243621,-0.00098847003982137,0.00098845968126652,-0.0005186898244945,0.00051870294762145,-9.6758039855359e-10,1.0868844860721e-09,-5.8364880794426e-09,5.952351850678e-09,-0.0016473861627805,0.0016473862688705,-0.0016914202983031,0.001691431504346,-0.0015726816417882,0.0015726760267316,-0.0015726799408903,0.0015726779899438,-0.0016127710057961,0.0016127663861941,-0.0016127670900185,0.0016127703855432,-0.0016127701697112,0.0016127672653101,-0.0016127664888266,0.0016127710620336,-0.0016914313487949,0.0016914207341483,-0.0016914197926844,0.0016914320533322,-0.0015726781265187,0.0015726798431248,-0.0015726757014135,0.0015726819491758,-0.001691432215506,0.0016914199099163,4.9895296158981e-09,-5.9322498441996e-09,-0.0009825841398264,0.00098258320966812,8.4797336675528e-09,-9.4859783095726e-09,-0.00074894955916105,0.00074894056906235,-0.0006709212210759,0.00067089886924456,-0.00067091733932835,0.00067090270831122,-0.00074894226126397,0.0007489478917874,-0.00074893107024777,0.00074895945072042,-0.00067090344869515,0.00067091663503165,-0.0006708999620577,0.00067092018618086,-0.0012512053012465,0.001251214300286,-0.0012512113836121,0.0012512082748707,-0.0012512092393875,0.0012512104541243,-0.001251215228455,0.0012512044103305,-0.00133428334644,0.0013342656235967,-0.001334272761711,0.0013342761417926,-0.0013342663116625,0.0013342826162996,-0.0013342772845683,0.001334271623912,-0.00074895974726244,0.00074893065398038,0.72209868332489,129487,2954,0.0045238383456359,0.0068376020731436,0.0040879487090092,37.882025012167,4.7056200097338e-05,4.7056200097338e-05,4.7056200097338e-05,4126512.4821137,0.015571346762578
37591759,0.95422520829034,0.015828700455228,0.0049269004971967,0.0063755294986776,0.0045262704593537,-0.0010901901293341,0.0010901904061461,1.0514507827092e-09,-7.5734775082549e-10,5.1730181499053e-10,-1.7798237864286e-10,-0.00051926063003963,0.00051925332167657,-0.0011714938601909,0.0011714957232407,-0.0011714960028862,0.0011714935236394,-0.00051925810840639,0.00051925598233847,-0.00051925462158116,0.00051925896821636,-0.0011714947808255,0.0011714948366953,-0.0011714937477009,0.0011714957535402,-0.0013185340165505,0.0013185348224147,-0.0013185343078205,0.0013185343896339,-0.0013185336841811,0.0013185350696411,-0.0013185350481969,0.0013185337293778,-0.0009912582521947,0.00099126114020269,-0.00099126114420309,0.00099125825505507,-0.00099125904519964,0.0009912603129597,-0.000991259802425,0.0009912596125382,-0.00051925340102194,0.00051926005419052,-6.0296536068977e-10,6.92749598365e-10,-6.5996313717035e-09,6.6888453810121e-09,-0.0016535052829283,0.0016535053618203,-0.0016969950172329,0.0016970087866312,-0.0015785283970124,0.0015785215956949,-0.0015785261742402,0.0015785240640809,-0.0016190029247345,0.0016189974710134,-0.0016189979994634,0.0016190025706911,-0.0016190019214129,0.0016189985461411,-0.0016189980487226,0.0016190025403175,-0.0016970075460662,0.0016969964528624,-0.0016969958751318,0.0016970080444216,-0.0015785229819212,0.0015785273245481,-0.0015785225303568,0.0015785273899117,-0.001697009263287,0.0016969948584178,1.0089874996686e-09,-1.0822606216478e-09,-0.000985528304284,0.00098552824880902,6.7417034932845e-09,-6.8152633399934e-09,-0.00075081996160043,0.00075081119144169,-0.00067261978221276,0.00067260452483371,-0.00067261769209049,0.0006726065561432,-0.00075080858631026,0.0007508226140935,-0.00075080921688323,0.00075082230366811,-0.00067260519341461,0.0006726191006126,-0.00067260588837785,0.00067261846066867,-0.0012555458773077,0.0012555509023332,-0.001255550029892,0.0012555468088265,-0.0012555464922665,0.0012555503732142,-0.0012555513933623,0.0012555454127497,-0.0013387082982114,0.0013387004237099,-0.0013387052419245,0.0013387034430039,-0.0013387014305326,0.0013387072731235,-0.0013387025579902,0.0013387061051753,-0.0007508250901818,0.00075080633169877,0.69345800697867,129487,2954,0.0045377563226734,0.0068628894579122,0.004100195529623,37.934450646686,4.7475605173492e-05,4.7475605173492e-05,4.7475605173492e-05,4125162.7130326,0.015623619161719
37791759,0.95737825054302,0.015874495615872,0.0049407067610181,0.0063952790958025,0.004538509759052,-0.0010922509919852,0.0010922512550668,2.7821124333749e-09,-2.5006794187397e-09,5.3336266746015e-10,-2.1008104152133e-10,-0.00051921242388381,0.00051920344243714,-0.0011736926036556,0.0011736949773312,-0.0011736953264303,0.0011736922256552,-0.00051920633908234,0.00051920971587221,-0.00051920835790499,0.00051920724829982,-0.0011736929060394,0.0011736947292246,-0.0011736936113198,0.0011736938947823,-0.0013214430908732,0.0013214452764753,-0.0013214447581204,0.0013214434621775,-0.0013214429809806,0.0013214452964719,-0.0013214453052447,0.0013214430002872,-0.00099276908372975,0.00099277478454363,-0.00099277485880437,0.00099276913153462,-0.00099276931660927,0.0009927746338392,-0.00099277407749782,0.00099276981545076,-0.00051920361910669,0.0005192118712422,-8.2904889572826e-10,9.4173717917855e-10,-4.9599316200525e-09,5.0702638645075e-09,-0.0016577860884173,0.0016577861887815,-0.0017006520827889,0.0017006620062483,-0.0015825179451347,0.001582512498561,-0.0015825160076025,0.0015825148703317,-0.0016235464922867,0.0016235422442533,-0.001623542887099,0.0016235459731697,-0.0016235455600005,0.0016235432665529,-0.0016235425497762,0.0016235463270368,-0.0017006613818984,0.0017006530421707,-0.0017006521489699,0.0017006619323741,-0.0015825144054745,0.0015825164973505,-0.0015825127513919,0.0015825176201869,-0.0017006626238816,0.0017006517853565,2.9677473080039e-09,-2.6282349234441e-09,-0.0009872944932984,0.00098729485657243,6.0660427820128e-09,-5.689061207872e-09,-0.00075182121001249,0.00075181629184294,-0.00067335790870616,0.00067334421238356,-0.00067335519726652,0.00067334686612406,-0.00075181506047882,0.00075182248773421,-0.00075181045342153,0.00075182746287407,-0.00067334567952773,0.00067335642922856,-0.00067334450607282,0.00067335766406433,-0.0012584275401262,0.0012584337645338,-0.0012584313149642,0.0012584300505262,-0.0012584295344348,0.0012584318582146,-0.0012584336403814,0.0012584276923563,-0.0013414980686823,0.0013414883029717,-0.0013414920953065,0.0013414942330751,-0.0013414883283718,0.0013414980233879,-0.0013414935117261,0.001341492798412,-0.00075182801094149,0.00075180979207772,0.6696230280807,129487,2954,0.0045463307581233,0.0068805796858934,0.004107547955138,37.460361501918,4.3682892015346e-05,4.3682892015346e-05,4.3682892015346e-05,4123312.2835004,0.015657774149225
37991759,0.96016302126882,0.01591618230602,0.0049532604188727,0.0064132350428491,0.0045496868442982,-0.0010930668502912,0.0010930670696802,2.1391666439274e-09,-1.9009353748762e-09,6.7013552787845e-10,-3.9746076193479e-10,-0.00051859796585801,0.0005185894925814,-0.0011747168278488,0.0011747185004536,-0.001174719219526,0.0011747160772253,-0.00051859275519325,0.00051859477579444,-0.00051859309385352,0.00051859389327263,-0.0011747168911047,0.0011747184866464,-0.0011747170964011,0.0011747181549273,-0.0013228429098776,0.0013228447276446,-0.0013228441488256,0.0013228433514482,-0.0013228428704058,0.0013228446766761,-0.0013228448369633,0.0013228427462358,-0.00099312315822835,0.00099312758937142,-0.00099312781857187,0.00099312305794906,-0.00099312338076024,0.00099312743102256,-0.00099312682698394,0.00099312396735871,-0.00051858992955885,0.00051859688700993,-8.8003069604867e-10,1.004097819817e-09,-3.7675658980362e-09,3.8898510008985e-09,-0.0016603015031341,0.0016603016134215,-0.0017025663207406,0.0017025739307298,-0.0015846778990494,0.0015846730199754,-0.0015846757657972,0.0015846756226363,-0.001626400605465,0.0016263970561418,-0.0016263977101544,0.0016264000367159,-0.0016263996050013,0.0016263981571684,-0.0016263973656636,0.0016264003914969,-0.0017025732839889,0.00170256738491,-0.0017025663828116,0.0017025738275315,-0.0015846750385536,0.0015846763489487,-0.0015846733534972,0.0015846774792078,-0.0017025746040028,0.0017025660271446,2.6896429354163e-09,-1.6776369015354e-09,-0.00098791713634223,0.00098791818089921,4.9281771863124e-09,-3.8170359877222e-09,-0.00075210718013003,0.00075210506097268,-0.00067328330386231,0.00067327363670458,-0.00067328093368123,0.00067327595399676,-0.00075210284376604,0.00075210939550368,-0.00075209962372454,0.00075211297980808,-0.0006732739561559,0.00067328296889946,-0.0006732732960752,0.00067328369492971,-0.0012598214756331,0.0012598269348564,-0.0012598242195953,0.001259824251589,-0.0012598230418146,0.0012598254561198,-0.0012598261828869,0.0012598222543449,-0.001342812633805,0.0013428056729524,-0.0013428078018846,0.0013428104694299,-0.0013428051133708,0.0013428131765202,-0.001342809005948,0.0013428092393469,-0.00075211300433193,0.00075209948824552,0.68978729444538,129487,2954,0.0045497241834916,0.0068909742078476,0.0041101503966181,36.423993095413,3.5391944763305e-05,3.5391944763305e-05,3.5391944763305e-05,4118159.078103,0.015674426884515
38191759,0.9626973146359,0.015954472252623,0.0049647820681588,0.0064297181193166,0.0045599720651474,-0.0010945201971282,0.0010945203999117,1.2829285598837e-09,-1.0623686424702e-09,7.0645395902236e-10,-4.4654425040908e-10,-0.00051847253977676,0.00051846703351535,-0.0011764424832497,0.0011764430782494,-0.0011764439013367,0.0011764416352929,-0.00051846927317536,0.00051847066505703,-0.00051846876097059,0.00051847037996601,-0.0011764420763427,0.001176443542881,-0.0011764420609298,0.0011764434051915,-0.0013249119423401,0.0013249133602229,-0.0013249127844687,0.0013249123999379,-0.0013249120595257,0.0013249131560063,-0.0013249133674705,0.0013249119004368,-0.00099418108726841,0.00099418343780449,-0.00099418375533865,0.00099418097957874,-0.00099418092653354,0.00099418370544395,-0.00099418309193098,0.00099418152378995,-0.00051846763544743,0.00051847151480063,-7.153223955536e-10,8.2769569028835e-10,-4.2858200445807e-09,4.397281832882e-09,-0.0016634903499997,0.0016634904517842,-0.0017052663553129,0.0017052747157902,-0.0015875803308866,0.0015875758525089,-0.0015875788897672,0.0015875776771867,-0.0016298033912713,0.0016297997562139,-0.0016298003064603,0.0016298029200267,-0.0016298026155461,0.0016298005997898,-0.0016297999404701,0.0016298033046762,-0.0017052744424319,0.0017052669818121,-0.0017052662059673,0.0017052749680672,-0.001587577493092,0.0015875790811547,-0.001587575781058,0.0015875802857838,-0.0017052752930538,0.0017052662081755,1.9725955369869e-09,-6.8997010231346e-10,-0.00098917970916372,0.00098918102651664,4.602013008566e-09,-3.2099190104203e-09,-0.00075294340690186,0.00075293925090253,-0.00067384947027203,0.00067384201464104,-0.00067384808958471,0.00067384333760518,-0.00075293812022275,0.00075294469491464,-0.00075293566063872,0.00075294743383144,-0.00067384144172861,0.00067385001205422,-0.00067384097571758,0.00067385051478282,-0.0012618765085242,0.0012618815317735,-0.0012618790819719,0.0012618790180014,-0.0012618776662418,0.0012618804506879,-0.001261880381436,0.001261877678875,-0.0013449194237034,0.001344915088522,-0.0013449166426371,0.001344917854802,-0.0013449138791263,0.0013449206352703,-0.0013449165000991,0.0013449179651127,-0.00075294617081498,0.00075293684372881,0.69608026371866,129487,2954,0.0045557712998904,0.0069041513443642,0.00411540764953,35.891789322342,3.1134314578737e-05,3.1134314578737e-05,3.1134314578737e-05,4114377.3442624,0.015699300535528
38391759,0.96543369404441,0.015997800487603,0.0049777993581338,0.0064483550133236,0.0045716461161453,-0.0011019904646353,0.0011019907969812,1.2701146711186e-09,-9.2162321079354e-10,3.1826862125915e-10,8.5883152799223e-11,-0.00052367313427678,0.00052366747433177,-0.0011846504554926,0.0011846524552024,-0.0011846522367197,0.0011846506682144,-0.00052367078065881,0.00052367005188131,-0.00052366897866911,0.00052367114320768,-0.0011846513648973,0.0011846516433286,-0.0011846509123614,0.0011846519037609,-0.0013334031618184,0.0013334042163143,-0.0013334038002525,0.0013334034224095,-0.0013334028377729,0.0013334044384018,-0.0013334042173832,0.0013334031048395,-0.0010012621006242,0.0010012651274659,-0.0010012650149243,0.0010012624433268,-0.0010012626918115,0.0010012647246598,-0.0010012642249558,0.0010012630232424,-0.0005236669816723,0.00052367306578366,-3.1507525865242e-10,3.873500400604e-10,-7.8175548128314e-09,7.8895726220897e-09,-0.001673652334745,0.0016736523989648,-0.0017149031506361,0.001714919035483,-0.0015974731317547,0.0015974667540706,-0.0015974721051432,0.0015974681587807,-0.0016399780325802,0.0016399722473424,-0.0016399726112635,0.0016399778568395,-0.0016399773976091,0.0016399729396895,-0.0016399726481879,0.0016399778288645,-0.0017149183033153,0.0017149039514139,-0.0017149036137763,0.0017149186111455,-0.0015974676637173,0.0015974727184975,-0.0015974671497906,0.0015974726577329,-0.0017149192224876,0.001714903067637,1.1448138479287e-09,-1.3828900387762e-09,-0.0009963612375798,0.00099636102622018,7.3833887070873e-09,-7.6365709290221e-09,-0.00075945736147014,0.00075944575328336,-0.00068024286347436,0.00068022630572595,-0.00068024112815361,0.00068022798860555,-0.00075944487252304,0.0007594583225351,-0.00075944369580886,0.00075945979549248,-0.00068022733842506,0.00068024182322673,-0.00068022730138033,0.00068024189833325,-0.0012702755410165,0.0012702812859305,-0.0012702803851143,0.001270276502576,-0.0012702765173441,0.0012702803951549,-0.0012702817658259,0.0012702750854306,-0.001353780990115,0.0013537724718652,-0.0013537779331355,0.0013537754965937,-0.0013537731389829,0.001353780307472,-0.0013537752527058,0.001353778161908,-0.00075946129547264,0.00075944211441244,0.72890351353238,129487,2954,0.004586812925484,0.0069461585935445,0.0041452280470404,38.580272452884,5.2642179623073e-05,5.2642179623073e-05,5.2642179623073e-05,4158909.9211429,0.015803807570951
38591759,0.96812688910691,0.016041103478945,0.0049907740019539,0.0064670369961451,0.0045832924808463,-0.0011066139947371,0.0011066143189637,1.986418019293e-09,-1.6454393908237e-09,3.4962469179389e-10,4.7881698129342e-11,-0.00052558846016015,0.00052558170874532,-0.0011898455080341,0.0011898477863936,-0.0011898476303401,0.001189845623989,-0.00052558483016224,0.00052558575443178,-0.0005255846075049,0.00052558521999614,-0.001189846262284,0.001189847152027,-0.0011898463407014,0.001189846838443,-0.0013390381953264,0.0013390397891469,-0.0013390393649802,0.0013390384744719,-0.001339037936765,0.001339039944628,-0.0013390397682938,0.0013390381788769,-0.0010055486327811,0.0010055529556477,-0.0010055528804999,0.0010055489605965,-0.001005549123742,0.001005552678273,-0.0010055521728201,0.0010055494776187,-0.00052558140918892,0.00052558851026347,-3.4418991983715e-10,4.0554761965889e-10,-8.5823509731572e-09,8.6419284556648e-09,-0.0016809234134491,0.001680923471501,-0.0017217879252915,0.0017218052090425,-0.0016045234357511,0.0016045166049127,-0.0016045224342214,0.0016045178995596,-0.0016471867298761,0.0016471804916941,-0.0016471808872292,0.00164718656459,-0.0016471861169578,0.0016471811448104,-0.0016471808692248,0.0016471866009264,-0.0017218045549081,0.0017217886176933,-0.0017217883563453,0.0017218049343284,-0.0016045175018004,0.0016045228965926,-0.0016045168873895,0.0016045230338758,-0.0017218054507793,0.0017217878137517,1.800677805485e-09,-2.1684539777415e-09,-0.0010006526656612,0.0010006523092808,7.5207538495147e-09,-7.9297029546503e-09,-0.00076279789621601,0.00076278667131178,-0.00068356196625929,0.00068354448502893,-0.00068355985811171,0.00068354651138868,-0.00076278631244451,0.00076279842301856,-0.000762783534262,0.00076280150196427,-0.00068354613607905,0.00068356036262193,-0.00068354555061481,0.00068356096495754,-0.0012758437326695,0.0012758500125663,-0.0012758487617901,0.0012758450483371,-0.0012758452285324,0.0012758485971614,-0.0012758505818565,0.0012758431874333,-0.0013596984421404,0.0013596883447767,-0.0013596940784991,0.0013596926735023,-0.0013596890626145,0.0013596977289595,-0.0013596926750537,0.0013596940788216,-0.00076280293206318,0.00076278204515732,0.74097076384712,129487,2954,0.0046060444089864,0.0069762055707436,0.0041630611147621,39.724529985931,6.1796239887449e-05,6.1796239887449e-05,6.1796239887449e-05,4167844.1597664,0.015872000794091
38791759,0.97061763262267,0.016081249337649,0.0050027967739865,0.0064843684452626,0.0045940841183997,-0.0011090229196219,0.0011090231909774,5.0298102070155e-10,-2.1426153966292e-10,5.2563120638628e-10,-1.9016088753895e-10,-0.00052552519130147,0.00052551899114254,-0.0011927120289546,0.0011927134660846,-0.0011927137902015,0.0011927116974217,-0.00052552376144528,0.00052552059745618,-0.00052551926190573,0.00052552465216497,-0.0011927129385071,0.0011927126540446,-0.0011927115163378,0.00119271388588,-0.0013423064599201,0.001342306972425,-0.0013423064531443,0.0013423068206379,-0.0013423061402629,0.0013423071884334,-0.0013423071868971,0.0013423061872132,-0.0010076582762834,0.0010076601488315,-0.0010076602524277,0.0010076584043564,-0.0010076592104045,0.0010076594140146,-0.0010076588095998,0.0010076596355084,-0.00052551916969708,0.00052552469493291,-5.6642108895983e-10,6.5793632148965e-10,-6.7322562552808e-09,6.8231689440488e-09,-0.0016856335211343,0.0016856336047174,-0.001726169619344,0.0017261837708636,-0.0016090504026805,0.0016090437895916,-0.0016090483971656,0.0016090461695102,-0.0016518488245001,0.0016518434679501,-0.0016518439745255,0.0016518484935316,-0.0016518478697671,0.0016518444837436,-0.0016518439967892,0.0016518484881024,-0.001726182598211,0.0017261710045175,-0.0017261704177212,0.0017261830466338,-0.0016090451698658,0.0016090494643694,-0.0016090446315455,0.0016090494776492,-0.0017261841917338,0.001726169455359,5.0170468381041e-10,-5.5024703441169e-10,-0.0010027415772459,0.0010027415442591,6.9107738497938e-09,-6.9659628889757e-09,-0.00076399351038985,0.00076398318733127,-0.00068473999620533,0.00068472477326646,-0.00068473827376117,0.00068472643982891,-0.00076398072077798,0.0007639960696916,-0.00076398237916191,0.00076399471732891,-0.00068472512243591,0.00068473966355139,-0.00068472606146861,0.00068473875567149,-0.0012790611748743,0.001279066082632,-0.0012790654867996,0.0012790618326545,-0.0012790615033845,0.0012790658370557,-0.001279066535067,0.001279060746245,-0.0013631793936673,0.00136317243214,-0.0013631773164043,0.0013631744803822,-0.0013631733954144,0.001363178418875,-0.0013631735791879,0.0013631781997922,-0.00076399741021268,0.00076397960563569,0.74288655570527,129487,2954,0.0046160808278114,0.0069956617133111,0.0041717542749506,39.754734717467,6.2037877739736e-05,6.2037877739736e-05,6.2037877739736e-05,4155575.1348672,0.01591080953901
38880000,0.97167767984795,0.016098363452979,0.0050079243247124,0.0064917513851207,0.0045986877431457,-0.0011099948241159,0.0011099950793835,3.814924966808e-10,-1.0881122986221e-10,5.8036044700437e-10,-2.6389808959451e-10,-0.00052537049365769,0.0005253641861425,-0.0011939057234005,0.0011939070188884,-0.0011939074803797,0.0011939052393734,-0.00052536910781983,0.00052536571834376,-0.00052536428052951,0.00052537012062001,-0.0011939065635867,0.0011939062518673,-0.0011939050215333,0.0011939076349512,-0.0013436630469072,0.0013436634979711,-0.0013436629557261,0.0013436634400704,-0.0013436627559022,0.0013436636931933,-0.0013436637452256,0.0013436627417189,-0.0010085034200257,0.0010085050594824,-0.0010085051942638,0.0010085034602992,-0.0010085043237022,0.0010085042896467,-0.0010085036928896,0.0010085048118046,-0.00052536448993751,0.00052536981831472,-6.4135690679557e-10,7.4359647743951e-10,-6.0783006570284e-09,6.1792172175674e-09,-0.0016876261370853,0.0016876262293754,-0.0017279166288732,0.0017279295042486,-0.0016109766580991,0.0016109702613876,-0.0016109744898776,0.0016109728599218,-0.0016538442923298,0.001653839271897,-0.001653839807437,0.0016538438992314,-0.0016538432780214,0.0016538403456716,-0.0016538397882441,0.0016538439448111,-0.0017279282446531,0.0017279181444935,-0.0017279174305954,0.0017279286899478,-0.0016109718138238,0.0016109755959135,-0.0016109711238497,0.0016109757118164,-0.0017279299523341,0.0017279164100534,5.0213863903867e-10,-3.3175979464615e-10,-0.0010035616181296,0.0010035618090932,6.5101601199962e-09,-6.3219013292466e-09,-0.00076443053650379,0.00076442150487184,-0.00068519782442303,0.00068518386479928,-0.00068519608239493,0.00068518555768773,-0.00076441853174773,0.00076443358092229,-0.00076442068756819,0.00076443173914173,-0.000685183927997,0.0006851977687346,-0.00068518497849822,0.00068519675586087,-0.001280409452388,0.0012804141292183,-0.0012804133896935,0.0012804102530437,-0.0012804096925045,0.0012804139726849,-0.0012804143818525,0.0012804092240624,-0.0013646229998608,0.001364616714588,-0.0013646210366199,0.00136461865055,-0.0013646175522958,0.0013646221509126,-0.0013646174433106,0.0013646222226479,-0.00076443443466997,0.00076441789970946,0.74370270179671,129487,2954,0.0046201324052469,0.0070038901222447,0.0041751695032501,39.755886455898,6.2047091647182e-05,6.2047091647182e-05,6.2047091647182e-05,4148308.7984631,0.015926761863599
