time,ASR_ext,ASR_strain,ASR_strain_xx,ASR_strain_yy,ASR_strain_zz,disp_x_101,disp_x_102,disp_x_103,disp_x_104,disp_x_105,disp_x_106,disp_x_p10_neg,disp_x_p10_pos,disp_x_p11_neg,disp_x_p11_pos,disp_x_p12_neg,disp_x_p12_pos,disp_x_p13_neg,disp_x_p13_pos,disp_x_p14_neg,disp_x_p14_pos,disp_x_p15_neg,disp_x_p15_pos,disp_x_p16_neg,disp_x_p16_pos,disp_x_p1_neg,disp_x_p1_pos,disp_x_p2_neg,disp_x_p2_pos,disp_x_p3_neg,disp_x_p3_pos,disp_x_p4_neg,disp_x_p4_pos,disp_x_p5_neg,disp_x_p5_pos,disp_x_p6_neg,disp_x_p6_pos,disp_x_p7_neg,disp_x_p7_pos,disp_x_p8_neg,disp_x_p8_pos,disp_x_p9_neg,disp_x_p9_pos,disp_y_101,disp_y_102,disp_y_103,disp_y_104,disp_y_105,disp_y_106,disp_y_p10_neg,disp_y_p10_pos,disp_y_p11_neg,disp_y_p11_pos,disp_y_p12_neg,disp_y_p12_pos,disp_y_p1_neg,disp_y_p1_pos,disp_y_p2_neg,disp_y_p2_pos,disp_y_p3_neg,disp_y_p3_pos,disp_y_p4_neg,disp_y_p4_pos,disp_y_p5_neg,disp_y_p5_pos,disp_y_p6_neg,disp_y_p6_pos,disp_y_p7_neg,disp_y_p7_pos,disp_y_p8_neg,disp_y_p8_pos,disp_y_p9_neg,disp_y_p9_pos,disp_z_101,disp_z_102,disp_z_103,disp_z_104,disp_z_105,disp_z_106,disp_z_p10_neg,disp_z_p10_pos,disp_z_p11_neg,disp_z_p11_pos,disp_z_p12_neg,disp_z_p12_pos,disp_z_p13_neg,disp_z_p13_pos,disp_z_p14_neg,disp_z_p14_pos,disp_z_p15_neg,disp_z_p15_pos,disp_z_p16_neg,disp_z_p16_pos,disp_z_p1_neg,disp_z_p1_pos,disp_z_p2_neg,disp_z_p2_pos,disp_z_p3_neg,disp_z_p3_pos,disp_z_p4_neg,disp_z_p4_pos,disp_z_p5_neg,disp_z_p5_pos,disp_z_p6_neg,disp_z_p6_pos,disp_z_p7_neg,disp_z_p7_pos,disp_z_p8_neg,disp_z_p8_pos,disp_z_p9_neg,disp_z_p9_pos,humidity,ndof,nelem,strain_xx,strain_yy,strain_zz,temp,thermal_strain_xx,thermal_strain_yy,thermal_strain_zz,vonmises,vstrain
14391759,0,0,0,0,0,0,0,0,0,0,0,0,0,0,0,0,0,0,0,0,0,0,0,0,0,0,0,0,0,0,0,0,0,0,0,0,0,0,0,0,0,0,0,0,0,0,0,0,0,0,0,0,0,0,0,0,0,0,0,0,0,0,0,0,0,0,0,0,0,0,0,0,0,0,0,0,0,0,0,0,0,0,0,0,0,0,0,0,0,0,0,0,0,0,0,0,0,0,0,0,0,0,0,0,0,0,0,0,0,0,0,0,0,0,0,0,0,0,0,0,0,0,0
14591759,0.020203200670121,0.00035679966882686,0.00011893322294229,0.00011893322294229,0.00011893322294229,-2.7817449601346e-05,2.7817457533601e-05,4.2369353012077e-12,4.236130514672e-12,-7.5669208660926e-12,1.5521481615237e-11,-2.2903134246685e-05,2.2903165593037e-05,-2.6318570417925e-05,2.6318601070276e-05,-2.6318570986015e-05,2.6318600975035e-05,-2.2903152741218e-05,2.2903139030135e-05,-2.2903153775333e-05,2.2903139389129e-05,-2.63185905443e-05,2.631857512268e-05,-2.6318590579008e-05,2.6318574986556e-05,-2.9644104104828e-05,2.9644104222125e-05,-2.9644104002898e-05,2.964410424637e-05,-2.964409638485e-05,2.9644111518498e-05,-2.964409623579e-05,2.9644111485163e-05,-2.6724402910727e-05,2.6724419601123e-05,-2.6724403907214e-05,2.6724420643183e-05,-2.6724410808299e-05,2.6724412201999e-05,-2.6724411595163e-05,2.6724412977674e-05,-2.2903131673334e-05,2.2903164507597e-05,6.7837866744957e-12,-1.6943850843899e-11,-1.7383125887583e-12,-8.2561484742652e-12,-2.9076051892925e-05,2.9076043122366e-05,-2.7794462692445e-05,2.779445262184e-05,-2.7959424909502e-05,2.7959439739113e-05,-2.7959448731656e-05,2.7959416133195e-05,-2.982534376156e-05,2.9825346342919e-05,-2.9825345861524e-05,2.9825344185693e-05,-2.9825351343478e-05,2.9825338443117e-05,-2.9825353370554e-05,2.9825336317247e-05,-2.7794464548947e-05,2.7794451749771e-05,-2.7794470267576e-05,2.7794445034999e-05,-2.7959426967595e-05,2.7959436902391e-05,-2.7959450994021e-05,2.7959414088957e-05,-2.7794456375316e-05,2.7794459737758e-05,7.1003177963707e-13,7.1113616061851e-13,-2.7186510977504e-05,2.7186512817148e-05,-1.936361975009e-12,4.0211770344209e-12,-2.4565456985038e-05,2.4565464036767e-05,-2.5135314872496e-05,2.5135322988539e-05,-2.5135314712085e-05,2.5135323303602e-05,-2.4565457138982e-05,2.4565453414665e-05,-2.4565459546764e-05,2.4565454250855e-05,-2.5135317675238e-05,2.5135314305474e-05,-2.5135317873075e-05,2.5135314020799e-05,-2.898991418731e-05,2.8989914212537e-05,-2.8989911786321e-05,2.8989915754568e-05,-2.8989914316805e-05,2.8989914273925e-05,-2.8989911933575e-05,2.8989915800582e-05,-2.6766416604393e-05,2.6766419386465e-05,-2.6766417729368e-05,2.6766420603632e-05,-2.6766419713399e-05,2.6766418753109e-05,-2.6766418473027e-05,2.6766417661524e-05,-2.4565455382966e-05,2.4565461765991e-05,0.70641910243578,128566,2924,0.00011589922380121,0.00012114267691709,0.00011327058237028,31.980482978594,-1.5613617124558e-07,-1.5613617124558e-07,-1.5613617124558e-07,791594.76474532,0.00035037458454848
14791759,0.039121877775608,0.00067741656608289,0.00022563349814701,0.00022774180606961,0.00022404126186627,-5.0833192144868e-05,5.0833742077782e-05,2.8637807148069e-10,2.6811156520752e-10,-5.0673652804874e-10,1.0747521176874e-09,-4.0660667581424e-05,4.0662733615306e-05,-4.7796389794604e-05,4.7798523028625e-05,-4.7796398885827e-05,4.7798495590644e-05,-4.0662130674356e-05,4.0661114747784e-05,-4.066215068972e-05,4.066115505829e-05,-4.7797911988544e-05,4.7796905464548e-05,-4.7797900571669e-05,4.7796902486614e-05,-5.4917503764519e-05,5.4917528108516e-05,-5.4917500478084e-05,5.4917523972435e-05,-5.4916988762944e-05,5.4918055111306e-05,-5.491699078439e-05,5.4918040285289e-05,-4.8669708275699e-05,4.8670823295981e-05,-4.8669762068803e-05,4.8670817456949e-05,-4.8670245487625e-05,4.8670290362149e-05,-4.8670277926646e-05,4.8670306995785e-05,-4.0660560436375e-05,4.066275709272e-05,5.1203139405525e-10,-1.1177720399987e-09,-3.9428522461071e-10,-1.9003514102931e-10,-5.3648561969604e-05,5.364799184218e-05,-5.0997704796814e-05,5.0997862231917e-05,-5.1465720439592e-05,5.1466637654918e-05,-5.1467305651366e-05,5.1465028212961e-05,-5.540481994065e-05,5.5404733819302e-05,-5.5404741725773e-05,5.5404799159745e-05,-5.5405335013692e-05,5.5404193814792e-05,-5.5405268760989e-05,5.5404252552386e-05,-5.0998460467242e-05,5.099713226348e-05,-5.0998251995537e-05,5.0997300877376e-05,-5.1465641135584e-05,5.1466719676152e-05,-5.1467259967392e-05,5.1465086331268e-05,-5.0997932443369e-05,5.0997665723906e-05,-4.4524547862866e-11,-6.2433890794225e-11,-4.9263369669569e-05,4.9263276075062e-05,7.9190310436285e-11,-1.705979153285e-10,-4.3983820998767e-05,4.3983540290056e-05,-4.5046596162331e-05,4.5046256511921e-05,-4.504657222313e-05,4.5046272492266e-05,-4.3983529569952e-05,4.3983716047154e-05,-4.3983582790376e-05,4.3983690142939e-05,-4.5046310580549e-05,4.5046489306576e-05,-4.5046313120175e-05,4.5046468142473e-05,-5.3265973259185e-05,5.3265972292009e-05,-5.3266044484531e-05,5.3265883973364e-05,-5.3265977313182e-05,5.3265971842286e-05,-5.3266057524525e-05,5.3265875413671e-05,-4.8750116456038e-05,4.8749873416716e-05,-4.8750093182337e-05,4.8749920013595e-05,-4.8750028516513e-05,4.8749996052366e-05,-4.8750016721743e-05,4.8749979682516e-05,-4.3983877227317e-05,4.3983453948435e-05,0.70580947208779,128566,2924,0.00021178328903404,0.00022350875964465,0.00020524230715131,30.975201139833,-8.1983908813343e-06,-8.1983908813343e-06,-8.1983908813343e-06,1281244.3048207,0.00064074242743634
14991759,0.056602861751226,0.00096586520490479,0.00032155738098925,0.00032688877530208,0.00031741904861346,-7.1486555517748e-05,7.1487520134242e-05,4.9138517824621e-10,4.7626452084654e-10,-9.3557294943639e-10,1.9368750171342e-09,-5.4741353264785e-05,5.474512734094e-05,-6.562458327751e-05,6.5628420858511e-05,-6.5624587041089e-05,6.5628387663472e-05,-5.4744131388823e-05,5.4742242885955e-05,-5.4744125353445e-05,5.4742284823738e-05,-6.5627374429429e-05,6.5625521770268e-05,-6.5627358274791e-05,6.5625524613802e-05,-7.843594634136e-05,7.8435959011218e-05,-7.8435939395993e-05,7.8435953350434e-05,-7.8435018867888e-05,7.8436911781455e-05,-7.8435017054308e-05,7.8436894292161e-05,-6.8866806791407e-05,6.8868758728994e-05,-6.886684821017e-05,6.8868743710353e-05,-6.8867777991846e-05,6.8867797105061e-05,-6.8867798194167e-05,6.8867809928574e-05,-5.4741273664187e-05,5.4745167835936e-05,1.0208302579724e-09,-1.9020680693467e-09,-6.3406430146201e-10,-2.164243882732e-10,-7.6803296297435e-05,7.6802461294724e-05,-7.3622444824022e-05,7.3622983079929e-05,-7.4777123974097e-05,7.4778978655856e-05,-7.4779965139081e-05,7.4776073982478e-05,-7.871279039288e-05,7.871279632961e-05,-7.8712642420605e-05,7.8712931162773e-05,-7.8713712826015e-05,7.8711823712905e-05,-7.8713579859781e-05,7.8711951322933e-05,-7.3623832057508e-05,7.3621605078596e-05,-7.3623426943404e-05,7.3621991307023e-05,-7.4776967228144e-05,7.4779125643756e-05,-7.4779843942899e-05,7.4776192747968e-05,-7.3622881003687e-05,7.3622569894905e-05,-7.7915523732869e-11,-9.2295127447211e-11,-6.8777745382216e-05,6.8777584967459e-05,1.3767787294243e-10,-2.9970649904316e-10,-6.0122873408147e-05,6.012233418659e-05,-6.1016591191339e-05,6.1015990862413e-05,-6.1016568858011e-05,6.1016006713478e-05,-6.0122414464293e-05,6.0122719051279e-05,-6.0122452760763e-05,6.0122679048611e-05,-6.1016121180497e-05,6.1016416468815e-05,-6.1016129990293e-05,6.1016390827304e-05,-7.5613439285326e-05,7.5613434962367e-05,-7.5613570757859e-05,7.5613280698563e-05,-7.5613443186943e-05,7.5613436524084e-05,-7.5613584173994e-05,7.5613274129272e-05,-6.8999207276371e-05,6.8998845279394e-05,-6.8999188468812e-05,6.8998890042517e-05,-6.8999062061373e-05,6.8999029426207e-05,-6.8999052053865e-05,6.8999024113579e-05,-6.0122921152174e-05,6.0122256389708e-05,0.7049635928736,128566,2924,0.00029781790449048,0.00031995929071593,0.00028653196193353,29.796002333175,-1.7631981334598e-05,-1.7631981334598e-05,-1.7631981334598e-05,1374857.849295,0.00090472441379575
15191759,0.071004598086203,0.0011872334878476,0.00039500907192398,0.00040414948594498,0.00038807492997862,-8.4489040664472e-05,8.4490759679078e-05,8.8641333090914e-10,8.4581108313288e-10,-2.0824222029495e-09,3.8639155819688e-09,-5.9912789594782e-05,5.9920213554231e-05,-7.4807482587156e-05,7.4815168399801e-05,-7.4807534775838e-05,7.4815076185585e-05,-5.9918456502314e-05,5.9914218955652e-05,-5.9918394334868e-05,5.9914390547572e-05,-7.4813260532921e-05,7.480911637229e-05,-7.4813216933308e-05,7.4809135099407e-05,-9.4501510579726e-05,9.4501249683325e-05,-9.4501497211021e-05,9.4501249671375e-05,-9.4499567581304e-05,9.4503232861293e-05,-9.4499590519469e-05,9.4503194946548e-05,-8.1459097969033e-05,8.1462901043862e-05,-8.1459243299391e-05,8.1462869640907e-05,-8.1461138558863e-05,8.1460903434629e-05,-8.14611849391e-05,8.1460973638505e-05,-5.9912490550112e-05,5.992036199581e-05,2.3209265736429e-09,-3.7449795207441e-09,-1.0315056456665e-09,-3.5306351952315e-10,-9.2508978949257e-05,9.2507645692392e-05,-8.8992163492126e-05,8.899347115215e-05,-9.1123143493467e-05,9.1127402394451e-05,-9.1129005343272e-05,9.1121419560834e-05,-9.4188320815971e-05,9.4188796295652e-05,-9.4188077650266e-05,9.4189044157054e-05,-9.4190231939712e-05,9.4186793484129e-05,-9.4190030759254e-05,9.4186999674235e-05,-8.899484851525e-05,8.8990793130537e-05,-8.8994227028122e-05,8.8991376035362e-05,-9.1122829294056e-05,9.1127665666421e-05,-9.1128856605811e-05,9.1121566259685e-05,-8.8992897688234e-05,8.8992767458804e-05,-1.0686180362704e-10,-1.455880646642e-10,-8.0740238819515e-05,8.0740010447452e-05,2.2900958511233e-10,-4.533979242698e-10,-6.787694533092e-05,6.7876250418447e-05,-6.847848838419e-05,6.8477539272416e-05,-6.8478414906797e-05,6.8477606917564e-05,-6.787610243678e-05,6.7876710049007e-05,-6.7876321874026e-05,6.7876554150101e-05,-6.8477642206721e-05,6.8478168749039e-05,-6.8477693284424e-05,6.847808702682e-05,-9.0592922205659e-05,9.0592929691014e-05,-9.0593109589584e-05,9.0592701125905e-05,-9.0592919230085e-05,9.0592939829712e-05,-9.0593147866883e-05,9.0592670033018e-05,-8.1835125982275e-05,8.1834493640057e-05,-8.183506416435e-05,8.1834650129632e-05,-8.1834907690679e-05,8.1834832650482e-05,-8.1834845553884e-05,8.1834824180633e-05,-6.7877130011557e-05,6.7875947120744e-05,0.66036417798241,128566,2924,0.00035197920480388,0.00038537464817515,0.00033636011830935,27.129903635742,-3.8960770914064e-05,-3.8960770914064e-05,-3.8960770914064e-05,1438099.3739009,0.0010743022877059
15391759,0.084306339611172,0.0014160106931075,0.00047087688422179,0.00048415863958557,0.0004609751693001,-0.00010052496206052,0.00010052652320271,7.9785062374052e-10,7.683093010128e-10,-1.9386016760789e-09,3.5595900321701e-09,-6.9572940726993e-05,6.9579826179607e-05,-8.8855432764807e-05,8.8862493403181e-05,-8.8855466199829e-05,8.8862446355559e-05,-6.957829208022e-05,6.9574359453158e-05,-6.9578217695267e-05,6.9574462801866e-05,-8.8860795443873e-05,8.8856954591841e-05,-8.8860768266499e-05,8.8856974157206e-05,-0.00011275167578372,0.00011275141485607,-0.00011275166532343,0.000112751410376,-0.00011274989165207,0.00011275324517665,-0.00011274990445148,0.00011275321447354,-9.7711581973521e-05,9.7715037821795e-05,-9.771165810431e-05,9.7714993289491e-05,-9.7713452695889e-05,9.7713188024537e-05,-9.7713472733477e-05,9.7713201920864e-05,-6.9572774537235e-05,6.9579949822538e-05,2.1249781788495e-09,-3.451002482221e-09,-1.1125847516893e-09,-1.667581076359e-10,-0.00011122705951244,0.00011122580334061,-0.00010774000779151,0.00010774153899931,-0.00011057550562594,0.0001105793282344,-0.00011058091902551,0.00011057381188118,-0.00011226399830717,0.00011226428294137,-0.00011226367887507,0.00011226460653298,-0.00011226575985786,0.00011226243169141,-0.00011226546359977,0.00011226273620947,-0.00010774278459723,0.00010773874408534,-0.00010774189636235,0.00010773963870619,-0.00011057515019399,0.00011057966902023,-0.00011058063762171,0.00011057407711071,-0.00010774097213473,0.0001077405756741,-1.3638030881486e-10,-1.6082156870012e-10,-9.5566089812838e-05,9.5565802274835e-05,3.2883032658102e-10,-6.2324601418074e-10,-8.057481454446e-05,8.0573696416835e-05,-8.0341196138272e-05,8.0339935418021e-05,-8.0341156537111e-05,8.0339971470554e-05,-8.0573858067211e-05,8.0574585132219e-05,-8.0573938533788e-05,8.0574499435887e-05,-8.0340187613375e-05,8.0340861058533e-05,-8.034021082707e-05,8.0340834060895e-05,-0.00010763218473569,0.00010763222192665,-0.00010763247554044,0.00010763190123571,-0.00010763218499361,0.00010763222709922,-0.00010763249970728,0.00010763188130184,-9.832519364645e-05,9.8324502648024e-05,-9.8325156137667e-05,9.8324585275928e-05,-9.8324870832788e-05,9.8324869423343e-05,-9.8324849694213e-05,9.8324878596939e-05,-8.0574922766998e-05,8.0573553376705e-05,0.73443066668139,128566,2924,0.00041877054579204,0.00046333352170543,0.00039811246236693,25.988297707555,-4.8093618339556e-05,-4.8093618339556e-05,-4.8093618339556e-05,1274464.222636,0.001281051183071
15591759,0.097352312583513,0.0016460074928536,0.0005472379128391,0.00056489448046316,0.0005338750995513,-0.00011751066373662,0.00011751192634015,6.6068601107676e-10,6.0274242342682e-10,-1.1478698649003e-09,2.4572150297528e-09,-8.0866951598834e-05,8.087144211516e-05,-0.0001040895283427,0.00010409446939849,-0.00010408959940116,0.00010409434606389,-8.0870485280016e-05,8.0867948134826e-05,-8.0870231506595e-05,8.0868194067156e-05,-0.00010409312480258,0.00010409080128231,-0.00010409303609843,0.00010409086869077,-0.00013185219236699,0.00013185225066257,-0.0001318521709996,0.00013185225360835,-0.00013185101217183,0.00013185347634377,-0.00013185104730187,0.00013185341507833,-0.00011497722526658,0.00011497982872031,-0.0001149773584641,0.0001149796657482,-0.00011497851701172,0.00011497855318964,-0.00011497849219797,0.00011497856385998,-8.0866620558498e-05,8.0871795761041e-05,1.3253893892345e-09,-2.4642801538373e-09,-1.1592392973514e-09,6.2987298693026e-11,-0.0001308225072821,0.00013082141502087,-0.00012739403996409,0.00012739551747497,-0.0001308601327144,0.00013086225782021,-0.00013086376269292,0.00013085856526209,-0.00013125280153954,0.00013125253044894,-0.00013125236906886,0.00013125294876039,-0.0001312539637322,0.00013125129010353,-0.00013125359058779,0.00013125166312735,-0.00012739650005717,0.00012739303277463,-0.00012739540232933,0.00012739416448743,-0.00013085965407973,0.0001308627496825,-0.00013086342921099,0.00013085887156667,-0.0001273953292405,0.00012739421850709,-1.6539606271724e-10,-2.1515721905742e-10,-0.00011118392952196,0.00011118355137382,4.0667086315179e-10,-8.0081681519986e-10,-9.433955743564e-05,9.4338313129205e-05,-9.3311251387583e-05,9.3309583426843e-05,-9.3311152973125e-05,9.3309674292541e-05,-9.4338513046284e-05,9.4339548413617e-05,-9.4338660793079e-05,9.4339304410677e-05,-9.3310007698516e-05,9.3310872964881e-05,-9.3310058814192e-05,9.3310798094116e-05,-0.00012540597676948,0.00012540600107599,-0.00012540634166734,0.00012540561809469,-0.00012540596673968,0.00012540601209757,-0.00012540638999479,0.00012540557312259,-0.00011566711615834,0.00011566619711775,-0.00011566699901134,0.00011566634423346,-0.0001156666811599,0.00011566667315511,-0.00011566665474398,0.00011566671883823,-9.4339861105427e-05,9.4338000023364e-05,0.74589984550791,128566,2924,0.00048951287103368,0.00054494016738298,0.00046315957148659,25.6048738921,-5.1161008863201e-05,-5.1161008863201e-05,-5.1161008863201e-05,1320774.6636641,0.0014987526239953
15791759,0.10980933688341,0.0018775513355242,0.00062408988363714,0.0006465504742984,0.00060691097758865,-0.00013373604009003,0.00013373717847523,5.8865261462919e-10,5.6045561076544e-10,-7.8720756856238e-10,1.9610268581263e-09,-9.2452265003589e-05,9.2456041454445e-05,-0.00011944910615204,0.00011945299695114,-0.00011944911760061,0.00011945296365247,-9.2454919578209e-05,9.2453363183398e-05,-9.2454884718484e-05,9.2453395894608e-05,-0.00011945174928458,0.00011945019483009,-0.00011945174056326,0.00011945019041073,-0.00014985290512403,0.00014985313792153,-0.00014985290137061,0.0001498531279939,-0.0001498520234461,0.00014985404844152,-0.0001498520312342,0.00014985402176294,-0.00013169391024853,0.00013169602149104,-0.00013169396505281,0.00013169599817176,-0.00013169485241835,0.00013169509411019,-0.00013169488093156,0.00013169509448341,-9.245214685268e-05,9.2456139042536e-05,8.7264260426451e-10,-1.8892945742447e-09,-1.1667985624578e-09,1.7517134123871e-10,-0.0001495783860215,0.00014957742384512,-0.00014634657268722,0.00014634782262025,-0.00015015774666718,0.00015015898479514,-0.00015016043367904,0.00015015625078538,-0.00014937820597778,0.000149377734667,-0.00014937776173575,0.00014937818135857,-0.00014937906034771,0.00014937681208066,-0.00014937862990327,0.00014937725513233,-0.00014634880482225,0.00014634557777155,-0.00014634750377416,0.00014634688333417,-0.00015015728104175,0.00015015944409467,-0.00015016000994973,0.00015015667308914,-0.00014634790333545,0.00014634648550437,-2.2286105666371e-10,-2.4016300070816e-10,-0.00012592759163725,0.00012592713859436,4.4086731843438e-10,-9.0996458377782e-10,-0.00010821647519721,0.00010821471803245,-0.00010620595898295,0.00010620416021697,-0.00010620593435367,0.00010620417474676,-0.00010821514522764,0.00010821604046838,-0.00010821516767667,0.00010821597968579,-0.00010620456634631,0.0001062054529868,-0.00010620457624645,0.00010620543041351,-0.00014196978259144,0.00014196979485838,-0.00014197021019947,0.00014196933718262,-0.00014196978321666,0.00014196979462756,-0.00014197022670308,0.00014196932117463,-0.0001323404138385,0.00013233944452339,-0.00013234040440289,0.00013233951371154,-0.00013233996551407,0.00013233994550068,-0.00013233994549967,0.00013233993147365,-0.00010821653690088,0.00010821463851174,0.78513037299679,128566,2924,0.00055708460890317,0.00062304422297667,0.00052456228946164,24.908967999801,-5.6728256001591e-05,-5.6728256001591e-05,-5.6728256001591e-05,1356016.2165285,0.0017061647934056
15991759,0.12208955796848,0.002104128271189,0.00069922683205108,0.00072700357213084,0.00067789786700708,-0.00015040414333607,0.00015040505776199,4.8014850401705e-10,4.4166524784161e-10,-2.6196590688607e-10,1.2039455819543e-09,-0.00010376699161824,0.00010376915297608,-0.00013528085896416,0.00013528329282932,-0.00013528090074342,0.00013528322436974,-0.00010376840975736,0.00010376777096455,-0.00010376826539554,0.0001037679065376,-0.00013528230854111,0.00013528176131792,-0.0001352822634006,0.00013528179287609,-0.00016837018277081,0.00016837060987606,-0.00016837017222959,0.00016837060636853,-0.00016836970923455,0.000168371106069,-0.00016836973103518,0.00016837106682747,-0.00014886302944642,0.00014886452670663,-0.00014886312148971,0.00014886444710552,-0.00014886357745145,0.00014886400028534,-0.00014886357991169,0.00014886401103061,-0.00010376677697902,0.00010376936600893,3.9706600567814e-10,-1.1642628040999e-09,-1.0791429418945e-09,3.3243779744466e-10,-0.00016897380065942,0.00016897306778104,-0.00016577933284323,0.00016578053955542,-0.00017000712634384,0.00017000738494513,-0.0001700086098209,0.00017000586600048,-0.00016811050751827,0.00016810981931488,-0.00016811003372632,0.00016811029942292,-0.00016811096317675,0.00016810930918124,-0.00016811051983778,0.00016810976536585,-0.0001657812272284,0.00016577862045327,-0.00016577990185966,0.00016577997393158,-0.00017000661548473,0.00017000789394006,-0.00017000818353302,0.00017000627828003,-0.00016578076173344,0.00016577910126367,-2.4577295589204e-10,-2.7009953990595e-10,-0.00014100051254204,0.00014100000252542,4.4264383612863e-10,-9.7143977275484e-10,-0.0001224335807579,0.00012243182159523,-0.00011941348595936,0.00011941152408418,-0.00011941343028911,0.00011941157487997,-0.0001224322454036,0.00012243324429594,-0.00012243233247344,0.00012243310423805,-0.00011941204605642,0.00011941295531924,-0.00011941207673056,0.00011941290806888,-0.00015892232916376,0.00015892229597913,-0.0001589227726397,0.00015892183195689,-0.00015892232294581,0.00015892230241118,-0.00015892279948143,0.00015892180358204,-0.00014941089537088,0.00014940982536789,-0.00014941084797894,0.00014940992269536,-0.00014941041858109,0.00014941035095659,-0.00014941038737128,0.00014941036964736,-0.00012243373580463,0.00012243164748769,0.77894844358749,128566,2924,0.00062649551453072,0.00070380523064896,0.00058733264734566,24.621556170021,-5.9027550639833e-05,-5.9027550639833e-05,-5.9027550639833e-05,1431192.2475858,0.0019194952817413
16191759,0.13472565090551,0.0023349161970418,0.00077572060578102,0.00080958055682949,0.00074961503443132,-0.00016848087700568,0.00016848153724195,3.1357603143808e-10,3.5480859842543e-10,2.3536946543322e-10,4.4653496375161e-10,-0.00011554994297846,0.00011555154777936,-0.00015253136669417,0.00015253198068075,-0.00015253108580328,0.00015253226144832,-0.00011555021318501,0.00011555139604822,-0.00011555084986359,0.00011555069744769,-0.00015253132024186,0.0001525320228838,-0.00015253155728078,0.00015253178399455,-0.00018847946591095,0.00018848013229106,-0.00018847952767815,0.00018848005090224,-0.00018847949990105,0.00018848009102656,-0.00018847937657238,0.00018848016715343,-0.00016740113641032,0.00016740160306843,-0.00016740081163047,0.0001674018821157,-0.00016740095456421,0.00016740173601043,-0.00016740114510644,0.00016740148375974,-0.00011555065350939,0.00011555085602087,-3.7818678896202e-10,-2.4119879227776e-11,-9.1836510663521e-10,5.2266899014466e-10,-0.0001900895750818,0.00019008918662578,-0.00018678715663405,0.00018678780769726,-0.00019147836837001,0.00019147740739802,-0.00019147830304649,0.00019147749732984,-0.00018853029268591,0.0001885294072836,-0.00018852989246681,0.00018852976228747,-0.00018853023558806,0.00018852941861996,-0.00018852967803032,0.00018852997171761,-0.00018678844396493,0.00018678652414019,-0.00018678675184387,0.00018678820781164,-0.00019147819340217,0.00019147766336658,-0.00019147756333504,0.00019147826469927,-0.00018678832034556,0.00018678664567323,-3.2283943941591e-10,-2.6413330527188e-10,-0.00015729702087228,0.00015729643833467,4.2086057039438e-10,-1.0369809969159e-09,-0.00013771540774104,0.00013771257345839,-0.00013366434796378,0.00013366259629876,-0.00013366460558657,0.00013366230145218,-0.00013771404143568,0.00013771417044951,-0.00013771334476469,0.00013771484252996,-0.00013366319606253,0.00013366377447152,-0.00013366295054341,0.00013366402450705,-0.0001772724623883,0.00017727245996513,-0.00017727301542924,0.00017727185959333,-0.00017727253297964,0.00017727239210121,-0.00017727291375332,0.0001772719662305,-0.00016784203043193,0.00016784127452702,-0.00016784234318399,0.00016784094774895,-0.00016784157762498,0.00016784167308903,-0.00016784176401008,0.00016784145827373,-0.00013771470390827,0.00013771341929994,0.77198654403374,128566,2924,0.00070176730275463,0.00079172245122503,0.00065519436794766,24.889600101117,-5.6883199191064e-05,-5.6883199191064e-05,-5.6883199191064e-05,1537358.0312457,0.0021510190644424
16391759,0.14669931153745,0.0025539821887373,0.00084829782775083,0.0008886146358474,0.00081706972513911,-0.00018369169100306,0.00018369242822824,4.1444614260557e-10,3.3510449181721e-10,1.2695046039764e-10,6.2933635947092e-10,-0.00012442318861677,0.00012442380333202,-0.00016704521533737,0.00016704666179992,-0.00016704539991903,0.00016704645473392,-0.00012442352547388,0.00012442339212987,-0.00012442310726571,0.00012442383741586,-0.00016704582678185,0.00016704593935202,-0.00016704568584135,0.00016704606902005,-0.0002056686803113,0.00020566920972686,-0.00020566863228531,0.00020566924157064,-0.000205668461914,0.00020566942317327,-0.00020566853997558,0.00020566932024107,-0.00018303484558798,0.00018303603505786,-0.0001830351402671,0.00018303577797553,-0.0001830352249409,0.00018303570128979,-0.00018303512662757,0.00018303584159359,-0.0001244225222519,0.00012442438996659,1.8262643760828e-10,-6.2887696704181e-10,-8.9259277126383e-10,4.4684885855939e-10,-0.00020829955416173,0.00020829914142772,-0.00020489557089831,0.00020489686326197,-0.00020998342905956,0.00020998311606174,-0.00020998401047288,0.00020998248879801,-0.00020608447913248,0.00020608385369401,-0.00020608398530463,0.00020608435255176,-0.00020608464114685,0.00020608364630841,-0.00020608426242559,0.00020608403392745,-0.0002048971360203,0.00020489528542443,-0.00020489601314687,0.00020489640917652,-0.00020998276739042,0.00020998373465886,-0.00020998377822923,0.0002099827216491,-0.00020489706977689,0.00020489535500891,-2.6301767949823e-10,-3.2195205747719e-10,-0.00017071394486342,0.0001707133720747,3.5670947365991e-10,-9.5017820055195e-10,-0.00015016723211476,0.00015016595879391,-0.00014507320782594,0.00014507116534041,-0.00014507301837542,0.00014507134315957,-0.0001501659139835,0.0001501671300907,-0.00015016643839045,0.00015016663305358,-0.00014507171198643,0.00014507257371779,-0.00014507186007026,0.00014507240340375,-0.00019268798566502,0.0001926878265129,-0.00019268834180597,0.0001926874361214,-0.00019268794932169,0.00019268787183449,-0.00019268842392065,0.00019268734881936,-0.00018338538786217,0.00018338409715016,-0.00018338516635962,0.00018338437532528,-0.00018338492062028,0.00018338464633886,-0.000183384770321,0.0001833847455066,-0.00015016782210611,0.00015016531813389,0.77561891786766,128566,2924,0.00076510235581267,0.00086753425910959,0.00071106223203176,24.116371709013,-6.3069026327897e-05,-6.3069026327897e-05,-6.3069026327897e-05,1622625.1622514,0.002346475259989
16591759,0.15843753038685,0.0027758644127729,0.00092168436776427,0.00096917923394528,0.00088500081106333,-0.00019977540322811,0.00019977625642483,4.4514614208724e-10,4.1436279575837e-10,1.1803504975731e-10,7.6498272297939e-10,-0.00013413002271774,0.00013413141234348,-0.00018282272384872,0.00018282424982246,-0.00018282271713358,0.00018282423546949,-0.00013413061038674,0.00013413084401066,-0.00013413057886157,0.00013413087184398,-0.00018282334350638,0.00018282359238796,-0.000182823349284,0.0001828235767112,-0.00022361494260559,0.00022361558852156,-0.00022361494580228,0.00022361556991789,-0.00022361474171856,0.00022361578477611,-0.00022361473835002,0.00022361576113692,-0.00019976701144749,0.00019976811738657,-0.00019976704263306,0.00019976809661242,-0.00019976723907064,0.00019976791168209,-0.00019976728051562,0.00019976788102665,-0.00013412988637664,0.00013413151273163,1.5230102630819e-10,-4.8678591164219e-10,-7.6475335106007e-10,4.3486578349441e-10,-0.00022755411555229,0.00022755380041774,-0.00022422579023125,0.0002242268347687,-0.00022961153757749,0.00022961143711415,-0.00022961215691881,0.00022961076836157,-0.00022451100211737,0.00022451051370533,-0.00022451061056806,0.00022451090334412,-0.00022451117812745,0.00022451029089263,-0.00022451078655886,0.00022451068947708,-0.00022422715822542,0.00022422544349408,-0.00022422598169249,0.00022422663292315,-0.0002296111512759,0.00022961181904272,-0.00022961175187419,0.00022961117006634,-0.0002242269622638,0.00022422565393512,-2.8614552966262e-10,-2.9267649721149e-10,-0.00018488706503114,0.00018488649455012,3.0020976734157e-10,-8.9482865910881e-10,-0.00016380407446119,0.00016380231067201,-0.00015746086102488,0.00015745911047277,-0.00015746086053517,0.00015745910350201,-0.0001638029282705,0.00016380352512093,-0.00016380291444378,0.00016380350645688,-0.00015745969875026,0.00015746028394481,-0.00015745968079954,0.00015746027222899,-0.00020876026598727,0.00020876012107823,-0.00020876065236088,0.0002087597038915,-0.00020876027898942,0.0002087601172718,-0.00020876065373627,0.00020875969965508,-0.00019999752679508,0.00019999653198675,-0.00019999753760636,0.00019999655310032,-0.00019999713365464,0.00019999696283511,-0.00019999713205936,0.00019999694575134,-0.00016380409416867,0.00016380229527987,0.80315472090719,128566,2924,0.00083206819140757,0.00094768896708127,0.00077007579954119,23.785026137224,-6.5719790902207e-05,-6.5719790902207e-05,-6.5719790902207e-05,1703935.5556425,0.0025531165365983
16791759,0.17012733227237,0.0029971732959323,0.00099472215195609,0.0010502353948666,0.00095221574910964,-0.0002161858601299,0.00021618674339354,4.6715528322677e-10,4.2119971974063e-10,2.87473820328e-10,6.2897926607841e-10,-0.00014351636018062,0.00014351733599554,-0.00019879478917864,0.0001987961042615,-0.00019879483997177,0.0001987960411036,-0.00014351663993885,0.00014351708482747,-0.00014351648874687,0.0001435172256887,-0.00019879517820194,0.00019879571689843,-0.00019879514034339,0.00019879574945223,-0.00024199010222757,0.0002419908666124,-0.00024199009136525,0.0002419908601137,-0.00024198998255658,0.00024199097316261,-0.00024198999761702,0.00024199092288456,-0.0002168919759195,0.00021689308197993,-0.00021689206604953,0.0002168929855205,-0.00021689215230966,0.00021689291013099,-0.00021689214459455,0.00021689290669907,-0.00014351607293218,0.0001435175879095,5.1911105063138e-11,-2.8515017997538e-10,-6.6138539951239e-10,4.3129749721634e-10,-0.00024739600207834,0.00024739578122196,-0.00024422190060626,0.00024422289434852,-0.00024993539441591,0.00024993508324606,-0.00024993566574752,0.00024993476540175,-0.00024341075233377,0.00024341027120923,-0.0002434103731529,0.00024341063457754,-0.00024341081476644,0.00024341016248363,-0.00024341047456769,0.0002434105034252,-0.0002442230624901,0.00024422171712438,-0.00024422203330372,0.00024422274578454,-0.00024993499987286,0.00024993549604175,-0.00024993535035745,0.00024993508833945,-0.00024422302598137,0.0002442217702393,-2.7797948631164e-10,-2.9596871156353e-10,-0.00019926822604412,0.00019926766023292,2.4348920847554e-10,-8.3536715959291e-10,-0.00017754173123383,0.00017754025538106,-0.00016981675792853,0.00016981506962892,-0.00016981669929968,0.00016981511416182,-0.00017754073338995,0.00017754135664639,-0.00017754086250191,0.00017754120203461,-0.00016981567948203,0.00016981619365814,-0.00016981570424363,0.0001698161402815,-0.00022516610888418,0.00022516591789262,-0.00022516643713652,0.00022516555344555,-0.00022516610877989,0.00022516592967871,-0.00022516646011844,0.00022516552769425,-0.00021698940135707,0.00021698839199558,-0.00021698934237009,0.00021698846298266,-0.00021698902346547,0.0002169887784836,-0.0002169889849028,0.00021698880085575,-0.00017754193318957,0.00017754009016184,0.80668182158168,128566,2924,0.00090039036785832,0.0010302819291862,0.00082995248880803,23.660116766566,-6.6719065867471e-05,-6.6719065867471e-05,-6.6719065867471e-05,1792281.4896124,0.0027644714372497
16991759,0.18171110618551,0.0032116583715317,0.0010654628882947,0.0011293722546342,0.0010168232286028,-0.0002320655174008,0.00023206644722038,4.9019648917198e-10,4.4484636014979e-10,3.6504728265168e-10,5.9959105550042e-10,-0.00015180247147478,0.00015180340733377,-0.00021386313139148,0.00021386438094708,-0.00021386317131162,0.00021386432210758,-0.00015180264401465,0.00015180326333465,-0.00015180251377699,0.00015180338689051,-0.00021386340069066,0.00021386410254629,-0.00021386337152322,0.00021386412413385,-0.00026000724706312,0.00026000809590908,-0.00026000724173218,0.00026000808588943,-0.00026000716547894,0.00026000816362671,-0.00026000717908306,0.00026000811997909,-0.00023338605368595,0.00023338715330765,-0.00023338613843302,0.00023338707657179,-0.00023338618591566,0.00023338704216327,-0.00023338619776767,0.00023338703766956,-0.00015180219981654,0.00015180363912258,2.9277978739611e-11,-1.8662136150727e-10,-5.6772036944418e-10,4.1019344922464e-10,-0.00026685627717802,0.00026685613190997,-0.00026378972081945,0.00026379061855092,-0.00026991479667955,0.00026991448723784,-0.00026991495225975,0.00026991427089442,-0.00026192542435547,0.00026192502129679,-0.00026192508869735,0.00026192535086668,-0.0002619254504504,0.00026192495166787,-0.00026192514552681,0.00026192526028056,-0.00026379072720558,0.00026378959050805,-0.00026378980347652,0.00026379051810397,-0.00026991444076993,0.00026991483991673,-0.00026991466461089,0.00026991455877163,-0.00026379071846675,0.00026378961686905,-2.7205465460081e-10,-2.8590488670224e-10,-0.00021304409442697,0.00021304354537073,1.9699549564985e-10,-7.7030651826389e-10,-0.00019028331292013,0.00019028192796421,-0.00018120094980077,0.00018119939738266,-0.00018120090136167,0.00018119943791671,-0.00019028240942125,0.00019028291935215,-0.00019028251329769,0.00019028277990398,-0.00018119998235251,0.00018120040294415,-0.00018120000076539,0.0001812003473547,-0.00024114567387883,0.000241145464082,-0.00024114596947646,0.00024114513532789,-0.00024114567670891,0.00024114547327659,-0.00024114598711535,0.00024114511311495,-0.00023334522300619,0.00023334427518652,-0.00023334518145853,0.00023334434160701,-0.00023334489450006,0.00023334463389178,-0.00023334485978746,0.00023334465170626,-0.00019028347240981,0.00019028178394404,0.79134050428046,128566,2924,0.00096649910039543,0.0011112797178618,0.0008873062331291,23.477560679896,-6.817951456083e-05,-6.817951456083e-05,-6.817951456083e-05,1882366.5613665,0.0029695216107257
17191759,0.19295377413262,0.0034143589889675,0.0011323378160954,0.0012045966363875,0.0010774245364847,-0.00024666259793773,0.00024666364950738,5.4874474858122e-10,5.0765125672757e-10,2.5975755273213e-10,8.321200026654e-10,-0.00015865486332216,0.00015865631574151,-0.00022733609398379,0.00022733778293753,-0.0002273361140419,0.00022733774392313,-0.00015865536763051,0.00015865582678173,-0.00015865529104154,0.00015865590109516,-0.00022733667278493,0.00022733718656003,-0.00022733666324888,0.00022733718916875,-0.00027684725283437,0.00027684811574282,-0.00027684725314545,0.00027684810026232,-0.00027684706678445,0.00027684828757088,-0.00027684707207668,0.00027684825217037,-0.0002484463168059,0.00024844762373831,-0.00024844637842352,0.00024844757340067,-0.0002484465416298,0.00024844742334282,-0.00024844657053418,0.00024844740515992,-0.00015865464552045,0.0001586564875742,2.0128867746025e-10,-3.5018134920016e-10,-5.0059277882246e-10,3.5159640617702e-10,-0.00028501626500798,0.00028501613050673,-0.00028196004857225,0.00028196091851901,-0.00028856154146181,0.00028856163008805,-0.00028856203975932,0.00028856105755321,-0.00027920695935771,0.00027920672690006,-0.0002792066707134,0.00027920700875888,-0.0002792070996745,0.00027920653904491,-0.00027920682894504,0.00027920681224811,-0.00028196104113503,0.00028195990309204,-0.00028196021950837,0.00028196072485995,-0.00028856124307224,0.00028856192062503,-0.00028856177623589,0.0002885613217279,-0.00028196090247583,0.00028196006033383,-2.6634627241146e-10,-2.7239253976033e-10,-0.00022552835086663,0.00022552782178601,1.4775595593339e-10,-6.9989809906363e-10,-0.00020137022579105,0.00020136891771594,-0.00019105530904227,0.00019105391651868,-0.00019105528150561,0.0001910539376186,-0.00020136942337249,0.00020136979100042,-0.000201369483956,0.00020136969446808,-0.00019105447323608,0.00019105478387961,-0.00019105447616346,0.00019105473888464,-0.00025593782586961,0.00025593760021862,-0.00025593808748847,0.00025593730400669,-0.00025593783344158,0.0002559376061203,-0.00025593809599532,0.00025593729034521,-0.00024827367798801,0.00024827281423767,-0.00024827366267717,0.0002482728555389,-0.00024827339747555,0.00024827312797049,-0.00024827337421321,0.00024827313403192,-0.00020137032277642,0.00020136883060035,0.77293706578485,128566,2924,0.0010272655522844,0.0011868593525178,0.0009392803713796,23.033399633985,-7.1732802928118e-05,-7.1732802928118e-05,-7.1732802928118e-05,1966348.5845762,0.0031584235933334
17391759,0.20401646396301,0.0036057317076301,0.0011955504720641,0.0012759460277362,0.0011342352078297,-0.00026088260408393,0.00026088368507127,5.6692020066452e-10,5.178824583405e-10,2.9655979207398e-10,8.2699730188098e-10,-0.0001648709597478,0.0001648723427226,-0.00024001261016293,0.00024001430939645,-0.00024001264742723,0.00024001425093874,-0.00016487142997789,0.00016487191269817,-0.00016487130536843,0.00016487203288832,-0.00024001317500136,0.00024001374546996,-0.00024001314798025,0.00024001376549285,-0.00029348495192295,0.00029348585421497,-0.00029348494935272,0.00029348584240531,-0.00029348477422532,0.00029348601828525,-0.00029348478858292,0.00029348597475776,-0.00026292539591085,0.00026292674186377,-0.00026292548210698,0.00026292666347189,-0.00026292562378376,0.00026292653816619,-0.00026292564274638,0.00026292652737993,-0.0001648706886523,0.00016487257618581,2.3191359900757e-10,-3.1993373115589e-10,-4.2554512659437e-10,3.3872228400203e-10,-0.0003028072484543,0.00030280717055507,-0.00029959057857748,0.00029959144687717,-0.00030678894172665,0.00030678910637689,-0.0003067894230782,0.0003067885474302,-0.00029622151861368,0.00029622136004333,-0.00029622125387663,0.00029622161774173,-0.00029622165306821,0.00029622117756203,-0.00029622141638226,0.00029622141619846,-0.00029959148338869,0.00029959051631906,-0.0002995907674671,0.00029959123641065,-0.00030678865896923,0.00030678938635314,-0.00030678920244038,0.00030678876479518,-0.00029959136539725,0.00029959065792427,-2.5392093773049e-10,-2.6410338588259e-10,-0.00023761547624671,0.00023761496731526,1.1070299891762e-10,-6.4216515706915e-10,-0.00021159319694042,0.00021159205876933,-0.00020019091577912,0.00020018961687059,-0.00020019087005549,0.00020018965705933,-0.00021159252089484,0.00021159286125842,-0.00021159261674236,0.00021159271493034,-0.00020019017291115,0.00020019042213184,-0.00020019018586656,0.00020019036294896,-0.00027049553974827,0.00027049529750122,-0.00027049576542882,0.00027049504053675,-0.00027049554280178,0.00027049530770862,-0.00027049578048634,0.00027049501892649,-0.00026262765150738,0.00026262682088341,-0.00026262761544896,0.00026262688119526,-0.00026262739824342,0.00026262710428873,-0.00026262736392921,0.00026262712669506,-0.00021159335028137,0.0002115919219741,0.74411350744058,128566,2924,0.0010864591751001,0.001260897762663,0.00098959909884028,22.772073661892,-7.3823410704866e-05,-7.3823410704866e-05,-7.3823410704866e-05,2055126.5385656,0.0033425771448962
17591759,0.21323031552027,0.0037589322457415,0.0012462391482392,0.0013332629192666,0.0011794301782357,-0.00026830120247941,0.00026830290706439,8.8967461869816e-10,8.174636177682e-10,-7.9553566390213e-10,2.5701809063846e-09,-0.00016575069462188,0.00016575535746483,-0.00024581711913942,0.00024582230640377,-0.00024581721283886,0.00024582219818739,-0.00016575388278678,0.00016575210078043,-0.00016575367294109,0.00016575232418809,-0.00024582047383116,0.00024581886745228,-0.00024582042698884,0.00024581891119567,-0.0003030247480623,0.00030302532575843,-0.00030302473943769,0.00030302532059852,-0.00030302362923663,0.00030302644349681,-0.00030302366559174,0.00030302637777641,-0.00027033554511729,0.00027033851556635,-0.00027033569598649,0.00027033838060059,-0.00027033675757053,0.00027033732787394,-0.00027033675534469,0.0002703373441842,-0.00016575024447929,0.00016575573437472,1.4854240210511e-09,-1.9810207231767e-09,-5.4107102460749e-10,5.745611701977e-11,-0.00031305599223737,0.00031305553628998,-0.00030953303305878,0.00030953432897077,-0.0003173298135301,0.00031733244772154,-0.00031733308737283,0.00031732903318553,-0.00030600415246539,0.00030600463665446,-0.0003060039263147,0.000306004854966,-0.0003060052130446,0.00030600349445352,-0.00030600504431731,0.00030600366450099,-0.00030953474101962,0.0003095325928003,-0.00030953421774995,0.00030953309765312,-0.00031732952560148,0.00031733271109928,-0.00031733297574515,0.00031732915146958,-0.00030953369312401,0.0003095336613891,-2.2300352770673e-10,-2.5262466818924e-10,-0.00024328767867642,0.00024328721443552,3.4799645131402e-11,-5.1876012853655e-10,-0.00021534747882549,0.00021534673894235,-0.00020323688210879,0.00020323578225424,-0.00020323678956243,0.00020323587187697,-0.00021534693805208,0.00021534724616571,-0.00021534716951545,0.00021534698159908,-0.00020323624610729,0.00020323639224483,-0.00020323630191657,0.00020323628183653,-0.00027830694630906,0.00027830667505685,-0.00027830708573817,0.00027830649249261,-0.00027830694286454,0.00027830669588491,-0.00027830712279743,0.00027830645030418,-0.00026993628934787,0.00026993549733099,-0.00026993618711106,0.00026993562405798,-0.00026993608008263,0.00026993573945313,-0.00026993602377525,0.00026993578227658,-0.00021534778115203,0.00021534643242115,0.71798652148204,128566,2924,0.0011173424580014,0.0013035451404347,0.0010132133673073,20.397479196905,-9.2820166424758e-05,-9.2820166424758e-05,-9.2820166424758e-05,2093210.8381004,0.0034400577908155
17791759,0.22165095502604,0.0038943808356813,0.0012911488575283,0.0013839025145449,0.001219329463608,-0.00027665857945592,0.00027666040395404,9.1971074654154e-10,9.0179669265653e-10,-8.1293439328731e-10,2.7176535680343e-09,-0.00016807463742812,0.00016807999506735,-0.00025256965843917,0.00025257501427013,-0.00025256961620363,0.00025257502190097,-0.0001680781783094,0.00016807659627189,-0.00016807818737307,0.00016807654939179,-0.00025257312294818,0.00025257155269105,-0.00025257313341365,0.00025257153074783,-0.00031340307164223,0.00031340373289119,-0.00031340307957781,0.00031340370867973,-0.0003134019428477,0.00031340487434804,-0.00031340192364093,0.00031340486055411,-0.0002785960222175,0.00027859900078496,-0.00027859601700781,0.00027859901514081,-0.00027859717831348,0.00027859786196279,-0.00027859723754527,0.00027859781645047,-0.00016807462799681,0.00016808002382064,1.4926664611525e-09,-1.9804882695605e-09,-4.588519612552e-10,8.0229031411103e-13,-0.00032401953500111,0.00032401907002954,-0.00032011907271951,0.00032012019477644,-0.00032853014309858,0.00032853297199016,-0.00032853354071242,0.00032852943114847,-0.00031659037966709,0.00031659090731094,-0.00031659023211154,0.00031659103768266,-0.00031659147848783,0.00031658972385254,-0.00031659131737566,0.00031658987974068,-0.00032012064162531,0.00032011858558039,-0.00032012016475655,0.00032011907471313,-0.00032853003861853,0.0003285330864161,-0.00032853334626714,0.00032852961415786,-0.00032011950600952,0.00032011977353589,-2.4252702473653e-10,-2.1177609210818e-10,-0.00025001275160989,0.00025001230574327,2.0229243764395e-11,-4.8628840079669e-10,-0.000220148446639,0.00022014734824492,-0.00020745950122645,0.00020745858322124,-0.00020745952768884,0.0002074585440474,-0.00022014806537163,0.00022014804861023,-0.00022014794836935,0.00022014804545309,-0.00020745909851157,0.00020745912163953,-0.00020745905622725,0.00020745910623756,-0.00028705192558398,0.00028705167139077,-0.00028705209246349,0.00028705147639468,-0.00028705193980201,0.00028705167443959,-0.00028705207369536,0.00028705149019265,-0.0002781128291821,0.00027811225342971,-0.00027811288894565,0.00027811220401762,-0.00027811269415253,0.00027811240325195,-0.00027811268789942,0.00027811241952197,-0.00022014836613847,0.00022014748889996,0.69669370439679,128566,2924,0.0011521306436469,0.0013491657390869,0.0010412093427345,19.228883150182,-0.00010216893479854,-0.00010216893479854,-0.00010216893479854,2145442.6137258,0.0035488479026221
17991759,0.23006433918006,0.0040278208352923,0.001335422597198,0.001433836092469,0.0012585621456253,-0.00028694669947611,0.00028694819947628,7.7193826225714e-10,7.3047992245009e-10,-7.5635049930554e-11,1.6360356623806e-09,-0.00017229496856677,0.00017229802731824,-0.00026127630574501,0.00026127957710739,-0.00026127631411502,0.00026127954208882,-0.00017229663052979,0.00017229642781498,-0.00017229655846601,0.00017229649202799,-0.00026127800337224,0.00026127786102599,-0.00026127799448146,0.00026127786399622,-0.0003257720233616,0.00032577295696853,-0.00032577202584279,0.0003257729402812,-0.00032577147355016,0.00032577350640129,-0.00032577147679019,0.00032577347289095,-0.00028876952774524,0.00028877165283598,-0.0002887695881861,0.00028877160380152,-0.00028877013013307,0.00028877107955149,-0.00028877016603019,0.00028877105807106,-0.00017229478254775,0.00017229819555067,7.2827022631508e-10,-9.8011471260949e-10,-3.6201515745014e-10,1.2245476381161e-10,-0.00033696576006751,0.00033696552625445,-0.00033264312145753,0.00033264392763,-0.00034166213770547,0.00034166339233325,-0.00034166376386166,0.00034166165421804,-0.00032919719786922,0.00032919736159298,-0.00032919703154655,0.0003291975168333,-0.00032919770981479,0.00032919678362427,-0.00032919755523595,0.00032919693674401,-0.00033264413272378,0.00033264288425589,-0.00033264366977035,0.00033264335023101,-0.00034166196678289,0.00034166355874281,-0.00034166361340281,0.00034166179611089,-0.00033264361531253,0.00033264343881438,-2.2929191062418e-10,-2.1733268928258e-10,-0.00025862633669546,0.00025862589985642,2.1821786164559e-11,-4.7776286137704e-10,-0.00022677953127868,0.00022677862045267,-0.00021356936403457,0.0002135684177795,-0.00021356934611397,0.00021356842749596,-0.0002267791024335,0.00022677921823227,-0.00022677914341947,0.00022677910938985,-0.0002135688993095,0.00021356896041648,-0.00021356889463655,0.00021356891166332,-0.00029773301753382,0.00029773276218632,-0.00029773316706356,0.00029773258240935,-0.000297733021593,0.00029773277223946,-0.00029773316685877,0.00029773257530748,-0.00028820422019833,0.0002882035875367,-0.00028820422825654,0.0002882036085221,-0.00028820407296732,0.00028820376463593,-0.00028820403958181,0.00028820379162577,-0.00022677959758202,0.00022677858189802,0.68920463690487,128566,2924,0.001194952237939,0.0014030342245436,0.0010770651244018,19.173602331557,-0.00010261118134754,-0.00010261118134754,-0.00010261118134754,2217620.3093862,0.0036818801370592
18191759,0.23767097267912,0.0041502391826977,0.0013760220088553,0.0014797247742523,0.0012944923995901,-0.00029399650832217,0.00029399809158752,8.1226545128553e-10,7.7435441891213e-10,-1.9281572570752e-10,1.8384156352672e-09,-0.00017419272725531,0.00017419621964366,-0.00026709495749713,0.00026709861856236,-0.00026709495778599,0.00026709859295845,-0.00017419468974313,0.00017419428423375,-0.00017419465148487,0.00017419431970945,-0.00026709694815286,0.00026709658727564,-0.00026709695371124,0.00026709657751843,-0.00033463057192417,0.00033463148476509,-0.00033463057619171,0.0003346314659793,-0.00033462991927814,0.00033463213575142,-0.00033462991813771,0.00033463210657699,-0.00029574269387716,0.00029574499502234,-0.00029574274144277,0.00029574496171814,-0.00029574339361048,0.00029574432639374,-0.00029574343427469,0.00029574430187542,-0.00017419257110168,0.00017419635122739,8.8008654562191e-10,-1.144256898899e-09,-3.6113411965936e-10,1.0465138514849e-10,-0.00034633860380069,0.00034633836178205,-0.00034165553924673,0.00034165639170224,-0.00035114415480084,0.00035114572095241,-0.0003511460966814,0.00035114365777902,-0.00033832337893948,0.00033832365592134,-0.00033832322272974,0.00033832380173132,-0.00033832399564273,0.0003383229694554,-0.00033832384342182,0.00033832312047531,-0.00034165663433041,0.00034165526262962,-0.00034165617785001,0.00034165571844121,-0.00035114399308924,0.00035114586543782,-0.0003511459461785,0.00035114380387103,-0.00034165599902636,0.00034165593095668,-2.3083880011493e-10,-2.1048210912101e-10,-0.00026416716602461,0.00026416673468712,2.1225348871982e-11,-4.71340849532e-10,-0.00023066648110024,0.00023066554162761,-0.00021704292824907,0.00021704200876857,-0.00021704292529264,0.00021704200607034,-0.00023066601571603,0.00023066610866289,-0.00023066603992115,0.00023066602346445,-0.00021704245809259,0.00021704251616292,-0.00021704245077656,0.00021704246838147,-0.00030506618145957,0.00030506592919385,-0.00030506633020621,0.00030506574720299,-0.00030506618562006,0.00030506593982438,-0.00030506632358195,0.0003050657456397,-0.00029508621225877,0.00029508560233038,-0.0002950862398977,0.00029508561164174,-0.00029508607920141,0.00029508577610586,-0.00029508604584576,0.00029508579940796,-0.00023066650176453,0.00023066553528363,0.70094301928386,128566,2924,0.0012242960621495,0.0014420316042638,0.0011001303377863,17.890287993314,-0.00011287769605349,-0.00011287769605349,-0.00011287769605349,2254477.6867191,0.003773633661708
18391759,0.24450172748213,0.004260418853931,0.0014125712784564,0.001521038089844,0.0013268094856306,-0.00029993748081621,0.00029993916102673,8.6066990223557e-10,8.2268622134992e-10,-2.9938473875909e-10,2.047618269785e-09,-0.00017552012551483,0.0001755240436553,-0.00027202762640562,0.00027203169622243,-0.00027202762477319,0.00027203168482342,-0.00017552238590753,0.00017552179223859,-0.00017552237058702,0.00017552181023093,-0.00027202992717281,0.00027202936247113,-0.0002720299423341,0.00027202934862634,-0.00034217112355458,0.00034217203037873,-0.00034217112841983,0.0003421720093256,-0.00034217036933665,0.00034217278053912,-0.00034217036300481,0.00034217275039522,-0.00030164968465043,0.00030165218579097,-0.0003016497160238,0.00030165215202494,-0.00030165047985329,0.00030165140482703,-0.00030165051692851,0.00030165136402014,-0.0001755199718716,0.00017552415790568,1.0231635364828e-09,-1.3062611457216e-09,-3.6338227162692e-10,9.1475209568668e-11,-0.00035437948388178,0.00035437922446637,-0.00034939507500977,0.00034939599761599,-0.00035926715795437,0.00035926901575637,-0.00035926940773168,0.00035926664571901,-0.00034613226864679,0.00034613263446595,-0.00034613211506364,0.00034613276876206,-0.00034613298560729,0.00034613184145438,-0.00034613283463877,0.00034613198838568,-0.00034939626245479,0.00034939478520908,-0.00034939580166549,0.00034939523314707,-0.00035926701434709,0.00035926915974633,-0.00035926925515761,0.0003592668026728,-0.0003493955239892,0.00034939555686088,-2.3420073734273e-10,-2.0843561126971e-10,-0.00026873237936265,0.00026873194738734,1.4110500750984e-11,-4.6726112806589e-10,-0.0002338201877301,0.0002338192419179,-0.00021980867201746,0.00021980777033752,-0.00021980867397117,0.00021980775755903,-0.00023381973656431,0.00023381979990565,-0.000233819754886,0.0002338197319086,-0.00021980822892655,0.00021980826272724,-0.00021980821315833,0.00021980822524797,-0.00031122739963455,0.00031122714591746,-0.00031122754508649,0.0003112269623676,-0.00031122740496987,0.00031122715795735,-0.0003112275347589,0.00031122696511686,-0.00030090341689345,0.000300902821252,-0.0003009034496116,0.00030090280846601,-0.00030090327973944,0.00030090296777471,-0.00030090324746972,0.00030090299116889,-0.00023382020261799,0.00023381926438767,0.70345144316776,128566,2924,0.0012490244435665,0.0014754857693565,0.0011191343031883,16.542319670092,-0.00012366144263926,-0.00012366144263926,-0.00012366144263926,2277636.2312731,0.0038511202035305
18591759,0.25105010452892,0.0043637368178709,0.0014468735599464,0.0015598082860932,0.0013570549718313,-0.00030687426241049,0.00030687577224786,8.1010653004423e-10,7.0159583874343e-10,8.2266498322299e-11,1.4917583303511e-09,-0.00017782554424201,0.00017782795220701,-0.0002779102540142,0.00027791331087896,-0.00027791030825252,0.00027791315474741,-0.00017782676499308,0.0001778267116072,-0.00017782656721582,0.00017782696609106,-0.00027791174643094,0.00027791188113966,-0.00027791167408025,0.00027791192665353,-0.00035070910189112,0.00035071013296046,-0.00035070908321833,0.00035071010624322,-0.00035070862301089,0.0003507105959967,-0.00035070863045536,0.0003507104946694,-0.00030855383974642,0.00030855601055429,-0.00030855397860623,0.00030855577094405,-0.00030855439722882,0.00030855546841154,-0.00030855440387231,0.00030855538145493,-0.00017782497125999,0.00017782839381776,7.0249507249304e-10,-8.3151883736147e-10,-3.2600990725347e-10,2.0893300554892e-10,-0.00036340233979149,0.00036340221865649,-0.00035809846318083,0.00035809947434171,-0.00036836688880509,0.00036836803736659,-0.00036836831860332,0.00036836653804001,-0.00035492837686065,0.00035492855338229,-0.00035492813097225,0.00035492868189305,-0.0003549288083432,0.00035492804275151,-0.00035492863492069,0.00035492815542017,-0.00035809949796134,0.00035809845222961,-0.0003580990268707,0.00035809891206826,-0.00036836667865776,0.00036836830856261,-0.00036836820976291,0.00036836664212216,-0.00035809909819822,0.00035809886852752,-2.1741080118715e-10,-2.5602357753688e-10,-0.00027431928893006,0.00027431882884353,-1.3847939141546e-11,-4.7957846012911e-10,-0.00023794639161328,0.00023794588817979,-0.00022356137245949,0.0002235603748855,-0.0002235612679583,0.00022356044814047,-0.00023794612457332,0.00023794640893952,-0.00023794632272189,0.00023794609994075,-0.00022356094600449,0.00022356101295618,-0.00022356097411231,0.00022356087984663,-0.00031841574414973,0.00031841547200204,-0.00031841585689883,0.00031841530480448,-0.00031841575154646,0.00031841548927972,-0.00031841589756496,0.00031841526829765,-0.00030770129388382,0.00030770053256456,-0.00030770117025168,0.00030770065051865,-0.00030770109145,0.00030770073853984,-0.00030770105792647,0.00030770078175647,-0.00023794675610696,0.00023794552244162,0.68932345323738,128566,2924,0.0012778957270831,0.0015130245364601,0.0011423901552925,15.99383296703,-0.00012804933626376,-0.00012804933626376,-0.00012804933626376,2313921.688654,0.0039411416396576
18791759,0.25752187269971,0.0044720578090594,0.0014827636887433,0.0016004694604128,0.0013888246599033,-0.00031474901193211,0.00031475034551845,7.050091136614e-10,6.3352633401419e-10,4.561028027254e-10,9.2895719903935e-10,-0.00018137960990213,0.00018138109894742,-0.00028517437098496,0.00028517629027233,-0.00028517440789818,0.00028517620887998,-0.00018137995793467,0.00018138077248577,-0.00018137984240445,0.0001813809180129,-0.00028517489337164,0.00028517578050794,-0.00028517486383181,0.00028517580450481,-0.00036002640743109,0.00036002757850825,-0.00036002640298663,0.00036002756037974,-0.00036002624489152,0.00036002772327842,-0.00036002626003576,0.00036002766352008,-0.00031661258199399,0.00031661418579095,-0.00031661268331407,0.00031661407801109,-0.00031661280006143,0.00031661399915123,-0.00031661283399388,0.00031661396503248,-0.00018137923491834,0.00018138138030854,2.9079713212664e-10,-2.2445854313676e-10,-2.4694892232111e-10,3.1102612218899e-10,-0.00037337485350469,0.00037337492485833,-0.0003678815424203,0.00036788234688463,-0.00037840677566077,0.00037840713869749,-0.00037840723686519,0.0003784065973745,-0.00036459955773739,0.0003645996015265,-0.00036459935117407,0.00036459977476438,-0.00036459967684849,0.0003645994263693,-0.00036459949932154,0.0003645995881595,-0.00036788224113108,0.00036788164234455,-0.0003678817149147,0.00036788215710767,-0.00037840657228872,0.00037840733461844,-0.00037840707034458,0.00037840674491212,-0.00036788213974436,0.0003678817730278,-2.3100238260628e-10,-2.2716736618095e-10,-0.00028080923919885,0.00028080879236659,3.6688696296726e-11,-5.06373544571e-10,-0.00024339332171693,0.00024339248583389,-0.00022856536057727,0.00022856433605662,-0.00022856531608658,0.00022856437521995,-0.00024339286093716,0.00024339312438944,-0.00024339299128218,0.00024339291412052,-0.00022856484514092,0.00022856496213033,-0.00022856485639145,0.00022856487919453,-0.00032636389314859,0.00032636364277193,-0.00032636404747691,0.00032636345599288,-0.00032636389524222,0.00032636366110939,-0.00032636406055949,0.0003263634341881,-0.00031560575302318,0.00031560505397373,-0.0003156057269687,0.00031560511913353,-0.00031560558209183,0.00031560525728479,-0.00031560553079995,0.00031560530484785,-0.00024339348753224,0.00024339232863057,0.73043847701447,128566,2924,0.0013106695171295,0.0015545127093284,0.0011694039920545,15.81475243515,-0.0001294819805188,-0.0001294819805188,-0.0001294819805188,2345639.0907372,0.0040428267500066
18991759,0.26414998565591,0.0045848802319705,0.0015200927867154,0.0016429455267682,0.001421841918487,-0.00032371575123862,0.00032371690044927,6.090937229431e-10,5.4580767656411e-10,8.5295056084291e-10,3.3907282469031e-10,-0.00018557205606123,0.00018557248585837,-0.00029360989822987,0.00029361062746268,-0.00029360990790198,0.00029361057173303,-0.00018557147801628,0.00018557312394525,-0.00018557141041555,0.00018557320007671,-0.00029360943396246,0.00029361112718493,-0.00029360942384036,0.000293611129116,-0.000370505005669,0.00037050632776914,-0.00037050500867296,0.0003705063023639,-0.00037050517453119,0.00037050613446193,-0.00037050517892952,0.00037050608577365,-0.00032586872636698,0.00032586979118415,-0.00032586880012581,0.00032586971246799,-0.00032586859624561,0.00032586995724867,-0.00032586864685898,0.00032586990884582,-0.00018557179275941,0.00018557269180401,-1.1286598377167e-10,3.9489553938881e-10,-1.6785309632077e-10,4.4039164951388e-10,-0.00038465604728585,0.00038465632392122,-0.00037906285139606,0.00037906355136861,-0.00038978864806854,0.00038978821484907,-0.00038978812346725,0.00038978867151317,-0.00037545494646767,0.00037545484492044,-0.00037545473265348,0.00037545503267396,-0.00037545474266749,0.0003754550046293,-0.00037545454357729,0.00037545519253437,-0.00037906325291576,0.0003790631333606,-0.0003790626640861,0.00037906372510606,-0.00038978844598352,0.00038978840982993,-0.00038978792406457,0.00038978885509604,-0.00037906347050665,0.00037906294426577,-2.4718528255547e-10,-2.2980886863008e-10,-0.00028830642768652,0.00028830596106266,5.5800308164486e-11,-5.4731910777741e-10,-0.00024987738066628,0.00024987636102512,-0.00023450428900535,0.00023450320936379,-0.00023450427080426,0.00023450322142925,-0.00024987685512893,0.00024987707680135,-0.00024987691072546,0.0002498769391966,-0.00023450374122208,0.00023450387931714,-0.00023450373652698,0.00023450381392768,-0.00033541327828614,0.00033541303271456,-0.00033541346231044,0.00033541281904265,-0.00033541328354783,0.0003354130458001,-0.00033541346091207,0.00033541280980682,-0.00032472351148511,0.00032472281457197,-0.00032472352648622,0.00032472284104357,-0.00032472333625675,0.00032472302510431,-0.00032472329396459,0.00032472305979809,-0.00024987744875565,0.00024987629710338,0.74319115588019,128566,2924,0.0013479869105582,0.0016014433599788,0.0012006093436055,16.067588033748,-0.00012745929573001,-0.00012745929573001,-0.00012745929573001,2381283.118417,0.0041587588028292
19191759,0.27145117516482,0.0047162975684111,0.0015634372698027,0.0016926088385679,0.0014602514600404,-0.00033563190480913,0.000335632769357,4.7951281417591e-10,3.9235074510112e-10,1.4866156413538e-09,-5.9235641272703e-10,-0.00019217700219135,0.00019217543316078,-0.0003053320022424,0.00030533094983064,-0.00030533206511489,0.00030533083977689,-0.00019217486212017,0.00019217765332213,-0.00019217467997728,0.00019217784250544,-0.00030533005981539,0.00030533296445994,-0.00030533000984701,0.00030533300505385,-0.00038399648198503,0.00038399803040254,-0.00038399647761223,0.00038399801178594,-0.0003839971445197,0.00038399733011516,-0.00038399717081759,0.0003839972578944,-0.00033831427984027,0.00033831461594167,-0.00033831442084566,0.00033831446303051,-0.00033831367790867,0.00033831525330853,-0.00033831370198156,0.00033831522412691,-0.00019217657718174,0.0001921758006637,-7.0529145785951e-10,1.285541566764e-09,-6.3936384463813e-11,6.230296450926e-10,-0.00039928538950225,0.00039928595001018,-0.00039376296672356,0.00039376358794971,-0.00040458343524494,0.00040458176258799,-0.00040458141508733,0.00040458374082356,-0.00038945616846465,0.00038945581528369,-0.00038945591229835,0.0003894560440729,-0.00038945546983334,0.00038945648548098,-0.00038945526115289,0.00038945668311357,-0.00039376295406555,0.00039376358817783,-0.00039376233513144,0.00039376421240067,-0.00040458316343696,0.00040458203496917,-0.00040458123715486,0.00040458390504316,-0.0003937637106189,0.00039376285545174,-2.5006202236066e-10,-2.5065943234625e-10,-0.00029851998253556,0.00029851949207964,7.3759651329082e-11,-5.9154542243742e-10,-0.00025938660738051,0.00025938565948266,-0.00024323237470194,0.00024323115458495,-0.00024323230337677,0.00024323122181389,-0.00025938605487001,0.00025938643123785,-0.00025938622124275,0.00025938617076002,-0.00024323173216233,0.00024323194459959,-0.00024323176379129,0.00024323183799307,-0.00034727316461693,0.00034727290810322,-0.00034727335469988,0.00034727268906134,-0.00034727315973404,0.00034727292935112,-0.00034727337323354,0.00034727265833553,-0.0003370153538222,0.00033701454960536,-0.00033701530801171,0.00033701463876336,-0.00033701513937663,0.00033701479632807,-0.00033701506757345,0.00033701485693712,-0.00025938682886488,0.00025938543646875,0.78535096956932,128566,2924,0.0013975762235011,0.0016622993020179,0.0012431187597314,17.221379509118,-0.00011822896392706,-0.00011822896392706,-0.00011822896392706,2429671.9275775,0.0043123659161956
19391759,0.27931372983209,0.0048546326726634,0.001609010089816,0.0017452574619171,0.0015003651209303,-0.00034762978972844,0.00034763058939059,4.4836384214533e-10,3.5951237890096e-10,1.6542268644901e-09,-8.3083728887349e-10,-0.00019789270224513,0.00019789059206681,-0.00031678389674885,0.00031678240556743,-0.00031678399433252,0.00031678226716321,-0.00019789012950688,0.00019789317498411,-0.00019788988901576,0.00019789345029351,-0.000316781561951,0.00031678477584992,-0.00031678149490811,0.00031678483922135,-0.00039784133371541,0.00039784294471441,-0.00039784132468976,0.00039784293411396,-0.00039784211696772,0.00039784211967221,-0.00039784215929092,0.00039784204401096,-0.0003508196620219,0.00035081981711981,-0.0003508198458104,0.00035081965654594,-0.00035081895758881,0.00035082059005794,-0.00035081897362268,0.00035082060209447,-0.00019789219842059,0.00019789100751277,-7.9576124851068e-10,1.5159154055308e-09,-1.379404880716e-11,7.0163961092092e-10,-0.00041436368942256,0.00041436439151735,-0.00040890188801867,0.00040890256388809,-0.00041990700846973,0.00041990511282579,-0.00041990463311987,0.00041990742332357,-0.00040381566403869,0.00040381533876369,-0.00040381539887743,0.00040381560279156,-0.00040381485393332,0.00040381612834159,-0.00040381464782192,0.0004038163348137,-0.00040890178664735,0.00040890263368086,-0.00040890117847786,0.00040890326499498,-0.00041990668008686,0.00041990539684159,-0.00041990447558916,0.00041990756308727,-0.00040890267019589,0.000408901775575,-2.5583688366896e-10,-2.5289163196199e-10,-0.00030866071946497,0.00030866022082531,9.1238756575693e-11,-6.1239449557827e-10,-0.00026842311167379,0.00026842217128535,-0.00025144623717734,0.00025144494721784,-0.00025144614994179,0.00025144504923196,-0.00026842243805169,0.00026842293311459,-0.00026842268656384,0.00026842259835141,-0.00025144549698137,0.00025144578003466,-0.00025144556658954,0.00025144563443933,-0.00035935666365744,0.00035935639697205,-0.00035935685995009,0.00035935617796714,-0.00035935665010664,0.00035935642767539,-0.00035935688454179,0.00035935613785977,-0.00034936048958701,0.00034935963710211,-0.00034936043249288,0.00034935976834465,-0.0003493602817394,0.00034935991911146,-0.00034936018106362,0.00034936000762285,-0.00026842334928435,0.00026842185908923,0.76951814475216,128566,2924,0.0014475050168204,0.001725018711225,0.001285324219476,18.120246834639,-0.00011103802532289,-0.00011103802532289,-0.00011103802532289,2482419.1171345,0.0044679056374186
19591759,0.28738569850853,0.0049931204433111,0.0016546459539371,0.0017982181133812,0.0015402563759928,-0.00035863020871782,0.00035863124581876,5.6986203582656e-10,4.7230590331268e-10,1.2531844592515e-09,-1.7731516809921e-10,-0.00020246555316411,0.00020246473171716,-0.0003269772769115,0.00032697707183075,-0.00032697737143311,0.00032697693572299,-0.00020246403576338,0.00020246629380825,-0.00020246380179409,0.00020246654238411,-0.0003269759884158,0.00032697842001275,-0.00032697592590118,0.00032697847621739,-0.00041078716476626,0.0004107886663969,-0.00041078715960316,0.0004107886497345,-0.00041078760423994,0.00041078818644624,-0.00041078764305062,0.00041078810625552,-0.00036221295858407,0.00036221370178767,-0.0003622131259482,0.00036221353129986,-0.00036221258814974,0.00036221411507711,-0.00036221261116206,0.00036221409254297,-0.00020246505320726,0.00020246516614569,-3.0649829586392e-10,9.8294091122694e-10,-2.0538520327008e-11,6.7210946728184e-10,-0.00042847546634062,0.00042847612466884,-0.00042298735863763,0.00042298831284519,-0.00043426287941756,0.00043426197466787,-0.00043426151753588,0.00043426325865501,-0.00041727148978553,0.00041727146321908,-0.00041727122762754,0.00041727170715372,-0.00041727101327665,0.00041727190317586,-0.00041727081134528,0.00041727209891907,-0.00042298757337189,0.00042298806897779,-0.00042298696991114,0.0004229886842916,-0.00043426258390314,0.00043426225624994,-0.00043426135428351,0.00043426341108396,-0.00042298811427534,0.00042298755517333,-2.578170967438e-10,-2.5759896860278e-10,-0.000317749452907,0.0003177489473653,6.7898303958385e-11,-6.0006088980447e-10,-0.00027615089590636,0.00027614996946534,-0.00025840650170791,0.00025840524124151,-0.00025840641490219,0.00025840533742289,-0.00027615031141478,0.00027615072598175,-0.00027615052053454,0.00027615040696352,-0.00025840582260419,0.0002584060514687,-0.00025840587753998,0.00025840590943211,-0.00037048788682625,0.00037048760856061,-0.00037048807133864,0.00037048739510857,-0.00037048787742427,0.00037048763767551,-0.00037048809582525,0.00037048735819631,-0.00036057357414915,0.0003605727359782,-0.00036057351211574,0.00036057284506291,-0.00036057336010816,0.00036057298695482,-0.00036057327446192,0.00036057306823673,-0.0002761511462519,0.00027614968694685,0.75194288194241,128566,2924,0.001493282556053,0.0017837137007612,0.0013231506594507,18.430854447721,-0.00010855316441823,-0.00010855316441823,-0.00010855316441823,2532139.637493,0.0046108577731582
19791759,0.29556359166477,0.0051296046004047,0.0016996743869264,0.0018505698671998,0.0015793603462786,-0.00036927041225263,0.00036927173895949,7.0772830609929e-10,6.2138784948362e-10,8.0873772544116e-10,5.7233822651887e-10,-0.00020663795117493,0.00020663871317405,-0.0003365997855533,0.00033660102374127,-0.00033659984400023,0.00033660092414737,-0.00020663762472787,0.00020663908190577,-0.00020663747603152,0.00020663924570196,-0.00033659963686015,0.00033660122123448,-0.00033659960303102,0.00033660124904636,-0.00042344364666115,0.00042344504807924,-0.0004234436490677,0.00042344502407181,-0.00042344370789601,0.00042344495359612,-0.00042344373252219,0.00042344488829491,-0.00037313771992819,0.0003731390980917,-0.00037313784338394,0.00037313897586423,-0.00037313771133008,0.00037313914922061,-0.00037313775955173,0.00037313910524904,-0.00020663755276165,0.00020663904222796,2.1288164595008e-10,3.6545913835654e-10,-3.3961681141012e-11,5.9511939690799e-10,-0.00044221088769653,0.00044221145483972,-0.00043659982102833,0.00043660096740432,-0.000448222836512,0.00044822301435933,-0.00044822261553383,0.00044822312553704,-0.00043042767571775,0.00043042796507844,-0.00043042744489552,0.00043042817750658,-0.00043042757813443,0.00043042801203052,-0.00043042738593199,0.0004304281976425,-0.00043660034805919,0.00043660040537332,-0.00043659977187152,0.0004366009917485,-0.00044822259608788,0.00044822323937336,-0.00044822243774594,0.00044822329084936,-0.00043660048151989,0.00043660030738471,-2.6387991154369e-10,-2.463185552181e-10,-0.00032644053688864,0.00032644003704811,4.6346938505545e-11,-5.7198108393255e-10,-0.00028326383839981,0.00028326285330718,-0.00026481416758846,0.00026481299902184,-0.00026481411813971,0.00026481305939098,-0.00028326329353507,0.00028326358686604,-0.00028326341870443,0.0002832633408755,-0.00026481357344593,0.00026481373329452,-0.00026481359863684,0.00026481361405176,-0.00038128532012985,0.00038128503526454,-0.00038128549863906,0.0003812848277036,-0.00038128531711414,0.00038128506066841,-0.00038128550753733,0.00038128480727566,-0.0003712960093434,0.00037129524250273,-0.00037129599285347,0.0003712952984143,-0.00037129582536866,0.00037129545704759,-0.00037129575859476,0.00037129552590161,-0.00028326397897858,0.00028326268599185,0.73295181754099,128566,2924,0.0015375599005177,0.0018408397659951,0.0013593213091007,18.579075511231,-0.00010736739591015,-0.00010736739591015,-0.00010736739591015,2583377.7255177,0.0047490838421667
19991759,0.30365220005318,0.0052673368042562,0.001745071242551,0.0019035265363249,0.0016187390253802,-0.00037939740220852,0.00037939902852496,9.0728891395382e-10,7.1699018987569e-10,4.4444223635946e-10,1.2478358030904e-09,-0.00021062020165206,0.00021062158113609,-0.00034590978077835,0.00034591258764911,-0.00034591006103113,0.00034591222290581,-0.00021062081777537,0.00021062099421545,-0.00021062014867211,0.00021062170069544,-0.00034591083712341,0.00034591153543388,-0.00034591061930325,0.00034591172919341,-0.00043546904322075,0.00043547036329099,-0.00043546902060798,0.00043547037762638,-0.00043546870048411,0.00043547069779435,-0.00043546884402448,0.00043547054570703,-0.00038363989703058,0.00038364220218728,-0.00038364036991808,0.00038364179457336,-0.00038364045129474,0.00038364175752269,-0.00038364043369992,0.00038364185646036,-0.0002106191125478,0.00021062260330984,8.2053175130353e-10,-3.9677354092892e-10,-1.0478843441761e-10,5.1919005189442e-10,-0.00045536084973976,0.00045536127104658,-0.00044968164276879,0.00044968330112317,-0.00046158228605437,0.00046158345322748,-0.00046158316642473,0.0004615823816034,-0.00044300119513469,0.00044300172037121,-0.00044300091639336,0.00044300203009581,-0.0004430014672863,0.00044300138992544,-0.00044300135053506,0.00044300152000382,-0.00044968260533337,0.0004496822465033,-0.00044968228203709,0.0004496826341056,-0.00046158180312453,0.00046158384249997,-0.0004615831929094,0.00046158229670919,-0.0004496824849203,0.00044968242629874,-1.9035923843603e-10,-2.7085811815516e-10,-0.00033460818566779,0.00033460773228037,4.2209242011814e-12,-4.7197862842559e-10,-0.00029004963782815,0.00029004955863436,-0.00027089080113464,0.00027088957481492,-0.00027089052901084,0.0002708898945673,-0.00029004930049776,0.00029005005879526,-0.0002900499199659,0.00029004925707423,-0.00027089013658845,0.00027089040047807,-0.0002708903344807,0.00027089007862184,-0.00039144474601695,0.000391444413122,-0.00039144481735118,0.00039144433620728,-0.00039144470630516,0.00039144447166391,-0.00039144492474174,0.00039144421286077,-0.00038155274009206,0.00038155175985466,-0.00038155244547259,0.00038155215468971,-0.00038155254572529,0.00038155207920589,-0.0003815523797706,0.00038155226795801,-0.00029005041843997,0.00029004863150789,0.74870071563219,128566,2924,0.0015797005520669,0.0018955275489828,0.0013933129066555,18.423903730996,-0.00010860877015203,-0.00010860877015203,-0.00010860877015203,2625282.1984905,0.0048805413040363
20191759,0.31168106357549,0.0054070335771541,0.0017910554041065,0.0019573863912154,0.0016585917818321,-0.00038969248674241,0.00038969435849425,9.7749125447492e-10,8.9072923125988e-10,2.3450044883402e-10,1.7180122575813e-09,-0.0002146695767717,0.00021467264683043,-0.00035555169751893,0.00035555519185647,-0.00035555175090079,0.00035555509129322,-0.00021467098819045,0.00021467128827041,-0.00021467085313984,0.00021467142894633,-0.0003555532316104,0.00035555369448148,-0.00035555319865214,0.00035555371534858,-0.00044761783891369,0.00044761921753808,-0.00044761784955787,0.00044761918929895,-0.00044761734528448,0.00044761969670716,-0.0004476173756719,0.00044761963785672,-0.00039443511844475,0.00039443757630432,-0.00039443522044948,0.00039443748628512,-0.00039443565547681,0.00039443708584417,-0.00039443573986098,0.00039443701750046,-0.00021466923314214,0.0002146729431602,9.8009647459311e-10,-6.2184505791327e-10,-6.5778019938407e-11,4.2218498783254e-10,-0.0004687597317682,0.0004687600858643,-0.00046311915646832,0.00046312052756289,-0.00047520461593851,0.0004752063868744,-0.00047520612497975,0.00047520470327761,-0.00045573118954202,0.00045573189277173,-0.00045573101327146,0.00045573206228152,-0.00045573166471273,0.00045573134677951,-0.00045573151575765,0.00045573149397569,-0.00046312011619412,0.00046311950120462,-0.00046311966872905,0.00046311997086713,-0.00047520445635733,0.00047520652913791,-0.00047520595836361,0.00047520484773254,-0.00046311965290852,0.00046312001910115,-2.5527190082274e-10,-2.2687527592764e-10,-0.00034290080285734,0.00034290032937145,-1.0045092502022e-11,-4.8445602795457e-10,-0.0002970661869533,0.00029706532159116,-0.00027716348183752,0.00027716249104659,-0.00027716344911687,0.00027716254900793,-0.0002970657904408,0.00029706594641671,-0.00029706585268224,0.00029706570820457,-0.00027716305162274,0.0002771631041259,-0.00027716306825507,0.00027716296782472,-0.00040170843962206,0.00040170813042499,-0.00040170857634325,0.00040170797139582,-0.00040170843781135,0.0004017081555987,-0.00040170857921234,0.00040170795751167,-0.00039209987170329,0.000392099206253,-0.00039209987985105,0.00039209923842434,-0.00039209974641078,0.00039209935893782,-0.00039209968961167,0.00039209943664889,-0.00029706626092864,0.00029706518959909,0.76566370814587,128566,2924,0.0016225394235686,0.0019512476696139,0.0014278235567887,18.316850758102,-0.00010946519393519,-0.00010946519393519,-0.00010946519393519,2662199.3161513,0.005014276577346
20391759,0.31987897694228,0.0055506400198824,0.0018382886005609,0.0020129360636426,0.0016994153556788,-0.00040094421996659,0.00040094609741842,1.0065087971927e-09,8.6888930304293e-10,4.6870004349128e-10,1.4919079092081e-09,-0.00021928609963298,0.00021928836846398,-0.00036615761120723,0.00036616076888407,-0.00036615777950853,0.00036616057857249,-0.00021928697804696,0.0002192875151132,-0.00021928660621306,0.00021928788701448,-0.00036615880680268,0.00036615965700609,-0.00036615870565811,0.00036615975583533,-0.00046079457104084,0.00046079609352028,-0.00046079456066335,0.00046079607776063,-0.00046079419764032,0.00046079643990481,-0.00046079426310527,0.0004607963224339,-0.00040625871998524,0.00040626119953406,-0.00040625895254057,0.00040626093883677,-0.00040625920047087,0.00040626072088741,-0.00040625920570117,0.00040626068170158,-0.00021928538509167,0.00021928901531417,7.6480687188093e-10,-3.4694277772453e-10,-2.6740669973241e-11,4.4368112619909e-10,-0.0004833117007529,0.00048331210928187,-0.00047777079192835,0.00047777214612368,-0.000490004978702,0.00049000622380565,-0.00049000591400432,0.00049000514774511,-0.00046952244438714,0.00046952300686133,-0.00046952222385687,0.00046952318384757,-0.00046952272933654,0.00046952265020929,-0.00046952261633226,0.0004695227462674,-0.00047777158339413,0.00047777132842974,-0.00047777121927823,0.00047777167051159,-0.00049000473375504,0.00049000650652909,-0.00049000586764834,0.00049000520164498,-0.00047777139130112,0.00047777157336107,-2.3675440432855e-10,-2.5217137953231e-10,-0.00035204178066447,0.00035204130371032,-4.9364091630922e-11,-4.5341452575529e-10,-0.00030486739984686,0.00030486693945311,-0.0002841823531169,0.00028418131717327,-0.00028418219411276,0.00028418147486636,-0.00030486713524568,0.00030486744702046,-0.00030486747383728,0.00030486698956966,-0.00028418191634843,0.00028418196008114,-0.00028418200796844,0.00028418176141969,-0.00041292093454826,0.00041292058654963,-0.00041292100978222,0.00041292047172059,-0.0004129209152061,0.00041292063049914,-0.00041292106051052,0.00041292041402798,-0.00040366255123328,0.00040366176795627,-0.00040366240340676,0.00040366191202305,-0.00040366237780956,0.00040366190476176,-0.00040366226788755,0.00040366202746761,-0.00030486785778168,0.00030486650974636,0.77157698562827,128566,2924,0.001669356657063,0.0020117597213223,0.0014658633518061,18.57831556605,-0.0001073734754716,-0.0001073734754716,-0.0001073734754716,2704530.4800281,0.0051603929561199
20591759,0.32801370358623,0.0056809825315341,0.0018813666171964,0.0020634842447731,0.0017361316695646,-0.00041075412836585,0.00041075606021763,1.0226841721785e-09,9.0765565025028e-10,4.8823491633197e-10,1.5272020595401e-09,-0.00022213987665796,0.00022214240571583,-0.00037462227346612,0.00037462544111494,-0.00037462237137274,0.00037462529825674,-0.00022214078604425,0.00022214153698308,-0.00022214057827809,0.0002221417539611,-0.00037462340852467,0.00037462434396564,-0.00037462335310867,0.00037462438975417,-0.00047276788160854,0.00047276946389533,-0.00047276788781109,0.00047276943846943,-0.00047276752296543,0.00047276980194317,-0.0004727675700816,0.00047276971911608,-0.00041630121766283,0.00041630366121758,-0.00041630138815839,0.00041630349780064,-0.00041630164884029,0.00041630326491555,-0.00041630170971692,0.0004163032125336,-0.00022213936044957,0.0002221428537842,7.4098011488965e-10,-2.9295759690533e-10,1.4280891316808e-11,4.2627322052807e-10,-0.00049634709064324,0.00049634753493675,-0.00049062155735033,0.00049062278871272,-0.00050323223435342,0.00050323351555047,-0.00050323314472748,0.00050323243914895,-0.00048198444249623,0.00048198506040685,-0.00048198427067356,0.00048198521347726,-0.00048198472041456,0.00048198471559754,-0.00048198460773166,0.00048198482107857,-0.0004906222613586,0.00049062203662306,-0.00049062191263212,0.00049062238811356,-0.00050323204737842,0.00050323368417347,-0.00050323304995775,0.00050323251388399,-0.00049062202641504,0.0004906223227752,-2.4099009285093e-10,-2.2807285939283e-10,-0.00035977043687082,0.00035976997917585,-5.3017617620233e-11,-4.2759153290021e-10,-0.00031047408309754,0.0003104734719815,-0.00028926630229947,0.00028926537856533,-0.0002892662167171,0.00028926548027904,-0.00031047381201627,0.00031047398458304,-0.00031047399030488,0.0003104736427781,-0.00028926592714053,0.00028926592402887,-0.00028926597434829,0.00028926575749716,-0.0004229521199134,0.00042295178706709,-0.00042295220799043,0.00042295166965469,-0.00042295211026049,0.00042295181911011,-0.00042295222884833,0.00042295163737369,-0.00041342589313975,0.00041342521442172,-0.00041342584211151,0.00041342530232921,-0.00041342577945152,0.00041342534801857,-0.0004134256947676,0.00041342544521724,-0.00031047431994198,0.00031047321551018,0.70762321387427,128566,2924,0.0017101748071977,0.0020659621750232,0.0014980260542384,18.473864762086,-0.00010820908190331,-0.00010820908190331,-0.00010820908190331,2749975.6713761,0.0052882515423727
20791759,0.33574606205342,0.0058116661469706,0.0019244551642678,0.0021142189753784,0.0017729920073244,-0.00041946021521943,0.00041946232259947,1.1555410326911e-09,9.4843012877971e-10,3.4548683107035e-10,1.8488707842667e-09,-0.00022503183736666,0.00022503442238957,-0.00038253243105141,0.00038253641594277,-0.00038253273076941,0.00038253612264473,-0.00022503298850408,0.00022503297372041,-0.00022503241429233,0.00022503362619968,-0.00038253416554949,0.00038253471892448,-0.00038253401494247,0.00038253488510127,-0.00048326543512921,0.00048326702494293,-0.00048326541716643,0.00048326701343125,-0.00048326487538967,0.00048326755934259,-0.0004832649945556,0.00048326738960596,-0.0004253398199464,0.00042534283735809,-0.00042534022419857,0.00042534243234746,-0.00042534056304042,0.00042534214598428,-0.00042534055661712,0.00042534213910037,-0.00022503069825085,0.00022503535576093,1.0821208898614e-09,-7.3434493085467e-10,-4.3963219100893e-11,3.8823461137559e-10,-0.00050794246543675,0.00050794281261805,-0.00050213939804866,0.00050214092208661,-0.00051497045516716,0.00051497222727566,-0.00051497197587716,0.00051497052176962,-0.00049306431026669,0.00049306503615354,-0.00049306407802087,0.00049306524166669,-0.00049306479084904,0.00049306448142836,-0.00049306472165155,0.00049306453734094,-0.00050214036211556,0.00050213989676586,-0.00050214013776442,0.00050214011667193,-0.00051497011284121,0.00051497257037616,-0.00051497204090895,0.0005149704686675,-0.00050214002804129,0.00050214029135967,-1.873157302073e-10,-2.6073580136752e-10,-0.00036647983972043,0.00036647940186242,-1.0684128061128e-10,-3.4777481484635e-10,-0.00031568792643861,0.00031568805830933,-0.00029393946944838,0.00029393852238052,-0.00029393920314493,0.0002939387972918,-0.00031568765814941,0.00031568815651212,-0.0003156883537353,0.00031568750520761,-0.00029393905757518,0.00029393906367224,-0.00029393924316046,0.00029393879206675,-0.0004315706879165,0.00043157030618718,-0.00043157067957058,0.00043157027630424,-0.00043157065976632,0.00043157036374619,-0.0004315707797409,0.00043157016674915,-0.0004221704068782,0.00042216956440618,-0.000422170116294,0.0004221698708932,-0.00042217024728578,0.00042216973574396,-0.00042217011464606,0.00042216989302433,-0.00031568867903214,0.00031568722472146,0.74689429718373,128566,2924,0.0017463995312186,0.0021141736756113,0.0015259467523767,17.813537976525,-0.0001134916961878,-0.0001134916961878,-0.0001134916961878,2778621.9160275,0.0054012173018119
20991759,0.34298599075473,0.0059296341164334,0.0019634365555753,0.0021600771114519,0.0018061204494062,-0.00042689345577487,0.00042689576711851,1.1903218418157e-09,1.1152669897708e-09,1.2033898368253e-10,2.2888824647854e-09,-0.00022657807651631,0.00022658239528429,-0.00038896670830993,0.00038897129562314,-0.00038896672788024,0.00038897124642872,-0.00022658011380666,0.00022658026071465,-0.00022658010009382,0.00022658032000667,-0.0003889688667595,0.0003889691444717,-0.00038896887928596,0.00038896913038772,-0.00049250777362869,0.00049250937526602,-0.00049250779305104,0.00049250933327368,-0.00049250707335434,0.00049251006430092,-0.00049250708565528,0.00049251001937156,-0.00043295805239531,0.00043296111638539,-0.00043295810481294,0.00043296108385136,-0.00043295878228604,0.00043296045739379,-0.00043295889935053,0.00043296036324308,-0.00022657783041573,0.00022658252667553,1.2560974120275e-09,-9.5405567037181e-10,1.8567010290581e-11,2.8386768389005e-10,-0.00051816131085426,0.00051816161511844,-0.00051224651147585,0.00051224774613395,-0.00052530537281222,0.00052530779235376,-0.00052530750500868,0.0005253054438527,-0.00050278505372611,0.00050278599883843,-0.00050278495992114,0.00050278608496526,-0.00050278573833406,0.00050278523651759,-0.00050278564775098,0.00050278532231422,-0.00051224744068804,0.00051224673576946,-0.00051224716695861,0.00051224702977188,-0.00052530531518778,0.00052530781246631,-0.00052530737546487,0.00052530555240575,-0.00051224674395816,0.00051224750343146,-2.5667737970227e-10,-1.9228037652439e-10,-0.00037202157175076,0.00037202113251526,-7.8698881797668e-11,-3.7813277202167e-10,-0.00031945620940518,0.00031945538919753,-0.00029728804969402,0.0002972873123521,-0.00029728806272345,0.00029728732612609,-0.00031945586801157,0.00031945582946879,-0.0003194558880559,0.00031945568030983,-0.00029728781269328,0.00029728770498995,-0.00029728781100393,0.0002972875895248,-0.00043905280202852,0.00043905246773546,-0.00043905289298509,0.00043905235366308,-0.00043905280531857,0.0004390524938505,-0.00043905287213745,0.00043905236051778,-0.00042951597884506,0.00042951547246847,-0.00042951605956355,0.00042951543736284,-0.00042951595207032,0.00042951554523344,-0.00042951590694656,0.00042951562449508,-0.00031945611105786,0.00031945540776825,0.72120575972594,128566,2924,0.0017773291427162,0.0021566601365604,0.0015490088569801,16.96141060987,-0.00012030871512104,-0.00012030871512104,-0.00012030871512104,2800336.7913682,0.005498230697347
21191759,0.34925446644495,0.0060320971485268,0.0019973123857244,0.002199910441945,0.0018348743208574,-0.00043129965652442,0.00043130237919517,1.3167774155744e-09,1.3994258370013e-09,-4.6329256396548e-10,3.30550686924e-09,-0.00022624265276513,0.00022625002474987,-0.00039257309756051,0.00039257936981998,-0.00039257281492078,0.0003925796913972,-0.00022624649083781,0.00022624622444515,-0.00022624714850602,0.00022624552171284,-0.00039257651955985,0.00039257588053294,-0.00039257679363395,0.00039257563064289,-0.00049838985465033,0.00049839138495481,-0.00049838992809026,0.00049839131040618,-0.00049838873210977,0.00049839250785353,-0.00049838861751339,0.00049839262019685,-0.0004374743523063,0.00043747794051899,-0.00043747399120889,0.00043747835106581,-0.00043747534624589,0.0004374769782995,-0.00043747556461742,0.00043747679907003,-0.00022624346958546,0.00022624921736201,1.7907188297984e-09,-1.6984018593714e-09,4.4604252370708e-12,9.1455368013049e-11,-0.00052481987741738,0.00052481999104277,-0.00051878524722096,0.00051878623589675,-0.00053202093980455,0.0005320247064906,-0.00053202454258917,0.00053202083141383,-0.0005090921824826,0.00050909351556227,-0.00050909225609316,0.00050909348804233,-0.00050909336702086,0.00050909223689695,-0.00050909326000848,0.00050909237691377,-0.00051878640980536,0.00051878498000617,-0.00051878603174531,0.00051878535790904,-0.000532021161564,0.00053202441313827,-0.0005320242233603,0.00053202114346182,-0.00051878501490056,0.0005187864420291,-3.3286881702259e-10,-1.0490529063174e-10,-0.00037480737672452,0.00037480694583698,-6.1368770404958e-11,-3.8962360509398e-10,-0.00032074460884623,0.00032074263218195,-0.00029828851844234,0.00029828807130785,-0.00029828885434293,0.00029828775598203,-0.00032074410999522,0.00032074330544249,-0.00032074339986854,0.00032074387278256,-0.00029828847086243,0.00029828814135337,-0.00029828824601305,0.0002982882809113,-0.00044342181110938,0.00044342152544158,-0.00044342199772976,0.00044342131227448,-0.00044342184427642,0.00044342151195008,-0.0004434218289228,0.00044342146425166,-0.00043377430885059,0.00043377424812013,-0.00043377482253396,0.00043377375832873,-0.00043377441174902,0.00043377414210191,-0.00043377447657932,0.00043377409420645,-0.00032074353813047,0.00032074376493778,0.72387933768354,128566,2924,0.0017956665368823,0.0021843424212622,0.0015606042206114,15.118848432292,-0.00013504921254167,-0.00013504921254167,-0.00013504921254167,2799641.9711321,0.0055561720554027
21391759,0.35496231476008,0.0061258007749732,0.002028307170542,0.0022363000214363,0.0018611935829949,-0.00043625086468013,0.0004362535605477,1.4269262321478e-09,1.2611005972865e-09,-2.1025985870564e-10,3.0281248437029e-09,-0.00022680320879899,0.00022680829855652,-0.00039686986048699,0.00039687611282311,-0.00039687008863744,0.00039687587125804,-0.00022680629891927,0.0002268052799066,-0.00022680572278917,0.00022680582282787,-0.00039687326222331,0.0003968727381572,-0.000396873128291,0.00039687287163302,-0.00050467344449502,0.00050467504465407,-0.00050467343353133,0.00050467504050437,-0.00050467234501517,0.00050467614257608,-0.00050467244056953,0.00050467600856632,-0.00044256422352301,0.00044256834470279,-0.00044256458002158,0.0004425679901223,-0.00044256551878123,0.00044256706856026,-0.0004425654865758,0.00044256709911215,-0.00022680229213831,0.00022680919856754,1.7264574745857e-09,-1.6061279592757e-09,-3.7534227178654e-11,1.7651363207088e-10,-0.00053186121673323,0.00053186134629593,-0.00052574806552632,0.00052574968283828,-0.00053910687527232,0.00053910999033221,-0.00053910984286294,0.00053910677442019,-0.00051576970796828,0.00051577077936925,-0.00051576955847427,0.00051577091493772,-0.00051577067765633,0.00051576970816292,-0.00051577067745937,0.00051576971000087,-0.00052574931563856,0.000525748364671,-0.00052574928228444,0.00052574839655539,-0.00053910658949423,0.00053911028119331,-0.00053910998691792,0.00053910664158162,-0.00052574846668475,0.00052574929660757,-2.0743527990965e-10,-2.2041005818744e-10,-0.00037824189737278,0.00037824147962436,-1.4747744754527e-10,-2.9274643862078e-10,-0.00032283096991692,0.00032283098420094,-0.00030010647919067,0.00030010569024552,-0.00030010625065538,0.00030010590404136,-0.00032283101310358,0.00032283127895542,-0.00032283150659771,0.00032283060628942,-0.00030010622456879,0.00030010613144384,-0.00030010637564626,0.0003001058690779,-0.00044830026770358,0.00044829986732643,-0.00044830023871732,0.00044829986023451,-0.00044830022619116,0.00044829993145933,-0.00044830030199961,0.00044829978599213,-0.00043862372399522,0.0004386230385365,-0.00043862352884481,0.00043862322923557,-0.00043862364233552,0.0004386230963721,-0.00043862348561817,0.00043862327789618,-0.00032283163514106,0.00032283038743391,0.72693239440185,128566,2924,0.0018162691447723,0.002213615789774,0.0015748978537902,13.933168135114,-0.00014453465491908,-0.00014453465491908,-0.00014453465491908,2804693.3756514,0.0056207075014758
21591759,0.36035974001591,0.0062151918989862,0.0020578709779561,0.0022710162489522,0.0018863046720778,-0.00044175316037812,0.00044175566186993,1.2394927612881e-09,1.2571411435981e-09,2.7314412476684e-10,2.3384976348701e-09,-0.00022806443504268,0.00022806964966813,-0.00040182624067736,0.00040183067807892,-0.00040182600716051,0.00040183089036975,-0.00022806653291772,0.00022806761922427,-0.00022806710731819,0.00022806704172603,-0.00040182809645271,0.00040182885917987,-0.00040182829939774,0.00040182865326562,-0.00051144097257078,0.00051144283982084,-0.00051144103524653,0.00051144276060585,-0.00051144038735091,0.00051144341528356,-0.00051144029165446,0.0005114434783716,-0.00044823784709089,0.00044824076639151,-0.00044823758820259,0.00044824103406541,-0.00044823832130884,0.00044824032593581,-0.00044823854915356,0.00044824010568103,-0.00022806500183541,0.00022806905518841,1.1334137362237e-09,-8.1037522074033e-10,9.5687240261669e-11,2.3328443464418e-10,-0.00053939178692796,0.00053939211029049,-0.00053324362652611,0.00053324446950709,-0.00054666900514069,0.00054667145031004,-0.00054667108448921,0.00054666914856882,-0.00052291987535572,0.00052292085778001,-0.00052291990219667,0.00052292081644408,-0.00052292054544211,0.00052292010447696,-0.00052292042175295,0.00052292022599861,-0.00053324434318832,0.0005332436936193,-0.00053324395897304,0.00053324407451656,-0.0005466692143653,0.00054667123436284,-0.00054667078588016,0.00054666944802518,-0.00053324352761166,0.00053324459011994,-3.1107256149981e-10,-1.3449247972758e-10,-0.00038226773223962,0.00038226729774427,-1.0163540134539e-10,-3.5404346598674e-10,-0.00032559227876813,0.00032559072564045,-0.00030260447053657,0.00030260404285027,-0.00030260473319873,0.00030260378223604,-0.00032559200676478,0.00032559131676668,-0.00032559143103062,0.00032559171184602,-0.00030260453225521,0.00030260417669861,-0.00030260432317169,0.00030260426459362,-0.00045371397304071,0.00045371366422571,-0.00045371411997882,0.00045371348827016,-0.00045371400699364,0.00045371365430344,-0.0004537139826447,0.00045371361071557,-0.0004440724376368,0.00044407228514178,-0.00044407283845078,0.00044407190262407,-0.00044407252153738,0.00044407220159159,-0.00044407257434037,0.00044407217439738,-0.00032559147641265,0.00032559155753696,0.73328844265906,128566,2924,0.0018391631245924,0.0022449224585896,0.0015916510151841,13.227622936412,-0.0001501790165087,-0.0001501790165087,-0.0001501790165087,2815590.3211209,0.0056920696253259
21791759,0.36589861726708,0.0063056045136327,0.0020878010141084,0.0023061511373554,0.0019116523621689,-0.00044926751927479,0.00044926954381275,1.0815788069584e-09,9.4368854482302e-10,1.1956404695338e-09,9.1705576823754e-10,-0.00023096419581318,0.00023096512202711,-0.00040872559761648,0.00040872769176218,-0.00040872582205753,0.00040872745019105,-0.00023096385755804,0.00023096567647697,-0.00023096325716202,0.00023096621530432,-0.00040872558401615,0.00040872780019703,-0.00040872542450099,0.00040872795263292,-0.0005203309692794,0.00052033304742017,-0.00052033094253278,0.0005203330580306,-0.00052033101023248,0.00052033297583632,-0.000520331095883,0.00052033284816347,-0.00045594079894031,0.00045594307703176,-0.00045594112392527,0.00045594274156949,-0.00045594093493293,0.00045594294467043,-0.00045594085961814,0.00045594300396704,-0.00023096328804882,0.00023096604751038,1.4173620479153e-10,5.6484448432991e-10,2.0566015101768e-10,4.9273033483826e-10,-0.00054910483113738,0.00054910551830376,-0.000542914182662,0.00054291520572372,-0.00055641223764736,0.00055641222260088,-0.0005564115627037,0.00055641275466509,-0.00053220350445442,0.00053220386417672,-0.00053220332890562,0.00053220400827704,-0.00053220326332347,0.00053220404570755,-0.00053220323672351,0.00053220406554621,-0.0005429142782609,0.00054291509407965,-0.00054291415844253,0.00054291518113194,-0.00055641195167853,0.00055641254152141,-0.00055641167196747,0.00055641265479816,-0.00054291467849138,0.00054291475423022,-2.4225149008809e-10,-2.1311249278298e-10,-0.00038820906098585,0.00038820861900204,-1.1620820378357e-10,-3.5278300899973e-10,-0.00033011051728351,0.00033011039468751,-0.00030686510567206,0.00030686421041148,-0.00030686488121018,0.00030686441719347,-0.00033011050483519,0.00033011088359006,-0.00033011103920369,0.00033011013664988,-0.00030686478186805,0.00030686476076291,-0.00030686493436334,0.00030686448806758,-0.00046117568848717,0.00046117528180283,-0.00046117568851342,0.000461175244868,-0.00046117562701808,0.00046117535995994,-0.0004611757371998,0.00046117518127573,-0.00045154989315491,0.0004515491829709,-0.00045154973731778,0.00045154934887804,-0.00045154982231707,0.00045154921905213,-0.00045154959977738,0.00045154944844254,-0.00033011119385488,0.0003301098202462,0.72319362463394,128566,2924,0.0018704252012565,0.0022853012428172,0.0016163727740104,13.54567471124,-0.00014763460231008,-0.00014763460231008,-0.00014763460231008,2845357.6035348,0.0057889934186404
21991759,0.37162854728473,0.0063976323210213,0.0021182959353028,0.002341970150645,0.0019373662350735,-0.00045715023520872,0.00045715189546763,7.0077321688131e-10,9.6641373640755e-10,1.8259966370267e-09,-9.678003543635e-11,-0.0002340654368995,0.000234068948573,-0.00041591299674523,0.00041591159964696,-0.00041591173378837,0.00041591285379211,-0.00023406379415684,0.00023407069390835,-0.00023406704251765,0.0002340674470987,-0.00041591001213622,0.00041591470145127,-0.00041591109156433,0.00041591362959044,-0.00052966232222039,0.00052966490262297,-0.00052966260873717,0.00052966458432436,-0.00052966334672298,0.00052966381929809,-0.00052966283058726,0.00052966426702848,-0.00046397059311856,0.00046397019118232,-0.00046396909768107,0.00046397160958124,-0.00046396879520269,0.00046397197861597,-0.0004639696794915,0.00046397102022102,-0.00023406909559097,0.00023406524639879,-4.5445018144714e-10,1.4283381688082e-09,3.9548774226801e-10,5.4931438105802e-10,-0.00055924646226999,0.00055924741123075,-0.00055296838834168,0.00055296763648031,-0.00056655634299552,0.00056655661742594,-0.00056655567685125,0.00056655719396881,-0.00054194203014451,0.00054194269218709,-0.0005419423498923,0.00054194230236776,-0.00054194178639999,0.00054194289212872,-0.00054194132808595,0.00054194332274927,-0.00055296788642206,0.00055296816846458,-0.00055296648742182,0.00055296950752803,-0.00056655752471132,0.00056655547672283,-0.00056655442117365,0.00056655847978482,-0.00055296737386297,0.00055296871891681,-4.8571111999471e-10,-4.7396357502121e-11,-0.0003944497751419,0.00039444925855099,-2.696928109135e-11,-5.2652854641893e-10,-0.00033477673506619,0.00033477172431229,-0.00031132083443995,0.0003113211288315,-0.00031132213442511,0.0003113198129972,-0.00033477597941493,0.00033477280520986,-0.00033477278499846,0.00033477583904913,-0.00031132162370155,0.00031132053909665,-0.00031132053382638,0.00031132150921905,-0.00046901781054979,0.00046901774841034,-0.00046901835056713,0.00046901715798732,-0.00046901807506149,0.00046901750656374,-0.0004690178064031,0.00046901768603556,-0.00045933172517318,0.00045933260484043,-0.00045933332259223,0.00045933101004503,-0.00045933196225656,0.00045933231884951,-0.00045933269251276,0.00045933159438385,-0.0003347728268266,0.00033477570527531,0.71247574897403,128566,2924,0.0019032192796806,0.002327459480365,0.0016423394175679,13.97132115995,-0.0001442294307204,-0.0001442294307204,-0.0001442294307204,2880314.0194403,0.0058905106028321
22191759,0.37762035986256,0.0064921915304395,0.0021496695357789,0.002378823922087,0.0019636980725736,-0.00046554260899322,0.00046554406930398,6.9156296224827e-10,7.7639493582941e-10,2.0880656144553e-09,-5.7334986461402e-10,-0.00023747072531205,0.00023747162025796,-0.00042352270736192,0.00042352082116109,-0.00042352188008053,0.00042352160955881,-0.00023746818589924,0.00023747425551958,-0.00023747010012542,0.00023747235755465,-0.00042351938466381,0.00042352424348247,-0.00042352011622424,0.00042352351411709,-0.00053958404262632,0.00053958658578741,-0.00053958425645332,0.00053958635654852,-0.00053958517344051,0.00053958540518134,-0.00053958485760695,0.00053958567650767,-0.00047245104674813,0.00047245091260414,-0.00047245032055315,0.00047245163913209,-0.0004724495645452,0.00047245244390418,-0.00047245012106546,0.00047245189337601,-0.00023747271233602,0.00023746957027761,-7.0929643051034e-10,1.913759421228e-09,4.3637738017646e-10,7.2842589526538e-10,-0.00056998099137034,0.00056998216016906,-0.00056356365941254,0.0005635635008294,-0.00057726882638749,0.00057726792653985,-0.00057726680117963,0.00057726984118432,-0.000552291195462,0.00055229161368834,-0.00055229131862139,0.00055229146254409,-0.00055229054538628,0.00055229223589134,-0.0005522902132459,0.00055229256132615,-0.00056356302980022,0.00056356411946269,-0.0005635620257291,0.0005635651221528,-0.000577269312065,0.00057726741405849,-0.00057726610821514,0.00057727054001401,-0.00056356325785619,0.00056356395345987,-3.8557827460233e-10,-1.1889602520786e-10,-0.00040111192763564,0.00040111143655564,-2.8323748622764e-11,-4.8776986846626e-10,-0.00033970797333967,0.00033970463351492,-0.00031608019810042,0.00031608004429338,-0.00031608100207693,0.00031607925559113,-0.00033970737960352,0.00033970549641283,-0.00033970547397089,0.00033970724302505,-0.00031608057118002,0.00031607987486192,-0.0003160798739776,0.00031608045030434,-0.0004773678197267,0.00047736767012816,-0.0004773682165959,0.00047736724736707,-0.00047736799691754,0.00047736751166938,-0.00047736785988267,0.00047736757885211,-0.00046755505449732,0.00046755536807823,-0.00046755607888343,0.00046755441186006,-0.00046755516842602,0.00046755529624039,-0.00046755564211571,0.00046755482521027,-0.0003397055903879,0.00033970698798539,0.70116229616076,128566,2924,0.00193813309748,0.002372080107994,0.0016700589566697,14.541540569764,-0.00013966767544189,-0.00013966767544189,-0.00013966767544189,2920250.0865557,0.005998412009073
22391759,0.38374643905883,0.0065926421950097,0.002182935707742,0.0024180342558081,0.0019916722314596,-0.00047379817619059,0.00047379976691536,8.0087140433275e-10,7.9567288253373e-10,1.8279234217677e-09,-1.7548519597419e-10,-0.00024081902049085,0.0002408195719111,-0.00043124298429611,0.00043124230546366,-0.00043124258496412,0.00043124267736456,-0.00024081705130282,0.00024082163462933,-0.00024081800693702,0.00024082068656654,-0.00043124069499756,0.00043124469045011,-0.00043124107543124,0.00043124431390005,-0.00054929615175876,0.00054929850597231,-0.00054929626338861,0.00054929837649078,-0.00054929693628123,0.00054929767006353,-0.00054929677743371,0.00054929778447082,-0.00048087854991479,0.00048087923363706,-0.00048087829000848,0.00048087948935269,-0.00048087767117556,0.00048088016138821,-0.00048087792605039,0.00048087990306945,-0.00024081988457429,0.00024081866822919,-3.8678937082081e-10,1.5914047487067e-09,4.1608746316656e-10,7.5015460390942e-10,-0.00058060686659871,0.0005806080370183,-0.00057413167724552,0.00057413213727385,-0.00058784949822216,0.0005878488750619,-0.00058784775043525,0.00058785048720468,-0.00056249211664651,0.00056249263264466,-0.00056249212203485,0.00056249260310299,-0.00056249156731571,0.00056249314705208,-0.00056249133447615,0.00056249337516891,-0.00057413129061963,0.00057413249809552,-0.00057413062412624,0.00057413317139809,-0.00058784962490526,0.00058784871459977,-0.00058784739730758,0.00058785085744241,-0.0005741316796897,0.00057413217205069,-3.4389063458935e-10,-1.6222690635602e-10,-0.00040757536306358,0.00040757486858857,-4.6509138582153e-11,-4.7515748407017e-10,-0.00034464864390786,0.00034464666870675,-0.00032080037076104,0.00032079985215181,-0.0003208007873028,0.00032079944929946,-0.0003446481565588,0.00034464738617145,-0.00034464740775265,0.00034464798286636,-0.00032080040376862,0.00032080000816662,-0.00032080004528398,0.00032080024711535,-0.00048546273241357,0.00048546246627989,-0.00048546298850933,0.00048546218198162,-0.00048546280470939,0.00048546241456638,-0.00048546278745217,0.00048546235944129,-0.00047570758201429,0.00047570742929999,-0.00047570812585824,0.00047570694615055,-0.00047570762303662,0.00047570742160283,-0.00047570778357277,0.0004757072700115,-0.00034464760487229,0.00034464767910798,0.72868415692566,128566,2924,0.001972478255161,0.0024162462478136,0.0016969512470977,14.831793130825,-0.0001373456549534,-0.0001373456549534,-0.0001373456549534,2951687.3588059,0.0061044625639501
22591759,0.38994678280017,0.0066952983933429,0.0022169174759398,0.002458182534694,0.0020201983827091,-0.00048194789653442,0.00048194973684187,9.1537635789531e-10,9.2742367448306e-10,1.4347280812772e-09,4.8099829164118e-10,-0.00024379672164862,0.00024379909842076,-0.00043892371621789,0.00043892418559166,-0.00043892316987471,0.00043892470310168,-0.00024379580820113,0.00024380008935995,-0.00024379725883018,0.00024379865348897,-0.00043892231442011,0.00043892567267007,-0.00043892283060072,0.00043892515868388,-0.00055893673058552,0.00055893902777758,-0.00055893688484994,0.0005589388552263,-0.0005589372205281,0.00055893849255795,-0.00055893700880158,0.00055893866242048,-0.00048928791508188,0.0004892890019683,-0.00048928746868594,0.00048928944433428,-0.00048928721740283,0.00048928975705791,-0.00048928762688253,0.00048928935020193,-0.00024379811900764,0.00024379766381129,1.1396620773411e-10,9.9795857072716e-10,3.8633385932461e-10,6.9389028877504e-10,-0.00059124123644288,0.00059124231986457,-0.0005848040759568,0.00058480462815765,-0.00059843568665564,0.0005984362653413,-0.00059843520204134,0.00059843657539163,-0.00057262404731851,0.00057262491142332,-0.00057262412857872,0.00057262481025557,-0.00057262391495092,0.00057262499591246,-0.0005726236284124,0.00057262527858436,-0.00058480401763539,0.00058480464340542,-0.00058480322776379,0.00058480545034682,-0.00059843602463891,0.00059843588519721,-0.000598434657123,0.00059843713669439,-0.00058480389191525,0.00058480484307252,-3.550600360516e-10,-1.5010059336722e-10,-0.00041386102437208,0.00041386053015731,-5.4999095899473e-11,-4.65861017694e-10,-0.0003493809320056,0.00034937850109456,-0.00032527749533954,0.00032527716801987,-0.00032527808889102,0.000325276591757,-0.00034938043572027,0.00034937922036606,-0.00034937924992675,0.00034938024610005,-0.00032527771305326,0.00032527714564417,-0.0003252771952764,0.00032527753670292,-0.00049346066184979,0.00049346043326716,-0.00049346096501969,0.00049346010396809,-0.0004934607793891,0.00049346033941546,-0.00049346070448747,0.00049346034171957,-0.00048378027682556,0.00048378029134501,-0.00048378097879658,0.00048377964490609,-0.0004837803505228,0.00048378025715726,-0.00048378062696954,0.00048377999560934,-0.00034937941461778,0.0003493799837785,0.73621130128593,128566,2924,0.0020063837723791,0.0024604452081767,0.0017231038029471,14.996117481668,-0.00013603106014665,-0.00013603106014665,-0.00013603106014665,2977017.5824436,0.0062093709979985
22791759,0.39618132690708,0.0067994263908993,0.0022513781134294,0.0024989769266107,0.0020490713508591,-0.00049003767583395,0.00049003978947599,1.0400003565118e-09,1.0729874677194e-09,1.0633797165825e-09,1.1415901825124e-09,-0.0002466456729618,0.00024664976589941,-0.000446600294301,0.00044660192049953,-0.00044659960276425,0.00044660259070517,-0.0002466458140628,0.0002466497245301,-0.0002466476275004,0.00024664790985922,-0.00044659976584461,0.00044660252728267,-0.00044660041831298,0.00044660187812961,-0.00056851920987668,0.00056852147488752,-0.00056851940304374,0.00056852126491715,-0.00056851940974648,0.00056852123655656,-0.00056851914633213,0.00056852146038203,-0.0004976661219712,0.00049766767699921,-0.00049766553000325,0.00049766826320659,-0.00049766564369171,0.00049766820685265,-0.00049766615393877,0.00049766769934462,-0.00024664748655834,0.00024664793472652,5.6183969553591e-10,4.3926330371936e-10,3.5657302058604e-10,6.2110975796442e-10,-0.0006018615387586,0.00060186251765163,-0.00059551287507241,0.00059551349210609,-0.00060900934895682,0.00060901094975987,-0.00060900996401099,0.00060901012827977,-0.00058270817381412,0.00058270932465479,-0.00058270831631319,0.00058270916606637,-0.00058270841153907,0.00058270902519367,-0.00058270809557504,0.00058270933995625,-0.00059551310321856,0.00059551321423953,-0.00059551222836681,0.00059551410145421,-0.00060900982426461,0.00060901043377804,-0.00060900931097696,0.00060901079952645,-0.00059551252382401,0.00059551387490448,-3.6731561936055e-10,-1.3490401464352e-10,-0.0004200395070377,0.00042003901552389,-7.0313660561064e-11,-4.4877242106886e-10,-0.0003540126689506,0.00035400982485633,-0.00032963926481071,0.00032963912123517,-0.00032964000916986,0.00032963839296683,-0.00035401219870512,0.00035401055682683,-0.0003540106134451,0.00035401195854233,-0.00032963966189913,0.0003296389258205,-0.00032963900305063,0.00032963944984394,-0.00050137272188684,0.00050137252227321,-0.00050137306058132,0.00050137215730584,-0.00050137287708342,0.00050137239293003,-0.00050137274419375,0.00050137245151639,-0.00049181626991594,0.00049181646425309,-0.00049181713076102,0.000491815644772,-0.00049181637417127,0.00049181638279404,-0.0004918167653682,0.00049181601465187,-0.00035401072743673,0.00035401175481146,0.74293133267121,128566,2924,0.0020400398713262,0.0025045833390141,0.0017488101296084,15.078969263783,-0.00013536824588974,-0.00013536824588974,-0.00013536824588974,2999480.1536103,0.0063135292142714
22991759,0.4024222295562,0.0068981693305744,0.0022841780541956,0.0025377037487801,0.0020762875275987,-0.00049772571526651,0.00049772803273648,1.1702084509866e-09,1.1443142277358e-09,8.2030845575741e-10,1.5999911384425e-09,-0.00024889654104914,0.00024890054603611,-0.00045354233561764,0.00045354519219722,-0.00045354196812397,0.00045354553339138,-0.00024889731544928,0.0002488998557748,-0.00024889825426591,0.00024889892357566,-0.00045354280334494,0.00045354479752527,-0.00045354316615066,0.00045354443663886,-0.00057781440591641,0.00057781655364527,-0.00057781451130324,0.00057781643024941,-0.00057781427255695,0.0005778166540319,-0.00057781413161815,0.00057781675285324,-0.00050548676694824,0.00050548914287901,-0.000505486562291,0.00050548933558292,-0.00050548685480517,0.00050548911202719,-0.00050548709167074,0.00050548887766667,-0.00024889735907963,0.00024889970022533,8.8033323092408e-10,3.9285688849172e-11,3.3310550512018e-10,5.6908354400601e-10,-0.00061206866326924,0.00061206956520486,-0.00060569481416068,0.00060569588585391,-0.00061917284220109,0.00061917475079541,-0.00061917382277057,0.00061917353780186,-0.00059244661982644,0.00059244783486821,-0.00059244666503488,0.00059244776903466,-0.0005924469838936,0.00059244739861124,-0.00059244678110233,0.00059244759707065,-0.00060569524890925,0.00060569539317413,-0.00060569472290891,0.00060569593551755,-0.00061917299682899,0.00061917455648519,-0.00061917351159829,0.00061917386890785,-0.00060569475506657,0.0006056959781001,-3.3704787421709e-10,-1.5704499033096e-10,-0.00042581501829616,0.00042581453533001,-9.4794247936733e-11,-4.1525804892095e-10,-0.00035788043505748,0.00035787865287413,-0.00033333843861745,0.00033333803733083,-0.0003333388576281,0.00033333763244892,-0.00035788008088672,0.00035787928008678,-0.00035787937510539,0.0003578797901375,-0.00033333859114431,0.00033333809999626,-0.00033333821945248,0.00033333832785342,-0.00050899357639672,0.00050899327715454,-0.00050899379002049,0.00050899303680218,-0.00050899364370849,0.00050899323828748,-0.00050899359660643,0.00050899320920603,-0.00049930909636922,0.00049930895442662,-0.00049930958944619,0.00049930849541775,-0.00049930916713438,0.00049930890444882,-0.0004993093009935,0.00049930880089768,-0.00035787948223459,0.00035787959452152,0.7049475147854,128566,2924,0.0020720246752615,0.0025470024245956,0.001772839933408,15.106464937785,-0.00013514828049772,-0.00013514828049772,-0.00013514828049772,3024954.8656156,0.0064126006584309
23191759,0.4086596999511,0.0069978592720454,0.0023172971025058,0.002576818262187,0.0021037439073525,-0.00050546524966582,0.00050546770089797,1.2311852385258e-09,1.2156460547004e-09,7.3630648601874e-10,1.8250313450305e-09,-0.00025154850148178,0.0002515532570874,-0.00046063990306746,0.00046064312755912,-0.00046063945814155,0.00046064354595113,-0.00025154959144616,0.00025155225047704,-0.00025155081907516,0.00025155103108068,-0.00046064060048295,0.00046064250094232,-0.00046064103442466,0.0004606420685672,-0.00058707250529773,0.00058707470790605,-0.00058707263540924,0.00058707455982103,-0.00058707229985536,0.00058707488309037,-0.00058707212792913,0.00058707501341562,-0.00051334473115766,0.00051334723189068,-0.00051334441572546,0.00051334753233603,-0.00051334482604414,0.00051334719759593,-0.00051334515123783,0.00051334687707821,-0.00025154962601936,0.00025155210485717,1.0166889111164e-09,-1.2839073513353e-10,3.4009637646562e-10,5.3398622644027e-10,-0.00062221727504259,0.00062221814765921,-0.00061577831319736,0.00061577932835237,-0.00062926398086066,0.00062926629661845,-0.00062926537643918,0.0006292646521683,-0.00060218717479322,0.00060218851083398,-0.00060218727028019,0.00060218839433674,-0.00060218767325542,0.00060218793535028,-0.00060218744784638,0.00060218815525786,-0.00061577880448104,0.00061577877390016,-0.00061577823005856,0.00061577936378677,-0.00062926427228411,0.00062926596557343,-0.00062926495723158,0.00062926509046527,-0.00061577812417886,0.0006157795517262,-3.4202809427341e-10,-1.4530267973063e-10,-0.00043166072582223,0.00043166024987722,-1.1052469424729e-10,-3.9201655668075e-10,-0.00036200235811179,0.00036200034904085,-0.00033727185057821,0.00033727159564065,-0.00033727237031972,0.00033727109004678,-0.00036200203416856,0.00036200096141524,-0.00036200108085367,0.00036200170816493,-0.00033727214101033,0.00033727153009215,-0.00033727167629428,0.00033727184313735,-0.00051658150342718,0.00051658122337427,-0.00051658173555265,0.00051658096518156,-0.00051658159656012,0.0005165811595609,-0.00051658150570147,0.00051658117431717,-0.00050683949237171,0.0005068394624269,-0.00050684007688736,0.00050683890965539,-0.00050683959416392,0.00050683938349982,-0.0005068397876782,0.00050683922342405,-0.00036200113434778,0.00036200156525231,0.71243094123247,128566,2924,0.0021042218677938,0.0025891764669223,0.0017971610919123,15.116499126956,-0.00013506800698435,-0.00013506800698435,-0.00013506800698435,3051095.70357,0.0065119416242163
23391759,0.41486225683158,0.0070973013537341,0.0023503401036269,0.002615869861196,0.0021310913889113,-0.00051305041559476,0.0005130529402777,1.2788927984014e-09,1.2409285386026e-09,7.5803532509998e-10,1.8805121706146e-09,-0.00025398393246366,0.00025398844225166,-0.00046761581490321,0.00046761925690297,-0.00046761547708379,0.00046761956807619,-0.00025398503046058,0.00025398742393182,-0.00025398595085282,0.00025398651360617,-0.00046761664542568,0.00046761849661152,-0.00046761698702198,0.00046761815658741,-0.0005961694708202,0.00059617170638538,-0.00059616957276421,0.00059617158655674,-0.00059616921939918,0.00059617192814657,-0.00059616909019212,0.00059617201591637,-0.00052105806293295,0.00052106077865503,-0.00052105787365005,0.00052106094401975,-0.00052105828243944,0.00052106062549204,-0.00052105851990094,0.00052106039209896,-0.00025398470007944,0.00025398764283852,1.0422088368531e-09,-1.5016182895332e-10,3.57284586907e-10,5.2069943457793e-10,-0.00063223884720326,0.0006322397236863,-0.00062577251526095,0.00062577363118385,-0.00063922824522695,0.000639230509047,-0.00063922957106521,0.00063922892613492,-0.00061176766611494,0.00061176899535667,-0.00061176773450014,0.00061176890518943,-0.00061176814311162,0.00061176843988118,-0.00061176796387001,0.00061176861260645,-0.0006257729909247,0.00062577308894619,-0.00062577255707903,0.00062577353787459,-0.00063922843348849,0.00063923028089368,-0.00063922927459683,0.00063922924057082,-0.00062577240731032,0.00062577377270192,-3.3036973563754e-10,-1.4961256724759e-10,-0.00043735156702205,0.0004373510984964,-1.277281197404e-10,-3.6733407804901e-10,-0.00036596113294758,0.00036595949697054,-0.00034104209173546,0.00034104177814353,-0.00034104250442268,0.00034104138044808,-0.00036596086884207,0.00036596005387184,-0.00036596020249277,0.00036596050520077,-0.00034104232369078,0.00034104177510885,-0.00034104195202588,0.00034104198878322,-0.00052403432987854,0.00052403401424406,-0.00052403451385526,0.00052403380446786,-0.00052403439375838,0.00052403397971231,-0.00052403432351116,0.00052403397370879,-0.00051425732428638,0.00051425719946522,-0.00051425779345167,0.00051425676120417,-0.00051425742419885,0.00051425712389995,-0.0005142575342058,0.00051425704702009,-0.00036596023191396,0.00036596039074248,0.71512603835188,128566,2924,0.0021357765420607,0.0026308209787568,0.0018208378823453,15.062859829169,-0.00013549712136665,-0.00013549712136665,-0.00013549712136665,3073163.0240001,0.0066094642319377
23591759,0.42142268984454,0.0072025007498989,0.0023853029111733,0.0026572246726859,0.0021599731660397,-0.00052259162917958,0.00052259390075353,1.2319599425282e-09,1.0357358008867e-09,1.3558450581289e-09,1.0161704825569e-09,-0.00025792798981186,0.00025792979910389,-0.00047653251200262,0.00047653455664947,-0.00047653246384283,0.00047653451294007,-0.00025792743473466,0.0002579303083894,-0.00025792771658626,0.00025793011551785,-0.00047653220360898,0.00047653500914437,-0.00047653229991462,0.00047653489889604,-0.00060734638147732,0.00060734880390957,-0.00060734643160663,0.00060734871410588,-0.00060734651276503,0.00060734862859672,-0.00060734650124015,0.00060734855787248,-0.00053077743709226,0.00053077983187578,-0.00053077764317785,0.00053077954827624,-0.00053077742973115,0.00053077992576675,-0.00053077756724872,0.00053077976278971,-0.00025792773143514,0.00025792989666401,5.4298112803455e-10,5.6260090031103e-10,4.1532234845205e-10,6.7634361657854e-10,-0.00064446532467077,0.00064446639644035,-0.00063799541682487,0.00063799673277136,-0.0006514108596852,0.00065141186559406,-0.00065141077190557,0.00065141174925145,-0.00062347505539428,0.00062347604852104,-0.00062347497343679,0.00062347603529577,-0.00062347505485289,0.00062347598121993,-0.00062347491396895,0.00062347607089061,-0.00063799560761801,0.00063799650249264,-0.00063799534489761,0.00063799678569081,-0.00065141079733563,0.00065141195284878,-0.00065141070774421,0.00065141184258064,-0.00063799570722024,0.00063799651810161,-2.6390785524299e-10,-2.3373093747258e-10,-0.00044484644871545,0.00044484596921477,-1.6445556681701e-10,-3.4044553340941e-10,-0.00037162263515709,0.00037162212317808,-0.00034647491603875,0.0003464743695007,-0.00034647501457012,0.00034647427580779,-0.00037162258707398,0.00037162245125505,-0.00037162261457787,0.0003716222177462,-0.00034647501122156,0.00034647465000474,-0.00034647485645457,0.00034647461333527,-0.00053344053048429,0.00053344015619199,-0.00053344060656924,0.00053344004690191,-0.00053344056468812,0.00053344016038158,-0.00053344055756808,0.00053344008176302,-0.00052367306620832,0.00052367251586265,-0.00052367311383236,0.00052367250283282,-0.00052367304837719,0.00052367258621282,-0.00052367304065006,0.00052367263887748,-0.00037162266791886,0.00037162199875225,0.71571491697666,128566,2924,0.0021754638832398,0.0026816265199923,0.0018520179981729,15.824878291746,-0.00012940097366603,-0.00012940097366603,-0.00012940097366603,3109026.0236991,0.0067319610556507
23791759,0.42868839728744,0.0073249400795409,0.0024258641116289,0.0027054859239441,0.0021935900439678,-0.00053451600331273,0.00053451793421412,1.0668440747782e-09,8.6580498356089e-10,2.057770728605e-09,-4.5213576432746e-11,-0.00026367013854271,0.00026366980599534,-0.00048814818666337,0.00048814818397298,-0.00048814819247828,0.0004881481341871,-0.00026366782089271,0.00026367217347295,-0.00026366810715774,0.00026367193947062,-0.00048814617812471,0.00048815034051853,-0.00048814626587008,0.00048815025105401,-0.00062101182480611,0.00062101448580075,-0.00062101187731242,0.00062101440581683,-0.00062101251790158,0.00062101373397031,-0.00062101253632013,0.00062101365972792,-0.00054306267927082,0.00054306415305353,-0.00054306287771577,0.00054306390318413,-0.00054306208074851,0.00054306481879857,-0.00054306222728959,0.00054306465827946,-0.0002636698478592,0.00026366998256977,-2.0175386020512e-10,1.6151452126283e-09,5.3315761569493e-10,8.4477175106759e-10,-0.00065948857113167,0.00065948994081196,-0.00065317186343374,0.00065317293355658,-0.00066638662563379,0.00066638616915642,-0.00066638481021297,0.00066638782670831,-0.00063781135116947,0.00063781203607237,-0.00063781126596988,0.0006378120677667,-0.000637810772322,0.00063781257469945,-0.00063781062816176,0.00063781268970677,-0.00065317151806122,0.00065317326099213,-0.00065317120163279,0.00065317356355111,-0.0006663865587136,0.00066638623788886,-0.00066638469141831,0.00066638795195768,-0.0006531722094027,0.00065317265215358,-2.6317070819721e-10,-2.3069918818603e-10,-0.00045443810021476,0.00045443762291475,-1.379327995165e-10,-3.6523061409515e-10,-0.0003795321443975,0.00037953156499229,-0.0003539985756938,0.00035399794858536,-0.0003539986600522,0.00035399789670989,-0.00037953206052639,0.00037953198077342,-0.00037953210328182,0.00037953169634338,-0.00035399858064699,0.00035399825813408,-0.00035399842735406,0.00035399822420532,-0.00054509721004981,0.00054509684649452,-0.0005450973011367,0.00054509673063693,-0.00054509723396362,0.00054509684994612,-0.00054509725492389,0.00054509675555818,-0.00053567503587013,0.0005356744481574,-0.00053567507615031,0.00053567446157539,-0.00053567500623544,0.00053567452626213,-0.00053567495631499,0.00053567459830611,-0.00037953223640257,0.00037953141470766,0.75201888238753,128566,2924,0.0022250606170825,0.0027440500189789,0.0018919187112654,17.221860077391,-0.00011822511938087,-0.00011822511938087,-0.00011822511938087,3153592.7211152,0.0068849286409229
23991759,0.43599112407335,0.0074509570184356,0.0024675257593159,0.002755373629878,0.0022280576292417,-0.00054422148308072,0.00054422368256084,1.1610234864853e-09,1.0378951043332e-09,1.6678506390872e-09,6.2686434143055e-10,-0.00026700789059661,0.00026700941747851,-0.00049762916265266,0.00049763031177637,-0.00049762899548561,0.00049763044061603,-0.0002670067153035,0.00026701062402402,-0.00026700734867969,0.00026701003457229,-0.00049762804197767,0.00049763156332209,-0.00049762825711796,0.00049763134722488,-0.000632460031339,0.00063246263651751,-0.00063246011200991,0.00063246252967737,-0.00063246042745478,0.00063246218780455,-0.00063246037673557,0.00063246218805804,-0.00055319320837462,0.00055319505926715,-0.00055319317863325,0.00055319505239456,-0.00055319280242536,0.00055319553852528,-0.00055319303801661,0.00055319530347048,-0.00026700813043449,0.00026700907342338,2.4130148505233e-10,1.088162977868e-09,5.3171504679383e-10,7.6318875598973e-10,-0.00067238256114089,0.00067238385397097,-0.00066636394595667,0.00066636501669131,-0.00067926290675782,0.00067926349999759,-0.00067926217685783,0.00067926403507013,-0.0006499367929358,0.00064993779675095,-0.00064993678305946,0.00064993777002394,-0.00064993657500704,0.00064993796476141,-0.00064993641470457,0.00064993810435561,-0.00066636382892704,0.00066636508656892,-0.00066636345145954,0.00066636546737564,-0.00067926300623976,0.00067926337976601,-0.00067926193121496,0.00067926427751618,-0.00066636404745005,0.00066636495144081,-3.0399450269313e-10,-1.8787345979697e-10,-0.00046176466545179,0.00046176418747771,-1.3943484522562e-10,-3.658311599033e-10,-0.00038515123590514,0.00038515004586414,-0.00035923736887726,0.00035923690596048,-0.00035923762759776,0.00035923668182548,-0.00038515103896366,0.00038515053056804,-0.00038515066972237,0.00038515066967192,-0.00035923749894013,0.00035923705574725,-0.0003592372398068,0.0003592371360357,-0.00055452092178682,0.00055452058130486,-0.00055452106342562,0.00055452041714657,-0.00055452097159671,0.0005545205600919,-0.00055452094104398,0.0005545205165731,-0.00054556300361999,0.0005455626566327,-0.00054556327895434,0.00054556243462474,-0.00054556306592878,0.00054556266838792,-0.00054556308696953,0.00054556266755747,-0.00038515074211365,0.00038515048255367,0.77069149695024,128566,2924,0.0022654331763496,0.0027976214620217,0.0019223987830197,17.331937874062,-0.0001173444970075,-0.0001173444970075,-0.0001173444970075,3171887.6454387,0.0070102294857015
24191759,0.44331084505908,0.007570751585475,0.0025072784662372,0.0028028620492671,0.0022606110699706,-0.00055351383842388,0.00055351627755017,1.2894270712998e-09,1.1464757343503e-09,1.3439535222895e-09,1.2042633757276e-09,-0.00026961518519343,0.00026961774090742,-0.00050626485776178,0.00050626717619904,-0.00050626471956926,0.00050626727326738,-0.00026961489712905,0.00026961806636057,-0.00026961543953256,0.00026961755808641,-0.00050626464536992,0.00050626751000342,-0.0005062648402392,0.00050626731303599,-0.000643641657338,0.00064364419677092,-0.00064364173301386,0.00064364409563432,-0.00064364174832993,0.00064364405980032,-0.00064364171728565,0.00064364404029236,-0.00056276640946085,0.00056276884619935,-0.00056276643280436,0.00056276878555109,-0.00056276633275525,0.00056276899488815,-0.00056276655858506,0.00056276877280384,-0.0002696153139391,0.000269617514032,6.5093121152772e-10,5.8569433505775e-10,5.1392572527481e-10,6.9647477299729e-10,-0.00068489130328066,0.00068489250886232,-0.000679045224658,0.00067904649662415,-0.00069178072754056,0.00069178209647729,-0.0006917808359994,0.00069178176407457,-0.0006617236074246,0.00066172482320367,-0.00066172359543896,0.00066172479961954,-0.00066172366795195,0.00066172470069276,-0.00066172353909563,0.00066172480951482,-0.00067904535825746,0.00067904630739831,-0.0006790450594975,0.00067904661053342,-0.00069178079539204,0.00069178201093194,-0.00069178065347573,0.00069178194373125,-0.00067904530838043,0.00067904644996183,-2.9364691625635e-10,-1.9005085213391e-10,-0.0004686533135059,0.00046865284342554,-1.63796658176e-10,-3.3301603869707e-10,-0.00038984281215166,0.00038984175586006,-0.00036370158166354,0.00036370114577435,-0.0003637017997441,0.0003637009582506,-0.00038984269014351,0.00038984218272744,-0.00038984236839431,0.0003898422684189,-0.00036370173983571,0.00036370127864336,-0.00036370150785607,0.00036370132610205,-0.00056365647676465,0.00056365611828843,-0.00056365658645304,0.00056365598535241,-0.00056365652027799,0.00056365610531288,-0.00056365648170496,0.00056365606857874,-0.00055485578889616,0.00055485542238029,-0.00055485601638024,0.00055485523582966,-0.0005548558580227,0.00055485543482554,-0.00055485586259331,0.00055485545113796,-0.00038984239555708,0.00038984213097236,0.73179797727722,128566,2924,0.0023040876956983,0.0028495894775225,0.0019510572873816,17.407832444478,-0.00011673734044417,-0.00011673734044417,-0.00011673734044417,3192283.4605292,0.0071303686507621
24391759,0.45064393141842,0.0076914807107898,0.0025473549044799,0.0028507568783329,0.002293368927977,-0.00056291662886865,0.00056291927315822,1.3882372510108e-09,1.2503066143662e-09,1.1313886771319e-09,1.6334710475366e-09,-0.00027278840809875,0.00027279184958544,-0.00051509408467359,0.00051509723844448,-0.00051509393359618,0.00051509734841334,-0.00027278876393775,0.00027279153156303,-0.00027278933249925,0.00027279099439274,-0.00051509449143739,0.00051509694824161,-0.00051509469692117,0.00051509674100161,-0.00065485061933733,0.00065485315304505,-0.00065485069884946,0.00065485304870517,-0.00065485050674369,0.00065485322536899,-0.00065485047061181,0.00065485321144849,-0.0005724183698882,0.00057242120279594,-0.00057241837467101,0.00057242115715382,-0.00057241849720958,0.00057242115210472,-0.00057241873005709,0.00057242092475858,-0.00027278857694545,0.00027279158506617,9.3042725982118e-10,2.3596000699552e-10,5.077905978458e-10,6.3819794025571e-10,-0.0006973553211486,0.00069735646016876,-0.00069162339018301,0.00069162474376504,-0.00070423177095683,0.0007042337183717,-0.00070423249787498,0.00070423274306851,-0.00067356368625869,0.00067356506177776,-0.00067356369337909,0.00067356501997087,-0.0006735639527737,0.00067356472479544,-0.00067356383814069,0.00067356481933918,-0.00069162367754195,0.00069162439391627,-0.00069162341605397,0.0006916246572337,-0.00070423186467893,0.0007042336067241,-0.00070423232242223,0.00070423291483634,-0.00069162341054377,0.00069162476122653,-2.9609480592589e-10,-1.8029636747782e-10,-0.00047566080405494,0.00047566034138742,-1.8140069949813e-10,-3.0736421965411e-10,-0.00039486248847857,0.0003948614432628,-0.00036843943005497,0.00036843905823142,-0.00036843966101811,0.00036843885668151,-0.00039486240843316,0.00039486184758799,-0.00039486206175599,0.00039486194512392,-0.0003684396462016,0.0003684391441245,-0.00036843940426325,0.00036843919306347,-0.00057279960986425,0.00057279924342361,-0.00057279970807799,0.00057279912239805,-0.00057279965326204,0.00057279923202141,-0.00057279959723594,0.00057279921234939,-0.00056420121491688,0.00056420089615949,-0.00056420146243392,0.00056420068046716,-0.00056420130437142,0.00056420087574653,-0.00056420131411719,0.00056420089523179,-0.00039486203878738,0.00039486186276011,0.73639361595508,128566,2924,0.0023431992226663,0.0029013683508895,0.0019802091656545,17.481477161494,-0.00011614818270804,-0.00011614818270804,-0.00011614818270804,3216175.9795058,0.0072512882002683
24591759,0.4579575717937,0.0078151809565866,0.0025883608122325,0.002899900800619,0.0023269193437351,-0.00057237475968176,0.00057237755453287,1.4702833079792e-09,1.3170165111379e-09,1.0474902462744e-09,1.8751460276495e-09,-0.00027607024550645,0.00027607410816238,-0.00052418266244852,0.0005241863131116,-0.00052418252940272,0.00052418640405722,-0.00027607090751467,0.00027607346002884,-0.00027607144169472,0.00027607296162782,-0.00052418340073209,0.00052418568435182,-0.00052418359775221,0.00052418548594309,-0.00066605609868874,0.00066605867433185,-0.0006660561790872,0.00066605857032707,-0.0006660558756836,0.00066605886094009,-0.00066605585181577,0.000666058837096,-0.00058217910851308,0.00058218222428464,-0.00058217915535322,0.00058218215788651,-0.0005821793498835,0.00058218205398822,-0.00058217958484023,0.00058218182469949,-0.00027607035616515,0.00027607389470314,1.0882835945067e-09,3.1446694795648e-11,5.0257228473227e-10,5.9903624603035e-10,-0.00070991112900165,0.00070991222379228,-0.00070439771509571,0.00070439912270597,-0.00071677234616609,0.00071677459615989,-0.00071677339907499,0.00071677326945127,-0.00068543476881285,0.00068543622478695,-0.00068543478124864,0.00068543618208029,-0.00068543514612432,0.00068543577280618,-0.00068543505001697,0.00068543585095688,-0.00070439808083431,0.00070439867880739,-0.00070439787456176,0.00070439889711185,-0.00071677242702273,0.0007167744879683,-0.00071677325448938,0.00071677340923746,-0.0007043977133237,0.00070439915589503,-2.8691015591992e-10,-1.7917935501539e-10,-0.0004826887415831,0.0004826882885647,-2.0001430833529e-10,-2.7787173851887e-10,-0.00040005606310695,0.0004000551262441,-0.00037330392144402,0.00037330358644157,-0.00037330413408899,0.00037330340461853,-0.00040005602232778,0.0004000554694771,-0.00040005571962101,0.00040005552537206,-0.00037330416612808,0.00037330364264653,-0.0003733039393485,0.00037330367305501,-0.00058193683516203,0.00058193645784143,-0.00058193691156553,0.00058193636004792,-0.00058193687583128,0.00058193645001559,-0.00058193680999963,0.00058193644007387,-0.00057370835739011,0.00057370803880703,-0.00057370858048626,0.00057370784900944,-0.00057370845865238,0.00057370801794685,-0.00057370846096698,0.00057370804604547,-0.00040005565901215,0.00040005549501116,0.75661008002483,128566,2924,0.0023825402346967,0.0029535254013547,0.0020094456770485,17.498079555374,-0.00011601536355701,-0.00011601536355701,-0.00011601536355701,3235227.782123,0.0073729191269822
24791759,0.46523929699661,0.0079268049441721,0.0026256433940559,0.0029442379740145,0.0023569235761017,-0.00058109704051268,0.00058109989917527,1.4991185558542e-09,1.3519373936083e-09,1.0515760121335e-09,1.9382491975381e-09,-0.00027820536752322,0.00027820939999923,-0.00053182145276676,0.00053182521462403,-0.00053182130653214,0.00053182531969225,-0.00027820609912093,0.00027820870029986,-0.00027820666730946,0.0002782081616892,-0.00053182223717198,0.00053182453955227,-0.0005318224447249,0.00053182433010081,-0.00067676204779236,0.0006767646677253,-0.00067676212975018,0.00067676456202555,-0.00067676180906862,0.00067676487043231,-0.0006767617800456,0.00067676485097935,-0.00059091334556269,0.00059091652720098,-0.00059091337131709,0.00059091647860017,-0.00059091359205443,0.00059091634467764,-0.00059091383035668,0.00059091610518108,-0.00027820552370831,0.00027820914868244,1.1115986780999e-09,2.0088898974397e-11,5.2642369479395e-10,5.8817467028521e-10,-0.00072170798150537,0.00072170908816878,-0.00071617264663328,0.00071617403370483,-0.00072856033946571,0.00072856265820792,-0.00072856143807528,0.00072856128566952,-0.00069667325127066,0.00069667474514922,-0.00069667327712999,0.00069667468648888,-0.00069667364357757,0.00069667427671922,-0.00069667355508819,0.00069667434594873,-0.00071617299007877,0.00071617361424319,-0.00071617280162639,0.00071617380796426,-0.00072856044556738,0.00072856253168038,-0.00072856129295342,0.00072856142522925,-0.00071617259974147,0.00071617411349963,-2.9161315457886e-10,-1.7054718124259e-10,-0.00048900321173012,0.00048900276293294,-2.1044074786802e-10,-2.6390794669963e-10,-0.00040375885608445,0.00040375790137168,-0.0003769231800203,0.00037692288856031,-0.00037692340732296,0.0003769226919817,-0.00040375884709367,0.00040375824569186,-0.00040375850826139,0.00040375831549791,-0.00037692346479186,0.00037692291330067,-0.00037692322611435,0.00037692294711148,-0.0005906036864377,0.00059060330533139,-0.00059060375776535,0.00059060321230312,-0.00059060372584326,0.00059060329869732,-0.00059060364884397,0.00059060329942412,-0.00058216589788058,0.00058216561209353,-0.00058216614215435,0.00058216539880907,-0.00058216601912806,0.00058216556871135,-0.00058216601630181,0.00058216560234666,-0.00040375841341475,0.00040375831404562,0.68707270762981,128566,2924,0.0024188215125415,0.0030025275785835,0.0020357150034036,17.494416704526,-0.00011604466636379,-0.00011604466636379,-0.00011604466636379,3258829.9998514,0.0074853184257787
24991759,0.47289059566144,0.0080460572762822,0.0026654533507831,0.0029916075459114,0.0023889963795877,-0.00059183446507257,0.00059183709968008,1.3587898067424e-09,1.2711788920927e-09,1.557383603147e-09,1.1972720791745e-09,-0.00028267170729377,0.00028267450547963,-0.00054163893335473,0.00054164116149702,-0.00054163871960912,0.00054164135302961,-0.00028267129199175,0.00028267502728027,-0.00028267196301534,0.00028267437250118,-0.00054163846296357,0.00054164179170008,-0.0005416387042747,0.00054164155367683,-0.00068944620050401,0.00068944900811287,-0.00068944627784717,0.00068944890319666,-0.00068944638630732,0.0006894487746718,-0.00068944631596079,0.00068944878765588,-0.00060165594290611,0.00060165839169673,-0.00060165585318313,0.00060165845450354,-0.00060165572033371,0.00060165865098696,-0.00060165594660367,0.00060165841023289,-0.0002826720885966,0.00028267404505474,5.7717058548186e-10,7.8920216903311e-10,6.6476689632763e-10,6.8320648792253e-10,-0.00073551707527466,0.00073551840216594,-0.00072987700669545,0.00072987811061135,-0.00074232182708845,0.00074232315979937,-0.00074232171978041,0.00074232304556053,-0.00071000272901354,0.0007100040330823,-0.00071000277888975,0.00071000393366614,-0.00071000271981944,0.0007100039786549,-0.00071000262687572,0.00071000404527028,-0.00072987689304489,0.00072987820134957,-0.00072987666391453,0.00072987838941132,-0.00074232202255865,0.0007423229971574,-0.0007423215426797,0.00074232324457269,-0.00072987689296844,0.00072987831080348,-3.3807148189887e-10,-1.4936470873126e-10,-0.00049723962757191,0.00049723915774834,-1.883224722748e-10,-3.0601220350047e-10,-0.00040970058168855,0.00040969929832952,-0.00038264064731314,0.00038264035804436,-0.00038264093854377,0.00038264007400213,-0.00040970050796393,0.00040969983152858,-0.00040970005474248,0.00040970000355732,-0.00038264095158284,0.0003826404060327,-0.00038264066944974,0.00038264048482514,-0.00060113972562361,0.00060113934012409,-0.00060113983371822,0.00060113920827289,-0.00060113975735347,0.00060113933894716,-0.0006011396858998,0.0006011393330676,-0.00059261673460977,0.0005926165191461,-0.00059261709189934,0.00059261617684541,-0.00059261689413322,0.00059261641301502,-0.00059261686333875,0.00059261645914974,-0.0004096999345495,0.00040969996766278,0.69912331402753,128566,2924,0.0024634767223543,0.003059885604148,0.0020699756901107,18.241396167398,-0.00011006883066082,-0.00011006883066082,-0.00011006883066082,3299621.7531875,0.0076226389825795
25191759,0.4814608372952,0.0081833689090167,0.0027112004736696,0.0030462561618572,0.0024259122734899,-0.00060558462779516,0.00060558683498462,1.1610663152578e-09,1.0464535216368e-09,2.3618308814525e-09,-6.0884849450819e-11,-0.00028918084079194,0.00028918107861538,-0.00055463134106865,0.00055463110616937,-0.00055463113646545,0.00055463126582304,-0.00028917834336944,0.00028918364622558,-0.00028917899256727,0.00028918302760763,-0.00055462884822941,0.00055463376077122,-0.00055462908372677,0.00055463352190778,-0.00070539040338183,0.00070539347118233,-0.00070539048703471,0.00070539336521014,-0.00070539125417435,0.00070539255848457,-0.00070539119921737,0.00070539256357285,-0.00061556125602819,0.00061556263740262,-0.00061556122082508,0.00061556266388688,-0.00061556037236569,0.00061556358545944,-0.00061556062046047,0.00061556334305645,-0.00028918114193911,0.00028918067827436,-2.6666445449573e-10,2.0069196643054e-09,8.0444929589091e-10,8.9260152998891e-10,-0.0007529311679665,0.00075293285563354,-0.00074733587068346,0.00074733671573229,-0.00075968181112277,0.00075968142930565,-0.00075967965991789,0.00075968338889945,-0.00072672848430659,0.00072672944632424,-0.00072672851026017,0.00072672938402574,-0.00072672780572542,0.00072673009062257,-0.00072672769620885,0.00072673017967659,-0.00074733513614172,0.00074733741283855,-0.00074733487743779,0.00074733766112696,-0.00075968193647407,0.00075968129102903,-0.00075967947950705,0.00075968356959085,-0.00074733582873987,0.00074733682151851,-3.2902695900887e-10,-1.5954271995626e-10,-0.00050811755023634,0.00050811707759816,-1.7411915258134e-10,-3.2163521717023e-10,-0.00041814491010538,0.00041814367396229,-0.00039077227308422,0.00039077192451642,-0.00039077255404235,0.00039077167292766,-0.00041814476672318,0.00041814416425452,-0.00041814437045941,0.00041814430690133,-0.00039077251582074,0.00039077200936302,-0.00039077224875786,0.00039077207651074,-0.00061465188125024,0.00061465149969937,-0.0006146519969329,0.00061465136756,-0.00061465191108441,0.00061465149581622,-0.00061465185731024,0.00061465147905622,-0.00060622896979471,0.00060622869641571,-0.00060622930621227,0.00060622841748663,-0.00060622912489026,0.0006062286635516,-0.00060622909179566,0.0006062287025553,-0.0004181442919398,0.0004181442444325,0.71927450109859,128566,2924,0.0025206564279639,0.0031322133687361,0.0021152209571533,19.911197345527,-9.671042123578e-05,-9.671042123578e-05,-9.671042123578e-05,3352220.6847912,0.007798758476591
25391759,0.49065967400699,0.0083386892685383,0.0027627448293819,0.0031083156076754,0.002467628831481,-0.00061947450541038,0.00061947673906083,1.0785239778843e-09,1.1582130625992e-09,2.3684720851859e-09,-3.6790907636555e-11,-0.00029538594290566,0.00029538721947477,-0.00056818953021046,0.00056818903120288,-0.00056818904529996,0.00056818955573889,-0.00029538363772488,0.00029538963456241,-0.00029538491358472,0.00029538832700303,-0.00056818679544932,0.00056819193503383,-0.00056818726836572,0.00056819150096769,-0.00072153760022571,0.00072154070894392,-0.00072153769362867,0.00072154057535109,-0.00072153852581544,0.0007215396992425,-0.00072153830417833,0.00072153984068794,-0.00062982768355735,0.00062982866608172,-0.00062982714933672,0.00062982911680612,-0.00062982654186331,0.00062982981381671,-0.00062982680022069,0.00062982946788534,-0.0002953872397756,0.00029538588814157,-3.5830548333696e-10,2.2181670317257e-09,9.1707577537633e-10,8.8711711162236e-10,-0.00077088189867088,0.00077088370594037,-0.0007655875108954,0.00076558795672257,-0.00077758340775181,0.00077758313288454,-0.00077758123079289,0.00077758515798126,-0.00074381064419144,0.00074381176448947,-0.00074381078196812,0.00074381155588033,-0.00074380995714416,0.00074381241324567,-0.00074380979689961,0.00074381253998996,-0.00076558656250093,0.0007655889160114,-0.00076558612023266,0.00076558929816296,-0.00077758384611664,0.00077758273163609,-0.00077758084640195,0.00077758559389444,-0.0007655870868871,0.00076558844806514,-4.6196704389385e-10,-9.1455680453872e-11,-0.00051884975870096,0.00051884922194915,-1.4040596353473e-10,-4.4120337203432e-10,-0.00042663518348933,0.00042663270875486,-0.0003988222366199,0.00039882199025658,-0.00039882283229497,0.00039882138488923,-0.00042663468885228,0.00042663350214739,-0.00042663370711552,0.00042663427993868,-0.00039882255227139,0.0003988218850692,-0.00039882208577628,0.00039882218349675,-0.00062813715917065,0.00062813679407883,-0.00062813740121248,0.00062813651025429,-0.00062813720550093,0.00062813677552952,-0.00062813711022593,0.00062813677857066,-0.00062021474771575,0.00062021484945821,-0.00062021552207178,0.00062021406455605,-0.00062021499569573,0.00062021459002549,-0.00062021503412381,0.00062021455625358,-0.00042663366376716,0.00042663429900192,0.75830681856594,128566,2924,0.0025784189911069,0.0032067622179872,0.0021598603951502,21.020140958289,-8.7838872333688e-05,-8.7838872333688e-05,-8.7838872333688e-05,3388876.9574538,0.0079771242150723
25591759,0.49980594006128,0.0084979900021237,0.0028154818768361,0.0031722212603229,0.0025102868649646,-0.00063151613747936,0.00063151882003002,1.4000986523664e-09,1.2800780859343e-09,1.7141624316761e-09,1.0896068006131e-09,-0.0002996641249892,0.00029966667728018,-0.00058011137398612,0.00058011340220065,-0.00058011117207832,0.00058011358704637,-0.00029966337663079,0.00029966748435555,-0.00029966410259159,0.00029966677977196,-0.00058011063349149,0.00058011429292663,-0.00058011090552813,0.00058011403946055,-0.00073578565785346,0.00073578859428924,-0.00073578572899855,0.00073578849454282,-0.00073578591606029,0.00073578827431859,-0.00073578585316487,0.00073578827511314,-0.00064237619824734,0.00064237867184021,-0.00064237618162138,0.00064237865355885,-0.00064237592973359,0.00064237899192757,-0.00064237613624512,0.00064237876143418,-0.00029966447032966,0.00029966624700833,5.7181796744184e-10,1.0604018251286e-09,7.7734629998648e-10,8.1350718906085e-10,-0.00078707903672039,0.00078708062814877,-0.00078229784728621,0.00078229910360421,-0.0007937757623008,0.00079377701381823,-0.00079377529930745,0.00079377722214831,-0.00075902458193211,0.0007590260558665,-0.00075902461947131,0.00075902597118364,-0.00075902447247591,0.00075902610481094,-0.00075902438036567,0.00075902617369823,-0.00078229763273753,0.00078229926624443,-0.00078229742875302,0.00078229946825741,-0.00079377585256089,0.00079377688785233,-0.00079377517861781,0.00079377736267983,-0.00078229773657114,0.00078229925943773,-3.434151566697e-10,-1.6280570230564e-10,-0.00052765565646148,0.00052765516605003,-1.9997769342811e-10,-3.2556697032165e-10,-0.00043323404485818,0.0004332327749965,-0.00040501017897098,0.0004050098344188,-0.00040501047247611,0.00040500955672859,-0.00043323389900676,0.0004332332273088,-0.00043323352493168,0.00043323337982673,-0.00040501043294144,0.00040500984356656,-0.00040501014710465,0.00040500993851182,-0.00063969734494994,0.00063969693101463,-0.00063969744637774,0.00063969680372942,-0.0006396973660946,0.00063969694093624,-0.00063969730112347,0.00063969692254319,-0.00063251270831222,0.00063251246382045,-0.00063251305769588,0.00063251214250096,-0.0006325128516718,0.00063251238177562,-0.00063251283674891,0.00063251241190229,-0.00043323342848871,0.00043323339837991,0.78253495744045,128566,2924,0.0026285012027805,0.0032740205767775,0.0021964903531448,21.046867776565,-8.7625057787477e-05,-8.7625057787477e-05,-8.7625057787477e-05,3400850.8153608,0.0081323536087711
25791759,0.50835835842178,0.0086424607700148,0.0028634495239723,0.003230235379466,0.0025487758665764,-0.00064088427611484,0.00064088756957781,1.6947186572436e-09,1.5891254473158e-09,8.1935475784811e-10,2.6303247056946e-09,-0.00030157287859257,0.00030157858050142,-0.00058903912732344,0.00058904418223514,-0.00058903891013578,0.00058904438198949,-0.00030157456669873,0.0003015769591987,-0.00030157537151773,0.00030157617167664,-0.0005890407677684,0.0005890426718063,-0.0005890410479371,0.0005890424067517,-0.00074730545493592,0.00074730819364269,-0.00074730553026891,0.00074730808983276,-0.00074730492809644,0.00074730867783093,-0.00074730485451872,0.00074730869155229,-0.00065210465554502,0.00065210849226882,-0.00065210459629754,0.00065210851766493,-0.00065210517100653,0.00065210803569087,-0.00065210539049227,0.00065210779712402,-0.00030157334024904,0.00030157805473831,1.615778242525e-09,-3.3194784569176e-10,6.6514678622226e-10,5.9734325216192e-10,-0.00080029999850385,0.00080030125754055,-0.00079595944732393,0.00079596107168822,-0.00080700787528631,0.00080701126531929,-0.00080700981650144,0.0008070089939592,-0.0007713659397356,0.00077136793298994,-0.00077136602803563,0.00077136780088821,-0.00077136662777327,0.00077136715448224,-0.00077136656102115,0.00077136719717829,-0.00079595992764588,0.00079596051574052,-0.00079595981395833,0.00079596062896925,-0.00080700804693598,0.00080701105960811,-0.00080700969280034,0.00080700913812206,-0.00079595922111618,0.00079596134183582,-3.4661618700815e-10,-1.4416440342055e-10,-0.00053395138009396,0.00053395090430309,-2.3609029465365e-10,-2.742486528533e-10,-0.00043698229384192,0.0004369810992007,-0.00040857807083642,0.00040857785826863,-0.00040857839584788,0.00040857754802086,-0.00043698222940957,0.000436981494772,-0.00043698183975037,0.00043698162506625,-0.00040857844385137,0.00040857777244755,-0.00040857813464166,0.00040857786914193,-0.00064870271026785,0.00064870228503056,-0.00064870279273159,0.00064870217875826,-0.00064870273593116,0.00064870229761022,-0.00064870263303507,0.00064870231341961,-0.00064198045991857,0.00064198029186082,-0.00064198083009357,0.00064197993118674,-0.00064198064837357,0.00064198014267164,-0.00064198062501352,0.00064198020228128,-0.0004369816551558,0.00043698175607414,0.75922183648554,128566,2924,0.0026674709163616,0.0033289146115517,0.0022226826578406,20.189735667895,-9.4482114656836e-05,-9.4482114656836e-05,-9.4482114656836e-05,3396801.7102988,0.0082534131493389
25991759,0.51657981451251,0.0087783991491467,0.0029087257534199,0.0032847508867799,0.0025849225089469,-0.0006504668024791,0.0006504702908147,1.8053124077393e-09,1.6707505840621e-09,7.2185755486485e-10,2.9336383901991e-09,-0.00030423069968156,0.00030423686854698,-0.00059806194520692,0.00059806763913787,-0.00059806176155648,0.00059806779138311,-0.00030423276808886,0.00030423488933788,-0.00030423349908686,0.0003042341792563,-0.0005980640149676,0.00059806569951864,-0.00059806426317049,0.00059806545773949,-0.00075895596479466,0.00075895875925364,-0.00075895603868194,0.00075895866012424,-0.00075895529711865,0.00075895939221428,-0.00075895524871656,0.00075895938572141,-0.00066192244974885,0.00066192667466878,-0.00066192246185992,0.00066192663943297,-0.00066192313561841,0.00066192605290734,-0.00066192335794441,0.0006619258287421,-0.00030423103221675,0.00030423647417786,1.7953458309172e-09,-5.9770946335677e-10,6.5584092462759e-10,5.3062302959539e-10,-0.00081344620744997,0.00081344738318461,-0.00080941800855167,0.00080941970024012,-0.00082016713879497,0.00082017086857367,-0.00082016947217654,0.00082016818234347,-0.00078377109733345,0.00078377315791197,-0.00078377119352808,0.00078377302089154,-0.00078377191838203,0.00078377224175996,-0.0007837718832007,0.00078377225273591,-0.000809418581903,0.00080941904808358,-0.00080941856284435,0.00080941906122531,-0.00082016729692531,0.00082017068264803,-0.00082016940343498,0.00082016826614753,-0.00080941777412706,0.00080941999187193,-3.2798604185515e-10,-1.4628140792031e-10,-0.00054057032767998,0.00054056986950648,-2.6353757798059e-10,-2.2467198724578e-10,-0.00044112221751435,0.0004411212430887,-0.00041252632961013,0.00041252617498489,-0.00041252661223642,0.00041252590675292,-0.00044112228349203,0.00044112157728003,-0.00044112195427132,0.0004411216086764,-0.00041252676596974,0.00041252607190199,-0.0004125264715446,0.00041252613093338,-0.00065791581065783,0.00065791537128849,-0.00065791585706103,0.00065791530541804,-0.00065791583181357,0.00065791538903992,-0.00065791571688364,0.0006579154200157,-0.00065153421726892,0.0006515340306929,-0.00065153453082281,0.00065153372667372,-0.00065153441236158,0.00065153387783694,-0.00065153437410305,0.00065153395703416,-0.00044112170082841,0.00044112178280266,0.74286645112341,128566,2924,0.0027073279617198,0.0033834949060001,0.0022502177270934,19.730323461615,-9.8157412307081e-05,-9.8157412307081e-05,-9.8157412307081e-05,3402331.2318188,0.0083764198026168
26191759,0.52468826157125,0.0089154320333229,0.0029543426941705,0.0033397024760526,0.0026213868630998,-0.00066079533936805,0.00066079874957329,1.7263444844051e-09,1.6731538871355e-09,1.0821871149412e-09,2.4900273405946e-09,-0.0003080021777917,0.00030800788047898,-0.00060803184697063,0.00060803653435028,-0.00060803153249886,0.00060803682417654,-0.0003080035334043,0.00030800662057578,-0.00030800451287757,0.00030800565522821,-0.00060803302531755,0.00060803550190265,-0.0006080333555385,0.00060803518010483,-0.00077125160454541,0.00077125459640754,-0.00077125168701763,0.00077125448716406,-0.00077125123585413,0.00077125492410449,-0.00077125112329795,0.00077125497870351,-0.00067252250583993,0.00067252620379947,-0.00067252232323233,0.00067252635614902,-0.00067252282090653,0.00067252595219012,-0.00067252307009352,0.00067252569601319,-0.00030800291784867,0.00030800708565122,1.3819854218822e-09,-6.2650142492916e-11,7.4317672219657e-10,5.5942158793684e-10,-0.00082725813633161,0.00082725942655797,-0.00082357810555261,0.00082357943589806,-0.00083400233262951,0.000834005377616,-0.00083400385336502,0.00083400352535996,-0.00079685278441818,0.00079685470337234,-0.00079685293414066,0.00079685450834158,-0.0007968533406069,0.00079685406518541,-0.00079685328777666,0.00079685409066762,-0.00082357831097811,0.00082357916628577,-0.00082357823461563,0.00082357922106859,-0.00083400262614598,0.00083400506871727,-0.00083400369483256,0.00083400370429381,-0.00082357771424544,0.00082357989603772,-3.7511246794606e-10,-1.0426042648907e-10,-0.00054795688929847,0.00054795642695843,-2.6667708249552e-10,-2.2617390631631e-10,-0.00044638519417786,0.00044638380839113,-0.00041742669617476,0.0004174266772705,-0.00041742711353261,0.00041742626883666,-0.00044638517612323,0.00044638422428056,-0.00044638461807276,0.00044638449509768,-0.00041742724582334,0.00041742646529882,-0.00041742687051776,0.00041742660524924,-0.00066778600912158,0.00066778557274979,-0.00066778609172604,0.00066778547129664,-0.00066778603622047,0.00066778558319199,-0.00066778588551228,0.00066778565083088,-0.00066192038010094,0.00066192038454831,-0.0006619208874262,0.00066191988297222,-0.00066192066305233,0.00066192014087187,-0.00066192064020075,0.00066192019849802,-0.00044638427985259,0.00044638475540195,0.75895828658748,128566,2924,0.0027502826369374,0.0034408356230109,0.0022809437614833,19.640542964773,-9.8875656281818e-05,-9.8875656281818e-05,-9.8875656281818e-05,3413624.2566974,0.008508566473063
26391759,0.5328342320708,0.0090577379558828,0.0030016365949862,0.0033968304268401,0.0026592709340566,-0.0006719269406131,0.00067193013416383,1.6511776023488e-09,1.5350575694788e-09,1.6370857181256e-09,1.7050595728652e-09,-0.00031251189710308,0.00031251575248875,-0.00061904797061389,0.00061905120883153,-0.0006190477544856,0.00061905139765431,-0.00031251186688603,0.00031251590788883,-0.00031251268048998,0.00031251510096345,-0.00061904791257056,0.00061905142987908,-0.00061904818639251,0.00061905116308727,-0.0007843286880783,0.00078433189738375,-0.00078432876083664,0.00078433179871398,-0.00078432872661062,0.00078433180728471,-0.00078432866224023,0.0007843318138277,-0.00068405333843579,0.00068405653291477,-0.00068405330545039,0.00068405653134,-0.00068405330249152,0.00068405663724505,-0.00068405352544693,0.00068405640945147,-0.0003125123413664,0.00031251526091311,8.2004925226413e-10,6.9979623038199e-10,8.3124633587738e-10,6.6055515228764e-10,-0.00084202503201197,0.00084202651331846,-0.00083884899407274,0.00083885017186917,-0.00084882690871538,0.00084882874849359,-0.00084882704554349,0.00084882831131915,-0.00081076825001615,0.00081076988890194,-0.0008107683650934,0.00081076972809773,-0.00081076835194936,0.00081076972438881,-0.00081076832333752,0.00081076972479957,-0.00083884877760607,0.00083885033292531,-0.0008388487687035,0.00083885031650449,-0.00084882710245872,0.00084882853981271,-0.00084882697537786,0.00084882839876129,-0.00083884869565166,0.00083885053503798,-3.4754800756611e-10,-1.3117943121651e-10,-0.00055605355738454,0.00055605309619881,-2.7729612334433e-10,-2.1526157460886e-10,-0.00045253601209671,0.00045253493075083,-0.00042311804187921,0.00042311794692258,-0.0004231183617434,0.00042311763629003,-0.00045253607579538,0.00045253526907833,-0.00045253569049945,0.00045253536978662,-0.00042311853536393,0.0004231177894563,-0.00042311821604423,0.00042311787521033,-0.00067838497944893,0.00067838452540241,-0.00067838502657109,0.00067838446038216,-0.00067838499232121,0.00067838454537064,-0.00067838486447008,0.00067838459355442,-0.00067328842231794,0.00067328829960242,-0.00067328880138306,0.00067328793586194,-0.00067328866413687,0.0006732881124914,-0.0006732886105821,0.00067328818850846,-0.00045253537808859,0.00045253559221799,0.78422789021368,128566,2924,0.0027965744691989,0.0035021365320907,0.0023146224088086,19.821169074063,-9.7430647407493e-05,-9.7430647407493e-05,-9.7430647407493e-05,3424760.3757354,0.0086510689341725
26591759,0.54135335889989,0.0092062037660653,0.0030510263494273,0.0034564829046857,0.0026986945119523,-0.0006846286991347,0.00068463155355504,1.4502525960728e-09,1.4009982192161e-09,2.3409112856347e-09,6.4073007226846e-10,-0.00031798556598595,0.00031798768449821,-0.00063156279513066,0.00063156381716291,-0.00063156245803075,0.00063156411968858,-0.00031798385697134,0.00031798951939106,-0.00031798489758396,0.00031798849732384,-0.00063156091494691,0.00063156588926471,-0.00063156125529644,0.00063156555135637,-0.00079915373603782,0.00079915720407011,-0.00079915381974501,0.00079915709544259,-0.00079915438161022,0.00079915649292665,-0.00079915426343707,0.00079915655500025,-0.000697203261715,0.00069720537340733,-0.00069720307033209,0.00069720554023388,-0.00069720254678893,0.00069720616771862,-0.00069720280639602,0.0006972059122329,-0.00031798636870157,0.00031798682475537,5.8758347766927e-11,1.77055625431e-09,9.7480656115222e-10,8.1154400976992e-10,-0.00085868773937846,0.00085868951497493,-0.0008561006811146,0.00085610146302198,-0.00086558845973332,0.00086558889635787,-0.00086558691022715,0.00086559018532196,-0.00082645684597016,0.00082645820259367,-0.000826456992527,0.00082645801172281,-0.00082645639167813,0.00082645861938626,-0.00082645632809792,0.00082645865517799,-0.00085609986819854,0.00085610223251921,-0.00085609976288551,0.00085610231522351,-0.00086558875106216,0.00086558858873069,-0.00086558674104824,0.00086559037516511,-0.00085610030570223,0.0008561019141905,-3.8964093608127e-10,-9.8268370749978e-11,-0.00056548326516987,0.00056548279530363,-2.6558838432895e-10,-2.3310544027318e-10,-0.00045975270793087,0.00045975126848477,-0.00042987638414425,0.00042987637556288,-0.00042987682661588,0.00042987594513612,-0.00045975265215998,0.00045975169927324,-0.00045975210493523,0.00045975198574452,-0.00042987694770022,0.00042987615911549,-0.00042987656476973,0.00042987631754956,-0.00069056548737745,0.00069056504065752,-0.00069056557917218,0.00069056493576306,-0.00069056550612966,0.00069056505126254,-0.00069056535827268,0.00069056512444967,-0.00068627556770381,0.00068627558833598,-0.00068627611963124,0.00068627506960312,-0.00068627588550565,0.00068627534945732,-0.00068627584071515,0.00068627540322113,-0.00045975172881837,0.00045975224553894,0.78231018614834,128566,2924,0.0028493926188384,0.0035713027270495,0.0023538437658766,20.595408526049,-9.123673179161e-05,-9.123673179161e-05,-9.123673179161e-05,3443813.1926154,0.0088137041558133
26791759,0.55030106252619,0.0093585755571845,0.0031018584154481,0.0035177344957671,0.0027389826459693,-0.00069787872177732,0.00069788130900527,1.3870635290878e-09,1.2002302539661e-09,2.8317596661713e-09,-1.3254122745648e-10,-0.00032351792805831,0.00032351787459962,-0.00064438114383732,0.00064438086411445,-0.00064438103214219,0.00064438094606221,-0.00032351484236237,0.00032352114317106,-0.00032351552206972,0.00032352046964503,-0.00064437820993661,0.0006443840233853,-0.00064437842092972,0.00064438381155972,-0.0008147195925398,0.00081472319364939,-0.00081471965976039,0.00081472310640963,-0.00081472058550419,0.00081472212631664,-0.00081472058016385,0.00081472208458731,-0.00071081301690823,0.00071081476707675,-0.00071081314434403,0.00071081461546348,-0.00071081206216965,0.00071081579002481,-0.00071081226889271,0.00071081558361399,-0.00032351809088909,0.00032351767331895,-4.1088067223044e-10,2.4868013416613e-09,1.0733792318542e-09,9.4782953069375e-10,-0.00087606538541766,0.00087606739531732,-0.00087398787900818,0.00087398872269844,-0.00088308960874869,0.00088308891905599,-0.0008830867189628,0.00088309158588457,-0.00084288327304033,0.0008428843915984,-0.000842883351113,0.0008428842825733,-0.00084288237388541,0.0008428852717755,-0.00084288236047317,0.00084288526167265,-0.00087398671479633,0.00087398985108724,-0.00087398674417658,0.00087398978587377,-0.00088308969778988,0.00088308881790917,-0.00088308672107274,0.00088309159628486,-0.00087398771258195,0.00087398895394254,-3.2557149116466e-10,-1.6333911801383e-10,-0.0005753009892227,0.0005753005179928,-2.6298100345783e-10,-2.3683785125978e-10,-0.00046722319967694,0.00046722236849418,-0.00043671736433232,0.00043671712531083,-0.00043671759075783,0.00043671692430637,-0.00046722329310158,0.00046722269589974,-0.00046722309743669,0.00046722261469401,-0.00043671775814078,0.00043671709464861,-0.0004367174926605,0.00043671713123727,-0.00070333728800099,0.00070333682028322,-0.0007033373223795,0.00070333678151397,-0.00070333728303874,0.00070333685016456,-0.00070333720349799,0.00070333686440406,-0.00069972358499058,0.00069972329593204,-0.00069972383848096,0.00069972308440119,-0.00069972377594526,0.00069972318587527,-0.00069972367692726,0.00069972328716164,-0.00046722284483141,0.00046722271749797,0.76473034366116,128566,2924,0.0029044887883927,0.0036434303626148,0.0023946789949749,21.45619660752,-8.4350427139839e-05,-8.4350427139839e-05,-8.4350427139839e-05,3466652.022209,0.0089832834741503
26991759,0.55930886317067,0.0095080373373457,0.0031518696355983,0.0035778292710142,0.0027783384307333,-0.00070988280131346,0.00070988551872172,1.4339081449581e-09,1.2827825115219e-09,2.578566106899e-09,2.5769547788886e-10,-0.00032778019796832,0.00032778115628437,-0.00065571602699287,0.00065571644673815,-0.00065571584587561,0.00065571660083012,-0.00032777777292344,0.00032778370133276,-0.00032777860349829,0.00032778288654117,-0.00065571365933879,0.00065571902169996,-0.00065571392077229,0.00065571876393077,-0.00082908356561412,0.00082908709633517,-0.00082908364356613,0.00082908699452013,-0.00082908436802433,0.00082908621746958,-0.00082908432686813,0.00082908620488248,-0.00072302556296491,0.00072302754623971,-0.00072302558130418,0.00072302749633556,-0.00072302475554584,0.00072302843293901,-0.00072302499011098,0.00072302818984232,-0.00032778059057649,0.00032778070487155,-7.5276209981104e-11,2.106997312649e-09,1.0471699329715e-09,9.2991886882276e-10,-0.0008920619879203,0.00089206396137922,-0.0008903286629906,0.00089032963939804,-0.00089920814413435,0.00089920818922494,-0.00089920602179002,0.00089921006421007,-0.00085807003112046,0.00085807137639482,-0.00085807012487634,0.00085807124290077,-0.00085806938276804,0.00085807199351686,-0.0008580693435156,0.00085807200597411,-0.00089032773209608,0.00089033051846718,-0.00089032770965302,0.00089033052954362,-0.00089920830181432,0.0008992080087677,-0.0008992059502313,0.00089921015317204,-0.00089032844242927,0.00089032991365943,-3.4758040391456e-10,-1.4329382599404e-10,-0.00058393451456606,0.00058393404018521,-2.7523854438256e-10,-2.313736272037e-10,-0.00047366806845182,0.00047366705089799,-0.00044225870816847,0.00044225855677862,-0.00044225901412731,0.00044225827410326,-0.00047366809542634,0.00047366735709083,-0.00047366778726697,0.00047366740562597,-0.0004422591619947,0.00044225843433639,-0.0004422588641458,0.00044225850958428,-0.00071492478529405,0.00071492431917252,-0.00071492483465501,0.00071492426314174,-0.00071492479091104,0.00071492434173231,-0.00071492468262752,0.00071492437951285,-0.00071179301296216,0.00071179282657312,-0.00071179335906061,0.00071179251938329,-0.00071179325410122,0.00071179267286771,-0.00071179316592348,0.00071179276488455,-0.00047366749752282,0.000473667596857,0.7455802440547,128566,2924,0.0029544052619463,0.0037098189930922,0.0024305914561529,21.710534769425,-8.23157218446e-05,-8.23157218446e-05,-8.23157218446e-05,3482028.3793731,0.0091369060449749
27191759,0.56823384827743,0.0096519651317472,0.0032001718100711,0.0036356715698985,0.0028161217517777,-0.00072113232189536,0.00072113529000766,1.570167649809e-09,1.3945987151504e-09,2.1535941488976e-09,9.4794658175027e-10,-0.00033143253201523,0.00033143472392762,-0.00066607568881303,0.00066607750559997,-0.00066607554123572,0.00066607762492148,-0.00033143117969709,0.00033143618182142,-0.00033143193368427,0.00033143544561581,-0.0006660744415491,0.00066607894486384,-0.00066607468258836,0.00066607870659907,-0.00084270374022099,0.00084270714779693,-0.00084270381674452,0.000842707048657,-0.00084270416769481,0.00084270665119987,-0.00084270414666642,0.00084270661925213,-0.00073432961449077,0.00073433226701732,-0.00073432968877907,0.00073433216435338,-0.00073432920751907,0.00073433275694467,-0.00073432943905107,0.00073433252104817,-0.00033143279755034,0.00033143439787023,4.19941433401e-10,1.5067779427917e-09,1.0100827136959e-09,8.7007038777042e-10,-0.00090713781511446,0.00090713969192126,-0.00090557558961249,0.00090557684654371,-0.00091440944419359,0.00091441043703975,-0.00091440834936799,0.0009144112531581,-0.00087247457156544,0.00087247617757779,-0.0008724746603168,0.00087247605007615,-0.00087247426346707,0.00087247643890599,-0.00087247424425246,0.00087247643190747,-0.00090557499444306,0.00090557737730189,-0.00090557503090215,0.0009055773342666,-0.00091440957199489,0.00091441028583159,-0.00091440832234762,0.00091441129590257,-0.00090557538086173,0.00090557710716093,-3.3792650861661e-10,-1.4957574349569e-10,-0.00059193433036521,0.00059193385916514,-2.8192793252818e-10,-2.2112322455419e-10,-0.00047959458676368,0.00047959367594196,-0.00044710949563865,0.00044710932730483,-0.00044710976595343,0.00044710908271012,-0.0004795946381973,0.00047959395210518,-0.0004795943938587,0.00047959393777031,-0.00044710993878989,0.00044710922269106,-0.00044710966288234,0.00044710926942422,-0.00072584429363175,0.00072584381817857,-0.00072584432842651,0.00072584378394587,-0.00072584429540072,0.00072584384793648,-0.00072584419464529,0.00072584388224353,-0.00072299320130247,0.00072299297240736,-0.00072299349479284,0.00072299271161882,-0.00072299343218276,0.00072299283259883,-0.00072299332966732,0.00072299294292219,-0.00047959410282636,0.00047959413964366,0.72510222116981,128566,2924,0.003001182794409,0.0037723816633903,0.0024638691826367,21.737000433681,-8.2103996530548e-05,-8.2103996530548e-05,-8.2103996530548e-05,3495706.7678761,0.0092808640129727
27391759,0.57711744845642,0.0097983305465734,0.0032492239676007,0.0036945077154269,0.0028545988635458,-0.00073263910349127,0.00073264226652659,1.6378842708039e-09,1.5195841711878e-09,1.912999013855e-09,1.3957750529567e-09,-0.00033566490092803,0.00033566825871152,-0.00067690732087544,0.00067690993157818,-0.00067690708394426,0.00067691014348608,-0.00033566429311088,0.00033566899560125,-0.00033566522085819,0.00033566808219033,-0.00067690668385267,0.00067691076409977,-0.00067690697598655,0.0006769104743006,-0.00085649077771095,0.00085649415606227,-0.00085649086067582,0.00085649405096898,-0.00085649100608721,0.00085649386362489,-0.00085649094189251,0.00085649387326551,-0.00074588546188688,0.00074588839641497,-0.00074588540402537,0.00074588843791831,-0.00074588518869075,0.00074588872965666,-0.00074588544053605,0.00074588846274151,-0.00033566544993912,0.0003356676552543,7.2050663848736e-10,1.1440980739421e-09,1.0028112456283e-09,8.2609171905327e-10,-0.00092243777219796,0.00092243959200241,-0.00092104811656193,0.0009210494389359,-0.00092984623029065,0.00092984790751335,-0.0009298458566457,0.00092984798678215,-0.00088711007556942,0.00088711187589969,-0.00088711019771053,0.00088711171180955,-0.00088711000525075,0.00088711188968504,-0.00088710997391838,0.00088711189241597,-0.00092104770894441,0.00092104979316383,-0.00092104769945619,0.00092104977527902,-0.00092984645167032,0.00092984767991209,-0.0009298457676907,0.00092984809443887,-0.00092104781025488,0.00092104981584438,-3.7289304805114e-10,-1.1924287441057e-10,-0.00060024328195786,0.00060024280772575,-2.8560330704121e-10,-2.1897188726687e-10,-0.00048619427045418,0.00048619307993387,-0.00045250146450712,0.00045250139514827,-0.00045250182255347,0.00045250105616447,-0.00048619428578487,0.00048619343250392,-0.00048619387746957,0.00048619357033154,-0.00045250199674755,0.00045250122312386,-0.00045250166309058,0.00045250131763796,-0.00073695098350834,0.000736950503478,-0.00073695103802395,0.0007369504504715,-0.00073695098561732,0.00073695053360993,-0.00073695086266808,0.00073695059145529,-0.000734591897287,0.00073459179554556,-0.00073459231771954,0.00073459139589707,-0.00073459219198559,0.0007345915866402,-0.00073459209254806,0.00073459169535747,-0.00048619352043592,0.00048619383650356,0.74094224630426,128566,2924,0.0030490259551085,0.003835870839203,0.0024984311811022,21.838513722782,-8.1291890217742e-05,-8.1291890217742e-05,-8.1291890217742e-05,3509668.7418508,0.0094281485620609
27591759,0.58612486325978,0.0099486683780353,0.0032995607272102,0.0037549877402893,0.0028941199105358,-0.00074491283905372,0.00074491604996718,1.6512004207694e-09,1.5554576034262e-09,1.9618647911567e-09,1.4005794368625e-09,-0.00034045529741957,0.00034045862127852,-0.00068861357088016,0.00068861619889978,-0.00068861335667257,0.00068861642219329,-0.00034045465234355,0.00034045943107756,-0.00034045553060277,0.00034045854355647,-0.00068861291408507,0.00068861707937102,-0.00068861320173862,0.0006886168118463,-0.00087109099350838,0.00087109441619776,-0.00087109105272389,0.0008710943206538,-0.00087109122905763,0.00087109410650086,-0.00087109114720154,0.00087109410614587,-0.00075825045784207,0.00075825343373709,-0.00075825036093272,0.00075825345723747,-0.00075825018025132,0.00075825373580971,-0.00075825036556005,0.00075825347604278,-0.00034045580393345,0.00034045807635944,6.3978070713856e-10,1.2733649460456e-09,1.0552900063206e-09,8.2339627122088e-10,-0.00093869468917202,0.00093869655815485,-0.00093755500779622,0.00093755627111107,-0.00094626115217245,0.00094626267056671,-0.0009462605718243,0.00094626299557708,-0.00090260255612854,0.00090260434888409,-0.00090260267399494,0.00090260415026769,-0.00090260241639366,0.00090260443093956,-0.00090260239985439,0.000902604397312,-0.00093755450110714,0.00093755679124002,-0.00093755450973526,0.00093755668694472,-0.00094626139607085,0.00094626248290616,-0.00094626052786202,0.00094626308688546,-0.00093755468137012,0.00093755671373907,-4.0636127692538e-10,-1.2146030504275e-10,-0.00060921992493503,0.00060921942194838,-2.9421624448255e-10,-2.4830213351361e-10,-0.000493433378286,0.00049343213369822,-0.00045855524396532,0.00045855512982,-0.00045855558742174,0.0004585547810308,-0.00049343338766179,0.00049343253487559,-0.00049343300999965,0.00049343264126265,-0.00045855576060751,0.00045855498050046,-0.00045855542912954,0.00045855506782678,-0.00074879235819212,0.00074879185147031,-0.00074879241333006,0.00074879178674901,-0.00074879234903767,0.00074879189859844,-0.00074879222987566,0.00074879193954359,-0.00074708829646633,0.00074708817784384,-0.0007470887221094,0.00074708773129835,-0.00074708858679939,0.00074708791040841,-0.00074708845281486,0.00074708805845508,-0.00049343266710329,0.00049343290662455,0.75071708283203,128566,2924,0.0031000556479288,0.0039033270785478,0.0025357682224695,22.226431893099,-7.818854485521e-05,-7.818854485521e-05,-7.818854485521e-05,3525131.7052555,0.0095854792876574
27791759,0.59513664428818,0.010101188899635,0.0033505811145244,0.003816420033155,0.0029341877519558,-0.00075694403578883,0.00075694729088974,1.738448558884e-09,1.5112768949253e-09,2.0003606888982e-09,1.4049650007689e-09,-0.00034500417955955,0.00034500720795161,-0.000700192740419,0.00070019548815119,-0.00070019262570691,0.00070019558939148,-0.00034500335447764,0.00034500809044624,-0.00034500414405923,0.00034500731702692,-0.00070019210771121,0.00070019631897713,-0.00070019235955353,0.00070019607778627,-0.00088543113879324,0.00088543463694098,-0.00088543122256593,0.0008854345262778,-0.00088543136064828,0.00088543434363717,-0.00088543135467651,0.00088543428315738,-0.00077044295634012,0.00077044615556968,-0.00077044309431247,0.00077044599619761,-0.0007704427522569,0.00077044642429545,-0.0007704430152577,0.00077044613681474,-0.00034500437231184,0.00034500693652334,7.7337958078468e-10,1.1198491420833e-09,1.0089568730013e-09,8.4396668575001e-10,-0.00095476667332036,0.00095476852825831,-0.00095393403663816,0.00095393549947564,-0.00096250471027812,0.00096250639725346,-0.00096250431009972,0.00096250648266283,-0.00091786833264211,0.00091787016504141,-0.00091786841321752,0.00091787002850034,-0.00091786825754307,0.00091787018031444,-0.00091786824818433,0.00091787015499622,-0.00095393366156122,0.00095393582363491,-0.00095393372627944,0.00095393573749818,-0.0009625048240352,0.00096250626364166,-0.00096250431396855,0.00096250650848202,-0.00095393382814548,0.00095393578283843,-3.2431099458429e-10,-1.6213325853583e-10,-0.00061790573343196,0.00061790526738802,-3.2372657143566e-10,-1.7758262733293e-10,-0.00050046943755216,0.0005004686564485,-0.00046438587217468,0.00046438577203154,-0.0004643861158102,0.00046438554275952,-0.00050046957014438,0.00050046880277885,-0.00050046934511296,0.00050046879148495,-0.00046438639170454,0.00046438558458942,-0.00046438610570055,0.00046438563517441,-0.00076030939928076,0.00076030890603694,-0.00076030940325364,0.000760308902578,-0.00076030941015632,0.00076030893275851,-0.00076030927903209,0.00076030898862382,-0.00075938632517674,0.00075938607835862,-0.00075938657092409,0.0007593858570335,-0.00075938655483873,0.00075938594014184,-0.00075938646526381,0.00075938603944929,-0.00050046900422371,0.00050046909505672,0.76134970048573,128566,2924,0.0031500776310149,0.0039700099728893,0.0025718960875178,22.425785759806,-7.6593713921551e-05,-7.6593713921551e-05,-7.6593713921551e-05,3535436.1628709,0.0097398153685315
27991759,0.60413365156961,0.010255777684266,0.0034022501381794,0.0038787487809151,0.0029747787651716,-0.00076904276011386,0.00076904604952408,1.8388738745183e-09,1.4440372230364e-09,2.061578728935e-09,1.38045608847e-09,-0.00034963959614424,0.00034964213789284,-0.00071195575015576,0.00071195860206355,-0.00071195578185396,0.0007119585465721,-0.00034963852820848,0.00034964333202142,-0.00034963925056539,0.00034964263220528,-0.00071195512364115,0.00071195941997811,-0.00071195533626008,0.00071195920721384,-0.00089980793165813,0.00089981151529402,-0.00089980804575625,0.00089981137925912,-0.00089980814869228,0.00089981122664082,-0.00089980823333692,0.00089981108220233,-0.00078278391563211,0.00078278736405673,-0.00078278430541284,0.00078278695646921,-0.00078278377288821,0.00078278758466318,-0.00078278411864217,0.00078278722827763,-0.00034963936028273,0.00034964231222937,8.6418668345473e-10,1.0132526154752e-09,9.6596571246937e-10,8.7208759091096e-10,-0.00097096242253711,0.0009709642657979,-0.00097049214099142,0.00097049383623052,-0.00097888123132009,0.00097888299780041,-0.00097888093866309,0.00097888297066345,-0.00093320209561203,0.00093320393249421,-0.00093320212952284,0.00093320385621455,-0.00093320205774851,0.00093320391287459,-0.00093320205730749,0.00093320388142462,-0.00097049190096984,0.00097049400107848,-0.00097049199319427,0.0009704938999869,-0.00097888124479639,0.00097888296596898,-0.00097888099467807,0.00097888292050082,-0.00097049207843502,0.00097049393679374,-2.3185868335897e-10,-2.2988451988976e-10,-0.00062658687717233,0.00062658643457861,-3.6569806988685e-10,-1.1170766681922e-10,-0.00050751296868073,0.00050751276417436,-0.00047028382748149,0.00047028371258776,-0.00047028393238495,0.00047028363722726,-0.00050751341104208,0.00050751266625891,-0.00050751325039092,0.00050751252124957,-0.00047028437385747,0.00047028352641419,-0.00047028411434356,0.00047028352395826,-0.00077183317675607,0.00077183269838731,-0.00077183311465405,0.00077183275967949,-0.00077183321125254,0.00077183269917293,-0.00077183307434534,0.00077183275956149,-0.00077179310013346,0.00077179269034233,-0.00077179312307169,0.00077179272116318,-0.00077179319487672,0.00077179263247406,-0.00077179319338038,0.00077179267137544,-0.00050751297583126,0.00050751274409787,0.77289277607051,128566,2924,0.0032003804338634,0.0040372004893936,0.002608003748313,22.602673148851,-7.5178614809193e-05,-7.5178614809193e-05,-7.5178614809193e-05,3543298.2168522,0.0098949509914877
28191759,0.61329607142552,0.010415788387616,0.0034556894288137,0.0039433304970488,0.0030167684617537,-0.00078208528027459,0.00078208847467421,1.8818734068386e-09,1.3067373506886e-09,2.3351766110163e-09,1.0052085251872e-09,-0.00035492293656489,0.00035492416063207,-0.00072479009816339,0.00072479242121647,-0.00072479033737262,0.00072479215560722,-0.00035492107284541,0.00035492614390765,-0.00035492153931208,0.00035492571029512,-0.00072478900014277,0.00072479373647091,-0.0007247891085106,0.00072479361887027,-0.00091516717931312,0.00091517089912247,-0.00091516731131865,0.0009151707476188,-0.00091516755609992,0.00091517044591254,-0.00091516775999779,0.0009151701859734,-0.00079617944073416,0.00079618289746843,-0.00079618015102227,0.00079618218264501,-0.00079617922479275,0.00079618319048624,-0.00079617960930486,0.00079618280091603,-0.00035492212189544,0.00035492491637587,6.6364294951638e-10,1.3096822304598e-09,1.0016561727974e-09,9.31493480043e-10,-0.00098829316697643,0.00098829510010086,-0.00098824969265474,0.00098825150821672,-0.00099640222016923,0.00099640345093358,-0.00099640130780305,0.0009964040554159,-0.00094956787030469,0.00094956957617955,-0.00094956784632908,0.00094956956294625,-0.00094956763013228,0.00094956976650471,-0.00094956767602,0.00094956969101322,-0.00098824932151777,0.00098825181265355,-0.00098824954055975,0.00098825158234691,-0.00099640209774382,0.00099640356616571,-0.00099640149351193,0.00099640387267047,-0.00098824982225808,0.00098825143477881,-1.3880471444988e-10,-3.104202501079e-10,-0.00063606240947668,0.00063606197926978,-3.8355680536483e-10,-7.6939899757626e-11,-0.00051532940355414,0.00051532987325187,-0.00047696902501586,0.00047696877127648,-0.00047696892582526,0.00047696891027001,-0.00051533005167559,0.00051532956801696,-0.00051533017848707,0.00051532913787418,-0.00047696948796015,0.00047696870873801,-0.00047696932568803,0.00047696859868376,-0.00078424333432556,0.00078424286290242,-0.00078424320518486,0.00078424299269794,-0.00078424338017616,0.00078424284988465,-0.00078424327854202,0.00078424287591676,-0.00078522010164943,0.00078521940186942,-0.00078521981018243,0.00078521976363004,-0.00078522005114195,0.00078521949022395,-0.00078522006384532,0.00078521952142567,-0.00051533000770255,0.00051532923542588,0.78542543906994,128566,2924,0.0032546047957587,0.0041090940565808,0.0026474128391063,23.093841212831,-7.1249270297355e-05,-7.1249270297355e-05,-7.1249270297355e-05,3554756.2020419,0.010062157298562
28391759,0.62237563361344,0.010577108271393,0.0035095349047852,0.0040085166065358,0.0030590567600722,-0.00079442785593006,0.00079443118227898,1.7502359864332e-09,1.5692596454156e-09,2.2139536579414e-09,1.2643270584115e-09,-0.00035952407066805,0.00035952683945471,-0.00073703003860846,0.00073703251627748,-0.00073702991856131,0.00073703260355056,-0.00035952295549376,0.00035952805752517,-0.00035952370051642,0.00035952735798047,-0.0007370290827324,0.00073703367019638,-0.00073702928147542,0.00073703346109647,-0.00092978475008068,0.00092978843133989,-0.00092978484254101,0.00092978832321794,-0.00092978508231557,0.00092978802813641,-0.00092978508637986,0.00092978797393175,-0.00080894087855554,0.0008089439493496,-0.00080894095180922,0.0008089438767719,-0.00080894053767526,0.00080894436801327,-0.00080894078798601,0.00080894411782321,-0.00035952428313448,0.00035952655222626,7.2068254052544e-10,1.241660311718e-09,1.0650603556666e-09,8.5260617664303e-10,-0.0010049341413115,0.0010049360665822,-0.00100538900036,0.0010053904945377,-0.0010132479862245,0.0010132496286151,-0.0010132474426442,0.0010132498624837,-0.00096519618885913,0.00096519806303504,-0.00096519628776832,0.00096519793735182,-0.00096519607393381,0.00096519813049066,-0.00096519608931766,0.00096519808676575,-0.0010053885245104,0.0010053908646997,-0.0010053886832776,0.0010053907261039,-0.0010132481560907,0.0010132494474785,-0.0010132474192136,0.0010132498576169,-0.0010053887580619,0.00100539074903,-3.4785153923061e-10,-1.2005987653627e-10,-0.00064480336900744,0.00064480291674955,-3.3990637827775e-10,-1.4486006344619e-10,-0.00052245744836578,0.00052245679040399,-0.00048297648491886,0.00048297644598324,-0.00048297674786025,0.00048297624457762,-0.00052245758906799,0.00052245695604671,-0.00052245746158704,0.00052245676449121,-0.00048297704609213,0.00048297627122008,-0.00048297680526283,0.00048297623156373,-0.00079590914729733,0.0007959086443053,-0.00079590913404167,0.00079590865785409,-0.00079590914576722,0.0007959086771268,-0.00079590900461647,0.000795908745626,-0.00079800952221306,0.00079800938036045,-0.00079800985107076,0.00079800913692505,-0.00079800983529515,0.00079800912445209,-0.00079800967941414,0.00079800933406895,-0.00052245703702829,0.0005224571362986,0.79904055562066,128566,2924,0.0033059222564465,0.0041781186382941,0.0026837686800564,23.181728757393,-7.0546169940853e-05,-7.0546169940853e-05,-7.0546169940853e-05,3557637.5327365,0.010220471873481
28591759,0.63128836595172,0.010737263500148,0.0035630079926144,0.0040732492837871,0.0031010062237463,-0.00080639166657305,0.00080639512270672,1.9070222241183e-09,1.5415586175306e-09,2.1132523622086e-09,1.5026229756348e-09,-0.00036370560541317,0.00036370844349521,-0.00074894832203813,0.00074895140714005,-0.00074894834473798,0.00074895136407428,-0.00036370464698615,0.00036370949893747,-0.00036370533809191,0.0003637088253316,-0.00074894777351072,0.00074895215736824,-0.00074894796692849,0.00074895195900085,-0.00094398950493972,0.00094399323504063,-0.00094398962659356,0.00094399309512385,-0.0009439897004994,0.00094399296920649,-0.00094398978843119,0.00094399282295406,-0.00082137948550583,0.00082138306488376,-0.00082137981206489,0.00082138272338687,-0.0008213793257974,0.00082138327814313,-0.00082137967475855,0.00082138290516504,-0.00036370541438323,0.00036370856385774,8.6106734227787e-10,1.058279301882e-09,1.0379686167124e-09,8.4148676727453e-10,-0.001021181617728,0.0010211835013462,-0.001022181178648,0.0010221828191042,-0.0010297279131887,0.0010297297255535,-0.0010297275904255,0.0010297297297937,-0.00098038402545698,0.00098038592622908,-0.000980384077426,0.00098038583702087,-0.00098038398627533,0.0009803859100526,-0.00098038402365378,0.00098038584366089,-0.0010221808290803,0.001022183080345,-0.0010221810285096,0.0010221828785583,-0.0010297279773821,0.0010297296636243,-0.0010297276611819,0.0010297296478282,-0.0010221810245684,0.0010221830014744,-2.607243198362e-10,-2.0725654910543e-10,-0.00065317084296532,0.00065317039141434,-3.6960902489791e-10,-1.1647343356196e-10,-0.00052929303313159,0.00052929277119437,-0.00048864100286116,0.00048864088067232,-0.00048864111688632,0.00048864081500689,-0.00052929337930158,0.00052929270920688,-0.00052929330280926,0.00052929249646688,-0.0004886415430636,0.00048864072114941,-0.0004886413181682,0.00048864067189615,-0.00080718695511695,0.00080718646396943,-0.00080718688937868,0.00080718652082311,-0.00080718698103465,0.00080718646849771,-0.00080718684665486,0.00080718652528359,-0.00081046651425637,0.0008104661447635,-0.00081046658508333,0.00081046613688946,-0.00081046665627048,0.00081046603377931,-0.00081046660857572,0.00081046613561673,-0.0005292929789748,0.00052929279453132,0.80787670892172,128566,2924,0.0033556657920028,0.0042455044132015,0.0027185722596352,23.131425192814,-7.0948598457488e-05,-7.0948598457488e-05,-7.0948598457488e-05,3555990.9463263,0.010373996988343
28791759,0.64045603223355,0.010898091448419,0.0036168718605551,0.0041382034737315,0.0031430161141329,-0.00081985859237861,0.00081986189111891,1.684206541808e-09,1.6091019479665e-09,2.487711905256e-09,9.6086359010042e-10,-0.00036881016314543,0.00036881282286294,-0.00076209739507939,0.00076209909708992,-0.00076209710011865,0.00076209936529507,-0.00036880859041818,0.00036881453366918,-0.00036880962339238,0.00036881351994085,-0.00076209573894727,0.00076210098103778,-0.0007620960472788,0.00076210065992943,-0.00095988787987348,0.00095989173636559,-0.00095988798315286,0.00095989161701667,-0.00095988845014792,0.00095989108983342,-0.00095988836605001,0.00095989111681818,-0.00083529265134313,0.00083529525837193,-0.00083529247164288,0.00083529544467282,-0.00083529195312934,0.00083529599907854,-0.0008352922508178,0.00083529568307412,-0.00036881086523353,0.0003688120554475,3.5522684947535e-10,1.7722386007978e-09,1.1714133417736e-09,9.1219030862399e-10,-0.0010391192226848,0.0010391213023757,-0.0010406020279132,0.0010406031965661,-0.0010479344486592,0.0010479355138087,-0.0010479331743924,0.0010479365149983,-0.00099722996407539,0.00099723175017931,-0.00099723011153782,0.00099723156453581,-0.00099722961105718,0.0009972320661355,-0.00099722959272368,0.00099723205152337,-0.0010406012301143,0.0010406039483669,-0.0010406012515876,0.0010406038760564,-0.0010479347710567,0.001047935217304,-0.0010479330377776,0.001047936634303,-0.0010406016160757,0.0010406036711241,-4.1576954757285e-10,-6.4206427067138e-11,-0.00066287513663493,0.00066287467615539,-3.5800923463073e-10,-1.3150930307297e-10,-0.00053709173356026,0.00053709057146108,-0.00049531991696028,0.00049532008063292,-0.00049532034014587,0.0004953197052298,-0.0005370918022213,0.00053709082754949,-0.000537091403008,0.00053709094169466,-0.00049532066154253,0.00049531975165106,-0.0004953203182549,0.00049531981959747,-0.00082004435966945,0.00082004384230531,-0.00082004437866069,0.0008200438156806,-0.00082004435940463,0.0008200438703043,-0.00082004416172258,0.00082004399439814,-0.00082432291138005,0.00082432302806995,-0.00082432349535799,0.00082432251116269,-0.00082432334222692,0.00082432263427145,-0.00082432321307733,0.00082432281228107,-0.00053709081129667,0.00053709145565597,0.78846979019731,128566,2924,0.0034116524521031,0.0043198962151695,0.0027589317545309,23.812605827722,-6.5499153378221e-05,-6.5499153378221e-05,-6.5499153378221e-05,3566439.9220681,0.01054655242618
28991759,0.64929648627616,0.011046532046197,0.0036668125676717,0.0041981165242142,0.0031816029543108,-0.0008307394607583,0.00083074283360651,2.2819723753103e-09,1.0820176208985e-09,2.3753476171432e-09,1.147949812833e-09,-0.0003717041170338,0.00037170340555935,-0.00077222418618705,0.00077222755506605,-0.00077222517448101,0.00077222650995984,-0.00037170174532418,0.0003717057777357,-0.00037170113403282,0.00037170645472731,-0.00077222372853001,0.00077222818646125,-0.00077222347056011,0.00077222842125041,-0.00097316226701381,0.00097316614984492,-0.00097316243003937,0.00097316598863112,-0.00097316241524238,0.00097316593326608,-0.00097316304633219,0.00097316527669446,-0.00084637889915664,0.00084638370938704,-0.00084638081618101,0.00084638186216784,-0.00084637925015478,0.00084638343314726,-0.00084637971676411,0.00084638299544604,-0.0003717010545975,0.00037170633482224,1.0439910486724e-09,8.5972472888203e-10,9.7445699859582e-10,8.8029969791908e-10,-0.0010540340970809,0.0010540359698442,-0.001055724087872,0.0010557266325755,-0.0010631099223831,0.0010631113334969,-0.0010631091913327,0.0010631116464686,-0.0010113282293853,0.0010113299704315,-0.001011328012901,0.0010113301868358,-0.0010113280576391,0.0010113300777807,-0.0010113283184662,0.001011329819357,-0.0010557239251508,0.0010557266070237,-0.0010557248111218,0.0010557258529564,-0.0010631091691458,0.001063111983095,-0.0010631099700336,0.0010631108534637,-0.0010557247110514,0.001055725984492,1.8064608113529e-10,-5.8215863967376e-10,-0.00067022716703058,0.00067022677394674,-4.1767207439931e-10,6.4184543434197e-13,-0.00054234567268102,0.00054234846410508,-0.00049958064128282,0.00049957975737468,-0.0004995797952328,0.00049958067644676,-0.00054234685791632,0.00054234744541002,-0.00054234811328254,0.000542345903364,-0.00049958060570787,0.00049958014249091,-0.00049958084589149,0.00049957962997282,-0.00083045388071587,0.00083045340640607,-0.00083045351583046,0.00083045377120051,-0.00083045392657448,0.0008304533797615,-0.00083045398797858,0.00083045324908893,-0.00083528231793641,0.00083528054232023,-0.00083528089752535,0.0008352820963162,-0.00083528175190891,0.00083528122877994,-0.00083528177969537,0.00083528124280509,-0.00054234837807377,0.00054234566243685,0.75490510935832,128566,2924,0.0034568926260099,0.0043817441553709,0.0027895149991885,23.509076958221,-6.7927384334233e-05,-6.7927384334233e-05,-6.7927384334233e-05,3564602.8729621,0.010685716965807
29191759,0.65821702492322,0.011192846072622,0.0037161489590743,0.0042571177882861,0.0032195793252618,-0.00084288221980956,0.00084288561855685,1.6586356096148e-09,1.7333173609621e-09,2.3543616676319e-09,1.1978444004699e-09,-0.00037590451298156,0.00037590836386619,-0.00078343851431794,0.00078344049997746,-0.00078343803012468,0.00078344096051207,-0.00037590348839722,0.00037590951253996,-0.00037590488630267,0.00037590813461143,-0.00078343708713543,0.00078344214507446,-0.00078343747730339,0.00078344173785341,-0.00098773520498479,0.00098773906302243,-0.00098773533715795,0.00098773892057359,-0.00098773570826638,0.00098773848749543,-0.00098773554412707,0.0009877386017523,-0.00085864097964345,0.00085864346151232,-0.00085864045740794,0.00085864400434776,-0.00085864020087677,0.0008586442661569,-0.00085864054135009,0.00085864390133892,-0.00037590592986779,0.00037590687819396,5.4647109162444e-10,1.5691740608096e-09,1.1983801499561e-09,8.718155558685e-10,-0.0010701102394156,0.0010701123120629,-0.001071744800692,0.0010717459096141,-0.0010794626003575,0.0010794642832051,-0.0010794619292389,0.0010794646833788,-0.0010267390477557,0.0010267410436304,-0.0010267392706959,0.0010267407937762,-0.0010267388860638,0.0010267411648488,-0.0010267388405653,0.0010267411796483,-0.0010717440722458,0.0010717465857564,-0.0010717440338627,0.0010717465766314,-0.0010794631708124,0.0010794637645677,-0.0010794615982999,0.0010794649805257,-0.0010717442058013,0.0010717465704481,-4.9299555635327e-10,1.8899641009455e-11,-0.00067888472230082,0.00067888426517053,-3.6118668343133e-10,-1.2009589425581e-10,-0.00054897242697583,0.00054897066955178,-0.00050515767998662,0.00050515807162404,-0.00050515831797205,0.00050515749904648,-0.00054897234704109,0.00054897106074697,-0.00054897163454136,0.00054897149259485,-0.00050515858434759,0.000505157602527,-0.0005051581668435,0.00050515772845602,-0.00084213682026866,0.00084213631500274,-0.00084213688070799,0.00084213624007938,-0.00084213682933828,0.00084213632986125,-0.00084213657950893,0.00084213650241393,-0.00084738827497725,0.0008473886985703,-0.00084738915950438,0.00084738790076176,-0.00084738887349212,0.00084738811753771,-0.00084738871126734,0.00084738834861861,-0.00054897089015873,0.00054897216666983,0.73755968052988,128566,2924,0.0035073683593794,0.0044484053946942,0.0028255221261638,23.915228821592,-6.4678169427264e-05,-6.4678169427264e-05,-6.4678169427264e-05,3579618.1373328,0.010840541558609
29391759,0.66724679528476,0.011333694407892,0.0037638368002922,0.0043138869653283,0.0032559706422713,-0.00085487937742028,0.00085488264734671,1.7761785293769e-09,1.4892673298318e-09,2.5564100307813e-09,8.5799743138507e-10,-0.00037972044687791,0.00037972220718997,-0.00079403717935614,0.00079403887922861,-0.00079403708349652,0.00079403894586349,-0.00037971848910806,0.00037972424905658,-0.0003797192030392,0.00037972354932648,-0.00079403547859066,0.00079404078588404,-0.00079403571595225,0.00079404053483439,-0.0010023093508759,0.0010023132583168,-0.0010023094814634,0.0010023131196294,-0.0010023099193604,0.0010023126110083,-0.001002309973683,0.0010023125074182,-0.00087059256222863,0.00087059543548307,-0.00087059274907528,0.00087059528497153,-0.00087059193099075,0.00087059608491751,-0.00087059229882999,0.0008705956843227,-0.00037972044089753,0.00037972211608905,4.6253322122171e-10,1.7384024439398e-09,1.2165836365579e-09,9.2944575607015e-10,-0.0010859725104001,0.0010859746683922,-0.0010872794508168,0.0010872808470428,-0.0010956366417405,0.0010956377482524,-0.0010956353250219,0.0010956387876492,-0.0010421044684672,0.0010421063394597,-0.001042104556391,0.0010421062163202,-0.0010421041033112,0.001042106660025,-0.0010421041560432,0.0010421065837935,-0.0010872786668973,0.0010872815595196,-0.0010872788774263,0.0010872813348049,-0.0010956367792896,0.0010956376312347,-0.0010956353744782,0.0010956387062448,-0.0010872791451432,0.0010872811954611,-3.1103467616383e-10,-1.4597518733764e-10,-0.00068744700842949,0.00068744656846654,-3.8607685937799e-10,-7.9881739326704e-11,-0.00055518015614993,0.00055517961951811,-0.00051039998678581,0.00051040003195647,-0.0005104002009018,0.00051039987935279,-0.00055518040106403,0.00055517959948429,-0.00055518023987135,0.00055517949688099,-0.00051040063838293,0.00051039976914651,-0.00051040039630366,0.00051039973547993,-0.00085382197270071,0.00085382145855833,-0.00085382190200487,0.00085382151065849,-0.00085382197843266,0.00085382147128516,-0.00085382181299415,0.00085382156060264,-0.00085910223543243,0.0008591020739623,-0.00085910250370163,0.00085910190570881,-0.00085910250103182,0.00085910183773259,-0.00085910242648708,0.00085910197096919,-0.0005551797351243,0.00055517997430064,0.70228761319158,128566,2924,0.0035572350577888,0.0045141751428218,0.0028611334504924,24.388754101312,-6.0889967189504e-05,-6.0889967189504e-05,-6.0889967189504e-05,3600151.941185,0.010993475294358
29591759,0.67640270251315,0.011470366920531,0.0038102674409574,0.0043689388981471,0.0032911605814262,-0.00086676726060498,0.00086677045517951,1.7180620510454e-09,1.473637837905e-09,2.587824635322e-09,7.457639165125e-10,-0.00038342441456662,0.00038342617440911,-0.00080410843078498,0.00080410986107539,-0.00080410828411896,0.00080410998095916,-0.00038342235584076,0.00038342831916567,-0.00038342320755887,0.000383427490032,-0.0008041065497866,0.00080411194168346,-0.00080410681376349,0.00080411166300965,-0.0010168909597936,0.0010168948381628,-0.001016891090522,0.0010168947024604,-0.0010168915881214,0.0010168941283752,-0.0010168916120547,0.0010168940571451,-0.00088231769741772,0.00088232035747734,-0.00088231780061719,0.00088232030747133,-0.00088231696626364,0.00088232109268584,-0.00088231732786191,0.00088232069282304,-0.00038342463533005,0.00038342586539954,4.2062556929523e-10,1.8791924296671e-09,1.2728281420328e-09,9.667277671303e-10,-0.0011016192755951,0.0011016215307462,-0.0011022815178354,0.001102282871013,-0.0011116885481257,0.0011116896338652,-0.0011116871062661,0.0011116907979011,-0.0010574421780316,0.0010574441142892,-0.0010574422948865,0.0010574439654654,-0.0010574417715887,0.0010574444775576,-0.001057441811771,0.0010574444167806,-0.0011022806532109,0.0011022836689651,-0.0011022808321448,0.0011022834768776,-0.001111688740729,0.0011116894475317,-0.0011116871126945,0.0011116907693954,-0.0011022811425432,0.0011022832957717,-3.3494534840079e-10,-1.1852650272905e-10,-0.00069596892456051,0.00069596848794794,-3.8221714710986e-10,-7.8721624962254e-11,-0.00056122420447412,0.00056122353374464,-0.00051554179910742,0.00051554190919099,-0.0005155420777518,0.00051554169266529,-0.00056122440066521,0.00056122354456175,-0.00056122418545765,0.00056122351360881,-0.00051554248474471,0.00051554159840105,-0.000515542222601,0.00051554159171894,-0.00086548777609873,0.0008654872604175,-0.00086548772083284,0.00086548729442154,-0.00086548777489347,0.00086548727683639,-0.00086548759650372,0.00086548737882242,-0.00087044774835808,0.00087044768342772,-0.0008704481154341,0.00087044742680488,-0.00087044807162365,0.00087044739340277,-0.00087044797721755,0.00087044754320748,-0.00056122365102887,0.00056122402234208,0.67338132099092,128566,2924,0.0036066426307041,0.0045790469084768,0.0028965766841396,24.909577517749,-5.672337985801e-05,-5.672337985801e-05,-5.672337985801e-05,3626848.3559183,0.011144891470925
29791759,0.68574028900896,0.011617050226321,0.0038598540391788,0.0044280697780106,0.0033291264091314,-0.00087945080740324,0.0008794539530362,1.7350526918901e-09,1.4079473351901e-09,2.6168549346721e-09,6.6340550441722e-10,-0.00038826063291645,0.00038826182261402,-0.00081546236273919,0.00081546374757145,-0.00081546233103049,0.00081546375291902,-0.00038825838038107,0.00038826417804792,-0.00038825899737531,0.00038826358112916,-0.00081546046270936,0.00081546584672273,-0.00081546065961158,0.00081546562806092,-0.0010321780776898,0.0010321819376011,-0.0010321782060755,0.0010321818125868,-0.0010321787094597,0.0010321812248181,-0.0010321787965941,0.001032181102742,-0.00089502567616306,0.00089502842456353,-0.00089502597697507,0.00089502822003229,-0.00089502499269878,0.00089502909617584,-0.00089502534477661,0.0008950287171667,-0.0003882604503297,0.00038826192112481,4.2880030926842e-10,1.9572346274139e-09,1.3164476784859e-09,1.0077984422729e-09,-0.001118183285242,0.001118185623296,-0.0011181986801912,0.0011182001824895,-0.0011287412312638,0.0011287422359113,-0.0011287396191722,0.0011287435631833,-0.0010736344193041,0.0010736363859431,-0.001073634515974,0.0010736362753969,-0.0010736339594121,0.0010736368038681,-0.0010736340336028,0.0010736367193283,-0.0011181977860147,0.0011182010102062,-0.0011181980628121,0.0011182007145216,-0.0011287413184314,0.0011287421381271,-0.0011287397226734,0.0011287434352001,-0.0011181983977909,0.0011182005214882,-2.9254054634059e-10,-1.4951079358097e-10,-0.00070525201391462,0.00070525158703741,-3.7822249258315e-10,-6.6056329870054e-11,-0.00056861095634317,0.00056861069639036,-0.00052191512897731,0.00052191513984788,-0.00052191529017574,0.00052191504355237,-0.00056861124402403,0.0005686106323919,-0.00056861126402749,0.00056861035487437,-0.00052191572696472,0.00052191490962831,-0.00052191553100562,0.00052191484171752,-0.00087772852534117,0.00087772800546427,-0.00087772843392494,0.00087772806532526,-0.00087772851104101,0.00087772802681263,-0.00087772836091028,0.00087772809735266,-0.00088283364886918,0.00088283343872486,-0.0008828338666707,0.00088283334850375,-0.00088283390863164,0.00088283322296544,-0.00088283379769306,0.00088283338343134,-0.00056861079318751,0.00056861078670849,0.70918215052377,128566,2924,0.0036593512654998,0.0046477158404069,0.0029351825155545,25.545706841705,-5.1634345266358e-05,-5.1634345266358e-05,-5.1634345266358e-05,3652177.4812568,0.011306704249925
29991759,0.69506871867577,0.011771304964125,0.0039117390246083,0.0044903767313604,0.0033691892081567,-0.00089190394628582,0.00089190711985116,1.7610902898564e-09,1.4095450832035e-09,2.2301314173101e-09,1.078864045444e-09,-0.00039286905837995,0.00039287129307866,-0.00082713495887144,0.00082713710238792,-0.00082713486859575,0.00082713715624108,-0.00039286754762768,0.00039287281289862,-0.00039286841109012,0.00039287195452043,-0.00082713377103301,0.00082713847173207,-0.00082713404179346,0.00082713817981715,-0.0010471348158807,0.0010471384708295,-0.001047134975924,0.0010471383118673,-0.001047135207557,0.0010471380007862,-0.0010471352762286,0.0010471378918929,-0.00090778026872107,0.0009077832472211,-0.000907780514832,0.00090778309468502,-0.00090777975348062,0.00090778373112593,-0.00090778019512718,0.00090778323042055,-0.00039286910849444,0.00039287114930846,7.9772642647584e-10,1.4965697212929e-09,1.233793729272e-09,9.9605312961355e-10,-0.0011347358523351,0.0011347381053078,-0.0011343437525324,0.0011343454285879,-0.0011458275713857,0.0011458293630102,-0.0011458268489854,0.0011458297863458,-0.0010896303189939,0.0010896324895345,-0.0010896304123807,0.0010896323726985,-0.0010896301573824,0.0010896326066183,-0.0010896301808356,0.0010896325676182,-0.0011343431874504,0.0011343458913612,-0.001134343355986,0.0011343457470206,-0.0011458277043309,0.001145829199049,-0.0011458268512874,0.0011458297527531,-0.0011343434562864,0.0011343457449323,-2.7175455649164e-10,-1.4561181472887e-10,-0.00071423269476761,0.00071423229100443,-3.8885857539985e-10,-3.7105642508754e-11,-0.00057600661050652,0.00057600619442286,-0.00052824325114206,0.00052824339137705,-0.00052824349033015,0.00052824322533872,-0.00057600686512704,0.00057600598250332,-0.00057600667036121,0.00057600597515731,-0.00052824394802722,0.00052824304059651,-0.00052824368500415,0.00052824304002038,-0.00088963656584386,0.00088963609344414,-0.00088963648038713,0.00088963612673118,-0.00088963658280108,0.00088963608231906,-0.00088963639103132,0.00088963618152933,-0.0008953295239978,0.00089532939871119,-0.00089532978832406,0.00089532926281354,-0.00089532978485628,0.00089532920109213,-0.00089532975979947,0.00089532928435685,-0.00057600620682209,0.00057600649722257,0.74657578420132,128566,2924,0.0037111058189632,0.004716328204626,0.002972532949485,25.876066715557,-4.8991466275547e-05,-4.8991466275547e-05,-4.8991466275547e-05,3662066.0468021,0.011466249784624
30191759,0.70427040948328,0.011913825269765,0.0039598906645641,0.0045479691706264,0.0034059654345748,-0.00090326637393951,0.00090326976144674,1.8469368344651e-09,1.5361456585546e-09,1.8236619678493e-09,1.7128923272858e-09,-0.00039592447274363,0.00039592813525199,-0.00083704041926824,0.00083704374903236,-0.0008370402713752,0.00083704388015919,-0.00039592402310585,0.00039592862769364,-0.00039592501843435,0.00039592764130937,-0.00083704019709905,0.00083704413965464,-0.0008370405172819,0.00083704380468663,-0.0010611875030242,0.0010611910294674,-0.0010611876657141,0.0010611908657191,-0.0010611875736498,0.0010611908871347,-0.0010611876093182,0.001061190805848,-0.00091927452224051,0.00091927797988346,-0.00091927466547563,0.00091927790252524,-0.00091927431846889,0.00091927815847041,-0.00091927476652133,0.00091927765086167,-0.00039592470138129,0.00039592782543929,1.2238728309957e-09,9.5472916714989e-10,1.1740361662363e-09,9.4280765193223e-10,-0.0011501956209879,0.0011501977677628,-0.00114930100691,0.0011493028494339,-0.001161897783326,0.0011619004723619,-0.0011618980650343,0.001161899882931,-0.0011045915560288,0.0011045939602831,-0.0011045916638519,0.0011045938233131,-0.0011045917254696,0.0011045937324623,-0.0011045917252927,0.0011045937132101,-0.0011493007759966,0.001149302990924,-0.0011493008643453,0.0011493029045482,-0.0011618979769804,0.0011619002706662,-0.0011618980138181,0.0011618999077296,-0.0011493006666623,0.0011493032148657,-3.0039425816224e-10,-1.2542087057041e-10,-0.00072214831071231,0.00072214789970461,-3.757835392473e-10,-6.0008650242e-11,-0.00058158268170108,0.00058158203833709,-0.00053299649538112,0.00053299666500985,-0.00053299680101325,0.00053299642397767,-0.00058158289918266,0.00058158192603408,-0.00058158256739519,0.00058158202708855,-0.00053299721037921,0.00053299628018537,-0.00053299689875815,0.00053299632493942,-0.00090076320375879,0.00090076274346846,-0.00090076314151826,0.0009007627322167,-0.00090076322097458,0.00090076272858151,-0.00090076302007349,0.00090076282449021,-0.00090652716708972,0.00090652713853867,-0.00090652753796872,0.00090652688879257,-0.00090652744563004,0.00090652687029538,-0.00090652743909402,0.0009065269474718,-0.00058158211814523,0.00058158253718775,0.7001942415032,128566,2924,0.003758332849237,0.0047804037275201,0.0030054590904512,26.017806217826,-4.7857550257388e-05,-4.7857550257388e-05,-4.7857550257388e-05,3668775.4558125,0.011612180409976
30391759,0.71315058706587,0.012046382341801,0.0040048166149359,0.0046014749997149,0.0034400907271499,-0.00091334841621983,0.00091335206939461,2.0022324755252e-09,1.6442161982355e-09,1.4088853377553e-09,2.4091293762513e-09,-0.00039835603844966,0.00039836070653792,-0.00084536803913714,0.00084537285433827,-0.0008453680049879,0.00084537287730118,-0.00039835662518741,0.00039836012752011,-0.00039835734589424,0.00039835941587718,-0.00084536900035345,0.00084537204505256,-0.00084536924328917,0.0008453717916688,-0.0010738740671955,0.0010738774693743,-0.0010738742091413,0.0010738773239212,-0.0010738737417418,0.0010738777308033,-0.0010738738248816,0.0010738775969899,-0.00092932451356895,0.00092932875315088,-0.00092932480311693,0.00092932851821984,-0.00092932477928313,0.00092932845140909,-0.00092932516075136,0.00092932799527348,-0.00039835589975811,0.0003983607549712,1.7238583104884e-09,2.9590450879096e-10,1.0885600208268e-09,8.7451336509934e-10,-0.0011639605494763,0.0011639625482816,-0.0011622369680643,0.001162239152092,-0.0011763732697353,0.001176376837012,-0.0011763745734811,0.0011763751913542,-0.0011181146609855,0.0011181172655289,-0.001118114726936,0.0011181171634915,-0.0011181151688498,0.0011181166804567,-0.0011181151921108,0.001118116634995,-0.0011622371351239,0.0011622388871045,-0.0011622373039227,0.0011622387273187,-0.001176373349193,0.0011763767523148,-0.0011763746259108,0.0011763751174419,-0.0011622367393069,0.0011622394018991,-2.8524390269622e-10,-1.4856105751204e-10,-0.0007290379146551,0.00072903749649553,-3.6383775034287e-10,-8.2156368702309e-11,-0.00058615680913748,0.00058615646135797,-0.00053689332711015,0.00053689334793388,-0.00053689352472866,0.00053689321436674,-0.00058615700563856,0.00058615632374445,-0.00058615694672074,0.00058615616435546,-0.00053689391004984,0.0005368930851963,-0.00053689367807888,0.00053689304341753,-0.00091068583292357,0.00091068535955862,-0.00091068574495678,0.00091068536195134,-0.00091068582975287,0.00091068536528152,-0.00091068567071484,0.00091068541058251,-0.00091626278889908,0.00091626260859941,-0.00091626302237186,0.00091626248681881,-0.00091626300828009,0.00091626237784776,-0.00091626295120216,0.00091626251685174,-0.00058615658463121,0.00058615663110898,0.67548584366782,128566,2924,0.0038002353761767,0.0048374485609203,0.0030341204663182,25.81616445962,-4.9470684323041e-05,-4.9470684323041e-05,-4.9470684323041e-05,3677707.0330102,0.011741315024404
30591759,0.72160268840599,0.012176901139032,0.0040489140425126,0.0046541331081763,0.0034738539883429,-0.00092272983611333,0.00092273371688052,2.1072351126197e-09,1.7622911361861e-09,1.0884346280692e-09,2.9657186534191e-09,-0.00040080551710738,0.00040081182565504,-0.00085335750068721,0.00085336325507215,-0.00085335726208691,0.00085336338905068,-0.00040080700913336,0.00040081030488088,-0.00040080818322632,0.00040080911956988,-0.00085335915375999,0.00085336170127609,-0.00085335950738432,0.00085336128379,-0.0010856265225958,0.0010856299092186,-0.0010856267271227,0.0010856297256609,-0.0010856259654617,0.0010856304228441,-0.0010856260128842,0.0010856303621046,-0.00093879494872231,0.00093879950580821,-0.00093879513369283,0.0009387994872982,-0.00093879535090665,0.00093879911452169,-0.00093879592753207,0.00093879856671878,-0.00040080593940005,0.00040081132048339,2.0827344553626e-09,-1.8422231066428e-10,9.9832540184425e-10,8.4155344817865e-10,-0.0011768042322778,0.0011768061161021,-0.0011741590748436,0.0011741613406916,-0.0011900334509151,0.0011900378809591,-0.0011900357067551,0.0011900352013997,-0.0011307419630167,0.0011307447676919,-0.0011307420841012,0.0011307446642956,-0.0011307427926537,0.0011307438595372,-0.0011307427512929,0.0011307439034876,-0.0011741595439263,0.0011741606636302,-0.0011741595737341,0.0011741607137331,-0.0011900336273611,0.0011900375851588,-0.0011900355481074,0.001190035254667,-0.0011741587178212,0.0011741616342396,-2.7268757735827e-10,-1.14162045222e-10,-0.00073544910320205,0.00073544872221777,-3.4592964150511e-10,-4.94156497406e-11,-0.00059082357140615,0.00059082274079853,-0.00054086414965121,0.000540864370537,-0.00054086453569225,0.00054086410315573,-0.00059082369814875,0.00059082258607025,-0.00059082318251356,0.00059082288172053,-0.00054086489659931,0.00054086397215515,-0.0005408645297183,0.00054086405565225,-0.00091979756636593,0.00091979715851245,-0.00091979752752867,0.0009197971156158,-0.0009197976065143,0.00091979711405962,-0.00091979739464902,0.00091979722224296,-0.00092548296839853,0.00092548300987773,-0.00092548340544109,0.00092548276647443,-0.00092548325070398,0.0009254827963348,-0.00092548332804985,0.00092548281716709,-0.00059082276381497,0.00059082340775232,0.69871028834109,128566,2924,0.0038392235622913,0.0048906699603996,0.0030607926671616,25.392869953527,-5.2857040371785e-05,-5.2857040371785e-05,-5.2857040371785e-05,3679936.5585356,0.011861630730389
30791759,0.73010049097213,0.012312645168414,0.004094612632026,0.0047089263606277,0.0035091061757601,-0.00093400729397606,0.00093401082628455,1.9565532107013e-09,1.569606093023e-09,1.5066226255953e-09,2.1813098930389e-09,-0.00040497003469844,0.00040497447782628,-0.00086355545019556,0.00086355973411601,-0.00086355532808416,0.00086355983383567,-0.00040497029526783,0.00040497427090676,-0.00040497128092999,0.00040497326984004,-0.00086355601649691,0.00086355934656116,-0.00086355633962437,0.00086355899300769,-0.0010992737469566,0.0010992771764387,-0.0010992739342227,0.0010992769979507,-0.0010992735598785,0.001099277306625,-0.0010992736355082,0.0010992771967823,-0.00095038143901954,0.00095038538784708,-0.00095038168948511,0.00095038523564911,-0.00095038149319969,0.00095038527903363,-0.00095038200291632,0.00095038471238754,-0.00040497014089945,0.00040497428664691,1.5905090161002e-09,5.0911692159222e-10,1.0965947988993e-09,9.5200005375772e-10,-0.0011918204565282,0.0011918225251976,-0.0011883430626693,0.001188345213507,-0.0012059985265814,0.0012060019029286,-0.0012059995953737,0.0012060005128313,-0.0011453734393713,0.0011453759990439,-0.0011453735208245,0.0011453759018443,-0.0011453738770007,0.0011453755014162,-0.0011453738488868,0.0011453755160688,-0.0011883432169979,0.0011883450216339,-0.0011883431979252,0.0011883449859533,-0.0012059986763837,0.0012060017689631,-0.0012059995377118,0.0012060005401746,-0.001188342857703,0.0011883455223568,-2.7810532179066e-10,-1.5172809348001e-10,-0.00074362850492616,0.00074362809328552,-3.473287593439e-10,-7.3150029797501e-11,-0.00059746108701879,0.00059746046533165,-0.00054675109116747,0.00054675122771573,-0.00054675137662766,0.00054675101016462,-0.00059746132277762,0.00059746037672451,-0.0005974609772996,0.00059746050830782,-0.0005467518027264,0.0005467509226318,-0.00054675145868387,0.00054675097750528,-0.00093075932783139,0.00093075889699235,-0.00093075926446228,0.00093075885582489,-0.00093075934964519,0.00093075886286436,-0.00093075916766517,0.00093075893003796,-0.00093684448434942,0.0009368443854289,-0.00093684480928937,0.00093684417418453,-0.00093684468354227,0.00093684414498808,-0.0009368447278573,0.00093684417605626,-0.00059746059814762,0.00059746091487628,0.72242422972006,128566,2924,0.0038860853600539,0.0049528914142491,0.0030948122908118,25.854558877888,-4.9163528976893e-05,-4.9163528976893e-05,-4.9163528976893e-05,3688319.028176,0.012006473561409
30991759,0.73908852949834,0.012461166057996,0.00414442153042,0.0047689993675105,0.0035477451600651,-0.00094770948794641,0.00094771250276672,1.7446993465002e-09,1.2710416851813e-09,2.3597805880582e-09,7.7735136800813e-10,-0.00041084134573353,0.00041084266785054,-0.00087643405586395,0.00087643568441628,-0.00087643403473816,0.00087643564386561,-0.00041083931906201,0.00041084476735543,-0.00041084008703026,0.00041084400609022,-0.00087643251593708,0.00087643744919962,-0.00087643274936437,0.00087643716353131,-0.0011154698678839,0.0011154735286767,-0.0011154700568588,0.0011154733537445,-0.0011154703801408,0.0011154729405196,-0.0011154705184878,0.0011154727704115,-0.00096462811809552,0.00096463098678878,-0.00096462857691254,0.00096463067005223,-0.0009646275176525,0.00096463154280022,-0.0009646280359762,0.000964630999376,-0.0004108410908258,0.00041084283009428,6.8935955159772e-10,1.7840891975938e-09,1.2583320401729e-09,1.1415673508422e-09,-0.0012097666568175,0.0012097690778076,-0.0012055208688062,0.0012055227842028,-0.0012249936927823,0.0012249952033363,-0.0012249925627451,0.0012249960838662,-0.0011627414738411,0.0011627436281023,-0.0011627415129158,0.0011627435671419,-0.0011627411876478,0.0011627438882957,-0.001162741175554,0.0011627438818085,-0.001205520342626,0.0012055232995062,-0.0012055204011194,0.0012055231846466,-0.0012249937417181,0.0012249951651359,-0.0012249925799105,0.0012249960161386,-0.0012055208112006,0.0012055229743269,-2.381628480985e-10,-1.8936636176888e-10,-0.00075390518093597,0.00075390477358292,-3.3373871056938e-10,-7.3650896175604e-11,-0.00060619648073261,0.00060619625138884,-0.00055471393415958,0.00055471395617032,-0.00055471411173264,0.00055471386605852,-0.00060619676544987,0.00060619609365576,-0.00060619665476679,0.00060619598477562,-0.00055471455529473,0.00055471378178575,-0.00055471427921343,0.0005547137636799,-0.00094407891290099,0.00094407848323062,-0.00094407882064401,0.00094407846124803,-0.00094407892693511,0.0009440784488874,-0.00094407878137887,0.00094407847445323,-0.00095088269383331,0.00095088241700275,-0.0009508828717882,0.00095088241312306,-0.0009508828329543,0.00095088227832577,-0.00095088285436928,0.00095088233236001,-0.00060619632652435,0.00060619628319021,0.74699165764284,128566,2924,0.0039430189927155,0.005027249128013,0.0031375479330498,27.172126049786,-3.8622991601712e-05,-3.8622991601712e-05,-3.8622991601712e-05,3704682.592416,0.012182640888247
31191759,0.74852803566831,0.012624261800687,0.0041988607742533,0.0048351917038083,0.0035902093226251,-0.000962232836221,0.00096223560520873,1.5440295290313e-09,1.2292548831218e-09,2.7161040955314e-09,1.6087862673897e-10,-0.0004168116859839,0.00041681228065964,-0.00089048685188483,0.00089048710506623,-0.00089048668285123,0.00089048724132244,-0.00041680880033836,0.0004168151666706,-0.00041680976948479,0.00041681419168032,-0.00089048422426509,0.00089048993744805,-0.00089048454062477,0.00089048958681043,-0.0011325496334911,0.0011325533629149,-0.0011325498108717,0.0011325531967897,-0.0011325504973059,0.0011325524081199,-0.0011325505439641,0.0011325523248698,-0.00097995548532827,0.00097995750689053,-0.0009799556502245,0.00097995746416878,-0.00097995443539631,0.00097995850629446,-0.00097995490219338,0.00097995797957223,-0.00041681191771718,0.00041681195222929,2.3348892842645e-10,2.4333125428545e-09,1.3489773042576e-09,1.2134036778211e-09,-0.0012289910320966,0.001228993644971,-0.0012240705763591,0.0012240721448254,-0.0012452915338032,0.0012452922752856,-0.0012452894430167,0.0012452941365979,-0.0011812021268879,0.0011812041782448,-0.0011812022102061,0.0011812040765084,-0.0011812015283346,0.0011812047682013,-0.0011812014810972,0.001181204797586,-0.0012240696360627,0.0012240730241504,-0.0012240696386727,0.0012240730190823,-0.0012452917001014,0.0012452920949335,-0.001245289340922,0.001245294187337,-0.0012240703482794,0.0012240724110172,-3.2737579304087e-10,-1.1202059854798e-10,-0.00076471291427231,0.00076471249007281,-3.2209046913851e-10,-1.1701795320207e-10,-0.00061549907165486,0.0006154982542008,-0.00056326289169786,0.00056326299596743,-0.00056326325506071,0.00056326272702072,-0.00061549905552668,0.00061549821267599,-0.00061549877646371,0.00061549830770811,-0.0005632635211195,0.00056326268843341,-0.0005632632015787,0.00056326274869662,-0.00095810692987653,0.00095810649519033,-0.00095810688925338,0.00095810640066601,-0.00095810692723339,0.00095810647082279,-0.00095810675950276,0.00095810650762288,-0.00096600122871304,0.00096600121734602,-0.00096600169407987,0.00096600092920508,-0.00096600150610743,0.00096600092763138,-0.00096600148661548,0.00096600101844406,-0.00061549840713003,0.00061549877512452,0.78083050088612,128566,2924,0.0040033674160881,0.0051068935121681,0.0031824926468857,28.436134552913,-2.8510923576697e-05,-2.8510923576697e-05,-2.8510923576697e-05,3714605.384049,0.012369885992291
31391759,0.75810493200397,0.012783450950358,0.0042521155359619,0.004899908770623,0.0036314266437733,-0.00097558990975795,0.0009755928393007,1.5701899977734e-09,1.3622492289858e-09,2.3577285959804e-09,6.9118756892951e-10,-0.00042069125076544,0.00042069322834531,-0.00090282604163595,0.00090282722678168,-0.00090282577124237,0.00090282749056666,-0.00042068931298805,0.00042069512217271,-0.00042069043416437,0.00042069397872573,-0.00090282418595135,0.00090282925751959,-0.00090282457159051,0.00090282885242371,-0.001148689977067,0.00114869355942,-0.0011486901398029,0.0011486934032121,-0.0011486905748816,0.0011486928711384,-0.0011486905523972,0.0011486928475128,-0.00099404628866264,0.00099404857802568,-0.00099404625468211,0.00099404870685796,-0.0009940454445882,0.00099404935219212,-0.0009940458662769,0.0009940488308481,-0.00042069182175496,0.00042069257286613,5.717529608101e-10,2.0198736780692e-09,1.3144764342943e-09,1.1642791788938e-09,-0.0012472372375877,0.0012472397849162,-0.0012415820138325,0.0012415836274074,-0.0012646030686677,0.0012646045419794,-0.001264601766866,0.0012646055897846,-0.0011986541947112,0.0011986564722585,-0.0011986543035574,0.0011986563396732,-0.0011986538614152,0.0011986567850474,-0.0011986537898853,0.0011986568371958,-0.0012415812819006,0.0012415842646443,-0.0012415812297024,0.0012415843361219,-0.0012646032979231,0.0012646042895118,-0.0012646016069857,0.0012646057083517,-0.0012415816560052,0.0012415839653166,-3.8944565743615e-10,-5.8503666947986e-11,-0.00077425727507436,0.00077425683957769,-3.3000211454795e-10,-1.3275637548588e-10,-0.00062284692643089,0.00062284573472707,-0.00057003856834971,0.00057003875760412,-0.00057003905325419,0.00057003836360654,-0.00062284674733897,0.00062284574482049,-0.00062284634328507,0.0006228459812331,-0.00057003923971163,0.00057003832855527,-0.00057003888030081,0.00057003844566907,-0.00097118887979027,0.00097118843004932,-0.00097118886079115,0.00097118829073826,-0.00097118886214996,0.00097118841983043,-0.00097118866710182,0.00097118846896111,-0.00097970556565542,0.00097970574975345,-0.0009797062173342,0.00097970524812483,-0.00097970593423869,0.00097970533154974,-0.00097970589419044,0.00097970544607183,-0.00062284592364184,0.00062284660061683,0.75166471045839,128566,2924,0.0040588787394916,0.0051824766492011,0.0032221906057489,29.180750746915,-2.255399402468e-05,-2.255399402468e-05,-2.255399402468e-05,3714840.9484226,0.012542848708723
31591759,0.76733036767365,0.01293027570191,0.0043014379091197,0.0049595401558253,0.0036692976369648,-0.00098664006121205,0.00098664354668913,1.6081119579894e-09,1.8758898152509e-09,1.3759091255677e-09,2.266682129858e-09,-0.00042276635856911,0.00042277291719325,-0.00091246618022086,0.00091246998200945,-0.00091246544835586,0.00091247077821101,-0.00042276739050338,0.00042277186926727,-0.00042276910709021,0.00042277008379034,-0.00091246648305269,0.00091246983046033,-0.00091246709662935,0.00091246923360618,-0.0011624461591871,0.001162449396638,-0.0011624462631556,0.0011624492830296,-0.0011624460396368,0.0011624494367537,-0.0011624457234261,0.0011624496782595,-0.0010056022135733,0.0010056051222192,-0.0010056013228261,0.0010056060042179,-0.0010056019072298,0.00100560535437,-0.0010056021675565,0.0010056049450197,-0.00042276842370415,0.00042277083249534,1.4527007121669e-09,8.3927257156375e-10,1.2094662006966e-09,9.7146745698309e-10,-0.0012626820228298,0.0012626842960254,-0.0012560186329051,0.0012560201823151,-0.0012810287325952,0.0012810323037414,-0.0012810297829764,0.0012810309733764,-0.001213584895658,0.0012135877302727,-0.0012135851345874,0.0012135874362652,-0.0012135853385007,0.0012135872299204,-0.0012135851709945,0.0012135873653754,-0.0012560185002345,0.0012560202534243,-0.001256018134962,0.0012560205867054,-0.0012810293453853,0.0012810317251421,-0.0012810293291429,0.0012810314340937,-0.0012560178370509,0.0012560209660559,-6.4934311693248e-10,1.6726090263983e-10,-0.00078177281670431,0.00078177234997474,-3.3935982526914e-10,-1.7466000612343e-10,-0.00062808622940911,0.00062808343766062,-0.00057472402929998,0.00057472465019012,-0.00057472500491864,0.00057472372345081,-0.00062808556156034,0.00062808391227768,-0.0006280845821909,0.00062808476719848,-0.00057472499703802,0.00057472383925956,-0.00057472443375305,0.00057472418099119,-0.00098207445650201,0.00098207394983429,-0.00098207455330537,0.00098207366400411,-0.00098207438846061,0.00098207399381217,-0.00098207408245466,0.00098207413182188,-0.00099072013497124,0.00099072112605031,-0.00099072158781496,0.00099071973775161,-0.00099072091737342,0.00099072017456362,-0.0009907207700095,0.00099072040347698,-0.00062808379349617,0.0006280858378481,0.71981900801813,128566,2924,0.0041048061280195,0.0052464465154113,0.003253458169163,29.08538769319,-2.3316898454476e-05,-2.3316898454476e-05,-2.3316898454476e-05,3710470.2451412,0.012685835632356
31791759,0.77603255263252,0.013061431591806,0.0043457241182463,0.0050126858129591,0.0037030216606006,-0.00099604260241848,0.00099604647051659,2.1197463101906e-09,1.7405328355343e-09,7.9856737578542e-10,3.248576337164e-09,-0.0004239379354922,0.0004239442913136,-0.00092007417445931,0.00092008059724356,-0.00092007409885059,0.0009200806728055,-0.00042393988475663,0.00042394230038384,-0.00042394071852873,0.00042394146018839,-0.00092007648821968,0.00092007841219124,-0.0009200768051282,0.00092007807725953,-0.0011744294164969,0.0011744325484187,-0.001174429562387,0.001174432406641,-0.0011744286234386,0.0011744332823607,-0.0011744286810811,0.0011744331639681,-0.0010153015741755,0.0010153065223747,-0.0010153018867977,0.0010153062572034,-0.0010153023232565,0.0010153057414124,-0.0010153027202099,0.0010153052707303,-0.00042393784828683,0.00042394430075558,2.3721252820245e-09,-3.9001795733677e-10,1.0478043792366e-09,8.3987535138453e-10,-0.0012759128510354,0.0012759148296768,-0.0012679813909225,0.0012679838703713,-0.0012952161467209,0.0012952209979836,-0.0012952187182602,0.0012952180171135,-0.00122657698026,0.001226580038755,-0.0012265770469061,0.0012265799264425,-0.0012265779330792,0.0012265789937615,-0.0012265779240384,0.0012265789850698,-0.0012679819870844,0.0012679831628647,-0.0012679820938029,0.0012679830769095,-0.0012952161797755,0.0012952209135787,-0.0012952187950951,0.001295217949939,-0.0012679810933441,0.0012679841696495,-3.1272903422614e-10,-1.2951725157768e-10,-0.00078799869820192,0.00078799827097129,-3.5980207036542e-10,-9.8985304642257e-11,-0.00063203699917497,0.00063203645229537,-0.0005781343936641,0.00057813446100827,-0.00057813466899901,0.0005781342403774,-0.00063203704883632,0.00063203628314722,-0.00063203693807059,0.00063203621687369,-0.00057813498972082,0.00057813409113619,-0.00057813469966431,0.00057813412992237,-0.00099144078809102,0.0009914403111837,-0.00099144068322578,0.00099144022036579,-0.00099144074999189,0.00099144032291284,-0.00099144057751109,0.00099144032218404,-0.00099973578191472,0.00099973573910648,-0.00099973614548444,0.00099973546742552,-0.00099973599108297,0.00099973539649504,-0.00099973598844788,0.00099973548155418,-0.00063203660530202,0.00063203678551777,0.68197346654472,128566,2924,0.0041438836437907,0.0053012412410273,0.0032793649387013,28.640732741344,-2.6874138069245e-05,-2.6874138069245e-05,-2.6874138069245e-05,3709202.2350908,0.012807180756964
31991759,0.78442676346828,0.013200668259211,0.0043923390165264,0.0050691208179512,0.003739208424733,-0.0010064840175312,0.001006487945942,2.050657912779e-09,1.8682200423513e-09,8.2263989203363e-10,3.288080477222e-09,-0.0004272244257713,0.00042723164876923,-0.00092980758642528,0.00092981386579277,-0.00092980728114658,0.00092981415568963,-0.0004272266324574,0.00042722944934235,-0.00042722782765891,0.00042722825266885,-0.00092980977159818,0.00092981182406218,-0.0009298101617818,0.00092981139901126,-0.0011870392145905,0.0011870423951721,-0.0011870393606149,0.001187042259193,-0.0011870384742126,0.0011870430780396,-0.0011870384121849,0.0011870430814167,-0.0010263641082145,0.0010263687297281,-0.0010263640386952,0.0010263688678666,-0.0010263646725811,0.0010263681416371,-0.001026365085851,0.00102636768348,-0.00042722512425671,0.00042723087471507,2.3256876044872e-09,-3.4363342394066e-10,1.077768901194e-09,8.1833258614828e-10,-0.0012899987448698,0.0012900007206501,-0.0012808699338671,0.0012808722195659,-0.001310088384302,0.001310093388366,-0.0013100910865328,0.0013100902782533,-0.0012404258406944,0.0012404289420002,-0.0012404259927617,0.0012404287486891,-0.0012404268332353,0.0012404278626985,-0.0012404267756235,0.0012404278996573,-0.001280870475003,0.0012808716179286,-0.0012808704777317,0.0012808715952636,-0.0013100886710525,0.0013100930684598,-0.001310090961656,0.0013100904151885,-0.0012808694932099,0.0012808727391928,-4.1601924645713e-10,-2.6681096146122e-11,-0.00079540964418334,0.00079540921956753,-3.5648973275543e-10,-8.9529796937189e-11,-0.00063834905120667,0.0006383478188807,-0.00058364977996779,0.00058365012845064,-0.00058365030677113,0.00058364965509425,-0.00063834895991569,0.00063834788967339,-0.00063834852302785,0.00063834812409307,-0.00058365059011904,0.00058364960308629,-0.00058365018092867,0.0005836497431073,-0.0010014991992531,0.0010014987153237,-0.0010014991481735,0.0010014985623376,-0.0010014991521582,0.0010014987338191,-0.0010014989189645,0.0010014987869806,-0.0010101323611059,0.0010101326961214,-0.0010101331044438,0.0010101320571916,-0.001010132779261,0.0010101321268529,-0.0010101327337448,0.0010101322664152,-0.00063834796651385,0.00063834885755885,0.74979524823536,128566,2924,0.0041872658556771,0.0053595754883067,0.003310190545244,28.568213893567,-2.7454288851462e-05,-2.7454288851462e-05,-2.7454288851462e-05,3713229.5198573,0.012941459799173
32191759,0.79259835599786,0.01333884059939,0.0044384639847195,0.0051252296066093,0.0037751470080615,-0.0010169828801422,0.0010169866830489,2.0730547873345e-09,1.7228014013939e-09,1.1225544669669e-09,2.8548516180368e-09,-0.00042985182512057,0.0004298575251651,-0.00093972687430847,0.00093973250936502,-0.00093972678497295,0.00093973259098452,-0.00042985314075316,0.00042985624972521,-0.00042985401787971,0.00042985535841223,-0.00093972850643807,0.00093973104960619,-0.00093972879333353,0.00093973072737886,-0.0011997668637422,0.0011997701559547,-0.001199767005627,0.0011997700248034,-0.0011997663014343,0.0011997706503793,-0.0011997663472473,0.0011997705402066,-0.0010376798198054,0.0010376844122383,-0.0010376800698944,0.0010376842118236,-0.0010376803101012,0.0010376838964041,-0.0010376807209878,0.001037683434635,-0.00042985186063883,0.00042985742627111,2.0158706538882e-09,6.5612991156394e-11,1.1207064841862e-09,8.6880767181612e-10,-0.0013044805651577,0.0013044826343516,-0.0012944199008202,0.0012944222115804,-0.0013253575072606,0.001325361733536,-0.0013253593542795,0.0013253595239412,-0.0012543936612636,0.001254396560917,-0.0012543937532469,0.0012543964222111,-0.001254394372695,0.0012543957755397,-0.001254394364881,0.0012543957583852,-0.0012944202266497,0.001294421865763,-0.0012944203603791,0.0012944216752912,-0.0013253576393774,0.0013253616032241,-0.0013253593941042,0.0013253594950639,-0.0012944196428131,0.0012944225795181,-3.3791667976322e-10,-1.0586911994385e-10,-0.00080280732616148,0.00080280690349867,-3.7292994269753e-10,-6.9954867583983e-11,-0.00064438658986125,0.00064438602257143,-0.00058901106541772,0.00058901124475623,-0.00058901137760073,0.0005890109874569,-0.00064438670748556,0.00064438590569626,-0.00064438657408536,0.0006443858253091,-0.00058901176577907,0.00058901084848163,-0.00058901144843844,0.00058901088784313,-0.001011727890928,0.0010117273964762,-0.0010117277673147,0.0010117273004617,-0.0010117278351337,0.00101172741712,-0.0010117276446326,0.0010117274197408,-0.001020814246975,0.0010208142856157,-0.0010208146824504,0.0010208139578785,-0.0010208145073295,0.0010208138337155,-0.0010208144645818,0.0010208139750781,-0.00064438613679615,0.00064438642281229,0.76436440095948,128566,2924,0.0042308944908982,0.0054195443695484,0.0033409631526935,28.656476550885,-2.674818759292e-05,-2.674818759292e-05,-2.674818759292e-05,3706535.3907583,0.013077612469694
32391759,0.80063625564677,0.013477815794445,0.0044847512260745,0.0051817341783847,0.0038113303899857,-0.0010278078975809,0.0010278115013318,1.9210805531166e-09,1.678335623734e-09,1.5056879314143e-09,2.2589675816792e-09,-0.00043265785355564,0.00043266279759874,-0.00095015035675988,0.00095015467492499,-0.00095015012672955,0.00095015489809034,-0.00043265828650993,0.00043266235750526,-0.00043265937044884,0.00043266126734184,-0.00095015091238021,0.0009501542837965,-0.00095015126816888,0.00095015389085595,-0.0012127850836783,0.0012127885047158,-0.0012127852302898,0.0012127883725261,-0.0012127848726453,0.0012127886358432,-0.0012127848485061,0.0012127885961506,-0.0010493970453761,0.0010494008918521,-0.0010493970770349,0.0010494009189191,-0.0010493971008225,0.0010494008252277,-0.0010493975243355,0.0010494003599536,-0.00043265829943169,0.00043266227129236,1.5922519888535e-09,6.3066053575354e-10,1.1921869726828e-09,9.2064389313749e-10,-0.0013193884952724,0.0013193907019683,-0.0013084651419574,0.0013084671376768,-0.0013410170708557,0.0013410205883195,-0.0013410180616126,0.0013410192407971,-0.0012687075627613,0.0012687103315479,-0.0012687077009637,0.0012687101538504,-0.0012687079982179,0.0012687098404548,-0.0012687079592035,0.0012687098563095,-0.0013084651081263,0.0013084671245798,-0.0013084651978005,0.0013084670170638,-0.0013410173163791,0.0013410203137729,-0.0013410179904138,0.0013410193204275,-0.0013084647594477,0.0013084675890301,-3.9454723275728e-10,-4.6537577154551e-11,-0.00081049455564975,0.00081049413310119,-3.6926269768339e-10,-7.6096601892959e-11,-0.00065069034948689,0.00065068937802218,-0.00059475231913738,0.00059475263195296,-0.00059475278877849,0.00059475222578941,-0.00065069030143156,0.00065068933203003,-0.00065068999927905,0.00065068943550531,-0.00059475309337415,0.00059475211453423,-0.00059475272256609,0.00059475222351172,-0.001022263640111,0.0010222631494082,-0.0010222635534924,0.0010222630053079,-0.0010222635801006,0.0010222631675144,-0.0010222633570889,0.0010222631973619,-0.0010319570513453,0.0010319573175459,-0.0010319577199263,0.0010319567801207,-0.0010319574280417,0.0010319567510378,-0.0010319573735245,0.001031956901881,-0.00065068947876059,0.00065069015698469,0.78118729842972,128566,2924,0.0042758785424796,0.0054812728033839,0.0033729387479649,28.932600603348,-2.4539195173212e-05,-2.4539195173212e-05,-2.4539195173212e-05,3699668.7926319,0.013218158915732
32591759,0.80875499139079,0.013609919286631,0.004528978643601,0.0052353994774204,0.00384554116561,-0.0010391562122999,0.0010391593770061,1.8414213740322e-09,1.320560061326e-09,2.1873760118996e-09,1.1052368507435e-09,-0.00043531612723743,0.00043531811414311,-0.00096047173419713,0.00096047402145252,-0.00096047174825466,0.00096047401077415,-0.00043531455337915,0.00043531950106256,-0.00043531523541631,0.00043531885874613,-0.00096047067843011,0.00096047526144207,-0.0009604708981125,0.0009604749969992,-0.0012265747776774,0.0012265784104725,-0.0012265749574126,0.0012265782512219,-0.0012265750979047,0.0012265779959572,-0.0012265752466195,0.0012265777883302,-0.0010614758846265,0.0010614791636273,-0.0010614764256152,0.0010614787493094,-0.0010614755492412,0.0010614795249139,-0.0010614760712131,0.0010614790067714,-0.00043531584560239,0.00043531823071862,1.2701399509199e-09,1.1414274232934e-09,1.3731295792457e-09,9.2048112710988e-10,-0.0013349384346456,0.0013349408076903,-0.0013230082195085,0.0013230100820886,-0.0013574099925664,0.0013574127205089,-0.0013574099132158,0.0013574123367824,-0.0012836781859674,0.0012836808339446,-0.0012836783119921,0.0012836806650206,-0.001283678282659,0.0012836806716462,-0.0012836783882612,0.0012836805689357,-0.0013230077204561,0.0013230105856308,-0.0013230082267954,0.0013230101450434,-0.0013574100593904,0.0013574125351865,-0.0013574101597058,0.0013574122327456,-0.0013230079514574,0.0013230106262566,-2.786079588379e-10,-1.9658471802695e-10,-0.00081861910427638,0.0008186186447885,-2.8318325765542e-10,-1.8132588327774e-10,-0.0006567277327883,0.00065672722171487,-0.00060042990848333,0.00060042976886145,-0.00060043011595591,0.00060042957027442,-0.00065672751849876,0.00065672715631745,-0.00065672770266317,0.00065672690210253,-0.00060043028068979,0.00060042960507045,-0.00060043008450205,0.00060042960851707,-0.0010335640965999,0.0010335636525882,-0.0010335640101523,0.0010335635087479,-0.0010335640598232,0.0010335636370593,-0.0010335639705475,0.0010335635264591,-0.001043384546043,0.0010433842748223,-0.0010433847895184,0.0010433842135944,-0.0010433846197027,0.0010433840387252,-0.0010433846168286,0.0010433840903496,-0.0006567275117038,0.00065672735116796,0.73524963623548,128566,2924,0.0043230358391957,0.0055456565126818,0.003406731710491,29.682019923438,-1.8543840612497e-05,-1.8543840612497e-05,-1.8543840612497e-05,3700497.771565,0.013365465977161
32791759,0.81627623453679,0.013723506939833,0.0045672846051868,0.0052814460720205,0.0038747762626256,-0.0010466937752094,0.0010466973985446,1.9722011924309e-09,1.6468215038805e-09,1.3348963629795e-09,2.4504961754651e-09,-0.00043536093156456,0.00043536598659295,-0.00096641991273644,0.00096642470889591,-0.00096641980284413,0.00096642486419246,-0.00043536158372629,0.00043536520473527,-0.00043536256286301,0.00043536420954206,-0.00096642085685694,0.00096642386350568,-0.00096642120086981,0.00096642352343186,-0.0012363634927146,0.0012363668173651,-0.0012363636427843,0.0012363666793248,-0.0012363631255814,0.0012363670934379,-0.0012363631574354,0.0012363669834417,-0.0010693563073127,0.0010693604554458,-0.0010693564698452,0.0010693603089312,-0.0010693565643533,0.0010693601867947,-0.0010693569762016,0.0010693596855134,-0.00043536110265902,0.00043536572545909,1.9017363674947e-09,2.2882671720674e-10,1.1733061071862e-09,8.191557394721e-10,-0.0013458602679253,0.0013458623947944,-0.0013326553933709,0.0013326574495518,-0.0013691210613488,0.0013691251255463,-0.0013691226424555,0.0013691231293686,-0.0012944230811045,0.0012944260491499,-0.0012944232126697,0.001294425881659,-0.0012944237291996,0.0012944253326512,-0.0012944237401832,0.0012944253018579,-0.0013326554328162,0.0013326572481466,-0.0013326557811939,0.0013326570192255,-0.0013691212209342,0.0013691248801906,-0.0013691226750015,0.0013691231118347,-0.0013326549282013,0.0013326578346335,-3.7405779355191e-10,-9.3065788242288e-11,-0.00082339283045951,0.00082339237301999,-3.5604658971134e-10,-1.493572151146e-10,-0.00065935415166515,0.0006593532722148,-0.00060271253438114,0.00060271260843181,-0.00060271295219493,0.00060271227294468,-0.00065935394830421,0.00065935311586741,-0.00065935378774407,0.00065935310087364,-0.00060271307462953,0.00060271214983772,-0.00060271278875033,0.00060271220652931,-0.00104117650626,0.0010411760244919,-0.0010411764105004,0.0010411758564481,-0.0010411764451193,0.0010411760400838,-0.0010411762703112,0.0010411759907175,-0.0010505285476229,0.0010505286451651,-0.0010505290993411,0.0010505282611992,-0.0010505287996742,0.0010505281370734,-0.0010505287749074,0.0010505283011883,-0.00065935349716108,0.00065935379630172,0.68274153136661,128566,2924,0.0043543656325905,0.0055908685302615,0.003426602508522,28.986563980717,-2.4107488154265e-05,-2.4107488154265e-05,-2.4107488154265e-05,3691902.1686049,0.013463208586628
32991759,0.8233728721737,0.013835627698516,0.0046049338703905,0.0053268611919569,0.0039038326361687,-0.0010545976282889,0.0010546014189056,2.0597509926093e-09,1.7251524655558e-09,1.0809132656064e-09,2.8799762132624e-09,-0.00043704833347146,0.00043705428548815,-0.00097329227459527,0.00097329789133325,-0.00097329212629593,0.00097329804520768,-0.00043704972809612,0.00043705285240755,-0.00043705072272507,0.00043705184515867,-0.0009732938959927,0.00097329639652323,-0.00097329421920378,0.00097329604020425,-0.0012461696041851,0.0012461728736738,-0.0012461697651515,0.0012461727364915,-0.0012461690173357,0.0012461733754117,-0.0012461690531086,0.0012461732661947,-0.0010776761617592,0.0010776807008413,-0.0010776763500366,0.0010776805778636,-0.0010776766283997,0.0010776802217582,-0.0010776770896042,0.0010776797170537,-0.00043704855558526,0.00043705398613534,2.1641179947396e-09,-9.7837346489164e-11,1.1507108821018e-09,8.0773013651643e-10,-0.0013567464777923,0.0013567485461405,-0.001342225745526,0.0013422279984451,-0.0013806539833299,0.0013806585916045,-0.0013806561761045,0.0013806560071772,-0.0013052659926407,0.0013052690794795,-0.0013052661249152,0.0013052689099991,-0.0013052668365237,0.0013052681579955,-0.0013052668455258,0.0013052681297795,-0.0013422260547341,0.0013422276428576,-0.0013422263069582,0.0013422273854889,-0.0013806541862502,0.0013806583585872,-0.0013806561955253,0.0013806560030778,-0.0013422253709952,0.0013422284739268,-3.7028216865934e-10,-8.6150627102331e-11,-0.00082880459459499,0.00082880415516972,-3.5842600038779e-10,-1.0262684816031e-10,-0.00066351168423956,0.00066351086088351,-0.00060628252076564,0.00060628271241449,-0.00060628293171975,0.00060628237709115,-0.0006635116240841,0.00066351077397285,-0.00066351141502655,0.00066351075713989,-0.00060628319107016,0.00060628228172488,-0.00060628286604405,0.00060628233635158,-0.0010489314638505,0.0010489309798471,-0.0010489313522429,0.0010489308216189,-0.0010489314015228,0.0010489309910707,-0.0010489312115752,0.0010489309615093,-0.0010581274572313,0.0010581275848232,-0.0010581280254206,0.0010581271854117,-0.001058127733615,0.0010581270561108,-0.00105812770833,0.0010581272109955,-0.00066351098925942,0.0006635114279318,0.71399676681591,128566,2924,0.0043872033883824,0.0056359339670076,0.0034491176072184,28.588792033251,-2.7289663733989e-05,-2.7289663733989e-05,-2.7289663733989e-05,3694516.0960993,0.013565012209238
33191759,0.83025555577661,0.013951183199544,0.0046434986193025,0.0053737345615991,0.003933950018642,-0.0010633980103407,0.0010634016936088,2.0248181969293e-09,1.6538354837259e-09,1.3054957530597e-09,2.5405459405654e-09,-0.00043946517050451,0.00043947038643561,-0.00098158909051319,0.00098159405535209,-0.00098158896026898,0.00098159418750589,-0.00043946598094562,0.0004394695543287,-0.00043946697747967,0.00043946854625079,-0.00098159017602064,0.00098159311695323,-0.00098159049071905,0.00098159275857695,-0.0012568027993232,0.0012568061550107,-0.0012568029698199,0.0012568060140047,-0.0012568023884079,0.0012568064728783,-0.0012568024422122,0.0012568063459938,-0.0010871172526742,0.0010871215511169,-0.0010871174880298,0.0010871213790075,-0.001087117551486,0.0010871212502344,-0.001087118043915,0.0010871207305213,-0.00043946532848812,0.00043947015596797,1.9315666066719e-09,2.2856838215753e-10,1.2013814759147e-09,8.5075721859801e-10,-0.0013687610402245,0.0013687631978401,-0.0013531319913122,0.0013531341707934,-0.0013932714709476,0.0013932756172607,-0.0013932731169166,0.0013932736080551,-0.0013170207947161,0.0013170237831468,-0.0013170209262755,0.0013170236159549,-0.0013170214583153,0.0013170230516769,-0.0013170214758,0.0013170230145932,-0.0013531321311762,0.0013531340289044,-0.0013531323799091,0.0013531337346283,-0.0013932716769923,0.001393275402927,-0.0013932731556329,0.0013932735877966,-0.0013531316518611,0.0013531346660181,-3.5804965328311e-10,-9.9507514492414e-11,-0.00083509375450684,0.00083509331714318,-3.5719078969983e-10,-9.4082280245221e-11,-0.0006688169380444,0.0006688161891058,-0.00061099440303026,0.00061099459818227,-0.0006109947911769,0.00061099428588702,-0.0006688169252821,0.0006688160891902,-0.00066881672787183,0.00066881605291663,-0.00061099508832121,0.00061099419124616,-0.000610994756156,0.00061099424348673,-0.0010575162382765,0.0010575157574993,-0.0010575161180052,0.0010575156022435,-0.0010575161764681,0.0010575157627371,-0.0010575159911958,0.0010575157285805,-0.0010669525614527,0.0010669526622738,-0.0010669531036996,0.0010669522951602,-0.0010669528048579,0.001066952130806,-0.0010669527980595,0.001066952266459,-0.00066881630492063,0.00066881668921659,0.7584844431504,128566,2924,0.0044237652057217,0.0056856693154891,0.0034752772114194,28.653407192221,-2.6772742462232e-05,-2.6772742462232e-05,-2.6772742462232e-05,3694330.9641048,0.01367902888892
33391759,0.83709341119971,0.014067951822719,0.0046823790104681,0.0054211781892251,0.0039643946230262,-0.0010729660833336,0.0010729695272344,1.9231841242951e-09,1.5188761811841e-09,1.7320701940033e-09,1.8592844501951e-09,-0.00044204395232244,0.00044204771652129,-0.00099074330594649,0.00099074696301082,-0.00099074321051331,0.00099074705356905,-0.00044204363438616,0.00044204800568577,-0.00044204458275817,0.00044204705339901,-0.00099074332826354,0.00099074709663619,-0.0009907436241928,0.00099074675270223,-0.0012682709721702,0.0012682744565586,-0.0012682711456917,0.0012682743173357,-0.0012682709044593,0.0012682744140037,-0.0012682709795951,0.0012682742620825,-0.0010974519761975,0.0010974557506101,-0.0010974522738052,0.0010974554943271,-0.0010974519785831,0.0010974557993684,-0.0010974524837373,0.0010974553034887,-0.00044204399597826,0.00044204759182592,1.483513964902e-09,8.5205471596036e-10,1.2838857034672e-09,9.2152257388263e-10,-0.0013818505374224,0.0013818528623614,-0.001365241754187,0.0013652437665422,-0.0014069932069571,0.0014069964444134,-0.0014069937798905,0.0014069955360537,-0.0013296617186483,0.0013296645186482,-0.0013296618430746,0.0013296643586857,-0.0013296620316351,0.0013296641549734,-0.0013296620622383,0.001329664104206,-0.0013652415318694,0.0013652439854062,-0.0013652418221438,0.0013652436604425,-0.0014069933867907,0.0014069962495845,-0.001406993849501,0.0014069954802797,-0.001365241431368,0.0013652442322647,-3.4819324568283e-10,-1.1409924468095e-10,-0.000842020707052,0.00084202026461824,-3.4993167232578e-10,-1.0753598242676e-10,-0.0006745251486471,0.00067452448310135,-0.00061625507385507,0.00061625520581233,-0.00061625542946755,0.00061625492885984,-0.00067452513539738,0.00067452437466447,-0.00067452499260107,0.00067452427632165,-0.00061625570751027,0.00061625484534086,-0.00061625539913112,0.00061625487906333,-0.0010669396469563,0.0010669391667192,-0.0010669395229661,0.0010669390118392,-0.0010669395820722,0.0010669391711419,-0.001066939414089,0.0010669391190623,-0.0010767107949565,0.0010767108545914,-0.0010767113068008,0.0010767105465228,-0.0010767109956733,0.0010767103200533,-0.0010767109980949,0.0010767104558851,-0.00067452460920158,0.00067452486259816,0.77139746514001,128566,2924,0.0044635196486003,0.0057398510905324,0.0035040883180385,29.140314557181,-2.2877483542551e-05,-2.2877483542551e-05,-2.2877483542551e-05,3691848.2027711,0.013803495034731
33591759,0.84378558523489,0.014184339122701,0.0047210636236141,0.00546852798481,0.0039947475142772,-0.001082024385212,0.001082027827684,1.8828017917124e-09,1.5598669828256e-09,1.7718069675134e-09,1.8220196141103e-09,-0.00044407988664466,0.00044408377737006,-0.0009994794747104,0.00099948298005397,-0.00099947929471018,0.00099948313006033,-0.00044407949522091,0.00044408419973787,-0.0004440806611693,0.00044408304053401,-0.00099947932813222,0.00099948324845632,-0.00099947969654086,0.00099948283420799,-0.0012791843719221,0.0012791878653154,-0.0012791845425279,0.0012791877336586,-0.0012791843408749,0.0012791877740944,-0.0012791843596225,0.0012791876769919,-0.0011073021538485,0.0011073057416447,-0.0011073022778158,0.001107305607958,-0.0011073020572706,0.0011073058979252,-0.0011073025418361,0.00110730540861,-0.00044408013108252,0.00044408344879622,1.3440730370796e-09,1.0019272582218e-09,1.2511030448372e-09,9.4109621133321e-10,-0.0013944458581055,0.0013944482089413,-0.0013768997502204,0.0013769016860008,-0.0014201921335463,0.0014201951617402,-0.0014201925031032,0.0014201945065992,-0.0013417688199797,0.0013417715824567,-0.0013417689561098,0.0013417714252451,-0.0013417690679605,0.0013417713061689,-0.0013417690447803,0.0013417712982171,-0.0013768994619746,0.0013769018389153,-0.0013768996690471,0.0013769016526666,-0.0014201923569425,0.0014201949062021,-0.0014201924477293,0.0014201944631051,-0.0013768992882283,0.0013769020299159,-3.8552609482505e-10,-6.3643648737571e-11,-0.00084844428622649,0.00084844385335801,-3.784719502248e-10,-8.8600840571683e-11,-0.00067969405519366,0.00067969324469243,-0.00062106312081634,0.00062106336035254,-0.00062106359369468,0.00062106304097363,-0.00067969411795411,0.00067969311397283,-0.0006796937113004,0.00067969315364912,-0.00062106385884175,0.00062106288328356,-0.0006210634749767,0.00062106294064026,-0.0010758463154142,0.0010758458300921,-0.0010758461955583,0.0010758456596329,-0.0010758462434789,0.0010758458405377,-0.0010758460319963,0.0010758458311175,-0.0010860259888183,0.0010860262440561,-0.0010860266717033,0.0010860257849275,-0.0010860262771795,0.0010860255963938,-0.0010860262950912,0.0010860257644682,-0.00067969327462257,0.00067969379805502,0.785385579971,128566,2924,0.0045011604122154,0.0057919813962649,0.0035308092146154,29.396341146271,-2.0829270829829e-05,-2.0829270829829e-05,-2.0829270829829e-05,3683794.7995992,0.013921633843431
33791759,0.85035063442574,0.014298309825409,0.0047589546995938,0.0055149071153891,0.0040244480104259,-0.0010910047743225,0.0010910082094475,1.8798992600592e-09,1.5549716404632e-09,1.7880678757244e-09,1.7952227716178e-09,-0.00044591460673562,0.00044591849199078,-0.001008082105397,0.0010080855523482,-0.0010080819299754,0.001008085722649,-0.00044591422404758,0.0004459188302778,-0.00044591529353386,0.00044591775636686,-0.0010080819384882,0.0010080858683961,-0.0010080822800428,0.0010080854773496,-0.0012900313529142,0.001290034855488,-0.0012900315196006,0.0012900347291457,-0.0012900313315246,0.0012900347507746,-0.0012900313577685,0.0012900346399281,-0.0011170643311897,0.0011170679241865,-0.0011170644795758,0.0011170677884724,-0.0011170642496569,0.0011170680754964,-0.0011170647310154,0.001117067604436,-0.00044591488301707,0.00044591811740426,1.3713000926058e-09,1.0183600139771e-09,1.2811032643511e-09,9.6100754787908e-10,-0.0014069889041905,0.0014069912864388,-0.0013885268095035,0.0013885287686765,-0.0014333504601279,0.0014333535243892,-0.0014333508124735,0.0014333528456344,-0.0013537888482874,0.001353791631167,-0.0013537889789129,0.0013537914683959,-0.0013537890911138,0.0013537913465819,-0.0013537890874359,0.0013537913292004,-0.0013885265241128,0.0013885289982337,-0.0013885267314472,0.0013885287875081,-0.0014333506782933,0.0014333532849298,-0.0014333508124467,0.001433352844486,-0.0013885264359869,0.0013885291967545,-3.9285617276942e-10,-6.1068475907333e-11,-0.00085478710999805,0.00085478667349369,-3.7054455715214e-10,-8.8773536522043e-11,-0.00068463638242729,0.00068463551477516,-0.00062572764763399,0.00062572789674406,-0.0006257281008051,0.00062572754495577,-0.00068463630390677,0.00068463542287814,-0.00068463606650648,0.00068463541776912,-0.00062572836756101,0.00062572742767727,-0.00062572802296532,0.00062572749085512,-0.0010847203496316,0.001084719853043,-0.0010847202297388,0.0010847196830836,-0.0010847202697475,0.0010847198682311,-0.0010847200692173,0.0010847198481036,-0.0010952665526169,0.001095266813669,-0.0010952672332119,0.0010952663398455,-0.0010952668476639,0.0010952661362444,-0.0010952668281547,0.00109526630189,-0.00068463557534396,0.00068463614427836,0.78367913099632,128566,2924,0.0045384788261199,0.0058438914743143,0.0035571949367013,29.71100929365,-1.8311925650796e-05,-1.8311925650796e-05,-1.8311925650796e-05,3674832.2960359,0.014038897523824
33991759,0.85683820256534,0.01440709907194,0.0047952443841146,0.0055591367063488,0.0040527179814768,-0.0010999704153206,0.0010999737857634,1.9150233610714e-09,1.453844310569e-09,1.8856231030968e-09,1.6271311367019e-09,-0.00044770664193794,0.0004477097131746,-0.0010163817782817,0.0010163850602988,-0.0010163817630934,0.001016385064257,-0.00044770588897404,0.00044771037531471,-0.00044770666522997,0.00044770961409396,-0.0010163814797273,0.0010163855013438,-0.0010163817184996,0.0010163852047797,-0.0013009174155418,0.0013009209426398,-0.0013009175863979,0.0013009208211459,-0.0013009174309301,0.0013009207980134,-0.0013009175565537,0.0013009205942984,-0.0011267028004647,0.0011267065100702,-0.0011267032394239,0.0011267061198128,-0.0011267027794438,0.0011267066248402,-0.001126703276169,0.0011267061769267,-0.00044770642653876,0.00044770980308624,1.4411630044006e-09,9.5784248068735e-10,1.3405629027235e-09,9.1207571883051e-10,-0.0014194393469116,0.0014194417357432,-0.0013999720953641,0.0013999741226981,-0.0014464490089238,0.0014464521103007,-0.0014464493266184,0.0014464514061651,-0.0013657780095219,0.001365780829266,-0.0013657781318993,0.0013657806829143,-0.0013657782457261,0.0013657805426418,-0.0013657783305286,0.0013657804493191,-0.0013999717393614,0.0013999744279777,-0.0013999722061504,0.0013999739932381,-0.0014464491096422,0.001446451940782,-0.0014464495132854,0.0014464512546798,-0.0013999717804192,0.001399974554216,-3.3767015076728e-10,-1.3156508459315e-10,-0.00086113840618882,0.00086113795228797,-3.2335846413835e-10,-1.4559080216674e-10,-0.00068935717683511,0.00068935664559952,-0.0006302254390098,0.00063022541330395,-0.00063022572730586,0.00063022521006985,-0.00068935705443615,0.00068935656703032,-0.00068935712164594,0.00068935627615427,-0.0006302259178942,0.00063022516969714,-0.00063022568657089,0.00063022513932946,-0.001093670092723,0.0010936696058106,-0.001093669963717,0.001093669448398,-0.0010936700083633,0.0010936696215806,-0.0010936698904863,0.00109366951892,-0.0011043406725113,0.0011043406332825,-0.0011043411099558,0.0011043404273546,-0.0011043408204024,0.0011043401174723,-0.0011043407868586,0.0011043402845832,-0.0006893568162235,0.00068935682517889,0.75679231092201,128566,2924,0.0045757337565954,0.0058954156594913,0.0035836152946031,30.173778079311,-1.4609775365513e-05,-1.4609775365513e-05,-1.4609775365513e-05,3670429.2322854,0.014155755792159
34191759,0.8631214874035,0.014510350363815,0.0048297554256123,0.0056010842882047,0.0040795106499984,-0.0011080184168824,0.0011080219652206,1.9537350198686e-09,1.5922937553864e-09,1.5890306095292e-09,2.1150919622159e-09,-0.00044918415084306,0.00044918859380715,-0.0010236419257039,0.001023646029847,-0.0010236417779922,0.0010236461815463,-0.00044918423882568,0.00044918845344464,-0.00044918530463327,0.00044918736796046,-0.0010236422760123,0.0010236458104003,-0.0010236426183279,0.0010236454245449,-0.0013107818096378,0.0013107852555914,-0.0013107819868135,0.001310785125108,-0.001310781602984,0.0013107853286865,-0.0013107816464532,0.0013107851939708,-0.0011352867429586,0.0011352906734193,-0.0011352869339681,0.0011352904798532,-0.0011352868585795,0.001135290638278,-0.001135287363813,0.0011352901477361,-0.00044918434404724,0.00044918828209993,1.6313799181104e-09,6.9360643562303e-10,1.2645339079454e-09,9.1218447821387e-10,-0.0014306519949095,0.0014306543188142,-0.0014100749468174,0.0014100770010291,-0.0014582529874743,0.0014582565660759,-0.0014582538943631,0.0014582553016508,-0.0013766938372947,0.0013766967685525,-0.0013766939725311,0.0013766966049043,-0.0013766942671139,0.0013766962878954,-0.001376694273957,0.0013766962607132,-0.0014100747992815,0.0014100770704237,-0.0014100750812784,0.0014100768155624,-0.0014582532022039,0.0014582563158631,-0.0014582539102873,0.0014582552865977,-0.0014100745468068,0.0014100774398247,-3.8754477213031e-10,-7.3527270509269e-11,-0.00086673914471346,0.00086673869982703,-3.7364310692096e-10,-9.7892743067057e-11,-0.00069341237232278,0.00069341153386139,-0.00063402600907722,0.00063402622579724,-0.00063402645527088,0.00063402588374499,-0.00069341227842843,0.00069341141615477,-0.00069341206916508,0.00069341138024914,-0.00063402669905379,0.00063402575925117,-0.00063402636927056,0.00063402580927639,-0.0011016943039929,0.0011016938064871,-0.0011016941775443,0.0011016936340138,-0.0011016942263316,0.0011016938200122,-0.0011016940297644,0.001101693786051,-0.0011123361961794,0.0011123364327478,-0.0011123368557124,0.0011123359881176,-0.0011123364558562,0.0011123357442608,-0.0011123364586082,0.0011123359092582,-0.00069341162036495,0.00069341210248312,0.74153925427567,128566,2924,0.004609173923192,0.0059418138776498,0.0036069157954945,30.313232644568,-1.3494138843455e-05,-1.3494138843455e-05,-1.3494138843455e-05,3667867.2263777,0.014260391861197
34391759,0.86923532698227,0.014610011049913,0.0048630846047935,0.0056415555013206,0.0041053709437992,-0.001116004425136,0.0011160079873775,2.0600529561786e-09,1.5003793872632e-09,1.577731502268e-09,2.1431757518049e-09,-0.00045097360471638,0.00045097702337007,-0.0010308386023559,0.001030843111612,-0.0010308388137079,0.0010308429134041,-0.00045097353105011,0.00045097707564866,-0.00045097393870314,0.00045097665661814,-0.0010308392811812,0.0010308425768175,-0.0010308394065601,0.0010308424107544,-0.001320512679316,0.0013205160872902,-0.0013205128186203,0.0013205159909642,-0.0013205123548332,0.0013205162695655,-0.0013205125551873,0.001320515962257,-0.001143765937112,0.0011437703834384,-0.0011437665954316,0.0011437696895886,-0.0011437663477119,0.0011437700359251,-0.0011437667481525,0.0011437696264976,-0.00045097272483149,0.00045097779943355,1.8387688349331e-09,4.1548970630997e-10,1.3105547137472e-09,8.0674441698242e-10,-0.0014416381219542,0.0014416403825013,-0.0014199053753647,0.0014199076917057,-0.0014697836247182,0.0014697873732291,-0.0014697847292214,0.0014697859386417,-0.001387457478443,0.0013874604564134,-0.0013874575550743,0.0013874603284905,-0.0013874579636857,0.0013874599106694,-0.0013874581148819,0.0013874597248666,-0.0014199052816277,0.0014199077790076,-0.0014199059505353,0.0014199070582561,-0.0014697836228469,0.0014697873949395,-0.0014697850968044,0.0014697855765233,-0.0014199051505405,0.0014199080218776,-3.1480005514845e-10,-1.8972305963488e-10,-0.00087239023061581,0.000872389748074,-3.3267182887328e-10,-1.7796832801419e-10,-0.0006976637878724,0.0006976638435267,-0.00063795426277326,0.00063795397802106,-0.00063795434965334,0.00063795399549793,-0.00069766382826382,0.00069766368488803,-0.00069766422239192,0.00069766298004191,-0.00063795457264811,0.0006379539411009,-0.00063795443790374,0.00063795376144783,-0.0011096500849969,0.0011096495589126,-0.001109649894734,0.0011096494354555,-0.0011096499685692,0.0011096496081959,-0.001109649908675,0.0011096494287117,-0.0011202112321883,0.0011202109195016,-0.001120211422681,0.0011202109376372,-0.0011202112410094,0.0011202104173706,-0.0011202111517379,0.0011202106866345,-0.00069766408849283,0.00069766336096239,0.73560443725864,128566,2924,0.0046423513616117,0.0059872736450951,0.0036304230253561,30.547446351981,-1.162042918415e-05,-1.162042918415e-05,-1.162042918415e-05,3670245.2362751,0.014364028210816
34591759,0.87551308175696,0.014716058313188,0.0048984202843451,0.005684663368591,0.0041329746602517,-0.0011261786599353,0.001126181971174,1.8227316048889e-09,1.4889106617425e-09,2.0095290782661e-09,1.4412050352931e-09,-0.00045477114194755,0.00045477439575553,-0.001040516193306,0.0010405189347588,-0.001040516007928,0.0010405191066013,-0.00045477020797152,0.00045477529620589,-0.0004547713093628,0.00045477415394863,-0.0010405154554961,0.0010405198197281,-0.0010405157861875,0.0010405194217458,-0.0013324573661547,0.001332460933493,-0.0013324575464607,0.001332460811488,-0.0013324575097743,0.0013324606343843,-0.0013324575409373,0.001332460508991,-0.00115457439827,0.0011545776828472,-0.00115457455569,0.0011545775609671,-0.0011545741276971,0.0011545780425078,-0.0011545746486598,0.0011545775646199,-0.00045477145914361,0.00045477395085841,1.1926598285903e-09,1.3343140608566e-09,1.3703417648821e-09,1.0146567659323e-09,-0.0014550604626882,0.0014550629833401,-0.0014321924844074,0.0014321943993732,-0.0014837161937794,0.0014837189364631,-0.001483716092885,0.0014837187416794,-0.0014005707372135,0.0014005735158382,-0.0014005708780749,0.0014005733432917,-0.001400570832073,0.0014005733843955,-0.0014005708329942,0.0014005733604234,-0.0014321920168559,0.0014321948868757,-0.0014321922468298,0.0014321945879627,-0.0014837164622681,0.0014837186732467,-0.0014837160854991,0.0014837187504467,-0.0014321921309463,0.0014321949102634,-4.1254093887185e-10,-5.1830726393651e-11,-0.00088009690202019,0.00088009645961078,-3.6899248321583e-10,-8.4791325085795e-11,-0.00070417602445431,0.00070417514578014,-0.0006440846819891,0.00064408495837096,-0.00064408514690189,0.00064408460380486,-0.00070417595104306,0.00070417510602868,-0.00070417572423403,0.00070417503820181,-0.00064408542585663,0.00064408451732677,-0.00064408507932852,0.00064408455477083,-0.0011197139821305,0.0011197134702621,-0.0011197138545277,0.001119713288964,-0.0011197138904903,0.0011197134897558,-0.001119713688491,0.0011197134594897,-0.0011304301008559,0.0011304304096606,-0.0011304308458545,0.0011304299105803,-0.0011304303999755,0.0011304296361057,-0.0011304303745669,0.0011304298321439,-0.00070417519872878,0.00070417576008633,0.76226513021249,128566,2924,0.0046846077291843,0.0060428174673564,0.0036624665828823,31.75018092314,-1.9985526148771e-06,-1.9985526148771e-06,-1.9985526148771e-06,3686907.2526446,0.014495776441579
34791759,0.88209295587713,0.014831476803354,0.0049367284197765,0.0057316982206317,0.0041630501629461,-0.0011377456576274,0.0011377486539109,1.6912473609364e-09,1.3087918775271e-09,2.5381487347984e-09,5.7615102918743e-10,-0.00045920879103388,0.00045921015853619,-0.0010518152003402,0.0010518162584281,-0.0010518150332915,0.0010518163892038,-0.00045920644592323,0.00045921251195934,-0.00045920747574092,0.0004592114698164,-0.0010518131239214,0.0010518185207344,-0.0010518134325534,0.001051818123273,-0.0013459181164975,0.0013459218336402,-0.0013459183042327,0.0013459217156558,-0.0013459186928607,0.001345921081332,-0.0013459187539882,0.0013459209279387,-0.0011669594155748,0.0011669620134532,-0.0011669596644738,0.0011669618125488,-0.0011669587277714,0.001166962819384,-0.0011669592851375,0.0011669623420717,-0.0004592089414696,0.00045920989314758,6.4337257693882e-10,2.1345987631201e-09,1.4904620523486e-09,1.1384211337805e-09,-0.0014703429654723,0.0014703457223945,-0.0014464532353151,0.0014464549901282,-0.0014995277767823,0.0014995294038657,-0.0014995263334795,0.0014995306079814,-0.0014153455992468,0.0014153481512168,-0.0014153457292209,0.0014153479952673,-0.0014153452512536,0.0014153484843133,-0.0014153452697356,0.0014153484462022,-0.0014464523479464,0.0014464559408263,-0.0014464525700349,0.0014464556091539,-0.0014995280183888,0.0014995291825372,-0.0014995263674089,0.0014995305669522,-0.0014464529450622,0.0014464555024971,-3.9883264064561e-10,-7.5719232027967e-11,-0.00088895545286937,0.00088895500288821,-3.446984299698e-10,-1.054891107321e-10,-0.0007117729790438,0.00071177213348994,-0.00065133734773695,0.00065133755248023,-0.00065133777564934,0.00065133724141176,-0.00071177292688945,0.00071177214196859,-0.00071177269280191,0.00071177204570219,-0.00065133805248902,0.00065133721416903,-0.00065133770529292,0.00065133723801021,-0.0011311526953688,0.0011311521931307,-0.0011311525750635,0.0011311520033917,-0.001131152604121,0.0011311522062105,-0.0011311524295241,0.0011311521527212,-0.0011422584286304,0.0011422586820857,-0.00114225915002,0.0011422582438518,-0.0011422586580419,0.0011422579142099,-0.0011422586697551,0.0011422580789429,-0.00071177220811133,0.00071177265776643,0.79180579704032,128566,2924,0.0047326494687432,0.0061060552508269,0.0036992968856531,33.402036833932,1.1216294671459e-05,1.1216294671459e-05,1.1216294671459e-05,3703708.1225119,0.014646079102946
34991759,0.88872818485008,0.014942368514721,0.0049736838407314,0.0057769077395455,0.0041917769344441,-0.0011479575742748,0.0011479606882239,1.8060545165684e-09,1.3109421121478e-09,2.3161087171156e-09,9.2536534290044e-10,-0.00046173067982259,0.00046173227244973,-0.0010612779025458,0.0010612798204147,-0.0010612779232751,0.0010612798085044,-0.00046172872578989,0.00046173411691142,-0.00046172952699319,0.00046173330134133,-0.0010612764811287,0.0010612813770055,-0.0010612767383439,0.0010612810620833,-0.0013581943056802,0.0013581979397213,-0.0013581944829734,0.0013581978302317,-0.001358194640354,0.0013581974184786,-0.0013581947785437,0.0013581971737979,-0.0011778713957242,0.0011778745405089,-0.0011778718563872,0.0011778740690529,-0.0011778710374253,0.0011778750197957,-0.0011778715451717,0.0011778745510492,-0.00046173034741203,0.00046173245401749,9.4320745430677e-10,1.7176026788289e-09,1.4513587911028e-09,1.0346168849291e-09,-0.0014843666865333,0.0014843693373687,-0.0014594879040651,0.0014594897834548,-0.0015141607762592,0.0015141628752431,-0.0015141598627864,0.0015141634792869,-0.0014288349526431,0.0014288376457643,-0.0014288350579371,0.0014288375142868,-0.0014288347884951,0.0014288377838128,-0.0014288348702724,0.0014288376825092,-0.0014594871169483,0.0014594904772528,-0.0014594876084835,0.0014594900325792,-0.0015141608684074,0.0015141627352682,-0.0015141600621756,0.0015141632755756,-0.0014594875723711,0.0014594901267815,-3.5182907198574e-10,-1.3335756684508e-10,-0.0008964120008379,0.00089641153202119,-3.4593902486919e-10,-1.5090165996964e-10,-0.00071738261443546,0.00071738212314911,-0.00065672978183876,0.00065672972577556,-0.00065673007545771,0.00065672955510272,-0.00071738250502407,0.00071738196427237,-0.00071738254283212,0.00071738164570009,-0.00065673024591466,0.00065672946257348,-0.00065673001352111,0.00065672941018058,-0.0011414265495144,0.0011414260425762,-0.0011414264045831,0.001141425883187,-0.0011414264526395,0.0011414260657475,-0.0011414263357298,0.0011414259546885,-0.0011525692121193,0.001152569258265,-0.0011525697264866,0.0011525690308075,-0.0011525692905076,0.0011525685509607,-0.0011525693155617,0.0011525687257355,-0.00071738227436933,0.00071738221134314,0.75495090001834,128566,2924,0.0047750741443243,0.0061640760725565,0.0037303080538076,34.467457715907,1.9739661727254e-05,1.9739661727254e-05,1.9739661727254e-05,3707401.6838251,0.014779509485807
35191759,0.89529422037938,0.015049267771481,0.0050093989749427,0.0058204634926277,0.0042194053039109,-0.0011574931368848,0.0011574965266939,1.8856623752647e-09,1.5035658003616e-09,1.847162770063e-09,1.6879183903989e-09,-0.00046419661784547,0.00046420026139531,-0.0010699144893174,0.0010699177302244,-0.001069914320802,0.0010699178938767,-0.00046419599239636,0.00046420076904847,-0.0004641971131919,0.00046419962435727,-0.0010699141266602,0.0010699181998994,-0.0010699144838648,0.0010699177738386,-0.0013697209472926,0.0013697244556774,-0.0013697211415,0.0013697243390051,-0.0013697209230279,0.0013697242970587,-0.0013697209776335,0.0013697241381208,-0.0011879314907462,0.0011879350531585,-0.0011879317046265,0.0011879348485626,-0.0011879313931102,0.00118793527235,-0.0011879319434695,0.0011879347759221,-0.00046419682706936,0.0004641998903371,1.4210702413384e-09,1.0845454024707e-09,1.3698190595562e-09,9.681087238842e-10,-0.0014974189204353,0.0014974214279041,-0.0014714735004064,0.0014714754843749,-0.001527749054819,0.0015277522434634,-0.0015277493635715,0.0015277515844627,-0.001441536904408,0.0014415398700859,-0.0014415370588121,0.0014415397026616,-0.0014415371468755,0.0014415395875193,-0.0014415371721442,0.0014415395468709,-0.0014714730816653,0.0014714757759867,-0.0014714734394249,0.00147147548055,-0.0015277492823198,0.0015277519514983,-0.0015277494052013,0.0015277515206873,-0.0014714730365567,0.001471475936213,-4.0090755305246e-10,-6.0254066349486e-11,-0.00090332257619703,0.000903322128764,-3.7329298288355e-10,-9.8458323629033e-11,-0.0007225341627465,0.00072253328156877,-0.00066157890583623,0.00066157912901341,-0.00066157938384274,0.00066157878160175,-0.00072253402726343,0.00072253317077315,-0.00072253378254616,0.00072253311284899,-0.00066157958709688,0.00066157865449995,-0.00066157925461167,0.00066157869194426,-0.0011509923252566,0.0011509918198361,-0.0011509922008043,0.0011509916357438,-0.001150992237114,0.0011509918345492,-0.0011509920449124,0.0011509917974909,-0.0011620223164258,0.0011620226811326,-0.0011620230976819,0.0011620221911363,-0.0011620225399762,0.0011620218194108,-0.0011620225944508,0.0011620219757052,-0.00072253332217987,0.00072253386746775,0.73557131633377,128566,2924,0.0048146838112109,0.0062180750917616,0.0037590487563104,35.264943251346,2.6119546010765e-05,2.6119546010765e-05,2.6119546010765e-05,3715534.5481081,0.014903711160963
35391759,0.90169103173252,0.015150444365114,0.005043282581887,0.0058616684318677,0.0042454933513591,-0.0011662556223503,0.0011662592811277,2.0697811872967e-09,1.5847575802143e-09,1.4255992288339e-09,2.39717066267e-09,-0.00046633568338138,0.00046634021856592,-0.0010776228048721,0.0010776276077553,-0.0010776228146827,0.0010776276310031,-0.00046633604725373,0.00046633967966079,-0.00046633686197204,0.00046633881969113,-0.0010776236658349,0.0010776268271719,-0.0010776239473599,0.0010776264922714,-0.0013804232917194,0.0013804266747691,-0.0013804234697381,0.001380426573959,-0.0013804228429792,0.0013804269349662,-0.0013804229710125,0.0013804266833194,-0.0011970844985694,0.0011970889381682,-0.0011970849257096,0.0011970884853846,-0.001197084906087,0.0011970886354045,-0.0011970854077898,0.0011970881506127,-0.00046633539273857,0.00046634035584791,1.9193575231216e-09,3.9251716092899e-10,1.3129813165573e-09,8.3775482575337e-10,-0.0015094581315578,0.0015094604610284,-0.0014824297432979,0.0014824319693474,-0.0015402712439864,0.0015402752988791,-0.0015402725649843,0.001540273582454,-0.0014533441954014,0.0014533473683471,-0.0014533443212675,0.001453347216164,-0.001453344771643,0.001453346729014,-0.0014533448665587,0.001453346613677,-0.0014824296323196,0.001482431940354,-0.0014824301895858,0.0014824314591608,-0.0015402713594429,0.0015402751308147,-0.0015402727870312,0.001540273365329,-0.0014824293271366,0.0014824323614991,-3.5736055406865e-10,-1.1032642059623e-10,-0.00090961837210363,0.00090961791735513,-3.8791168724529e-10,-1.0122595285008e-10,-0.00072712046419752,0.00072712001068427,-0.00066577953378552,0.0006657795954141,-0.00066577984956822,0.0006657793895007,-0.00072712038029991,0.00072711975147808,-0.00072712042286788,0.00072711943935876,-0.00066578007787041,0.00066577920186783,-0.00066577984309974,0.00066577915162251,-0.001159813496616,0.0011598129743056,-0.0011598133204515,0.001159812829636,-0.0011598133955283,0.0011598130036977,-0.0011598132424935,0.0011598129181203,-0.0011705712003246,0.001170571369589,-0.0011705717644006,0.0011705710749634,-0.0011705713008013,0.0011705705409002,-0.0011705713425947,0.0011705707243388,-0.00072712008090946,0.00072712017299087,0.71497358307727,128566,2924,0.004851079505956,0.0062678809345308,0.0037852336866393,35.835201366294,3.0681610930355e-05,3.0681610930355e-05,3.0681610930355e-05,3725215.7435752,0.015017813533601
35591759,0.90796493700354,0.015244850834172,0.005075033639223,0.0059000738964203,0.0042697432985289,-0.0011749328070654,0.0011749365376214,2.0658597356973e-09,1.6593311958945e-09,1.3399277305982e-09,2.5582044042585e-09,-0.00046868996622884,0.00046869521361086,-0.0010849682088765,0.0010849732043151,-0.0010849680886865,0.001084973340189,-0.00046869068625918,0.00046869439079379,-0.00046869172997872,0.0004686932933656,-0.0010849692337638,0.001084972279072,-0.0010849695610625,0.0010849718772373,-0.0013910766430811,0.0013910800157577,-0.0013910768308005,0.0013910799152471,-0.0013910761369915,0.0013910803273456,-0.0013910762085252,0.0013910801287846,-0.0012060071214165,0.0012060115668598,-0.0012060073876873,0.0012060112686071,-0.0012060075584625,0.0012060112769762,-0.0012060080933367,0.0012060108099627,-0.00046869007265875,0.00046869496312417,2.019872762803e-09,3.0194149736511e-10,1.3244067820466e-09,8.5613642385522e-10,-0.0015212486299692,0.0015212509593896,-0.0014931075324664,0.0014931097846226,-0.0015525364763764,0.0015525408176446,-0.001552538102425,0.0015525388303156,-0.0014650026429229,0.00146500589492,-0.0014650027985108,0.0014650057073238,-0.0014650033122755,0.0014650051567041,-0.0014650033718997,0.0014650050730412,-0.0014931075373392,0.0014931097459084,-0.0014931079390194,0.0014931093075121,-0.0015525367217644,0.0015525405744217,-0.0015525382239338,0.0015525387144385,-0.0014931071032256,0.0014931103354756,-3.9822176034679e-10,-6.2447733492549e-11,-0.00091594839210769,0.00091594795102549,-3.986556447573e-10,-5.9656605879986e-11,-0.00073163519774636,0.0007316344815294,-0.00066988423891353,0.0006698845192191,-0.00066988466694303,0.00066988419816904,-0.00073163516542276,0.00073163432777064,-0.00073163499740769,0.00073163418023919,-0.00066988498236107,0.0006698840383919,-0.00066988465556491,0.00066988404164641,-0.0011686270052121,0.0011686264778324,-0.0011686268428948,0.0011686263193027,-0.001168626906069,0.0011686265055849,-0.0011686267049059,0.001168626467522,-0.0011788659811885,0.0011788664199845,-0.0011788667815059,0.0011788659254143,-0.0011788661281732,0.0011788653510192,-0.0011788662279476,0.0011788655152928,-0.00073163448426893,0.00073163498885284,0.68077661241403,128566,2924,0.004887114855754,0.0063166586781879,0.0038115575326157,36.579486694853,3.6635893558827e-05,3.6635893558827e-05,3.6635893558827e-05,3742628.6886288,0.015130660262545
35791759,0.91418809613266,0.015343873796323,0.0051081372601549,0.0059404211152609,0.0042953154209075,-0.0011843625926986,0.001184366212173,2.0289030038618e-09,1.5866426828169e-09,1.5527160681194e-09,2.2256238740419e-09,-0.00047231537833343,0.00047231977103602,-0.001093574897105,0.0010935792857539,-0.0010935748193876,0.0010935793559899,-0.00047231554327993,0.00047231953740285,-0.00047231645516626,0.00047231858860112,-0.0010935754417163,0.0010935788627606,-0.0010935757169084,0.0010935784926075,-0.0014023486760532,0.0014023521098572,-0.0014023488609211,0.0014023520204517,-0.0014023483257997,0.0014023522591634,-0.0014023484289302,0.0014023520326654,-0.0012157853335455,0.0012157895578744,-0.0012157856972691,0.0012157892082605,-0.0012157856074312,0.001215789407971,-0.001215786149054,0.0012157889452351,-0.00047231528362613,0.00047231972258932,1.8053829202616e-09,6.2641261740688e-10,1.3846084256336e-09,9.1919668505459e-10,-0.0015337572602427,0.0015337596961302,-0.0015045411814755,0.0015045434505304,-0.0015653546375688,0.0015653585094936,-0.0015653556995433,0.0015653571270832,-0.0014773934234009,0.0014773965773897,-0.0014773935610136,0.0014773964075056,-0.0014773939035825,0.0014773960360578,-0.001477393980198,0.0014773959349603,-0.0015045410449629,0.0015045436253351,-0.0015045414569278,0.0015045431036818,-0.0015653548465942,0.001565358326315,-0.0015653558714611,0.0015653569528101,-0.0015045408533247,0.0015045439963772,-3.8239286997077e-10,-7.1717864925073e-11,-0.00092309326870671,0.00092309283922491,-3.7655582851193e-10,-5.5792240025622e-11,-0.00073753769193498,0.0007375371504312,-0.0006752467619206,0.00067524699919395,-0.00067524712841992,0.00067524674545141,-0.00073753772477688,0.00073753704461766,-0.00073753764401258,0.00073753676404585,-0.00067524747488853,0.00067524662577988,-0.0006752471700243,0.00067524658241041,-0.0011780094576542,0.0011780089357895,-0.0011780092851905,0.0011780087860732,-0.0011780093480431,0.0011780089704626,-0.0011780091707772,0.0011780089094819,-0.0011880682101963,0.0011880685770542,-0.0011880689493089,0.0011880681613265,-0.0011880683261174,0.0011880675302402,-0.0011880684032581,0.0011880677178071,-0.00073753714140371,0.00073753748448841,0.72027650863663,128566,2924,0.0049262654433174,0.0063684078912,0.0038412610481201,37.601460323643,4.4811682589142e-05,4.4811682589142e-05,4.4811682589142e-05,3767989.7061979,0.015253125133191
35991759,0.92013138164768,0.015444251691114,0.0051414821991648,0.0059814481584532,0.0043213213334957,-0.0011925158765651,0.0011925196101394,2.1335717481859e-09,1.5943653605121e-09,1.3846365451275e-09,2.512698085563e-09,-0.00047452523782235,0.00047453030600775,-0.0011013365082722,0.001101341450176,-0.0011013364536579,0.0011013415895679,-0.00047452569619033,0.00047452950666201,-0.00047452678925143,0.00047452831825745,-0.0011013374278409,0.0011013406172412,-0.0011013378147808,0.0011013401850438,-0.0014122188622481,0.0014122223109331,-0.0014122190882143,0.001412222170517,-0.0014122183724008,0.0014122225897799,-0.0014122184881101,0.0014122223269852,-0.0012244554059395,0.0012244599500687,-0.0012244557930894,0.0012244595345199,-0.0012244557909992,0.0012244596733018,-0.0012244564387933,0.0012244590430607,-0.00047452525746708,0.00047453013110025,2.0318703328149e-09,2.993682912689e-10,1.3653365783753e-09,8.1561696540275e-10,-0.0015450910016296,0.001545093335617,-0.0015150243776859,0.0015150264646759,-0.0015769630938439,0.0015769674558335,-0.0015769646912551,0.0015769654367599,-0.0014884367446263,0.0014884400537447,-0.0014884369156248,0.001488439834417,-0.0014884374189135,0.0014884393032764,-0.0014884375128225,0.0014884391841073,-0.0015150242321531,0.0015150265146995,-0.001515024777666,0.0015150260504121,-0.0015769633348521,0.0015769671850143,-0.0015769648917965,0.0015769653177611,-0.0015150238463534,0.0015150270795329,-3.4616028892435e-10,-1.2380763717343e-10,-0.0009290069852739,0.00092900653116864,-3.7300852120602e-10,-1.1214123002269e-10,-0.00074238479925486,0.00074238397843859,-0.00067962339146459,0.0006796235362229,-0.00067962378408663,0.00067962319658983,-0.00074238453587271,0.00074238364770213,-0.00074238439612346,0.00074238365072224,-0.00067962397755119,0.00067962303548981,-0.00067962367001597,0.00067962310460626,-0.001186072224239,0.0011860717522393,-0.0011860720853773,0.0011860715609463,-0.0011860721623768,0.0011860717428371,-0.0011860719903994,0.0011860716639753,-0.0011962664428851,0.0011962667758442,-0.001196267143054,0.0011962663776702,-0.0011962664204788,0.0011962657793261,-0.0011962666476434,0.0011962658136306,-0.00074238411093283,0.00074238446010581,0.76500083964462,128566,2924,0.0049601271121525,0.0064152884584106,0.0038658548357591,37.990585629208,4.7924685033664e-05,4.7924685033664e-05,4.7924685033664e-05,3772221.3458115,0.015360102270536
36191759,0.92567673774456,0.015535262131214,0.0051717748507853,0.0060186625795153,0.0043448247009133,-0.001199208824155,0.0011992127570092,2.2121448888304e-09,1.7138185886068e-09,1.0982853417249e-09,3.0127195621913e-09,-0.00047511212208432,0.00047511829820713,-0.0011074004317812,0.0011074062946364,-0.0011074002889326,0.001107406470399,-0.00047511338375299,0.00047511688440407,-0.00047511469702239,0.00047511553954088,-0.0011074020577648,0.001107404728939,-0.0011074024922456,0.0011074042334172,-0.0014206162135093,0.0014206195961679,-0.0014206164514619,0.0014206194555054,-0.0014206154794637,0.0014206201239099,-0.0014206155660682,0.0014206199020457,-0.0012316329367416,0.0012316378440108,-0.0012316332335457,0.0012316375058437,-0.0012316335476318,0.0012316373811599,-0.0012316342304622,0.0012316367672804,-0.00047511224483888,0.000475117987744,2.2909726790043e-09,-9.7777473906466e-11,1.2887113266359e-09,7.5944771080551e-10,-0.001554896239467,0.001554898464954,-0.0015240785479009,0.0015240807734109,-0.0015871467031937,0.0015871516624839,-0.0015871490271955,0.0015871489680914,-0.0014978831976206,0.0014978866327555,-0.0014978833890314,0.0014978864165316,-0.0014978841079286,0.0014978856568664,-0.0014978841613257,0.0014978855676112,-0.0015240786795218,0.0015240805194309,-0.0015240791247194,0.001524080094914,-0.0015871469965248,0.001587151333426,-0.0015871491028634,0.0015871488320813,-0.0015240779297732,0.0015240813541046,-3.5407367371663e-10,-8.3229811000376e-11,-0.0009335423127555,0.00093354189102135,-3.9811857042007e-10,-5.0032337566652e-11,-0.00074551849775361,0.00074551767850395,-0.00068243411031349,0.00068243443276452,-0.0006824345947835,0.00068243407628927,-0.00074551847860668,0.00074551738553201,-0.0007455180580052,0.00074551748862188,-0.00068243487712868,0.00068243383924247,-0.00068243447680783,0.00068243392064194,-0.0011928379909805,0.0011928375225497,-0.0011928378410933,0.0011928373370442,-0.0011928379328292,0.0011928375065333,-0.001192837708427,0.0011928374817659,-0.0012029718471246,0.0012029722920658,-0.0012029726339774,0.0012029718127761,-0.0012029719066634,0.0012029712872293,-0.0012029721667146,0.0012029713225098,-0.0007455176415572,0.00074551829225447,0.7436114559639,128566,2924,0.0049879365229029,0.0064558392508114,0.0038847277289172,37.973935046799,4.7791480374389e-05,4.7791480374389e-05,4.7791480374389e-05,3761759.0976487,0.015448711329096
36391759,0.9306171661304,0.015615339876215,0.0051984627506258,0.0060513788337036,0.0043654982918856,-0.0012035349520822,0.0012035392232767,2.3454360614795e-09,1.9151313174793e-09,5.8212619167973e-10,3.8913996125307e-09,-0.00047443520450522,0.00047444313210683,-0.0011110979121579,0.0011111055116797,-0.001111097778447,0.0011111056987839,-0.00047443789301099,0.00047444024409587,-0.00047443909203005,0.00047443901233276,-0.0011111009146587,0.0011111025399341,-0.0011111013267522,0.0011111020813325,-0.0014263746538185,0.0014263778784209,-0.0014263748585452,0.0014263777668483,-0.0014263734590543,0.0014263788767899,-0.0014263735275298,0.001426378666503,-0.0012362728450217,0.0012362784993828,-0.0012362730778592,0.0012362781932345,-0.0012362739401094,0.0012362775415357,-0.0012362745131908,0.0012362770041043,-0.00047443533700114,0.00047444280208781,2.8439144391896e-09,-8.9026587792971e-10,1.1760986528758e-09,6.3158976448388e-10,-0.0015617584187234,0.0015617604201215,-0.0015302495175241,0.0015302519357381,-0.0015942842414684,0.0015942902795299,-0.0015942878265125,0.0015942862405486,-0.0015045551188216,0.0015045587864834,-0.0015045553088427,0.0015045585716217,-0.0015045564494601,0.0015045573653888,-0.001504556519892,0.0015045572656017,-0.0015302500330632,0.0015302511884988,-0.0015302505623816,0.0015302507841277,-0.0015942844989593,0.0015942899573541,-0.0015942879427281,0.0015942860849423,-0.001530248844749,0.0015302524543169,-3.7977991188184e-10,-3.1244696911398e-11,-0.00093605562921362,0.0009360552289037,-4.576669431543e-10,1.5028828040465e-11,-0.00074684699553907,0.00074684626300959,-0.00068343247495071,0.00068343292387054,-0.00068343297123831,0.00068343254573732,-0.00074684697852573,0.00074684588227381,-0.00074684668898825,0.00074684588420678,-0.00068343330766015,0.00068343217540922,-0.00068343296056509,0.00068343222126499,-0.0011971934671882,0.0011971929547907,-0.0011971932645689,0.0011971928088807,-0.0011971933760961,0.0011971929720148,-0.0011971931155607,0.0011971929759457,-0.0012072035642952,0.0012072041439855,-0.0012072043955587,0.0012072035880034,-0.0012072037583665,0.0012072030439352,-0.0012072039088703,0.0012072031775313,-0.00074684611103132,0.00074684693513982,0.73413663496559,128566,2924,0.0050059190392551,0.0064842131662146,0.0038951997253919,37.087135796762,4.0697086374093e-05,4.0697086374093e-05,4.0697086374093e-05,3744447.1818197,0.015506444524557
36591759,0.93508581619947,0.015683549731515,0.0052213230527372,0.0060791737403596,0.0043830529384183,-0.0012075125397711,0.0012075168267196,2.3588565799624e-09,1.9162724333102e-09,6.4504628033774e-10,3.8422486221479e-09,-0.00047396562285611,0.00047397334733596,-0.0011142268720759,0.0011142344038891,-0.001114226753777,0.0011142345401365,-0.0004739682503873,0.00047397057493904,-0.00047396930191237,0.0004739694785663,-0.0011142298281747,0.0011142315168034,-0.0011142301671342,0.0011142310980722,-0.0014317038363112,0.0014317071036137,-0.0014317040356099,0.001431707005989,-0.0014317026659631,0.0014317080804566,-0.001431702755703,0.0014317078522034,-0.0012404311854414,0.0012404368728961,-0.0012404314967211,0.001240436541487,-0.0012404322813427,0.0012404359205896,-0.0012404328577225,0.0012404354228324,-0.00047396566500617,0.00047397313511596,2.834963587926e-09,-8.4099209397469e-10,1.240681029105e-09,6.4120654063915e-10,-0.0015679304310742,0.0015679324672176,-0.0015357055113099,0.0015357079986869,-0.0016007468798397,0.0016007528905603,-0.0016007503951049,0.0016007489454606,-0.0015106322411743,0.0015106359021742,-0.0015106324369939,0.001510635674649,-0.0015106335397633,0.0015106345067646,-0.0015106336445056,0.0015106343744357,-0.0015357060274532,0.0015357074276613,-0.0015357065668167,0.0015357068530825,-0.0016007471573643,0.0016007526088308,-0.0016007505739365,0.0016007487619268,-0.001535704963005,0.0015357086659745,-3.8100583750781e-10,-3.2756629050115e-11,-0.00093843319923259,0.00093843280479571,-4.3627358593278e-10,2.9616195787828e-11,-0.00074801146188772,0.00074801085903068,-0.00068429121764856,0.00068429168709046,-0.00068429165589934,0.0006842913424211,-0.00074801148935242,0.00074801058092871,-0.00074801133943234,0.0007480104255175,-0.00068429208327813,0.00068429106437138,-0.00068429175250889,0.00068429106497376,-0.0012012704815697,0.0012012699584037,-0.0012012702657082,0.0012012698206945,-0.0012012703756952,0.0012012699885106,-0.0012012701321606,0.0012012699718405,-0.0012109403498217,0.0012109408651744,-0.0012109411357338,0.0012109403507038,-0.0012109405568737,0.0012109397825377,-0.0012109406444182,0.0012109399572865,-0.00074801070198063,0.0007480114248624,0.69114877687921,128566,2924,0.0050224490619035,0.0065097342622029,0.0039051035165725,36.438376377672,3.5507011021373e-05,3.5507011021373e-05,3.5507011021373e-05,3734256.0584251,0.015559230273071
36791759,0.93926756669318,0.015745573736661,0.0052421618423011,0.0061044032691149,0.0043990086252453,-0.00121222832665,0.0012122322920745,2.2110256273319e-09,1.7467393721347e-09,1.2069959626607e-09,2.9377434776298e-09,-0.00047498443289247,0.00047499030243958,-0.0011180897828757,0.0011180955500857,-0.0011180896812354,0.0011180956566746,-0.00047498558508073,0.00047498905862505,-0.00047498665426388,0.00047498796193468,-0.0011180913090248,0.001118094103209,-0.0011180916399655,0.0011180936832166,-0.0014376754568018,0.0014376788885178,-0.0014376756595639,0.0014376787927275,-0.0014376747519397,0.0014376793802524,-0.0014376748526922,0.0014376791407097,-0.0012452361631278,0.0012452410790089,-0.0012452365103812,0.0012452407196003,-0.001245236780361,0.0012452406091578,-0.0012452373700859,0.0012452401027555,-0.00047498439275197,0.00047499015915317,2.2170734210465e-09,1.6251845576097e-11,1.3261381213907e-09,7.8784381561811e-10,-0.0015745443467948,0.00157454661694,-0.0015415303291078,0.0015415326596673,-0.001607575986594,0.0016075807476959,-0.0016075780619646,0.0016075783046456,-0.0015172939990721,0.0015172973858626,-0.0015172941720147,0.0015172971835372,-0.0015172948223069,0.0015172964883725,-0.0015172949087507,0.0015172963744094,-0.0015415304405046,0.0015415325327294,-0.0015415309156152,0.0015415319803676,-0.0016075762390604,0.0016075805017021,-0.0016075782275855,0.0016075781196486,-0.0015415298701253,0.0015415332584062,-3.7832441372123e-10,-4.2031407344357e-11,-0.00094171859630479,0.00094171819805479,-4.194309794702e-10,1.2107013544378e-11,-0.00075034739006764,0.00075034683639405,-0.00068623531779243,0.00068623573659132,-0.00068623574084687,0.00068623542612864,-0.00075034745773095,0.00075034660405377,-0.00075034729388319,0.00075034640909749,-0.00068623615178864,0.00068623517674659,-0.00068623581424098,0.00068623516326346,-0.0012060458141462,0.0012060452974287,-0.0012060456041843,0.0012060451505487,-0.0012060457045352,0.0012060453277657,-0.0012060454770479,0.0012060452936379,-0.0012153151033142,0.0012153155696836,-0.0012153158712967,0.0012153150904505,-0.0012153152915375,0.0012153145185385,-0.0012153153724803,0.00121531469656,-0.00075034669893328,0.0007503473123025,0.6716277222976,128566,2924,0.005042030028541,0.0065370880756331,0.0039187700766934,36.394514950917,3.515611960734e-05,3.515611960734e-05,3.515611960734e-05,3742631.220994,0.015620796256112
36991759,0.94324433161082,0.0158080036569,0.0052630117510959,0.0061298342247065,0.0044151576810981,-0.0012174649543001,0.0012174686020351,2.0587573206859e-09,1.5859802553919e-09,1.7290054948043e-09,2.0754108482114e-09,-0.00047687970749968,0.00047688391911978,-0.0011228242499564,0.0011228283086708,-0.0011228241508896,0.0011228284298358,-0.00047687946313343,0.00047688398760771,-0.00047688056111314,0.00047688285594985,-0.001122824403408,0.0011228282471401,-0.001122824753504,0.0011228278184655,-0.0014440509312761,0.0014440545130798,-0.0014440511384385,0.0014440544117913,-0.0014440506741316,0.0014440545375361,-0.0014440507737604,0.0014440542939292,-0.0012506344683566,0.0012506386136338,-0.0012506348091149,0.0012506382528213,-0.0012506346148522,0.0012506386117205,-0.0012506352137587,0.0012506380800469,-0.00047687969997606,0.0004768837287502,1.6402787684919e-09,8.3296717148351e-10,1.4042758204553e-09,9.2933082722821e-10,-0.0015816212427299,0.0015816237416537,-0.0015478657354748,0.001547867852021,-0.001614761204607,0.0016147648081843,-0.0016147619253935,0.0016147637533499,-0.0015244070585001,0.0015244102071508,-0.0015244072131513,0.0015244100220832,-0.0015244074405728,0.0015244097718757,-0.0015244075046337,0.0015244096815857,-0.001547865421812,0.0015478681200347,-0.001547865852996,0.001547867660753,-0.0016147614363574,0.0016147645719123,-0.0016147620703693,0.0016147636026302,-0.0015478653092992,0.0015478683730156,-3.8882273979266e-10,-5.2019307496599e-11,-0.00094561060632983,0.000945610185817,-3.8682668642993e-10,-5.0798714889645e-11,-0.00075363124915161,0.00075363052098701,-0.00068910159085613,0.00068910189195807,-0.00068910202740254,0.00068910156567792,-0.00075363114389775,0.00075363032793508,-0.0007536309895447,0.00075363017298069,-0.00068910230878621,0.00068910138434184,-0.00068910198102975,0.00068910139001129,-0.0012112411055451,0.0012112406035968,-0.001211240930069,0.0012112404205241,-0.0012112409976176,0.0012112406310574,-0.0012112407996023,0.0012112405645036,-0.0012203453756709,0.0012203458026139,-0.0012203461572929,0.0012203453200306,-0.0012203455360244,0.0012203447863081,-0.0012203456197423,0.0012203449516882,-0.00075363050163243,0.0007536310213068,0.71099831236524,128566,2924,0.0050637673707253,0.0065663584589344,0.0039349518040399,36.657482694996,3.7259861559971e-05,3.7259861559971e-05,3.7259861559971e-05,3757149.8096245,0.015689053726832
37191759,0.94712489362705,0.015872586996751,0.0052844508643161,0.0061562121977924,0.0044319239346422,-0.0012236620668483,0.0012236653979056,1.908927011149e-09,1.4238049984846e-09,2.2494343893823e-09,1.2145050263228e-09,-0.00047914732363167,0.0004791498437571,-0.0011287712591106,0.0011287736084748,-0.0011287711432912,0.0011287737221911,-0.00047914574424116,0.00047915130532418,-0.00047914683268137,0.00047915016645699,-0.0011287700770507,0.0011287749355039,-0.001128770406292,0.0011287745048044,-0.0014514238752135,0.001451427606506,-0.001451424089591,0.0014514275016827,-0.0014514240666744,0.0014514271703122,-0.0014514241724033,0.001451426924602,-0.0012572001465223,0.0012572035370231,-0.0012572005131245,0.0012572031837922,-0.0012571998358922,0.0012572040084324,-0.001257200472937,0.0012572034719458,-0.00047914733004963,0.00047914965637542,1.0882654624724e-09,1.6595458340728e-09,1.5028255667693e-09,1.1133673913316e-09,-0.0015899738145144,0.0015899765695326,-0.0015555807327516,0.0015555827681641,-0.0016232958523336,0.0016232983443906,-0.0016232952623558,0.0016232986821471,-0.0015325832760444,0.001532586178318,-0.0015325834023162,0.0015325860181668,-0.00153258322076,0.0015325862013298,-0.0015325832574886,0.0015325861386508,-0.0015555800933445,0.0015555834935718,-0.0015555803804962,0.0015555830623617,-0.00162329609036,0.0016232981547263,-0.0016232953762991,0.0016232985784555,-0.0015555804792409,0.0015555833009017,-4.0527880941584e-10,-6.9535459085044e-11,-0.00095033622767921,0.00095033577972882,-3.2897525370829e-10,-1.1722602475372e-10,-0.00075767512840366,0.00075767425685132,-0.00069288139644696,0.00069288158787234,-0.00069288182360507,0.0006928812624819,-0.00075767493786756,0.00075767424186494,-0.00075767478842292,0.00075767407429515,-0.00069288204731388,0.00069288125663506,-0.00069288170540841,0.00069288126435804,-0.0012174247621207,0.0012174242708401,-0.0012174246285157,0.0012174240467519,-0.0012174246536269,0.0012174242965812,-0.0012174244977688,0.0012174241875801,-0.0012265746838179,0.0012265750359172,-0.0012265754826907,0.0012265745572842,-0.0012265748083988,0.0012265740592441,-0.0012265748884243,0.0012265742133009,-0.00075767437558452,0.00075767474944497,0.75399799021908,128566,2924,0.005089497502546,0.0066009022842629,0.0039545980570217,37.434842943865,4.3478743550922e-05,4.3478743550922e-05,4.3478743550922e-05,3767092.2285468,0.015770251534592
37391759,0.95083370957407,0.015931671417668,0.0053041303834664,0.0061803474476667,0.0044471935865351,-0.0012288277859497,0.0012288311422501,1.9399059461902e-09,1.4184947051075e-09,2.1791890172126e-09,1.3126202829396e-09,-0.00047991972631971,0.00047992225105118,-0.0011334109920246,0.0011334136151255,-0.00113341098413,0.0011334136933499,-0.00047991822825089,0.00047992347753077,-0.00047991915930789,0.0004799224977761,-0.0011334100088177,0.0011334147002954,-0.001133410325325,0.0011334143280187,-0.0014578417079526,0.0014578454020996,-0.0014578419063537,0.0014578453011782,-0.0014578418181931,0.0014578450385083,-0.0014578419536346,0.001457844746659,-0.0012627382034111,0.0012627417785508,-0.0012627386372972,0.0012627412993855,-0.0012627380190826,0.0012627421122899,-0.0012627385882507,0.001262741579429,-0.00047991952147466,0.00047992223627726,1.2045059086419e-09,1.4855481225834e-09,1.4698154782049e-09,1.0555586122913e-09,-0.0015973758012926,0.0015973785030918,-0.0015624179809277,0.0015624199842564,-0.0016310090796347,0.0016310117260307,-0.0016310086572577,0.0016310118109815,-0.0015397160602689,0.0015397190281081,-0.0015397161657515,0.0015397188792037,-0.0015397160744642,0.0015397189714453,-0.0015397161449148,0.0015397188784135,-0.0015624173213262,0.0015624205797796,-0.0015624177919279,0.0015624201547888,-0.0016310092084007,0.001631011566218,-0.0016310088745148,0.0016310116496576,-0.0015624176720268,0.0015624203862119,-4.047640437405e-10,-9.7089862975008e-11,-0.00095401731750001,0.00095401683332127,-3.1039576776666e-10,-2.070127810248e-10,-0.00076022383316935,0.00076022294066454,-0.00069534105963976,0.00069534098858191,-0.00069534143403689,0.00069534069611095,-0.00076022336256748,0.00076022287948152,-0.00076022345939075,0.00076022258380822,-0.00069534143144704,0.00069534069698461,-0.00069534119853536,0.00069534067517159,-0.0012227452027085,0.0012227447106746,-0.0012227450815543,0.0012227444663311,-0.0012227450836303,0.0012227447488117,-0.0012227449851761,0.0012227445718492,-0.0012317502711395,0.0012317504949733,-0.0012317509774893,0.001231750095019,-0.0012317503165814,0.0012317495637919,-0.0012317503709428,0.0012317497390398,-0.00076022324107365,0.0007602232851015,0.72209868121355,128566,2924,0.0051109577355676,0.0066315088847272,0.0039699115303484,37.881667782893,4.7053342263141e-05,4.7053342263141e-05,4.7053342263141e-05,3763365.7211237,0.015838722334796
37591759,0.95429896025826,0.015984688044287,0.005321856496132,0.0062019750003081,0.004460856547847,-0.0012329083135406,0.0012329119526549,2.0588463544512e-09,1.5796150998136e-09,1.6799786602169e-09,2.1136863270101e-09,-0.00048039036489589,0.0004803947574304,-0.0011368766823669,0.0011368807894682,-0.0011368765674311,0.0011368809535785,-0.00048039018394354,0.00048039471872271,-0.00048039137566899,0.00048039346548525,-0.0011368768894399,0.0011368806692574,-0.0011368772816803,0.00113688021598,-0.0014630346804459,0.0014630382372743,-0.0014630348980312,0.0014630381217732,-0.0014630343964118,0.0014630382791015,-0.001463034487495,0.001463038036151,-0.0012670255295258,0.0012670296495183,-0.0012670258350622,0.0012670293393193,-0.0012670256251789,0.0012670296453663,-0.0012670262520176,0.0012670290330867,-0.0004803904602518,0.00048039445604061,1.691690019737e-09,8.0189646184883e-10,1.3592271706606e-09,9.8971845495704e-10,-0.0016033061096009,0.0016033086470199,-0.001567768564121,0.0015677707582568,-0.0016371599192618,0.0016371636416622,-0.001637160748397,0.0016371624666983,-0.0015455497797863,0.0015455529861842,-0.0015455499050039,0.0015455528288854,-0.0015455502027837,0.0015455525103052,-0.0015455502211475,0.0015455524682804,-0.0015677683334783,0.001567770885365,-0.00156776867322,0.0015677705883693,-0.0016371601304175,0.0016371634025629,-0.001637160831644,0.0016371623910463,-0.0015677681799035,0.0015677711728956,-4.1829763477147e-10,-5.9611749372564e-11,-0.00095680544245477,0.00095680498157055,-3.444873305033e-10,-1.4686054616186e-10,-0.00076203595613537,0.00076203491823333,-0.00069698712926712,0.00069698727420651,-0.00069698761231049,0.00069698689882965,-0.00076203560303725,0.00076203483089581,-0.0007620354387197,0.00076203473939738,-0.00069698769465811,0.00069698682187155,-0.00069698737053815,0.00069698685880631,-0.0012269387498797,0.0012269382619257,-0.001226938623818,0.001226938014811,-0.0012269386434193,0.001226938288221,-0.0012269384810349,0.0012269381712243,-0.0012356875722166,0.0012356879087731,-0.0012356883588418,0.0012356873898568,-0.0012356877581501,0.001235687038582,-0.0012356878032367,0.0012356872025742,-0.00076203508815839,0.00076203553127931,0.6934580049314,128566,2924,0.005127908401849,0.0066560290167,0.003981513199174,37.934389802167,4.747511841734e-05,4.747511841734e-05,4.747511841734e-05,3762360.4931295,0.015892657448902
37791759,0.95744718504922,0.016031192967204,0.0053374545219458,0.0062209192044269,0.0044728192408309,-0.0012355978755948,0.0012356018913546,2.2569518016129e-09,1.7531526581544e-09,1.0524903846412e-09,3.1439908429143e-09,-0.00048030408899564,0.0004803103263026,-0.0011389253664792,0.0011389315670979,-0.0011389253161799,0.0011389316828602,-0.00048030549765351,0.00048030865075698,-0.00048030656241746,0.00048030752559284,-0.0011389272344329,0.0011389297483064,-0.001138927605224,0.0011389293320076,-0.0014666737165025,0.0014666770889242,-0.0014666739232672,0.0014666769797056,-0.0014666728789055,0.0014666776994313,-0.0014666729926117,0.0014666774310791,-0.0012697823665971,0.0012697874684275,-0.001269782732155,0.0012697870839863,-0.0012697830449608,0.0012697868587624,-0.0012697836349029,0.001269786253689,-0.00048030400558245,0.00048031021217844,2.3956571441422e-09,-1.922663953936e-10,1.269170804409e-09,7.9229239048191e-10,-0.0016074289854888,0.0016074312549904,-0.0015713303911168,0.0015713327954129,-0.0016414050482753,0.0016414101524236,-0.0016414074623771,0.0016414073168288,-0.0015497245285023,0.0015497280597094,-0.0015497246720128,0.0015497278849307,-0.0015497254759673,0.0015497270333091,-0.0015497255472772,0.0015497269377528,-0.0015713305828989,0.0015713324089826,-0.0015713311147813,0.0015713319946809,-0.0016414052253622,0.0016414099195147,-0.0016414076361652,0.0016414071463085,-0.001571329895464,0.0015713332093679,-4.0370034606765e-10,-6.03045922986e-11,-0.00095845301784428,0.00095845256628328,-3.7348299979006e-10,-1.2093817939498e-10,-0.00076295133217805,0.00076295049683404,-0.00069762536752355,0.00069762549988349,-0.00069762580093773,0.00069762516935062,-0.00076295101224552,0.0007629502971667,-0.00076295096947478,0.00076295009617401,-0.00069762590212128,0.00069762500307896,-0.00069762562983432,0.00069762499812927,-0.0012296918082764,0.001229691304613,-0.001229691644717,0.0012296910861738,-0.0012296916914061,0.001229691343212,-0.0012296915257168,0.0012296912239893,-0.001238122835534,0.0012381231270228,-0.0012381235330184,0.0012381226630508,-0.0012381230357455,0.0012381222907806,-0.0012381230406362,0.0012381224924537,-0.00076295061625123,0.00076295097465122,0.66962302585922,128566,2924,0.0051390809286668,0.0066730748620395,0.0039883744479125,37.460696581089,4.3685572648715e-05,4.3685572648715e-05,4.3685572648715e-05,3761112.461889,0.015928309974447
37991759,0.96022773711077,0.016073507081688,0.0053516021624946,0.0062381590772968,0.0044837458418967,-0.0012369243357698,0.0012369287057417,2.4319950846313e-09,1.9273700646528e-09,5.096205347366e-10,4.0655747551878e-09,-0.00047968463352536,0.0004796926426447,-0.0011398184408909,0.0011398264788552,-0.0011398184116272,0.0011398265817302,-0.00047968749201249,0.000479689541603,-0.00047968852447948,0.00047968843964662,-0.0011398217668602,0.0011398231931129,-0.0011398221244551,0.0011398227937224,-0.0014687255666782,0.0014687287992824,-0.0014687257680099,0.001468728693971,-0.0014687242515932,0.0014687299038986,-0.0014687243694213,0.0014687296303212,-0.0012711182303852,0.0012711241792489,-0.0012711186087807,0.0012711237818715,-0.0012711194023236,0.0012711230605183,-0.0012711199762835,0.0012711224634542,-0.00047968450115475,0.00047969257319525,3.003465826063e-09,-1.0489160895688e-09,1.1940977988378e-09,6.372794507267e-10,-0.0016098223750678,0.0016098244107523,-0.0015732453333355,0.001573247936749,-0.0016437984862496,0.0016438048115062,-0.001643802316114,0.0016438005219471,-0.0015522508440777,0.0015522546427578,-0.0015522510073,0.0015522544439664,-0.0015522522532491,0.0015522531290271,-0.0015522523539975,0.00155225300116,-0.001573245940001,0.0015732471493035,-0.0015732465515673,0.0015732466284679,-0.0016437986858619,0.001643804578714,-0.0016438025294,0.0016438003156962,-0.001573244787861,0.0015732484244793,-3.9424541719531e-10,-4.1961259097632e-11,-0.00095899155254508,0.00095899112991541,-4.2493897095852e-10,-3.829990282731e-11,-0.00076313650391149,0.00076313588976805,-0.00069744124985354,0.00069744153485332,-0.00069744166304397,0.00069744121434064,-0.00076313635707073,0.00076313559535712,-0.00076313635622019,0.0007631353289856,-0.00069744190942263,0.00069744092426544,-0.00069744164417381,0.00069744089776384,-0.0012309723660794,0.0012309718390325,-0.0012309721494925,0.0012309716664434,-0.0012309722406957,0.001230971887243,-0.0012309720350008,0.0012309718035142,-0.0012392159003493,0.0012392162498307,-0.001239216575227,0.0012392157815337,-0.001239216152221,0.001239215364729,-0.0012392161295127,0.0012392155952702,-0.0007631358659955,0.00076313633144198,0.68978729194929,128566,2924,0.0051445921095103,0.0066829692400362,0.0039906260054417,36.424754414471,3.5398035315768e-05,3.5398035315768e-05,3.5398035315768e-05,3756346.003551,0.015946256151877
38191759,0.96275812217906,0.016112366153635,0.0053645767526376,0.0062539892288193,0.0044938001721783,-0.0012388721532333,0.0012388764345699,2.386388024631e-09,1.8846156162719e-09,7.1505527490513e-10,3.762582493864e-09,-0.00047954155081944,0.00047954909203601,-0.0011414006701645,0.0011414080638686,-0.0011414005791662,0.0011414081890529,-0.00047954395392044,0.00047954647330569,-0.00047954505296714,0.00047954528922782,-0.0011414034798286,0.0011414053228008,-0.0011414038363377,0.0011414048931273,-0.001471388235379,0.0014713915610327,-0.0014713884515471,0.0014713914463533,-0.0014713871015972,0.0014713924866306,-0.001471387211402,0.0014713922286218,-0.0012731555854124,0.0012731612456573,-0.0012731559540347,0.0012731609055798,-0.001273156559303,0.0012731603409896,-0.0012731571927258,0.001273159730801,-0.00047954156510855,0.00047954890231809,2.7906674517896e-09,-7.3391594807745e-10,1.2895602625251e-09,6.71731040019e-10,-0.001612895561168,0.0016128976927348,-0.0015758957598117,0.0015758982498684,-0.0016469422665332,0.0016469482314039,-0.0016469456391246,0.0016469444375422,-0.0015553530487334,0.0015553567774686,-0.0015553532426275,0.0015553565440878,-0.0015553543006752,0.0015553554249639,-0.0015553544105403,0.0015553552865793,-0.0015758961965283,0.0015758977858321,-0.0015758967639271,0.0015758971654708,-0.0016469425501528,0.0016469479567614,-0.0016469458381982,0.001646944259731,-0.0015758952288215,0.0015758989445574,-4.0163427502834e-10,-3.4752555671515e-11,-0.00096015482225154,0.0009601544071769,-4.048741549359e-10,-2.3338908968234e-11,-0.00076388636716291,0.00076388564342129,-0.00069793198047252,0.00069793235816514,-0.00069793241838746,0.00069793200026191,-0.00076388622761395,0.00076388543097815,-0.00076388615366032,0.00076388523060916,-0.00069793273562607,0.00069793179624904,-0.00069793242726966,0.00069793178929239,-0.0012329171394975,0.0012329166213105,-0.0012329169352744,0.0012329164369195,-0.0012329170200042,0.0012329166622646,-0.0012329168059937,0.001232916587524,-0.0012410291761993,0.0012410295600396,-0.0012410299030359,0.0012410290482124,-0.0012410294470971,0.0012410286638774,-0.0012410294329151,0.0012410288742719,-0.000763885603031,0.00076388620835535,0.6960802611235,128566,2924,0.0051526830314789,0.0066956757209602,0.0039954712588129,35.892218725819,3.1137749806551e-05,3.1137749806551e-05,3.1137749806551e-05,3752554.4968279,0.015972318042053
38391759,0.9654899264519,0.016156303916349,0.0053791769031189,0.0062719152456157,0.0045052117676142,-0.0012470770392578,0.0012470801874961,1.8321269232213e-09,1.3189644018664e-09,2.6682390988918e-09,5.9768952499528e-10,-0.00048464504180655,0.00048464618616592,-0.0011494201596625,0.0011494213378935,-0.0011494200668131,0.0011494213726076,-0.00048464247625179,0.00048464879031785,-0.00048464344575022,0.00048464772431471,-0.0011494180305701,0.0011494236515563,-0.001149418282321,0.0011494232556316,-0.0014805712596784,0.001480575146454,-0.0014805714730769,0.001480575047425,-0.0014805717789712,0.0014805743828059,-0.0014805719150982,0.0014805741218024,-0.0012817368129117,0.001281739714186,-0.0012817372899769,0.0012817393789712,-0.0012817361224115,0.0012817405064392,-0.0012817367857797,0.0012817399538214,-0.00048464491332276,0.00048464617810141,6.6957106659294e-10,2.3067115858386e-09,1.5867946886291e-09,1.3123086542244e-09,-0.0016228960782364,0.0016228990824583,-0.0015852777593361,0.0015852799557983,-0.0016571531222431,0.0016571547507701,-0.0016571515073008,0.001657156212776,-0.0015651774728601,0.001565180191032,-0.0015651775459264,0.0015651800845268,-0.0015651770624786,0.0015651805785723,-0.0015651770769382,0.001565180538958,-0.0015852770024401,0.0015852810708721,-0.0015852770819383,0.0015852805636555,-0.0016571533370693,0.0016571546865073,-0.0016571516131188,0.0016571561254908,-0.0015852778383888,0.0015852804981491,-4.2659690831128e-10,-5.7101824276994e-11,-0.00096715487517796,0.00096715443197132,-3.102227165937e-10,-9.0472362394299e-11,-0.00077034117826331,0.00077034050217386,-0.00070430216683767,0.00070430241641897,-0.00070430253385209,0.00070430214468007,-0.0007703411351731,0.00077034065138758,-0.00077034110505679,0.00077034026085762,-0.00070430289073332,0.00070430224032985,-0.00070430256050547,0.00070430217122494,-0.0012411802911522,0.0012411797685945,-0.001241180128895,0.0012411795515364,-0.0012411801497429,0.0012411798224793,-0.0012411800073521,0.0012411796840417,-0.0012493096511729,0.0012493098370067,-0.0012493103503763,0.0012493094048722,-0.0012493099149505,0.0012493090564337,-0.0012493098059843,0.001249309315533,-0.00077034058555575,0.00077034084851441,0.72890351103878,128566,2924,0.005186729599572,0.0067370377445898,0.0040245505480282,38.578374337625,5.2626994701004e-05,5.2626994701004e-05,5.2626994701004e-05,3790165.5469753,0.016078500288721
38591759,0.96817874139827,0.016200219550388,0.0053937386253774,0.0062898896480109,0.0045165912769995,-0.0012523643730954,0.0012523674387985,1.7990777773059e-09,1.2732416292246e-09,2.755159922138e-09,4.2645706000014e-10,-0.00048646704320302,0.00048646796858666,-0.0011544241509254,0.0011544249861086,-0.0011544241086661,0.001154425110265,-0.00048646405339465,0.00048647065800696,-0.00048646519260957,0.00048646947957428,-0.001154421671292,0.0011544275706251,-0.001154422066951,0.0011544271461327,-0.0014868481260307,0.0014868520387617,-0.0014868483424148,0.0014868519085765,-0.0014868487347672,0.0014868511663542,-0.0014868488512212,0.0014868508991918,-0.0012873996345915,0.001287402333542,-0.0012874000037847,0.001287401955727,-0.0012873988045068,0.001287403211375,-0.0012873994168662,0.0012874025452588,-0.00048646699251489,0.00048646780712063,5.5559522688837e-10,2.3842137444949e-09,1.553443979941e-09,1.1909870749859e-09,-0.001630016799964,0.0016300197713472,-0.0015919384491972,0.0015919401492643,-0.0016645040263515,0.0016645054724114,-0.0016645021485305,0.0016645070469568,-0.0015720617112871,0.0015720644701304,-0.0015720618215042,0.0015720643260045,-0.0015720612521668,0.0015720649126188,-0.001572061285383,0.0015720648565338,-0.0015919372729713,0.0015919411263998,-0.0015919377085187,0.0015919408572603,-0.0016645041667653,0.0016645052576765,-0.0016645022765134,0.0016645069329967,-0.0015919380357179,0.0015919404304738,-4.4023822720783e-10,-7.751788525314e-11,-0.00097128226052031,0.00097128175528622,-2.9156591697535e-10,-2.6847727827881e-10,-0.00077364581514835,0.00077364464925432,-0.00070761168016579,0.00070761153308626,-0.00070761213896668,0.00070761118669357,-0.00077364519014559,0.00077364464760405,-0.00077364517370866,0.00077364444978921,-0.00070761195637475,0.00070761120958403,-0.00070761170629391,0.00070761121797785,-0.0012466204407723,0.001246619961609,-0.0012466203550449,0.0012466196590889,-0.0012466203160309,0.0012466200018617,-0.0012466202262082,0.0012466197998196,-0.0012546872506814,0.0012546873875131,-0.0012546879500753,0.0012546869258848,-0.0012546874510934,0.0012546867284111,-0.0012546873918323,0.0012546869406367,-0.00077364502832708,0.00077364513870872,0.7409707613266,128566,2924,0.0052086846746529,0.0067664801640095,0.0040417090439348,39.723580903324,6.1788647226594e-05,6.1788647226594e-05,6.1788647226594e-05,3797872.0518601,0.016148182138254
38791759,0.97066553076845,0.016240934842283,0.0054072370214203,0.0063065648316691,0.0045271329891935,-0.0012553339412873,0.0012553375121843,2.0530390976972e-09,1.5195977982421e-09,1.8854562857223e-09,1.8344791543623e-09,-0.00048631605706156,0.00048631965057509,-0.0011571183956108,0.0011571220435964,-0.0011571183811849,0.0011571221297792,-0.00048631532892969,0.00048632010755754,-0.0004863163545789,0.00048631901014532,-0.0011571181910965,0.0011571223340372,-0.0011571185499421,0.0011571219409109,-0.0014906739944796,0.0014906776420862,-0.0014906742032974,0.0014906775237371,-0.0014906738487701,0.0014906775438012,-0.0014906739794509,0.0014906772591489,-0.0012906733222452,0.001290677310606,-0.0012906737353677,0.0012906768992939,-0.0012906732691245,0.0012906773915106,-0.0012906738591579,0.0012906767462645,-0.00048631590167485,0.00048631959621677,1.5324470002666e-09,1.0393830405616e-09,1.4251869108123e-09,9.7995678358117e-10,-0.0016346025544732,0.0016346051795595,-0.001596177560832,0.0015961796442676,-0.0016692963387179,0.0016692997156314,-0.0016692966912718,0.0016692989971815,-0.0015764339489886,0.001576437133378,-0.0015764340707277,0.0015764369779124,-0.0015764342208536,0.0015764368119087,-0.0015764342896441,0.0015764367210149,-0.001596177076112,0.0015961799389504,-0.0015961776169079,0.0015961795392857,-0.0016692964739631,0.0016692995128984,-0.0016692968754941,0.0016692988283519,-0.0015961771180017,0.001596179999083,-4.2774613758139e-10,-6.167514307995e-11,-0.00097322819332662,0.00097322771547534,-3.4013553740347e-10,-1.8571367686601e-10,-0.00077479054390892,0.00077478963991519,-0.00070876700490868,0.0007087669940214,-0.00070876742858587,0.00070876667749182,-0.00077479008190498,0.0007747895573684,-0.00077479016098921,0.00077478924900685,-0.00070876739834283,0.00070876659410346,-0.00070876717567564,0.00070876656321637,-0.0012497182174372,0.0012497177076014,-0.0012497180709464,0.0012497174567318,-0.0012497180803609,0.0012497177618561,-0.0012497179556627,0.0012497175878994,-0.0012577266342286,0.0012577267984884,-0.0012577272890994,0.001257726360464,-0.0012577268865852,0.0012577261097639,-0.0012577267859902,0.0012577263636018,-0.00077478986929433,0.00077479004999284,0.74288655327408,128566,2924,0.0052210282326572,0.006785434568951,0.0040498116543285,39.754651240664,6.2037209925309e-05,6.2037209925309e-05,6.2037209925309e-05,3786809.3732611,0.016188238046839
38880000,0.97172389564397,0.016258290142223,0.0054129913374952,0.0063136692942815,0.0045316295104468,-0.0012565564906443,0.0012565602704976,2.1471159975654e-09,1.6305921565436e-09,1.5399903329407e-09,2.4029388999249e-09,-0.00048613985861932,0.00048614471740847,-0.0011582381091595,0.0011582428243665,-0.0011582380254741,0.0011582429447606,-0.00048614007872485,0.00048614430270095,-0.00048614123018892,0.00048614307029399,-0.0011582387685181,0.0011582422566023,-0.0011582391457251,0.0011582418175467,-0.0014922735936324,0.0014922771524881,-0.0014922738161587,0.0014922770283475,-0.0014922731674631,0.0014922773467012,-0.0014922732789503,0.0014922770881307,-0.0012920337332732,0.001292038173211,-0.0012920341005324,0.0012920378322826,-0.0012920339534579,0.0012920380070118,-0.0012920346001236,0.0012920373559053,-0.0004861398617123,0.0004861445293033,1.8828851876206e-09,5.6880162373613e-10,1.3803391296459e-09,9.3772394717709e-10,-0.0016365541087499,0.001636556623467,-0.0015979513044232,0.0015979535797914,-0.0016713386368122,0.0016713427640442,-0.0016713398639371,0.0016713411868028,-0.0015782967056455,0.0015783000451091,-0.0015782968452958,0.0015782998748858,-0.0015782972567269,0.0015782994330033,-0.0015782973060464,0.00157829935986,-0.0015979511530118,0.0015979536467412,-0.0015979515762239,0.0015979532306021,-0.0016713388537911,0.0016713425342002,-0.001671339986964,0.0016713410659114,-0.0015979508916728,0.0015979540495824,-4.2816888119191e-10,-3.9183225233042e-11,-0.00097398275242797,0.00097398230304439,-3.7033694451754e-10,-1.046718197586e-10,-0.00077518316426915,0.00077518228924588,-0.00070919279090839,0.00070919300744423,-0.00070919325364056,0.00070919265148711,-0.00077518290174676,0.00077518219222347,-0.00077518282254023,0.00077518197533761,-0.00070919340842975,0.00070919252665969,-0.00070919311196757,0.00070919252099899,-0.0012510080714942,0.0012510075552993,-0.0012510079016748,0.0012510073243192,-0.0012510079417437,0.0012510076025008,-0.0012510077636146,0.0012510074815562,-0.0012589863937997,0.0012589866794918,-0.0012589871178105,0.0012589861694474,-0.0012589867017602,0.0012589859198478,-0.0012589866265784,0.0012589861565407,-0.0007751823727981,0.00077518283349408,0.74370269940695,128566,2924,0.0052261114807372,0.0067934993797748,0.0040529560179855,39.755874591606,6.2046996732848e-05,6.2046996732848e-05,6.2046996732848e-05,3779950.5337441,0.016204802596089
