time,ASR_ext,ASR_strain,ASR_strain_xx,ASR_strain_yy,ASR_strain_zz,disp_x_101,disp_x_102,disp_x_103,disp_x_104,disp_x_105,disp_x_106,disp_x_p10_neg,disp_x_p10_pos,disp_x_p11_neg,disp_x_p11_pos,disp_x_p12_neg,disp_x_p12_pos,disp_x_p13_neg,disp_x_p13_pos,disp_x_p14_neg,disp_x_p14_pos,disp_x_p15_neg,disp_x_p15_pos,disp_x_p16_neg,disp_x_p16_pos,disp_x_p1_neg,disp_x_p1_pos,disp_x_p2_neg,disp_x_p2_pos,disp_x_p3_neg,disp_x_p3_pos,disp_x_p4_neg,disp_x_p4_pos,disp_x_p5_neg,disp_x_p5_pos,disp_x_p6_neg,disp_x_p6_pos,disp_x_p7_neg,disp_x_p7_pos,disp_x_p8_neg,disp_x_p8_pos,disp_x_p9_neg,disp_x_p9_pos,disp_y_101,disp_y_102,disp_y_103,disp_y_104,disp_y_105,disp_y_106,disp_y_p10_neg,disp_y_p10_pos,disp_y_p11_neg,disp_y_p11_pos,disp_y_p12_neg,disp_y_p12_pos,disp_y_p1_neg,disp_y_p1_pos,disp_y_p2_neg,disp_y_p2_pos,disp_y_p3_neg,disp_y_p3_pos,disp_y_p4_neg,disp_y_p4_pos,disp_y_p5_neg,disp_y_p5_pos,disp_y_p6_neg,disp_y_p6_pos,disp_y_p7_neg,disp_y_p7_pos,disp_y_p8_neg,disp_y_p8_pos,disp_y_p9_neg,disp_y_p9_pos,disp_z_101,disp_z_102,disp_z_103,disp_z_104,disp_z_105,disp_z_106,disp_z_p10_neg,disp_z_p10_pos,disp_z_p11_neg,disp_z_p11_pos,disp_z_p12_neg,disp_z_p12_pos,disp_z_p13_neg,disp_z_p13_pos,disp_z_p14_neg,disp_z_p14_pos,disp_z_p15_neg,disp_z_p15_pos,disp_z_p16_neg,disp_z_p16_pos,disp_z_p1_neg,disp_z_p1_pos,disp_z_p2_neg,disp_z_p2_pos,disp_z_p3_neg,disp_z_p3_pos,disp_z_p4_neg,disp_z_p4_pos,disp_z_p5_neg,disp_z_p5_pos,disp_z_p6_neg,disp_z_p6_pos,disp_z_p7_neg,disp_z_p7_pos,disp_z_p8_neg,disp_z_p8_pos,disp_z_p9_neg,disp_z_p9_pos,humidity,ndof,nelem,strain_xx,strain_yy,strain_zz,temp,thermal_strain_xx,thermal_strain_yy,thermal_strain_zz,vonmises,vstrain
14391759,0,0,0,0,0,0,0,0,0,0,0,0,0,0,0,0,0,0,0,0,0,0,0,0,0,0,0,0,0,0,0,0,0,0,0,0,0,0,0,0,0,0,0,0,0,0,0,0,0,0,0,0,0,0,0,0,0,0,0,0,0,0,0,0,0,0,0,0,0,0,0,0,0,0,0,0,0,0,0,0,0,0,0,0,0,0,0,0,0,0,0,0,0,0,0,0,0,0,0,0,0,0,0,0,0,0,0,0,0,0,0,0,0,0,0,0,0,0,0,0,0,0,0
14891759,0.06346045264938,0.0010184489818574,0.00033948299395245,0.00033948299395245,0.00033948299395245,-0.00011625290662728,0.00011623944363271,-5.9012210377187e-09,-5.9012210644862e-09,-4.543073112404e-09,-7.1177557555946e-09,-0.00010500261294337,0.00010498566155943,-0.00011415128437519,0.00011413662242431,-0.00011415259536524,0.00011413793341428,-0.00010499865280466,0.00010498648544747,-0.00010500023033111,0.00010498806297399,-0.00011414884408809,0.00011413912033192,-0.00011415014876938,0.00011414042501315,-0.00012187604340536,0.00012186499133939,-0.00012187656873438,0.0001218655166683,-0.00012187688881384,0.00012186411100405,-0.00012187741700055,0.00012186463919076,-0.00011230299679951,0.00011228980186617,-0.00011230348499569,0.00011229029006238,-0.00011230216633331,0.00011229064983021,-0.00011230264843843,0.00011229113193553,-0.00010500102294594,0.00010498407156197,-7.9425381360038e-10,1.654517745603e-09,6.20387497915e-10,2.042571245005e-10,-0.00012146876126829,0.00012146958946613,-0.00011881602095903,0.00011881560068923,-0.00011761718338365,0.00011761578284528,-0.00011761569195888,0.00011761907623392,-0.00012457281543124,0.00012457291513853,-0.00012457320305504,0.00012457300953783,-0.00012457230478175,0.00012457413721457,-0.00012457269240568,0.00012457423161377,-0.0001188139466789,0.00011881600901868,-0.00011881552753877,0.00011881678079571,-0.00011761702750163,0.00011761534443409,-0.00011761553607685,0.0001176186378226,-0.00011881444009927,0.00011881482891214,-6.9477102908043e-10,-6.9477098834454e-10,-0.00011656160078217,0.00011655782600439,-1.0712184946289e-09,-6.403799404096e-10,-0.00010954239398873,0.00010953971199529,-0.00011078973676903,0.00011078543907167,-0.00011078944685393,0.00011078514915626,-0.00010954391246252,0.00010954042710618,-0.00010954273670743,0.00010953925135092,-0.00011079017175774,0.00011078504705657,-0.00011078983044024,0.00011078470573914,-0.00012199020043697,0.00012198883540993,-0.00012199006729582,0.00012198899433092,-0.00012199063102062,0.00012198926599357,-0.00012199047429206,0.00012198940132718,-0.00011614476448585,0.00011614387128345,-0.00011614374716367,0.00011614285396129,-0.00011614386025952,0.00011614268410726,-0.00011614492940928,0.00011614375325711,-0.00010954346146411,0.00010954077947074,0.64373504832551,123579,2954,0.00048424089765809,0.00050599190916637,0.00048554641371434,30.459285925764,0.00015887428740611,0.00015887428740611,0.00015887428740611,1284719.8676951,0.0014768745262075
15391759,0.11458963924144,0.0018512365232837,0.00061338142507775,0.00062450931689586,0.00061334578131009,-0.00017222209890107,0.00017221411166404,-3.7953038782445e-09,-3.7953562074768e-09,-1.9074525593028e-09,-5.5779948192636e-09,-0.00015263972086956,0.00015262838877785,-0.00017070852624261,0.00017069739931967,-0.00017070931347726,0.00017069818671144,-0.00015263560065586,0.00015263124247348,-0.00015263625747483,0.00015263189890348,-0.00017070499611738,0.00017070101305576,-0.0001707057795108,0.00017070179660672,-0.0001827786412526,0.00018277197971182,-0.00018277901293532,0.00018277235139331,-0.0001827798446828,0.00018277072521277,-0.00018278021790644,0.00018277109843515,-0.00016605798346559,0.00016604905180981,-0.00016605853387754,0.00016604960212481,-0.00016605679160705,0.00016605026398384,-0.00016605733961448,0.00016605081189205,-0.00015263905775406,0.00015262772604378,-8.7762034565748e-10,2.6368669963698e-09,1.0173273610349e-09,6.8797400628915e-10,-0.00018478280332706,0.0001847845128386,-0.00018036209458607,0.00018036228440313,-0.00017795383824691,0.00017795225190928,-0.00017795072410303,0.00017795602729097,-0.0001907794014926,0.00019077999537593,-0.00019078009531779,0.00019078046630113,-0.00019077858272731,0.00019078159755202,-0.0001907792765552,0.00019078206848271,-0.00018036030759608,0.00018036351520507,-0.00018036123113429,0.00018036379385597,-0.00017795398095035,0.00017795217454678,-0.00017795086696192,0.00017795595007989,-0.00018036117096843,0.00018036200567339,-4.5676531563682e-10,-4.5681732048561e-10,-0.00017277364059112,0.00017277210916436,-5.4330799430636e-10,-2.0669977300058e-10,-0.00016212559551521,0.00016212477576233,-0.0001628952060783,0.00016289400663751,-0.00016289502027059,0.00016289382080444,-0.00016212625634857,0.00016212478570068,-0.00016212584678264,0.00016212437722287,-0.00016289555961192,0.00016289370093885,-0.00016289531771808,0.00016289345901786,-0.00018330589017252,0.00018330483667586,-0.00018330579061192,0.00018330496392465,-0.00018330631911967,0.00018330526563342,-0.00018330619296729,0.00018330536629049,-0.00017411575818924,0.0001741149471429,-0.0001741153448498,0.00017411453369723,-0.00017411542151907,0.00017411438800609,-0.00017411589567156,0.00017411486226558,-0.0001621258737769,0.0001621250529501,0.66498198186136,123579,2954,0.00071731725252097,0.000769631768461,0.00071962609476177,27.264932678115,0.00013331946142492,0.00013331946142492,0.00013331946142492,1718711.1873517,0.002209024467341
15891759,0.16085356101394,0.0026904377272182,0.00088501798383055,0.00092021013184078,0.00088520961154682,-0.00023081369715519,0.00023080831809584,-2.554324866489e-09,-2.5543581260354e-09,-7.229551868403e-10,-4.2920676398974e-09,-0.000201891186698,0.00020188303292237,-0.00023288866992905,0.00023288011969766,-0.00023288914031595,0.00023288059024671,-0.00020188763970257,0.00020188631211215,-0.0002018877976686,0.00020188646958439,-0.00023288522024049,0.00023288364865584,-0.00023288568904906,0.00023288411762976,-0.00024481833140065,0.00024481401913828,-0.00024481857444495,0.00024481426216206,-0.00024481950968085,0.00024481279928406,-0.00024481975343931,0.0002448130430206,-0.00022414119591558,0.00022413479657378,-0.00022414154616272,0.00022413514678411,-0.00022414003262043,0.00022413597837005,-0.00022414038178348,0.00022413632748144,-0.00020189102582274,0.00020188287258932,-7.3028398301678e-10,2.6962925171071e-09,1.0807052068926e-09,8.3446174591352e-10,-0.00025468380876302,0.00025468572684699,-0.00025124683781499,0.00025124735286492,-0.00024603929193777,0.00024603797046713,-0.00024603596224281,0.00024604136121481,-0.00026047296801124,0.00026047378787171,-0.00026047352393046,0.00026047417859009,-0.00026047206274708,0.00026047520894448,-0.00026047261866385,0.00026047559966295,-0.00025124563805099,0.00025124893984602,-0.00025124585740309,0.00025124867691905,-0.00024603949798218,0.00024603801299484,-0.00024603616840902,0.00024604140385636,-0.00025124661847192,0.00025124761582898,-3.1333267578419e-10,-3.1336555573745e-10,-0.00023153363991591,0.00023153265872803,-3.1725372053573e-10,-6.6386222350888e-11,-0.00022075284110591,0.0002207525926071,-0.000217717451955,0.00021771710689884,-0.00021771734399639,0.00021771699901349,-0.00022075300718495,0.00022075226933372,-0.00022075302605416,0.00022075228894668,-0.00021771772063434,0.00021771688183903,-0.00021771756658527,0.00021771672784538,-0.0002459130899226,0.0002459121749817,-0.00024591301561538,0.00024591226937373,-0.00024591339632939,0.00024591248141008,-0.00024591330094749,0.00024591255473152,-0.00023856142295473,0.00023856075402002,-0.00023856130873188,0.00023856063976974,-0.00023856136350454,0.00023856052854687,-0.00023856152707923,0.00023856069215456,-0.00022075271596739,0.00022075246679775,0.7444907159995,123579,2954,0.00096125345169377,0.0010606177788733,0.00096425588951753,25.412649633102,0.00011850119706482,0.00011850119706482,0.00011850119706482,1689109.2969564,0.0029906034185481
16391759,0.20595846708626,0.0035173304175644,0.0011471980877228,0.0012224309659845,0.001147701363857,-0.00028819318289582,0.00028818910003166,-1.9372695832146e-09,-1.9373011041193e-09,-2.2266862758216e-10,-3.5700999091925e-09,-0.00024306007546826,0.00024305359588445,-0.0002953023011514,0.00029529520383871,-0.00029530264495369,0.00029529554782977,-0.00024305695947016,0.00024305690019935,-0.00024305688888817,0.00024305682905503,-0.00029529905805297,0.00029529851692025,-0.0002952994013102,0.00029529886037107,-0.00030691536630477,0.00030691220583682,-0.00030691553831418,0.00030691237781518,-0.00030691647705614,0.00030691106084529,-0.00030691664945669,0.00030691123321329,-0.00028003665803928,0.00028003159921882,-0.00028003681093858,0.00028003175209369,-0.00028003556547277,0.00028003270982388,-0.00028003571769365,0.0002800328620005,-0.00024306014439753,0.00024305366541683,-6.2298981012203e-10,2.5936711477279e-09,1.0555753050902e-09,8.6941142223225e-10,-0.00032792140530293,0.00032792333143067,-0.00032605102666003,0.0003260516844672,-0.00031584604567845,0.00031584491576311,-0.00031584285751151,0.00031584803423586,-0.00033303696995537,0.00033303785435533,-0.00033303742272919,0.00033303818216098,-0.00033303605628513,0.00033303911368208,-0.00033303650906515,0.00033303944149558,-0.00032604997844107,0.00032605315809046,-0.00032605003905945,0.00032605285391219,-0.00031584622522972,0.00031584497237791,-0.00031584303714231,0.00031584809092312,-0.00032605096607812,0.00032605198870768,-2.1976495741596e-10,-2.1979606898391e-10,-0.00028895805676128,0.00028895734916095,-2.1630241561887e-10,-2.6679565380385e-11,-0.00027731621106096,0.00027731614563632,-0.00026916580610219,0.00026916567623966,-0.0002691657278335,0.00026916559807489,-0.000277316178411,0.00027731574074096,-0.00027731634810732,0.00027731591120605,-0.00026916601186966,0.00026916550737095,-0.000269165898662,0.00026916539425366,-0.0003085579400262,0.00030855712239417,-0.00030855788330343,0.00030855719315004,-0.00030855817532282,0.00030855735772252,-0.00030855810140917,0.00030855741129076,-0.00030354392178582,0.00030354341010565,-0.00030354392864703,0.00030354341696328,-0.00030354396587137,0.00030354332877793,-0.00030354400167691,0.00030354336459271,-0.00027731595473337,0.0002773158886128,0.7519798507018,123579,2954,0.0012000883389387,0.0013653993275068,0.0012032687216643,24.44824093512,0.00011078592748096,0.00011078592748096,0.00011078592748096,1955476.4140246,0.0037758825121155
16891759,0.25063797343477,0.0043869979204845,0.0014180193005174,0.0015509589815938,0.0014180196383733,-0.0003483866647703,0.00034838345004968,-1.5277018971822e-09,-1.5277327572688e-09,-2.9159549475191e-11,-2.9679028172532e-09,-0.00028472896656605,0.00028472379671127,-0.00036272241924559,0.00036271651479944,-0.00036272268312386,0.00036271677888908,-0.00028472637439038,0.00028472683744429,-0.00028472617097152,0.00028472663338434,-0.00036271957259248,0.0003627194255498,-0.00036271983632505,0.00036271968949997,-0.00037204321789638,0.00037204076072202,-0.00037204335130899,0.00037204089409643,-0.00037204419972307,0.00037203975308407,-0.00037204433344686,0.00037203988676819,-0.00033835204347959,0.00033834797218796,-0.00033835210484484,0.00033834803352203,-0.00033835108432364,0.00033834894784764,-0.00033835114500142,0.0003383490084727,-0.00028472916876938,0.00028472399959114,-4.7822860747372e-10,2.3405661149736e-09,9.7345022396974e-10,8.4969761384321e-10,-0.00040772781897305,0.0004077296419854,-0.00040910506999616,0.00040910582245407,-0.00039132527739362,0.00039132441421197,-0.000391322517914,0.00039132717527699,-0.00041114705909131,0.00041114795424447,-0.00041114744687991,0.00041114825832127,-0.00041114622722654,0.00041114902706107,-0.00041114661502841,0.00041114933115231,-0.00040910426714697,0.00040910714929445,-0.00040910417035709,0.00040910680994242,-0.00039132542668907,0.00039132448226735,-0.00039132266725257,0.00039132724336905,-0.00040910516685143,0.00040910616189368,-1.9011634041086e-10,-1.9014675079067e-10,-0.00034888243543195,0.00034888186187158,-1.6160687740686e-10,-3.4890430158073e-11,-0.00033708212160816,0.00033708208305573,-0.00032196523298453,0.00032196519984932,-0.00032196517381257,0.00032196514080205,-0.00033708196218516,0.00033708167378289,-0.00033708220645963,0.00033708191889896,-0.00032196537532975,0.00032196509046592,-0.00032196528917919,0.00032196500442815,-0.00037413161341201,0.0003741308556695,-0.0003741315757775,0.00037413090357801,-0.00037413180116214,0.00037413104345841,-0.0003741317493181,0.0003741310771599,-0.00037362672282466,0.00037362625489404,-0.00037362678717503,0.00037362631923779,-0.00037362680725998,0.00037362625571219,-0.00037362677883037,0.00037362622729362,-0.000337081805918,0.00033708176659273,0.80138220899585,123579,2954,0.0014505807731673,0.0016974082682997,0.0014526288818953,23.815263675585,0.00010572210940468,0.00010572210940468,0.00010572210940468,2309758.9943528,0.0046112335245489
17391759,0.29082822754038,0.0050780900504663,0.0016289189674121,0.0018204070510007,0.0016287640320535,-0.00039220245129346,0.00039220073523846,-8.5229239316272e-10,-8.5232292817107e-10,4.4848926916657e-10,-2.1206578219475e-09,-0.00030870707100295,0.0003087038383328,-0.00041103703756777,0.00041103285448407,-0.00041103716671996,0.00041103298385702,-0.00030870500218303,0.00030870670617506,-0.00030870462016056,0.00030870632349318,-0.00041103454169167,0.00041103540417465,-0.00041103467132236,0.00041103553403293,-0.00042265995575539,0.00042265875531011,-0.00042266002591566,0.0004226588254259,-0.00042266081878092,0.00042265787390922,-0.00042266088896677,0.00042265794404926,-0.00037789793333172,0.00037789539567194,-0.00037789791264582,0.00037789537494919,-0.00037789709363901,0.00037789624900768,-0.00037789707277296,0.00037789622808349,-0.00030870745301804,0.00030870422103998,-3.6998590848961e-10,2.0948478891033e-09,8.7642495307664e-10,8.1591101950783e-10,-0.00047153299626929,0.00047153468716226,-0.00047454862615124,0.00047454943077812,-0.00044955025029746,0.00044954957745797,-0.00044954778865183,0.00044955194218182,-0.00047505707024573,0.00047505793367974,-0.00047505739357081,0.00047505821668407,-0.0004750563006123,0.00047505882613987,-0.00047505662395449,0.00047505910916231,-0.00047454807066219,0.00047455064008106,-0.00047454779926427,0.00047455024940062,-0.00044955039128933,0.00044954967978213,-0.00044954792966579,0.00044955204452211,-0.0004745488976265,0.00047454982155492,-1.2173026143731e-10,-1.2176027170985e-10,-0.00039259495356072,0.00039259472866825,-5.6892846293481e-11,5.0949110341123e-12,-0.00037649605599795,0.00037649623250046,-0.00035631778884028,0.00035631812066085,-0.00035631776166226,0.00035631809361262,-0.00037649572705539,0.00037649577644373,-0.00037649608837874,0.00037649613866542,-0.0003563178657509,0.00035631807092429,-0.00035631781959514,0.00035631802488795,-0.00042535490667632,0.00042535428638843,-0.00042535488879441,0.00042535431048639,-0.00042535503482184,0.00042535441457525,-0.00042535500615763,0.00042535442789322,-0.00042592140537868,0.00042592103021977,-0.00042592157222649,0.00042592119705724,-0.0004259215751569,0.0004259211590591,-0.00042592143677514,0.00042592102069085,-0.00037649563893991,0.00037649581461061,0.7107781577386,123579,2954,0.0016328897398262,0.0019627646472874,0.0016344930730198,22.123235126625,9.2185881012997e-05,9.2185881012997e-05,9.2185881012997e-05,2569087.5339481,0.0052438741853193
17891759,0.3245174410719,0.005557986507497,0.0017744416843919,0.0020099795513316,0.0017735652717735,-0.00042055164311454,0.00042055136567567,-1.9748041525593e-10,-1.975108434146e-10,8.5801458815506e-10,-1.2458678819591e-09,-0.0003257821146626,0.00032578077427242,-0.00044191917337754,0.00044191676830106,-0.00044191918238458,0.00044191677753396,-0.00032578060149977,0.00032578331314733,-0.00032578010290196,0.00032578281387881,-0.00044191712274565,0.00044191886055665,-0.00044191713279944,0.0004419188708433,-0.00045605468372168,0.00045605469649338,-0.00045605469595422,0.00045605470867864,-0.00045605539679184,0.00045605397362587,-0.00045605540880623,0.00045605398559168,-0.0004022749021334,0.0004022738762813,-0.00040227481981409,0.00040227379391948,-0.00040227421334209,0.00040227457566533,-0.00040227413129859,0.00040227449355777,-0.00032578261431563,0.00032578127462864,-2.5066975121852e-10,1.7680940458817e-09,7.4059495892061e-10,7.5236010576815e-10,-0.00051278512866169,0.00051278661890351,-0.00051357188621566,0.00051357271392681,-0.00048466099560528,0.00048466053082353,-0.00048465894475219,0.00048466243066491,-0.00052009443699989,0.00052009522969245,-0.00052009467960026,0.00052009548102294,-0.00052009376019966,0.0005200959095704,-0.00052009400281997,0.00052009616092156,-0.00051357156673143,0.00051357371589719,-0.00051357116371936,0.00051357333481206,-0.00048466111686756,0.00048466066182671,-0.00048465906602842,0.00048466256167595,-0.00051357228931239,0.0005135730951144,-6.8654074503385e-11,-6.8683912358403e-11,-0.00042081967675148,0.0004208197254163,2.8113067253328e-11,1.6421429082937e-11,-0.00040115904839757,0.00040115932283691,-0.00037876365910432,0.00037876421642441,-0.00037876366045374,0.00037876421790634,-0.00040115857606116,0.00040115886483936,-0.00040115901957593,0.0004011593092752,-0.00037876366136201,0.00037876423538307,-0.00037876365195624,0.00037876422609986,-0.00045954510570284,0.00045954463051636,-0.00045954511054546,0.00045954462786848,-0.00045954517598093,0.00045954470083837,-0.00045954517364347,0.00045954469101253,-0.00045699890459454,0.00045699860068794,-0.00045699913258495,0.00045699882866228,-0.00045699911570994,0.00045699881953426,-0.00045699890817752,0.00045699861202052,-0.00040115856594202,0.00040115883952675,0.59260256382937,123579,2954,0.0017508276925886,0.0021342851073486,0.001751903190922,19.639563040663,7.2316504325308e-05,7.2316504325308e-05,7.2316504325308e-05,2885205.7434971,0.0056529713566905
18391759,0.353476337852,0.0059686007747182,0.0018986984540219,0.0021727783454537,0.0018971239752427,-0.00044524146574485,0.00044524177394515,8.5309751213307e-11,8.5279406816778e-11,9.5623670724263e-10,-7.8871699050204e-10,-0.00034220920761882,0.00034220877034728,-0.00047007998231897,0.00047007849112258,-0.00047007994826418,0.0004700784572993,-0.00034220807142501,0.00034221098889951,-0.00034220754124573,0.00034221045803728,-0.00047007827800651,0.00047008022689449,-0.00047007824507314,0.00047008019419974,-0.00048405260955016,0.00048405311385539,-0.00048405259864057,0.00048405310289663,-0.00048405320719787,0.00048405251278403,-0.00048405319604269,0.00048405250157841,-0.00042457485808292,0.00042457452952411,-0.00042457474540468,0.00042457441680008,-0.00042457428662194,0.00042457510941083,-0.000424574174202,0.00042457499692333,-0.00034220973893023,0.00034220930237343,-1.7820560194119e-10,1.4918801263858e-09,6.1396199777947e-10,6.818127731025e-10,-0.00054760870966228,0.00054761000161813,-0.00054670472825142,0.00054670553144098,-0.00051432670317405,0.00051432635986341,-0.00051432501483874,0.00051432793649637,-0.00055823781876899,0.00055823851210282,-0.00055823799890588,0.0005582387379962,-0.00055823721753519,0.00055823903593347,-0.00055823739769416,0.00055823926184948,-0.00054670455795064,0.00054670633864304,-0.00054670409549823,0.00054670600803672,-0.00051432680151498,0.0005143265052001,-0.00051432511318563,0.00051432808183281,-0.00054670519079413,0.00054670586215425,-6.278174069327e-11,-6.281145836446e-11,-0.00044539495912039,0.00044539502776354,4.5888599318614e-11,-2.2077840963584e-11,-0.0004247826821228,0.00042478287675641,-0.00039992003619503,0.00039992052276477,-0.00039992004492021,0.00039992053162418,-0.00042478214965973,0.00042478246907811,-0.00042478260333673,0.00042478292369725,-0.00039991998197252,0.00039992059573764,-0.00039991998417455,0.00039992059806445,-0.00048830733473613,0.00048830691255821,-0.00048830735734862,0.00048830689017396,-0.00048830737405179,0.00048830695191989,-0.0004883073912656,0.00048830692413888,-0.00048388186111571,0.00048388155893072,-0.00048388208481667,0.00048388178261172,-0.00048388205166373,0.00048388179462429,-0.00048388184441103,0.00048388158739377,-0.00042478219803691,0.00042478239179434,0.59387052420227,123579,2954,0.0018535287779518,0.0022790528218108,0.0018541199807531,17.515917050325,5.5327336402602e-05,5.5327336402602e-05,5.5327336402602e-05,3141943.7978992,0.006004703296736
18891759,0.38146757922737,0.0064028255170247,0.0020295042811266,0.0023461019025082,0.0020272193333899,-0.00047336651245967,0.00047336629104152,-1.325283474529e-10,-1.3255875414899e-10,7.5537074175117e-10,-1.0165988828372e-09,-0.00035614540023523,0.00035614438668454,-0.00050336354880279,0.00050336157756559,-0.00050336355510124,0.00050336158410161,-0.00035614419138475,0.00035614656980851,-0.00035614371350053,0.00035614609122654,-0.00050336181989396,0.00050336333551944,-0.00050336182693541,0.0005033633428057,-0.0005164063307348,0.00051640639851519,-0.00051640633712212,0.00051640640485137,-0.00051640693769516,0.00051640578789214,-0.00051640694400246,0.00051640579414704,-0.00045050450742289,0.00045050371363971,-0.00045050439740999,0.00045050360357745,-0.00045050392751088,0.00045050430165851,-0.000450503817327,0.0004505041914036,-0.0003561458784341,0.00035614486561103,-2.0652959582438e-10,1.4855481218959e-09,5.9397224915845e-10,6.6819175678873e-10,-0.0005899162073745,0.00058991746501383,-0.00059016424817729,0.00059016501589915,-0.00055211686634786,0.00055211646529896,-0.00055211520625741,0.00055211811145856,-0.0006011423816228,0.00060114302707087,-0.00060114254775384,0.00060114324195624,-0.00060114175828884,0.00060114355330029,-0.00060114192444363,0.00060114376820985,-0.00059016404296484,0.0005901657917474,-0.00059016360437057,0.00059016549783573,-0.00055211695026095,0.0005521166000886,-0.00055211529016895,0.0005521182462404,-0.00059016468686685,0.00059016530992151,-1.0068866380985e-10,-1.0071837118907e-10,-0.00047337786090672,0.00047337772223952,-3.3237979529011e-12,-7.6772162729304e-11,-0.00045158074133194,0.0004515807635078,-0.00042243466915221,0.00042243489474702,-0.00042243466330847,0.00042243488903837,-0.00045158025473206,0.00045158041479751,-0.0004515806543109,0.00045158081535561,-0.00042243460997054,0.00042243497449685,-0.00042243459607979,0.00042243496073242,-0.00052122453050983,0.00052122403757832,-0.00052122455525855,0.0005212240140101,-0.00052122457634258,0.00052122408345877,-0.00052122459479515,0.00052122405359608,-0.0005181016188227,0.00051810125820704,-0.00051810179577563,0.00051810143513771,-0.00051810175977372,0.00051810144815669,-0.00051810160127205,0.00051810128967931,-0.00045158030736448,0.00045158032862558,0.65137566946256,123579,2954,0.0019705141065082,0.0024549028045769,0.0019705013386223,16.908433563765,5.0467468510123e-05,5.0467468510123e-05,5.0467468510123e-05,3242140.5793841,0.0064164688896143
19391759,0.41096866102514,0.0069061580614829,0.0021792682730379,0.0025503932811557,0.0021764965072893,-0.00050726609903577,0.00050726507110096,-4.8859804884147e-10,-4.8862830582155e-10,5.6303856838175e-10,-1.5352943835163e-09,-0.00037151145787933,0.00037150924493416,-0.00054372834158578,0.00054372531200688,-0.00054372841759181,0.00054372538825706,-0.00037150985022301,0.00037151165907575,-0.00037150945649059,0.00037151126463671,-0.00054372629679101,0.00054372738992012,-0.00054372637321488,0.00054372746659549,-0.00055548780129105,0.00055548725830775,-0.00055548783540068,0.00055548729236366,-0.00055548851400641,0.00055548653794975,-0.00055548854816419,0.00055548657205254,-0.00048185442075436,0.00048185278437399,-0.00048185432612419,0.00048185268968766,-0.00048185373346058,0.00048185348060391,-0.00048185363836777,0.00048185338543364,-0.00037151185130124,0.00037150963909062,-3.225947688189e-10,1.6897477616342e-09,6.5700590824402e-10,6.8999355715575e-10,-0.00064264179050897,0.00064264313283923,-0.0006458067349611,0.0006458074391669,-0.00060005092341705,0.00060005030829343,-0.0006000490085244,0.00060005232902962,-0.00065292481911373,0.0006529254531749,-0.00065292500422562,0.00065292565882208,-0.00065292409743192,0.00065292609971813,-0.00065292428256914,0.00065292630539092,-0.00064580630112922,0.00064580828195859,-0.00064580599696162,0.00064580804202596,-0.00060005099925165,0.00060005040723413,-0.00060004908435119,0.00060005242795628,-0.00064580703922884,0.00064580767921368,-1.3836788004448e-10,-1.3839735076182e-10,-0.0005070408609239,0.00050704049966674,-7.6734968071457e-11,-1.0841373213049e-10,-0.00048350586457866,0.00048350574004037,-0.00044867691574693,0.00044867688500172,-0.00044867689358829,0.00044867686297871,-0.00048350549404763,0.00048350542735736,-0.00048350581507736,0.00048350574941097,-0.00044867689747126,0.0004486769246186,-0.00044867686530897,0.00044867689258399,-0.00056093936058699,0.00056093879002735,-0.00056093937202908,0.00056093878123114,-0.00056093942438405,0.00056093885387412,-0.00056093942842191,0.00056093883767509,-0.00056112554408059,0.00056112514870118,-0.0005611256678291,0.00056112527242264,-0.00056112564424392,0.00056112527014767,-0.00056112554151533,0.00056112516744777,-0.00048350550475077,0.00048350537925167,0.71635337683096,123579,2954,0.0021115082425528,0.0026740096220247,0.0021104926357102,17.474182592759,5.4993460742074e-05,5.4993460742074e-05,5.4993460742074e-05,3313281.8337859,0.0069199025812688
19891759,0.44335442614001,0.0074198882594098,0.0023302050750709,0.0027628415566558,0.0023268416276831,-0.00054216674800296,0.00054216499005905,-8.1735713844754e-10,-8.1738729731297e-10,3.3432265409888e-10,-1.9623006022548e-09,-0.00038653519574639,0.00038653197687541,-0.00058415618912464,0.00058415228276649,-0.00058415634124199,0.00058415243513126,-0.00038653331508292,0.00038653449423597,-0.0003865330062164,0.00038653418466007,-0.00058415395407117,0.0005841545538292,-0.00058415410628374,0.00058415470629665,-0.00059682289196924,0.00059682175819178,-0.00059682295510037,0.00059682182126666,-0.00059682366969012,0.00059682097084515,-0.00059682373299065,0.00059682103408821,-0.00051282555368177,0.00051282317016747,-0.00051282548142645,0.00051282309784957,-0.00051282480161794,0.00051282393177516,-0.00051282472864388,0.00051282385871732,-0.00038653550373475,0.0003865322856001,-3.9097701475881e-10,1.8126752620665e-09,6.9849960340482e-10,7.0092580271257e-10,-0.00069868466466981,0.00069868605945839,-0.00070366754781526,0.00070366820975211,-0.0006501198454218,0.00065011910686657,-0.000650117796458,0.00065012136866038,-0.0007091487568105,0.00070914938732506,-0.0007091489736971,0.00070914960383842,-0.00070914799400714,0.00070915012460943,-0.00070914821092051,0.00070915034114971,-0.00070366691809256,0.00070366904544467,-0.000703666769068,0.0007036689010786,-0.00065011991214306,0.00065011917606742,-0.00065011786316727,0.00065012143784305,-0.00070366769694338,0.00070366835423479,-1.7390913873195e-10,-1.7393841309867e-10,-0.00054161604704729,0.00054161548505243,-1.4313950303203e-10,-1.434914885144e-10,-0.00051405300618351,0.0005140527339871,-0.00047417414118373,0.000474173858172,-0.00047417410465665,0.00047417382178022,-0.00051405273803069,0.00051405246404206,-0.0005140529842336,0.00051405271130754,-0.00047417415378239,0.00047417386805054,-0.00047417410530877,0.00047417381970485,-0.00060304037705687,0.0006030397402463,-0.00060304037857867,0.00060303974261525,-0.00060304046417034,0.00060303982741122,-0.00060304045729559,0.00060303982138483,-0.00060493477953325,0.00060493434960603,-0.00060493485119585,0.00060493442123705,-0.00060493483669553,0.00060493440732075,-0.00060493478838932,0.00060493435904728,-0.00051405271701928,0.00051405244382276,0.66678161365177,123579,2954,0.0022566519743301,0.0029068448558973,0.0022542612458929,18.684431305577,6.467545044462e-05,6.467545044462e-05,6.467545044462e-05,3414423.6803676,0.0074454106079044
20391759,0.47539871759923,0.0079766226503946,0.0024926719150107,0.0029952768707536,0.0024886738646303,-0.00057867099889091,0.00057867009872605,-4.4819146935238e-10,-4.4822156160955e-10,6.2127747504666e-10,-1.5226257227999e-09,-0.00040724503179926,0.0004072428520666,-0.00062778391243137,0.00062778091419624,-0.00062778398904493,0.00062778099106157,-0.00040724337720324,0.00040724531237212,-0.00040724298283794,0.00040724491729476,-0.00062778182171416,0.00062778303704359,-0.00062778189876954,0.00062778311435827,-0.00063793615162308,0.00063793571844957,-0.00063793618408725,0.00063793575085524,-0.00063793687957639,0.00063793498365903,-0.00063793691202211,0.00063793501604503,-0.00054631020759179,0.0005463086542107,-0.00054631010815837,0.00054630855470813,-0.00054630950484382,0.00054630936515875,-0.00054630940513108,0.00054630926535573,-0.00040724542603765,0.00040724324704329,-3.4520573354003e-10,1.7132682295853e-09,6.5750421119768e-10,6.9063199278434e-10,-0.00075540864675047,0.00075540998992226,-0.00076224390225498,0.00076224459274315,-0.00070068824854367,0.00070068758821421,-0.00070068628711085,0.00070068965436956,-0.00076637796431162,0.00076637858522836,-0.00076637817459223,0.0007663788169767,-0.00076637724842375,0.00076637926456181,-0.00076637745873245,0.00076637949633826,-0.00076224334380484,0.00076224534041627,-0.0007622431649789,0.00076224522593893,-0.00070068832249594,0.00070068768543952,-0.00070068636104675,0.00070068975157228,-0.0007622440811882,0.00076224470733991,-1.2923233817313e-10,-1.2926148009904e-10,-0.00057772409464546,0.00057772378121702,-7.5631139425018e-11,-1.0766879614513e-10,-0.00054949624197715,0.00054949613294794,-0.00050355211362031,0.00050355208766582,-0.00050355209502001,0.0005035520692013,-0.00054949590099837,0.00054949584935393,-0.0005494961943933,0.00054949614384496,-0.00050355209428898,0.00050355212650378,-0.00050355206716868,0.00050355209951234,-0.00064511174443018,0.00064511120377347,-0.00064511175586642,0.00064511119454774,-0.00064511181166551,0.00064511127106195,-0.00064511181632148,0.00064511125505691,-0.00064977478122251,0.00064977441291934,-0.00064977491438485,0.00064977454604523,-0.00064977489127016,0.00064977454435736,-0.00064977477817017,0.0006497744312945,-0.00054949591282194,0.00054949580275876,0.7310461920672,123579,2954,0.0024084422405717,0.0031424528951027,0.0024043815436762,18.60695955747,6.4055676459756e-05,6.4055676459756e-05,6.4055676459756e-05,3583266.5902007,0.00798708179932
20891759,0.50448226411699,0.0084484959650963,0.0026288785527892,0.0031953187003257,0.0026242987119813,-0.00060499340156382,0.00060499368463266,7.5939168389944e-11,7.5909106102444e-11,1.0045932955997e-09,-8.6917249014176e-10,-0.00041282712740205,0.00041282647071009,-0.00065946116822088,0.00065945951486849,-0.0006594611357511,0.00065945948265018,-0.00041282582705218,0.00041282877675113,-0.00041282533094824,0.00041282827993464,-0.00065945933467324,0.00065946137396241,-0.00065945930308306,0.00065946134263134,-0.00067110068622789,0.00067110122300634,-0.00067110067414234,0.00067110121086023,-0.0006711013261807,0.00067110058015489,-0.00067110131386636,0.00067110056777882,-0.00056840046341865,0.0005684000961856,-0.00056840033016588,0.00056839996285846,-0.00056839984805258,0.00056840071783605,-0.00056839971494637,0.00056840058463449,-0.00041282762423035,0.00041282696827649,-2.6384524417949e-10,1.5364497855689e-09,5.8651452061929e-10,6.7022329935885e-10,-0.00080418359591457,0.00080418484715302,-0.00081345348409557,0.00081345422060381,-0.00074361915869178,0.00074361863973205,-0.00074361737800978,0.00074362038094613,-0.00081485910819142,0.00081485971042436,-0.00081485927546231,0.00081485993403342,-0.00081485844946255,0.00081486026744922,-0.00081485861676245,0.00081486049108719,-0.00081345313206012,0.00081345490058062,-0.00081345280334711,0.00081345473475211,-0.00074361923563229,0.000743618774006,-0.00074361745493159,0.00074362051519523,-0.00081345381291787,0.00081345438655312,-7.7458012284424e-11,-7.7487013483016e-11,-0.00060371464685656,0.00060371464367062,1.9043216503837e-11,-6.500914105213e-11,-0.00057077426079804,0.00057077434720133,-0.0005196757663273,0.00051967608803907,-0.00051967577158352,0.00051967609343039,-0.00057077379387364,0.00057077403629499,-0.00057077416930613,0.00057077441285688,-0.00051967569473452,0.0005196761751765,-0.00051967569603945,0.00051967617661002,-0.00067898710676464,0.00067898668078645,-0.00067898713464512,0.00067898665294958,-0.00067898713763989,0.00067898671171624,-0.0006789871607765,0.0006789866791364,-0.00068574213022143,0.0006857418206296,-0.00068574234548933,0.00068574203585794,-0.00068574230773675,0.00068574205387385,-0.00068574210800334,0.00068574185418036,-0.00057077385927783,0.00057077394461377,0.68432815189094,123579,2954,0.0025179082329468,0.0033449902662186,0.0025124382238518,17.403377202658,5.442701762126e-05,5.442701762126e-05,5.442701762126e-05,3655131.8055618,0.0084106020019181
21391759,0.52923320297328,0.008841142405045,0.0027418363982029,0.0033628270861753,0.0027364789206669,-0.00062607541297823,0.00062607690828211,6.1936134214203e-10,6.1933130916246e-10,1.3506267442212e-09,-1.4099289838138e-10,-0.00042219574092507,0.00042219672175322,-0.00068524647167801,0.00068524630811801,-0.00068524633125745,0.00068524616795023,-0.00042219489806404,0.00042219875542681,-0.00042219430701174,0.00042219816366089,-0.0006852450043536,0.00068524779170814,-0.00068524486520393,0.00068524765281891,-0.00069628698326119,0.00069628851057305,-0.00069628692458368,0.00069628845183371,-0.00069628749943058,0.00069628799717282,-0.00069628744034959,0.00069628793802886,-0.00058639679724633,0.00058639769198541,-0.0005863966288088,0.00058639752346984,-0.00058639630608105,0.00058639818708403,-0.00058639613812146,0.00058639801902542,-0.0004221963334491,0.00042219731501634,-1.5593586960446e-10,1.2748584773677e-09,4.7688082567694e-10,6.3212841921953e-10,-0.00084123902735352,0.00084124013011255,-0.00085065011307308,0.00085065089707348,-0.00077514657901124,0.00077514624639352,-0.00077514510704222,0.00077514757098784,-0.0008535773278417,0.00085357788478902,-0.00085357742855885,0.00085357809026733,-0.00085357675011106,0.00085357827095043,-0.00085357685085798,0.00085357847645833,-0.00085065001781395,0.00085065144461029,-0.00085064951828558,0.00085065124766316,-0.00077514664547312,0.00077514641809068,-0.00077514517348253,0.00077514774265727,-0.00085065061271293,0.00085065109414311,-3.2408441900228e-11,-3.2437343362897e-11,-0.00062448864376393,0.00062448891961479,1.1245487635278e-10,-4.4097028064591e-11,-0.00058996238525381,0.00058996260258872,-0.0005348739286828,0.00053487453091409,-0.00053487395693294,0.00053487455929959,-0.00058996177756704,0.00058996229045442,-0.00058996223003149,0.00058996274406621,-0.00053487378466039,0.00053487468669406,-0.0005348738138854,0.00053487471604814,-0.00070499420987982,0.00070499390383663,-0.00070499426087716,0.00070499385050112,-0.00070499419898411,0.0007049938929965,-0.00070499424741349,0.00070499383709378,-0.00071228483462148,0.00071228457011774,-0.00071228511887875,0.00071228485433251,-0.00071228506002421,0.00071228489926946,-0.00071228478622495,0.00071228462551272,-0.00058996191722049,0.00058996213347006,0.67004884739747,123579,2954,0.0026055649113268,0.0034988333427689,0.0025987950494955,15.325842249062,3.7806737992495e-05,3.7806737992495e-05,3.7806737992495e-05,3792262.1469167,0.0087412785903732
21891759,0.5513692122603,0.0091811819381174,0.0028391256704274,0.0035088735954352,0.0028331826722548,-0.00064444441822166,0.00064444571000197,5.4003070082984e-10,5.4000063045435e-10,1.2172255380659e-09,-1.6337199633295e-10,-0.00042791021775547,0.0004279110750267,-0.0007077203450244,0.00070772012222465,-0.00070772023357079,0.00070772001102394,-0.00042790944638019,0.00042791295315281,-0.00042790889579762,0.00042791240185449,-0.00070771898671604,0.00070772149326578,-0.00070771887623509,0.00070772138304542,-0.00071902964277408,0.00071903098406097,-0.00071902959268877,0.00071903093391268,-0.00071903012404319,0.0007190305072837,-0.0007190300736986,0.00071903045687501,-0.00060171679792316,0.0006017175591587,-0.00060171663817421,0.00060171739932851,-0.00060171634349538,0.0006017180169897,-0.00060171618386298,0.00060171785725518,-0.00042791076919063,0.00042791162720279,-1.344659197761e-10,1.1846335713973e-09,4.2782789459267e-10,6.1464143492019e-10,-0.00087510396127435,0.00087510499706568,-0.00088519581201903,0.00088519659746813,-0.00080411596689672,0.00080411566601054,-0.00080411463573588,0.00080411691002398,-0.00088848740372751,0.00088848791842143,-0.00088848747545053,0.00088848811481463,-0.00088848684573756,0.00088848825618545,-0.00088848691749099,0.00088848845260882,-0.00088519577680524,0.00088519706950604,-0.00088519524797233,0.00088519690534708,-0.00080411600781128,0.00080411583287109,-0.00080411467662742,0.0008041170768554,-0.00088519634096484,0.00088519676175067,-5.9864643065953e-11,-5.9893494169866e-11,-0.00064263821597095,0.0006426383703773,9.3984680383999e-11,-9.3524858548887e-11,-0.00060566786906083,0.00060566794320857,-0.00054695838332076,0.00054695880316147,-0.00054695840547688,0.00054695882545277,-0.00060566725703062,0.00060566768947776,-0.00060566768231281,0.00060566811592642,-0.00054695820884026,0.00054695899000186,-0.00054695823154383,0.00054695901283453,-0.00072845131425738,0.00072845097559388,-0.00072845137561817,0.0007284509122845,-0.00072845130377128,0.00072845096516431,-0.00072845136221303,0.00072845089893655,-0.00073642988442271,0.00073642956753731,-0.00073643014216294,0.0007364298252332,-0.0007364300727292,0.0007364298804002,-0.00073642982599738,0.00073642963371257,-0.00060566742734123,0.00060566750038436,0.65030596713663,123579,2954,0.0026819408155696,0.0036394073642851,0.0026742398657849,13.951473376768,2.6811787014141e-05,2.6811787014141e-05,2.6811787014141e-05,3877777.3156539,0.0090362835018902
22391759,0.57449274503699,0.0095461176428941,0.0029430694872288,0.0036664932633406,0.0029365548923247,-0.00066873843377,0.00066873775827521,-3.2735349151672e-10,-3.2738354037816e-10,5.5985215529801e-10,-1.2245053231588e-09,-0.00043902388645186,0.00043902224481956,-0.00073677848601517,0.00073677607638038,-0.00073677856933641,0.00073677615995477,-0.0004390225425042,0.00043902430359055,-0.00043902218871959,0.00043902394908898,-0.00073677674335888,0.00073677783918087,-0.00073677682671801,0.00073677792280089,-0.00074768944202349,0.00074768916605811,-0.00074768946815066,0.00074768919212113,-0.0007476900558455,0.00074768855149968,-0.00074769008214659,0.00074768857773551,-0.00062300118855088,0.00062300000345853,-0.00062300108757436,0.00062299990239758,-0.00062300060331949,0.00062300059438221,-0.00062300050149491,0.00062300049245243,-0.00043902423924926,0.00043902259835891,-2.7368915491801e-10,1.4307307641131e-09,5.0603813469117e-10,6.3827497187303e-10,-0.00091597848230024,0.00091597962022665,-0.00092718096182721,0.00092718166439456,-0.00083986571186001,0.00083986515769338,-0.00083986413419929,0.00083986690909121,-0.00093020133303436,0.0009302018315779,-0.0009302014507095,0.00093020203493595,-0.00093020067577585,0.00093020234329764,-0.00093020079348198,0.00093020254668637,-0.00092718063183477,0.00092718220999711,-0.00092718030841189,0.00092718214532565,-0.00083986572526163,0.00083986525987718,-0.00083986414757648,0.00083986701124449,-0.00092718128536445,0.00092718172919068,-1.6313438431977e-10,-1.6316321803819e-10,-0.00066666592883508,0.00066666551681607,-6.6940399446894e-11,-1.9754503137754e-10,-0.0006275804716872,0.00062758014214321,-0.00056480499330912,0.00056480474571183,-0.00056480497546156,0.00056480472799939,-0.00062758005729861,0.00062757998090128,-0.00062758032960388,0.00062758025439282,-0.00056480487587287,0.00056480488069048,-0.00056480485183598,0.00056480485678288,-0.00075789736082647,0.00075789681450979,-0.00075789740469662,0.00075789677248057,-0.00075789740533806,0.00075789685907891,-0.00075789744296539,0.00075789681080745,-0.00076709867865923,0.00076709822864755,-0.00076709880116746,0.0007670983511096,-0.00076709874633046,0.00076709838355218,-0.00076709864221468,0.00076709827948216,-0.00062758016839758,0.00062757983772906,0.66901198509521,123579,2954,0.0027829316048232,0.0038090540665106,0.0027741054042458,14.800893113316,3.3607144906526e-05,3.3607144906526e-05,3.3607144906526e-05,3951532.5414989,0.0094102142716032
22891759,0.59799648854739,0.0098747108844953,0.003036538165432,0.0038089539385787,0.0030292187804847,-0.00068900673260678,0.00068900614570507,-2.9603001361864e-10,-2.9606007192097e-10,6.6780898424688e-10,-1.2752985411226e-09,-0.00044432675488083,0.00044432504539959,-0.00076079388215393,0.00076079137972189,-0.00076079395492449,0.0007607914527449,-0.00044432526085624,0.00044432727391728,-0.00044432489819828,0.00044432691054302,-0.00076079198372255,0.00076079330137484,-0.00076079205667535,0.00076079337458788,-0.00077343644493656,0.00077343628447014,-0.00077343646736998,0.00077343630683828,-0.00077343710923382,0.0007734356174131,-0.00077343713175214,0.00077343563986503,-0.00063957646325274,0.00063957529739192,-0.00063957636026162,0.00063957519431376,-0.00063957582528259,0.00063957594139789,-0.0006395757216662,0.00063957583767373,-0.00044432711689499,0.00044432540815476,-3.3083976895451e-10,1.5329229829353e-09,5.4081338215476e-10,6.4626202975625e-10,-0.00095353513124922,0.00095353631214655,-0.00096523759426966,0.00096523826032727,-0.00087205817173452,0.00087205751299269,-0.00087205643040743,0.00087205941631929,-0.00096899065033946,0.00096899114910085,-0.00096899078421779,0.00096899135162455,-0.0009689899493134,0.00096899171857685,-0.00096899008322319,0.00096899192113166,-0.00096523717399451,0.00096523887365497,-0.00096523689058193,0.00096523879633928,-0.00087205819792436,0.00087205761029785,-0.00087205645657246,0.00087205951359357,-0.0009652378777977,0.00096523833776843,-1.5010020103454e-10,-1.5012890287831e-10,-0.00068660422468974,0.00068660387051457,-6.5630840133179e-11,-1.6985132787911e-10,-0.0006431983723874,0.0006431981166752,-0.00057726019663997,0.00057726003953131,-0.00057726018161518,0.0005772600246413,-0.0006431979827318,0.00064319792701035,-0.00064319825718254,0.000643198202664,-0.00057726010459197,0.00057726014762554,-0.00057726008391122,0.00057726012707394,-0.0007843486104674,0.00078434808245897,-0.00078434864565422,0.00078434804912802,-0.00078434865378563,0.0007843481258357,-0.00078434868298946,0.00078434808652228,-0.00079361638081584,0.00079361596307054,-0.00079361651593412,0.00079361609814143,-0.00079361647000176,0.00079361612177055,-0.00079361635289921,0.00079361600471487,-0.00064319806813837,0.00064319781128491,0.59348875359801,123579,2954,0.0028671987095511,0.0039648988296325,0.0028569765458355,15.341093023528,3.7928744188223e-05,3.7928744188223e-05,3.7928744188223e-05,3995336.0745764,0.0097363070796357
23391759,0.62135997878939,0.010218901887601,0.0031343006206853,0.0039583668013844,0.0031262344655308,-0.00071160765496147,0.00071160723054933,-2.2839836596905e-10,-2.284284267566e-10,7.4860231009564e-10,-1.2261113261406e-09,-0.0004581763596767,0.00045817478335141,-0.00078810437369096,0.0007881019782668,-0.00078810443233162,0.00078810203716124,-0.00045817484524458,0.00045817705856349,-0.00045817446970514,0.0004581766823067,-0.0007881024434724,0.00078810393226875,-0.00078810250240611,0.00078810399146404,-0.00079916536113788,0.00079916535087338,-0.0007991653779611,0.00079916536763042,-0.0007991660353654,0.00079916467364989,-0.00079916605220949,0.00079916469042671,-0.00065954432813793,0.00065954329885409,-0.00065954422123451,0.00065954319186136,-0.00065954367951635,0.00065954395344805,-0.00065954357214419,0.00065954384596596,-0.00045817673482552,0.00045817515924226,-3.4399533897264e-10,1.5526932499856e-09,5.4713380524664e-10,6.460400335969e-10,-0.00099009539625845,0.00099009658330096,-0.0010012925917331,0.0010012932466954,-0.00090312450151366,0.0009031238183928,-0.00090312272149526,0.00090312574897058,-0.0010079476474848,0.0010079481446233,-0.0010079477876059,0.0010079483495771,-0.0010079469395322,0.001007948726288,-0.0010079470796853,0.0010079489312733,-0.001001292146372,0.0010012938692202,-0.001001291877261,0.0010012937932388,-0.00090312453345561,0.00090312391721744,-0.00090312275341051,0.00090312584776242,-0.0010012928609612,0.0010012933228037,-1.3887942150547e-10,-1.3890810277634e-10,-0.00070897943025083,0.00070897913415389,-5.598652098845e-11,-1.5403026459879e-10,-0.00066516001543219,0.00066515981169368,-0.00059560426160772,0.00059560417899999,-0.00059560425008767,0.00059560416761528,-0.00066515962858934,0.00066515961166002,-0.00066515990733775,0.00066515989162338,-0.000595604175386,0.00059560428038377,-0.00059560415879358,0.0005956042639212,-0.00081103360558107,0.00081103309964367,-0.00081103363869648,0.00081103306821899,-0.00081103364587023,0.00081103313999212,-0.00081103367328384,0.00081103310286608,-0.00082038889579311,0.00082038850016605,-0.00082038904380574,0.00082038864812975,-0.00082038900019542,0.00082038866986245,-0.00082038886968354,0.00082038853939874,-0.00066515970807004,0.00066515950317825,0.62584069172871,123579,2954,0.0029611317810769,0.0041165885054604,0.0029499553596956,15.634046805984,4.0272374447871e-05,4.0272374447871e-05,4.0272374447871e-05,4111517.4889158,0.010078269630704
23891759,0.6460731088304,0.010637377194398,0.0032521802122238,0.0041415909525852,0.003243606029589,-0.00073842786113866,0.00073842627461252,-7.4817790182573e-10,-7.4820798924481e-10,3.679892480046e-10,-1.8744960678583e-09,-0.00046462990265139,0.0004646268107947,-0.00082139504578229,0.00082139131759984,-0.00082139522282998,0.00082139149490053,-0.00046462801981089,0.00046462922099212,-0.00046462776172538,0.00046462896219071,-0.00082139286012933,0.00082139353245283,-0.00082139303697856,0.00082139370956296,-0.00083208465407927,0.00083208368105282,-0.000832084718151,0.00083208374505685,-0.00083208541600914,0.00083208291272159,-0.00083208548032395,0.00083208297696759,-0.00068286713123614,0.00068286492958764,-0.000682867061943,0.00068286486020181,-0.00068286639571866,0.00068286567254668,-0.00068286632547549,0.00068286560219041,-0.00046463015941983,0.00046462706830329,-4.2884477373359e-10,1.723774733435e-09,6.1064145605797e-10,6.6510339278319e-10,-0.0010398602168198,0.0010398614867909,-0.0010551502726146,0.0010551508797296,-0.00094760715177826,0.000947606318261,-0.00094760518929988,0.00094760856764146,-0.001056184080842,0.0010561845863385,-0.0010561842655994,0.0010561848050823,-0.0010561833163774,0.0010561852897369,-0.0010561835011672,0.0010561855085126,-0.001055149618682,0.0010551515537471,-0.0010551495029988,0.0010551515446868,-0.00094760717367474,0.00094760637702131,-0.00094760521116975,0.00094760862636913,-0.0010551503884161,0.0010551508889175,-1.9434320086038e-10,-1.9437179957495e-10,-0.00073532011765455,0.00073531950786174,-1.5123270319473e-10,-2.0352902634266e-10,-0.00068767242476716,0.00068767200871123,-0.00061256542895565,0.00061256498177649,-0.00061256539498317,0.00061256494793885,-0.00068767217710234,0.00068767186154431,-0.00068767235524922,0.00068767204093069,-0.00061256538821701,0.00061256504039172,-0.00061256534535448,0.00061256499765887,-0.00084469858991262,0.00084469796874332,-0.00084469860863877,0.00084469795384673,-0.0008446986661586,0.00084469804504998,-0.0008446986773269,0.0008446980225959,-0.00085790024376826,0.00085789978457126,-0.00085790031765001,0.00085789985840314,-0.00085790028675346,0.00085789986267691,-0.00085790023463705,0.00085789981060942,-0.00068767220972863,0.00068767179249463,0.72029407872103,123579,2954,0.0030726269984853,0.0043230190838237,0.0030594214394759,16.930856567019,5.0646852536149e-05,5.0646852536149e-05,5.0646852536149e-05,4109190.1665436,0.010510079154985
24391759,0.67134135813539,0.0110513421982,0.0033685043820144,0.0043241054245105,0.0033587323916755,-0.00076230264385286,0.00076230119099454,-6.9654463558363e-10,-6.9657463277018e-10,4.5622637818555e-10,-1.8624489868442e-09,-0.00046427367133506,0.0004642706249549,-0.00085105821768354,0.00085105452088463,-0.00085105838915903,0.00085105469261146,-0.00046427171320875,0.0004642731166554,-0.00046427145243474,0.00046427285516873,-0.00085105595682006,0.00085105681269929,-0.00085105612822633,0.00085105698436491,-0.00086389285068794,0.00086389201072128,-0.00086389291281149,0.00086389207277578,-0.00086389363662794,0.00086389121755214,-0.00086389369891167,0.00086389127976574,-0.00070225412455272,0.00070225200767685,-0.0007022540566308,0.00070225193966007,-0.00070225336360753,0.00070225277613488,-0.00070225329495496,0.00070225270736707,-0.00046427393113126,0.00046427088548755,-4.5594822003603e-10,1.7741830606827e-09,6.3180135207885e-10,6.6589959734204e-10,-0.0010901577511604,0.0010901590433272,-0.0011094462986533,0.0011094468822535,-0.00099204483924872,0.00099204395844877,-0.00099204279156023,0.00099204627678498,-0.0011047952588194,0.0011047957693705,-0.0011047954645832,0.0011047959963187,-0.0011047944836525,0.0011047965085864,-0.0011047946894491,0.001104796735567,-0.0011094455755181,0.0011094475777467,-0.0011094455104889,0.0011094475793085,-0.0009920448722369,0.00099204401488531,-0.00099204282452264,0.00099204633318978,-0.001109446363802,0.0011094468808203,-1.8111759407006e-10,-1.8114614876391e-10,-0.00075826939658251,0.00075826884141927,-1.4889998959723e-10,-1.8132064559492e-10,-0.00070339958800545,0.00070339922869536,-0.00062356379906321,0.00062356342364908,-0.00062356376812577,0.00062356339284586,-0.00070339936946251,0.00070339907047516,-0.00070339953945083,0.00070339924172543,-0.00062356377726844,0.00062356346181492,-0.00062356373830122,0.00062356342297714,-0.00087706902000134,0.00087706842459741,-0.00087706903206019,0.00087706841607549,-0.00087706909695133,0.00087706850160933,-0.00087706910190631,0.00087706848598391,-0.00089342856607212,0.00089342813904435,-0.00089342864933474,0.00089342822225709,-0.00089342862546523,0.00089342822019969,-0.00089342856317385,0.00089342815795712,-0.00070339938312351,0.00070339902261268,0.6966732932835,123579,2954,0.0031719039825117,0.0045316041695479,0.0031548048614776,17.854402816614,5.8035222532913e-05,5.8035222532913e-05,5.8035222532913e-05,4069269.7629852,0.010917673500114
24891759,0.69621788991611,0.011410507205926,0.0034699215199195,0.0044821668667531,0.0034584188192538,-0.00078397693141876,0.00078397587101661,-5.2683118824236e-10,-5.2686121731029e-10,6.0343832078528e-10,-1.6744561374115e-09,-0.00047293482989014,0.00047293224415193,-0.00087735765254014,0.00087735434800805,-0.00087735778796342,0.00087735448368278,-0.00047293293982541,0.00047293473206667,-0.00047293264696611,0.00047293443849539,-0.0008773554296849,0.00087735660139679,-0.00087735556523688,0.00087735673720826,-0.00089072113931354,0.00089072062848449,-0.00089072118844382,0.00089072067754485,-0.00089072191161905,0.00089071984948094,-0.00089072196080617,0.00089071989859709,-0.00071998605153395,0.00071998430695757,-0.00071998597583434,0.00071998423116188,-0.00071998530362429,0.0007199850620349,-0.00071998522743354,0.00071998498572772,-0.00047293512218796,0.00047293253718548,-4.3953331558833e-10,1.7525409615472e-09,6.2784021532415e-10,6.6482165418423e-10,-0.001130790146368,0.0011307914335242,-0.0011493421426053,0.0011493427371352,-0.0010261015333415,0.0010261006833527,-0.0010260994982877,0.0010261029406171,-0.001147905614387,0.0011479061334074,-0.0011479058242592,0.0011479063671526,-0.0011479048546959,0.0011479068584224,-0.0011479050646014,0.0011479070922004,-0.0011493414528431,0.0011493434341116,-0.001149341363118,0.001149343416355,-0.0010261015765573,0.001026100752142,-0.0010260995414772,0.0010261030093743,-0.0011493422324515,0.0011493427550217,-1.583632489938e-10,-1.5839168568758e-10,-0.00077924749563186,0.00077924706624114,-1.1704562280715e-10,-1.5292797922874e-10,-0.00072095867314606,0.00072095841599808,-0.00063769028956498,0.00063769007638162,-0.00063769026589998,0.00063769005285124,-0.00072095843171586,0.00072095823996166,-0.00072095862328911,0.0007209584328061,-0.00063769026410357,0.00063769011696389,-0.0006376902336096,0.00063769008659981,-0.00090472745858489,0.00090472690785712,-0.00090472747160703,0.00090472689777123,-0.0009047275280941,0.00090472697742921,-0.00090472753461854,0.00090472696084592,-0.00092069108661612,0.0009206906933786,-0.00092069119855906,0.00092069080527126,-0.0009206911742606,0.00092069080494139,-0.00092069108202424,0.0009206907127541,-0.00072095844911835,0.00072095819076035,0.61363158009265,123579,2954,0.0032619914246388,0.0047000758721895,0.0032419725791819,18.325643415306,6.1805147322449e-05,6.1805147322449e-05,6.1805147322449e-05,4133028.8769217,0.0112672518938
25391759,0.72217110444536,0.011847540055444,0.0035927723130055,0.0046749535738801,0.0035798141685588,-0.0008139518823948,0.00081394951393245,-1.1108934369239e-09,-1.1109234633449e-09,1.4629736762761e-10,-2.3727507503874e-09,-0.00049116999710902,0.00049116578824183,-0.00091427305303156,0.00091426831072469,-0.00091427332277506,0.00091426858072067,-0.00049116777202819,0.00049116838580454,-0.00049116759254616,0.00049116820561137,-0.00091427060181347,0.00091427079789081,-0.0009142708711018,0.00091427106743975,-0.00092441446092867,0.00092441284332193,-0.00092441456466411,0.00092441294698654,-0.00092441531285176,0.00092441198161849,-0.00092441541691919,0.00092441208561401,-0.00074693063950248,0.0007469275953648,-0.00074693060107615,0.00074692755684121,-0.00074692981402516,0.00074692842962475,-0.00074692977450287,0.00074692838998508,-0.00049117017491462,0.00049116596678239,-5.0858576125998e-10,1.9101643007918e-09,6.8982045960553e-10,6.8787943149084e-10,-0.0011805698307681,0.0011805712033111,-0.0011999506377101,0.0011999512017889,-0.0010692995672901,0.0010692985968713,-0.0010692973841704,0.0010693011488628,-0.0011993632833419,0.0011993638199608,-0.0011993635474274,0.0011993640803536,-0.0011993624812681,0.0011993646638122,-0.0011993627453873,0.0011993649242382,-0.0011999497595101,0.001199951940626,-0.0011999498174194,0.0011999519949156,-0.0010692995996563,0.0010692986284045,-0.0010692974165093,0.0010693011803627,-0.0011999505799239,0.0011999511476309,-2.2087690234754e-10,-2.2090534311105e-10,-0.00080871500088164,0.00080871421559347,-2.1895870400601e-10,-2.1428842596656e-10,-0.00075050232426078,0.0007505018301074,-0.00066178276363169,0.00066178213460916,-0.00066178271435543,0.0006617820854684,-0.00075050221443238,0.00075050171034056,-0.00075050230649431,0.00075050180368479,-0.00066178277901634,0.00066178213820412,-0.00066178271832483,0.00066178207764356,-0.00093951894218717,0.00093951825548056,-0.00093951894260526,0.00093951826037991,-0.00093951905401896,0.00093951836737627,-0.00093951904573331,0.00093951836357208,-0.00095749184904568,0.000957491377931,-0.00095749188060302,0.00095749140943785,-0.00095749186682932,0.00095749139301558,-0.00095749186007045,0.00095749138630584,-0.00075050218943488,0.00075050169406022,0.71638642109267,123579,2954,0.0033865353093229,0.0049064430703017,0.0033643839832235,19.829632373394,7.3837058987155e-05,7.3837058987155e-05,7.3837058987155e-05,4232726.3975464,0.011725793736851
25891759,0.74793897511088,0.012287489622832,0.0037154806596197,0.0048709424070846,0.0037010665561274,-0.0008376957359555,0.00083769380286707,-9.2539030906421e-10,-9.2542042799704e-10,3.3539506502864e-10,-2.1963210956923e-09,-0.00048523827274223,0.00048523448203211,-0.00094443483102251,0.00094443045982451,-0.00094443506688862,0.0009444306959407,-0.00048523605227277,0.00048523712358665,-0.00048523584856238,0.00048523691917094,-0.00094443236494406,0.00094443296226664,-0.00094443260063323,0.00094443319821403,-0.00095771082047042,0.0009577095908114,-0.00095771091064013,0.0009577096809086,-0.00095771167549858,0.0009577087260789,-0.00095771176585086,0.00095770881635769,-0.00076549206736189,0.00076548940859014,-0.00076549202287467,0.00076548936400458,-0.00076549123688857,0.00076549024748266,-0.00076549119167253,0.00076549020214819,-0.00048523847541602,0.00048523468543442,-5.1797135002198e-10,1.9174360816954e-09,6.9392024630104e-10,6.8119136904185e-10,-0.0012357537771363,0.0012357551472897,-0.001261210722525,0.0012612112687894,-0.00111849101356,0.0011184900269441,-0.0011184887900922,0.0011184925738116,-0.0012513109643572,0.0012513115002395,-0.0012513112401875,0.0012513117663626,-0.0012513101679119,0.0012513123523065,-0.0012513104437762,0.001251312618463,-0.0012612098163674,0.0012612120100911,-0.0012612098981439,0.0012612120668425,-0.0011184910592827,0.0011184900649146,-0.0011184888357893,0.0011184926117507,-0.0012612106408726,0.0012612112121702,-1.9282056177302e-10,-1.9284878084477e-10,-0.00083116164517566,0.0008311609977194,-1.9320221421674e-10,-1.7843317226848e-10,-0.00076306379146815,0.00076306340109196,-0.00066925836817853,0.00066925790582825,-0.0006692583279805,0.00066925786576475,-0.00076306368436615,0.00076306326208609,-0.00076306378724557,0.00076306336627098,-0.00066925839255248,0.0006692578978314,-0.00066925834311961,0.0006692578485288,-0.00097326945659239,0.00097326883184266,-0.00097326945332047,0.00097326883945034,-0.00097326956049977,0.00097326893581573,-0.00097326954959868,0.0009732689357943,-0.00099571508835219,0.00099571467023106,-0.00099571514538941,0.00099571472721912,-0.0009957151362495,0.00099571470848339,-0.00099571510177301,0.00099571467405468,-0.00076306365081655,0.00076306325919551,0.72745708413827,123579,2954,0.0034852873298436,0.0051351387508199,0.0034576806834611,20.751109353999,8.1208874831989e-05,8.1208874831989e-05,8.1208874831989e-05,4134215.930066,0.012151604463811
26391759,0.77140436359215,0.012721479487784,0.0038371200798233,0.0050638216475926,0.0038205377603682,-0.00086065585785101,0.0008606555068632,-2.2412451760571e-10,-2.241546545674e-10,8.6745511345938e-10,-1.3376517083056e-09,-0.00048870849348093,0.00048870670102246,-0.00097438936438545,0.0009743867655714,-0.0009743894475348,0.00097438684897057,-0.00048870668745753,0.00048870914705218,-0.00048870637323553,0.00048870883212829,-0.00097438720929371,0.00097438895090316,-0.00097438729291294,0.0009743890347805,-0.00098705822971104,0.00098705831437144,-0.00098705826038151,0.0009870583449683,-0.00098705897773725,0.00098705756098415,-0.00098705900826842,0.0009870575914407,-0.00078454052532401,0.0007845394449917,-0.00078454044941676,0.00078453936898564,-0.00078453980063243,0.00078454017608968,-0.00078453972472267,0.00078454010006122,-0.00048870880794004,0.00048870701620647,-4.1260945932895e-10,1.7101828318163e-09,6.1963852799772e-10,6.5760438349042e-10,-0.0012848974809761,0.0012848987529714,-0.0013135837973961,0.0013135844017515,-0.0011612638125866,0.0011612630140857,-0.0011612618036456,0.0011612651638686,-0.0012996502164717,0.001299650747848,-0.0012996504499795,0.0012996510075805,-0.0012996495023417,0.0012996514608472,-0.001299649735884,0.0012996517206133,-0.0013135831330629,0.0013135850738343,-0.0013135830448304,0.0013135850589958,-0.0011612638744033,0.0011612631025149,-0.001161261865437,0.0011612652522668,-0.0013135838857544,0.0013135844167235,-1.1813840599691e-10,-1.1816660327521e-10,-0.00085281224899943,0.00085281204815767,-6.3641038604073e-11,-1.0141326948982e-10,-0.00078008377315359,0.00078008368059655,-0.00068114469343148,0.00068114477272866,-0.00068114468215674,0.00068114476158873,-0.00078008353516663,0.00078008350836648,-0.00078008372602003,0.00078008370053916,-0.0006811446652153,0.0006811448129857,-0.00068114464968809,0.00068114479758941,-0.0010032422697479,0.0010032418130929,-0.0010032422829968,0.0010032418015025,-0.0010032423329699,0.0010032418763818,-0.0010032423410743,0.001003241859647,-0.0010290859283508,0.0010290856015489,-0.0010290860842125,0.0010290857573624,-0.0010290860608888,0.0010290857589782,-0.0010290859219771,0.0010290856201131,-0.0007800835554242,0.00078008346160828,0.78667634666428,123579,2954,0.0035807423273774,0.005338752358491,0.0035476447323358,20.418312873818,7.8546502990541e-05,7.8546502990541e-05,7.8546502990541e-05,4141893.9374759,0.012545466831098
26891759,0.79422012916687,0.013124011418101,0.0039499904417556,0.0052430299362118,0.003930991040134,-0.00088222440964919,0.00088222262795822,-8.5913995979044e-10,-8.5917029881948e-10,3.0954446345265e-10,-2.0352057102155e-09,-0.00048674103354812,0.000486737562491,-0.0010018752983059,0.001001871253636,-0.0010018755370978,0.0010018714926764,-0.00048673898986079,0.00048674001117421,-0.00048673879277242,0.00048673981338766,-0.0010018730141459,0.0010018735707962,-0.0010018732526883,0.0010018738095955,-0.0010166571658756,0.0010166560180181,-0.0010166572572629,0.0010166561093304,-0.0010166579611617,0.0010166552156158,-0.0010166580527686,0.0010166553071468,-0.00080131401046521,0.00080131155261063,-0.0008013139720033,0.00080131151404955,-0.00080131324167483,0.00080131232904093,-0.00080131320239918,0.00080131228964631,-0.00048674122950436,0.0004867377591682,-4.5763005268661e-10,1.7919071845538e-09,6.4739232331479e-10,6.6471125429216e-10,-0.0013346349206081,0.0013346362276168,-0.0013669654741224,0.0013669660492165,-0.0012047374568339,0.0012047365792552,-0.0012047354144922,0.0012047389405146,-0.0013480189949478,0.0013480195200396,-0.001348019268015,0.0013480198031579,-0.001348018262972,0.0013480203130188,-0.0013480185360739,0.0013480205961711,-0.0013669646595113,0.0013669666989623,-0.0013669647125412,0.0013669667858492,-0.0012047374941611,0.0012047366287658,-0.0012047354517952,0.0012047389899953,-0.0013669654212198,0.0013669659624641,-1.9407203664426e-10,-1.9410000059145e-10,-0.00087275193648418,0.00087275130258428,-1.7884540589561e-10,-1.9422244229947e-10,-0.00079176279483875,0.00079176237224101,-0.0006886789007682,0.00068867842961602,-0.00068867886230056,0.00068867839128282,-0.00079176268016062,0.00079176228514921,-0.00079176276194268,0.00079176236826364,-0.00068867889521228,0.00068867845091641,-0.00068867884828818,0.00068867840412317,-0.0010332304112663,0.0010332298041236,-0.0010332304178114,0.0010332298015297,-0.0010332305160736,0.0010332299089991,-0.0010332305153047,0.0010332298990911,-0.0010619282725615,0.0010619278441307,-0.0010619283323251,0.0010619279038473,-0.001061928313636,0.00106192789569,-0.0010619282757199,0.0010619278578193,-0.00079176267678958,0.00079176225291949,0.750276560455,123579,2954,0.0036704343296401,0.0055447767406093,0.0036305151101993,21.226316545239,8.501053236191e-05,8.501053236191e-05,8.501053236191e-05,4081683.7914214,0.012928914984617
27391759,0.81641503246883,0.013502531414407,0.0040566668322609,0.0054107669115515,0.0040350976705949,-0.00090470006278524,0.00090469791196906,-1.0268792917925e-09,-1.0269097117014e-09,2.0757923147932e-10,-2.2667022600666e-09,-0.00049538056374554,0.00049537657395058,-0.0010301020877658,0.0010300975714895,-0.0010301023678436,0.0010300978518161,-0.00049537837206674,0.00049537912308307,-0.00049537819922155,0.00049537894954156,-0.0010300996789865,0.0010301000160732,-0.0010300999586916,0.0010301002960357,-0.0010444237956411,0.0010444223498441,-0.0010444239043852,0.0010444224585126,-0.0010444246330072,0.0010444215037203,-0.001044424742025,0.0010444216126614,-0.00081986562844846,0.00081986277940204,-0.00081986559985219,0.00081986275070692,-0.00081986481741323,0.00081986359868557,-0.00081986478789613,0.00081986356904982,-0.00049538073526208,0.00049537674618608,-4.9898200336878e-10,1.8751400311048e-09,6.788591799651e-10,6.7309981490975e-10,-0.0013792621268652,0.0013792634739347,-0.0014117325222181,0.0014117330726064,-0.00124267036124,0.0012426694103186,-0.0012426682167877,0.0012426719144865,-0.0013944001079704,0.0013944006384032,-0.00139440041064,0.0013944009355246,-0.0013943993514802,0.0013944014907956,-0.0013943996541847,0.001394401787951,-0.0014117316201344,0.0014117337636154,-0.0014117317326365,0.0014117338649297,-0.0012426704025188,0.0012426694483346,-0.0012426682580422,0.0012426719524727,-0.0014117324098452,0.0014117329714283,-2.0731414173939e-10,-2.0734205159633e-10,-0.00089409436728528,0.0008940936435095,-2.1020272287758e-10,-2.0203447359581e-10,-0.00080979607646722,0.00080979561296486,-0.00070262340649865,0.00070262284067089,-0.00070262336122316,0.00070262279553062,-0.00080979601172006,0.0008097955305048,-0.00080979606477271,0.00080979558489619,-0.00070262342411469,0.00070262283932707,-0.00070262336933958,0.00070262278468375,-0.0010616951180827,0.0010616944760781,-0.0010616951170347,0.0010616944816944,-0.0010616952367271,0.0010616945947916,-0.0010616952278615,0.0010616945925902,-0.0010912876431068,0.0010912872058545,-0.0010912876832677,0.0010912872459695,-0.0010912876716183,0.0010912872292502,-0.001091287654597,0.0010912872122732,-0.00080979598466013,0.00080979551987903,0.72451637575547,123579,2954,0.003763837446086,0.0057295996028749,0.0037191755727738,22.212922832654,9.2903382661236e-05,9.2903382661236e-05,9.2903382661236e-05,4106747.3094202,0.01330063473013
27891759,0.83736661607238,0.013878497172858,0.0041623655992682,0.0055776285258719,0.0041385030477183,-0.00092594657361164,0.00092594478561617,-8.6888532716439e-10,-8.6891582836495e-10,3.6263231089065e-10,-2.1098504295471e-09,-0.00050044354604264,0.00050043993541509,-0.0010572896447681,0.0010572854591615,-0.0010572898913023,0.0010572857059444,-0.0005004413728043,0.00050044250969281,-0.00050044117829883,0.00050044231449333,-0.0010572872358425,0.0010572879040411,-0.001057287482207,0.0010572881506627,-0.0010712861162232,0.0010712849923127,-0.001071286212422,0.0010712850884348,-0.0010712869523721,0.0010712841474939,-0.0010712870487366,0.0010712842437807,-0.0008373269000877,0.0008373243855162,-0.00083732686706885,0.00083732435239907,-0.00083732608906192,0.00083732520451466,-0.00083732605537987,0.00083732517071473,-0.00050044373964435,0.00050044012973325,-4.9913597237102e-10,1.8759900173515e-09,6.8103800013893e-10,6.7135253619968e-10,-0.0014237308403105,0.0014237321878832,-0.0014580388943251,0.0014580394414927,-0.0012810814840987,0.0012810805333814,-0.0012810793183846,0.0012810830198565,-0.0014392175461754,0.0014392180802828,-0.0014392178526381,0.0014392183794347,-0.0014392167928094,0.0014392189309932,-0.0014392170993072,0.0014392192301795,-0.0014580380019398,0.0014580401494831,-0.0014580381007434,0.0014580402291562,-0.0012810815360995,0.0012810805797168,-0.0012810793703613,0.0012810830661624,-0.001458038795652,0.001458039361957,-1.8556359380664e-10,-1.8559146657647e-10,-0.00091417878556412,0.00091417818048677,-1.8303169850725e-10,-1.7150729017295e-10,-0.00082571329164814,0.0008257129242033,-0.00071423728123417,0.00071423687609377,-0.00071423724280386,0.00071423683779911,-0.00082571322078883,0.00082571282726487,-0.00082571328552208,0.00082571289334438,-0.00071423730173669,0.00071423687037976,-0.00071423725507774,0.00071423682385302,-0.001089176641202,0.0010891760448614,-0.0010891766388486,0.0010891760511616,-0.0010891767527806,0.0010891761565102,-0.0010891767432659,0.001089176155649,-0.0011208917526714,0.0011208913512233,-0.0011208918160425,0.00112089141455,-0.0011208918063072,0.0011208913973426,-0.0011208917646713,0.0011208913557492,-0.00082571319091633,0.00082571282218532,0.76282598426134,123579,2954,0.0038521483864349,0.0059137273691178,0.0038026161272294,22.881129877452,9.8249039019615e-05,9.8249039019615e-05,9.8249039019615e-05,4105443.7296325,0.013661339622717
28391759,0.85681009278638,0.014254542788667,0.0042679491420154,0.0057448303513312,0.0042417632953207,-0.00094492763576184,0.0009449260163995,-7.9557869889627e-10,-7.9560938888518e-10,4.1690957078703e-10,-2.0185257940696e-09,-0.00049619571550626,0.0004961923070144,-0.0010822873591342,0.0010822833643984,-0.0010822875942648,0.0010822835997762,-0.00049619358221113,0.00049619485228165,-0.00049619338189227,0.00049619465127311,-0.0010822849853926,0.00108228577337,-0.001082285220417,0.0010822860086504,-0.0010978645581339,0.0010978635748669,-0.0010978646498864,0.0010978636665414,-0.001097865382187,0.0010978627427102,-0.0010978654740682,0.0010978628345124,-0.00085204673470705,0.00085204438725443,-0.00085204670199212,0.00085204435444179,-0.00085204593562149,0.00085204519400237,-0.00085204590233715,0.00085204516060049,-0.00049619591508132,0.00049619250730154,-4.8974391114498e-10,1.849579259557e-09,6.7122287757242e-10,6.6449919838797e-10,-0.0014703509620467,0.0014703522929691,-0.0015095367626055,0.0015095373083055,-0.0013223250787604,0.0013223241451435,-0.0013223229419831,0.0013223265906388,-0.0014834390841288,0.0014834396136456,-0.0014834393931011,0.001483439917611,-0.0014834383463129,0.0014834404536385,-0.0014834386553205,0.0014834407576383,-0.0015095358848433,0.0015095380006543,-0.0015095359809037,0.0015095380832816,-0.0013223251339978,0.0013223241967628,-0.0013223229971977,0.0013223266422301,-0.0015095366666772,0.0015095372258167,-1.7728616752928e-10,-1.7731383915084e-10,-0.00093131984036975,0.00093131928326788,-1.7117542607588e-10,-1.6286274557403e-10,-0.00083446334050046,0.0008344630023467,-0.0007190326103793,0.00071903226508386,-0.00071903257514401,0.00071903222998408,-0.00083446327201623,0.00083446291339636,-0.00083446333248645,0.00083446297522354,-0.00071903262743268,0.0007190322619574,-0.0007190325846985,0.00071903221935575,-0.0011159842932351,0.0011159837199659,-0.0011159842918362,0.001115983724988,-0.0011159844027684,0.0011159838295708,-0.0011159843945503,0.0011159838277733,-0.001151483030634,0.0011514826423631,-0.0011514831018028,0.0011514827134894,-0.0011514830914601,0.0011514826977522,-0.0011514830412569,0.00115148264759,-0.00083446324566125,0.0008344629062096,0.82233028262121,123579,2954,0.0039311030447274,0.0061067119792374,0.0038738642428427,23.414488525365,0.00010251590820292,0.00010251590820292,0.00010251590820292,4023731.8550822,0.014009321764902
28891759,0.87469615383064,0.014591528878481,0.0043631804562175,0.0058939107212058,0.0043344377010582,-0.00096061601073252,0.00096061438671568,-7.9885593494072e-10,-7.9888667913386e-10,4.0331987667815e-10,-2.0111202301575e-09,-0.0004887886868319,0.00048878528396446,-0.0011032125392352,0.0011032085608954,-0.0011032127801679,0.0011032088020744,-0.00048878657138433,0.00048878780522291,-0.00048878637379316,0.00048878760694563,-0.0011032101858971,0.001103210949029,-0.0011032104267,0.0011032111900867,-0.0011215155855315,0.001121514592176,-0.001121515679672,0.0011215146862375,-0.0011215164029069,0.001121513766995,-0.0011215164971845,0.0011215138611926,-0.0008632647316694,0.00086326238550725,-0.00086326470170139,0.00086326235544205,-0.00086326393948643,0.00086326318520639,-0.00086326390893756,0.0008632631545411,-0.0004887888836657,0.00048878548150662,-4.852435903914e-10,1.8327444074164e-09,6.6414739437064e-10,6.5939762503166e-10,-0.0015132092694507,0.0015132105882104,-0.0015566006730929,0.0015566012157984,-0.0013599086123008,0.0013599076868252,-0.001359906500316,0.0013599101150512,-0.0015241890228713,0.0015241895469307,-0.0015241893380886,0.0015241898584627,-0.0015241882975466,0.0015241903847354,-0.0015241886127992,0.0015241906963018,-0.0015565997968628,0.0015566018914,-0.0015565999017506,0.0015566019867303,-0.0013599086679039,0.0013599077401166,-0.0013599065558976,0.0013599101683153,-0.0015566005683382,0.001556601120608,-1.7791916173586e-10,-1.7794675298487e-10,-0.00094478625725107,0.00094478569604612,-1.7224867283305e-10,-1.6592938065514e-10,-0.00083807489110162,0.00083807454475591,-0.00071973675793765,0.00071973640530491,-0.00071973672288569,0.00071973637038848,-0.00083807483192021,0.00083807446907042,-0.00083807488137754,0.00083807451989419,-0.000719736772847,0.00071973640396425,-0.00071973673050177,0.00071973636175159,-0.0011396505014136,0.0011396499312834,-0.0011396505006541,0.0011396499356269,-0.0011396506133407,0.0011396500432831,-0.0011396506058234,0.0011396500408687,-0.0011779886108055,0.0011779882226189,-0.0011779886795688,0.0011779882913415,-0.001177988668648,0.0011779882763616,-0.0011779886207275,0.0011779882284799,-0.00083807480766959,0.00083807446001667,0.79975737494462,123579,2954,0.0039963990757838,0.0062840779615644,0.003929865442175,23.939402321781,0.00010671521857425,0.00010671521857425,0.00010671521857425,3917044.7672272,0.014312265401924
29391759,0.89125772320082,0.014851430791012,0.0044374111178193,0.0060076801912701,0.0044063394819223,-0.00097395905790564,0.00097395696265906,-1.0099917480777e-09,-1.0100225520779e-09,2.3014542053891e-10,-2.2567833219951e-09,-0.00049060255987497,0.00049059858455025,-0.0011204366596917,0.0011204321749638,-0.0011204369538025,0.0011204324693209,-0.00049060035550537,0.00049060114848934,-0.0004906001810813,0.00049060097337929,-0.0011204342379239,0.001120434633006,-0.0011204345317019,0.001120434927039,-0.0011399309985891,0.0011399296015371,-0.001139931114152,0.0011399297170204,-0.0011399318400023,0.0011399287513834,-0.0011399319558053,0.0011399288671057,-0.00087291231616382,0.00087290950461007,-0.00087291229502033,0.00087290948336982,-0.00087291150073036,0.0008729103280284,-0.00087291147877942,0.00087291030596143,-0.00049060273318457,0.0004905987585673,-5.0778663204048e-10,1.8773171417647e-09,6.8130026627394e-10,6.631770289264e-10,-0.0015451603692451,0.0015451617090236,-0.0015874927404249,0.0015874932680983,-0.0013862691869869,0.0013862682224058,-0.0013862670365947,0.0013862707430844,-0.0015583335860632,0.0015583341114885,-0.0015583339259628,0.0015583344381242,-0.0015583328517146,0.0015583349884942,-0.0015583331916497,0.0015583353151643,-0.0015874917989814,0.0015874939502217,-0.0015874919605645,0.0015874940763479,-0.0013862692397622,0.0013862682637835,-0.0013862670893488,0.0013862707844352,-0.0015874925789759,0.0015874931421127,-1.9877632478443e-10,-1.9880388507483e-10,-0.00095681419418628,0.0009568134977909,-2.1065467111499e-10,-1.9028242446578e-10,-0.00084562559215099,0.00084562515949163,-0.0007250025898904,0.00072500206984465,-0.00072500254691253,0.00072500202700263,-0.0008456255732329,0.00084562509827142,-0.00084562559378687,0.00084562512019455,-0.0007250026187092,0.0007250020555405,-0.00072500256726509,0.00072500200422966,-0.001158431085115,0.0011584304664918,-0.0011584310798895,0.0011584304759726,-0.0011584312118803,0.0011584305933303,-0.0011584311992702,0.0011584305954264,-0.0011961871418105,0.0011961867300344,-0.0011961871832836,0.0011961867714679,-0.0011961871761269,0.0011961867510476,-0.0011961871570467,0.0011961867320051,-0.00084562553473508,0.00084562510076597,0.66449988364994,123579,2954,0.0040518793591322,0.0064162838658139,0.0039798495910538,24.733672859742,0.00011306938287794,0.00011306938287794,0.00011306938287794,3889011.9158879,0.014553391841763
29891759,0.90635135766402,0.015095451058746,0.0045071442370385,0.0061140938725308,0.0044742129491771,-0.0009897123716452,0.00098971040232847,-9.5498664169598e-10,-9.5501748823893e-10,2.9419660914259e-10,-2.212321449863e-09,-0.00050774959411928,0.00050774574060795,-0.0011405909216724,0.0011405865331783,-0.001140591203358,0.0011405868151117,-0.00050774737549202,0.0005077483320963,-0.00050774719474247,0.00050774815066073,-0.0011405884802955,0.001140589011486,-0.0011405887617218,0.0011405892931691,-0.0011561931532693,0.0011561918722769,-0.0011561932651085,0.0011561919840365,-0.0011561940008503,0.0011561910157397,-0.0011561941128901,0.0011561911276988,-0.00088699418619323,0.00088699148593806,-0.00088699416465141,0.00088699146430104,-0.00088699336417844,0.0008869923159587,-0.00088699334192433,0.0008869922935901,-0.00050774977389512,0.00050774592109287,-5.1037347313191e-10,1.8948960505131e-09,6.911185903897e-10,6.678439815895e-10,-0.001570776153931,0.0015707775082263,-0.0016087465763999,0.0016087471068497,-0.0014064610519285,0.0014064600839148,-0.0014064588724473,0.001406462615742,-0.0015890968372553,0.0015890973728216,-0.0015890971830748,0.0015890977022853,-0.0015890960986991,0.0015890982569806,-0.0015890964445542,0.001589098586479,-0.0016087456366085,0.0016087478139503,-0.0016087457880773,0.0016087479197663,-0.0014064611109908,0.0014064601282377,-0.0014064589314865,0.0014064626600366,-0.001608746425067,0.0016087470011756,-1.8991955067633e-10,-1.8994716085859e-10,-0.00097265471499794,0.00097265406719046,-1.9905343192194e-10,-1.7377614812561e-10,-0.00086604965643885,0.00086604927325028,-0.00074192277662846,0.00074192233540473,-0.0007419227355795,0.00074192229449254,-0.00086604963534536,0.00086604919951229,-0.00086604966327876,0.00086604922881188,-0.00074192281025699,0.00074192231601513,-0.00074192276096343,0.00074192226685591,-0.0011756576078356,0.0011756570042848,-0.0011756576009372,0.001175657015266,-0.0011756577331637,0.0011756571296864,-0.0011756577190553,0.0011756571334573,-0.0012121888463168,0.0012121884495022,-0.0012121888987049,0.0012121885018517,-0.0012121888933329,0.0012121884798863,-0.001212188863039,0.0012121884496289,-0.00086604959188447,0.00086604920738996,0.68461390406998,123579,2954,0.0041172595702025,0.0065222808563425,0.0040455915983412,25.429668036477,0.00011863734429181,0.00011863734429181,0.00011863734429181,3991345.9645495,0.014793982520573
30391759,0.91993801244892,0.015284917873309,0.0045611002877136,0.0061969624648802,0.0045268551207149,-0.00099747358214282,0.00099747166675837,-9.3242203933792e-10,-9.3245288523383e-10,3.1706903522921e-10,-2.1909353066362e-09,-0.00049678758130461,0.0004967837752563,-0.0011506070360657,0.0011506026946325,-0.0011506073147028,0.0011506029735162,-0.0004967853642811,0.00049678637341744,-0.00049678517920002,0.00049678618765164,-0.0011506045927424,0.001150605174676,-0.0011506048711537,0.0011506054533426,-0.0011704993357812,0.0011704981046351,-0.0011704994461406,0.0011704982149139,-0.0011705001837037,0.001170497247759,-0.0011705002942435,0.0011704973582171,-0.00089099720394554,0.00089099455100263,-0.00089099718224227,0.00089099452920484,-0.00089099638120243,0.00089099538161946,-0.0008909963588403,0.00089099535914354,-0.00049678776550571,0.00049678396016397,-5.1455360593172e-10,1.8927854387335e-09,6.8948243693189e-10,6.6320037238975e-10,-0.0015971967289323,0.0015971980769646,-0.0016384540552681,0.0016384545760219,-0.0014295894576948,0.0014295884821615,-0.0014295872760946,0.0014295910162608,-0.0016139663733397,0.00161396690359,-0.0016139667228308,0.0016139672349201,-0.0016139656373658,0.001613967790278,-0.0016139659868923,0.0016139681216427,-0.0016384531059648,0.0016384552804808,-0.0016384532677003,0.0016384553906305,-0.0014295895195708,0.001429588527337,-0.001429587337949,0.001429591061409,-0.001638453893669,0.0016384544660144,-1.8564955798932e-10,-1.8567716953184e-10,-0.00097894235076136,0.00097894172190421,-1.9675749300247e-10,-1.686192236514e-10,-0.00086246829452355,0.00086246792522887,-0.00073725141546695,0.00073725099826769,-0.00073725137627263,0.0007372509592103,-0.00086246827919486,0.00086246785128652,-0.0008624683049384,0.00086246787840227,-0.00073725145166755,0.00073725097571728,-0.00073725140469024,0.00073725092887393,-0.0011899556673931,0.0011899550753595,-0.0011899556594993,0.0011899550872029,-0.0011899557922116,0.0011899552002525,-0.0011899557772828,0.0011899552050605,-0.0012276762295162,0.0012276758423112,-0.0012276762829222,0.0012276758956807,-0.0012276762787503,0.0012276758729679,-0.0012276762470244,0.0012276758412769,-0.00086246823318011,0.00086246786257143,0.59098872163378,123579,2954,0.0041496178864407,0.0066315732605632,0.0040717776237705,26.075280353709,0.00012380224282968,0.00012380224282968,0.00012380224282968,3872171.2007226,0.014964365875288
30891759,0.93227488583497,0.015485048941613,0.0046182868614691,0.0062840943263358,0.0045826677538081,-0.0010103487242515,0.0010103461487788,-1.228796324454e-09,-1.2288272309363e-09,8.6492872996219e-11,-2.5476025398735e-09,-0.00050813544821823,0.00050813083274665,-0.0011673710486062,0.0011673659739172,-0.0011673713951076,0.0011673663206662,-0.00050813308663387,0.0005081335187147,-0.00050813293024915,0.00050813336164512,-0.0011673684854797,0.0011673685762417,-0.0011673688314986,0.0011673689225171,-0.0011844514907995,0.001184449692997,-0.0011844516293532,0.0011844498314699,-0.0011844523804652,0.0011844487928452,-0.0011844525193316,0.00118444893163,-0.00090254718116666,0.00090254386813674,-0.00090254716951701,0.00090254385639351,-0.00090254631783253,0.000902544740105,-0.00090254630522383,0.00090254472738359,-0.00050813560324195,0.0005081309884771,-5.4845723656672e-10,1.9769585075099e-09,7.2445033303961e-10,6.7674494105365e-10,-0.0016199223968368,0.0016199237935055,-0.0016591971549382,0.0016591976630869,-0.0014482739049347,0.0014482728711815,-0.0014482716373541,0.0014482755499611,-0.0016395502796084,0.0016395508234911,-0.0016395506632036,0.0016395511737865,-0.0016395495200301,0.0016395517706471,-0.0016395499036609,0.0016395521209771,-0.0016591961184344,0.0016591984022354,-0.0016591963452875,0.0016591985359086,-0.0014482739652801,0.001448272900354,-0.0014482716976772,0.001448275579106,-0.0016591969282224,0.0016591975295572,-2.1381192920704e-10,-2.1383957868957e-10,-0.00099152151943492,0.00099152071340304,-2.4704509285376e-10,-1.965636879672e-10,-0.00087722509268101,0.0008772246227125,-0.00074934348557031,0.00074934286388474,-0.00074934343566981,0.00074934281412166,-0.00087722512830986,0.00087722455810268,-0.00087722512132507,0.0008772245524894,-0.00074934354411797,0.0007493428206806,-0.00074934348452554,0.00074934276122321,-0.0012044886703416,0.001204488004087,-0.0012044886553543,0.0012044880240491,-0.0012044888149516,0.0012044881487715,-0.0012044887919401,0.001204488160709,-0.0012421778253057,0.0012421774041474,-0.0012421778475026,0.0012421774263087,-0.0012421778493154,0.0012421773949054,-0.0012421778512809,0.0012421773969046,-0.00087722505927495,0.00087722458799388,0.68714590328657,123579,2954,0.0042030711369491,0.0067255835954853,0.0041239908713494,27.063776152892,0.00013171020922314,0.00013171020922314,0.00013171020922314,3917666.9571746,0.015167051512161
31391759,0.9435060176246,0.015674799498486,0.0046722897911217,0.0063671375349943,0.0046353721723701,-0.0010174587170115,0.001017455478307,-1.5292268908005e-09,-1.5292578970886e-09,-1.1860472011898e-10,-2.9423159434441e-09,-0.00048754306891168,0.00048753754308572,-0.0011769657894076,0.0011769599072214,-0.0011769662099477,0.0011769603280065,-0.00048754050903651,0.00048754039376977,-0.0004875403695515,0.00048754025360269,-0.0011769630437748,0.0011769626949249,-0.0011769634636585,0.0011769631150623,-0.0012003943573108,0.001200392019687,-0.0012003945234044,0.0012003921856985,-0.0012003953086168,0.0012003910556498,-0.0012003954751157,0.0012003912220658,-0.00090557989829324,0.00090557589443382,-0.00090557989248182,0.00090557588853007,-0.00090557897276411,0.00090557682932611,-0.00090557896578862,0.00090557682223856,-0.00048754320677726,0.00048753768165417,-6.1628706473556e-10,2.0912330359795e-09,7.6566691819534e-10,6.7967517450761e-10,-0.0016508207576045,0.0016508221986667,-0.0016983836832927,0.0016983841370482,-0.001477279617991,0.0014772784638906,-0.0014772772131386,0.001477281363103,-0.0016644283117088,0.0016644288506357,-0.0016644287321512,0.0016644292116766,-0.0016644275104537,0.0016644298799733,-0.0016644279309314,0.0016644302410487,-0.0016983824905355,0.0016983849166077,-0.0016983828343205,0.0016983850926241,-0.0014772796785739,0.0014772784676508,-0.0014772772737012,0.0014772813668369,-0.0016983833396453,0.0016983839611753,-2.3771541926594e-10,-2.3774297332859e-10,-0.00099579337964602,0.00099579239188083,-3.1122456056066e-10,-2.2144667856627e-10,-0.00086561180607763,0.00086561123137526,-0.00073734401603099,0.00073734316427245,-0.00073734395819,0.00073734310656774,-0.00086561191789372,0.00086561116776239,-0.00086561187129464,0.00086561112254514,-0.00073734411286008,0.0007373430830746,-0.00073734404447782,0.00073734301482649,-0.0012197226654453,0.0012197219384521,-0.0012197226376274,0.0012197219720241,-0.0012197228271594,0.0012197221002417,-0.001219722790682,0.0012197221251542,-0.0012612894425884,0.0012612890086539,-0.0012612894254514,0.0012612889914837,-0.0012612894394408,0.0012612889461965,-0.0012612894822477,0.001261288989035,-0.00086561181034477,0.0008656112343188,0.71628541114011,123579,2954,0.0042328091045461,0.0068533567616116,0.0041418625203896,28.357195925973,0.00014205756740779,0.00014205756740779,0.00014205756740779,3694092.6659023,0.0153451880906
31891759,0.95337273496885,0.015844488850602,0.0047213129253674,0.0064402810454671,0.0046828948797676,-0.0010245207461262,0.0010245181821166,-1.2274354392634e-09,-1.227466481521e-09,1.6916955692734e-10,-2.6341816705581e-09,-0.00048101378164849,0.00048100898694934,-0.0011871373933305,0.0011871321531066,-0.001187137746984,0.0011871325070051,-0.00048101126645493,0.00048101186106258,-0.00048101109302069,0.00048101168694762,-0.0011871346640641,0.0011871349239888,-0.0011871350173866,0.0011871352775649,-0.001212520978432,0.0012125192495674,-0.001212521117942,0.0012125193889948,-0.0012125219219072,0.0012125182936522,-0.001212522061645,0.0012125184333064,-0.00091001775404155,0.00091001438913079,-0.00091001773961316,0.00091001437461043,-0.00091001683408701,0.00091001531796219,-0.00091001681890946,0.00091001530267327,-0.00048101395407826,0.00048100916008163,-6.1499283256758e-10,2.0809965974603e-09,7.6519385344126e-10,6.7120729207796e-10,-0.0016747556954023,0.0016747571275617,-0.0017247348087016,0.0017247352503086,-0.0014983084261594,0.0014983072756496,-0.0014983060001774,0.0014983101337978,-0.0016870047307862,0.0016870052706558,-0.0016870051400122,0.0016870056165089,-0.0016870039278166,0.0016870062825732,-0.0016870043370781,0.0016870066284607,-0.0017247336421816,0.0017247360625258,-0.0017247339508565,0.0017247361873083,-0.0014983085027838,0.0014983072904689,-0.001498306076782,0.0014983101485918,-0.0017247345001652,0.0017247351256704,-2.0234710150848e-10,-2.0237465031026e-10,-0.0010007412390906,0.0010007404496559,-2.6638946621261e-10,-1.7015696836553e-10,-0.00086342015780258,0.00086341974185454,-0.00073424607783323,0.00073424549585985,-0.00073424603169617,0.00073424544985926,-0.00086342024591578,0.00086341963876376,-0.00086342023328199,0.00086341962751561,-0.00073424618047919,0.00073424540667256,-0.00073424612581571,0.00073424535214353,-0.0012315100217388,0.0012315093713766,-0.0012315099914807,0.0012315094063745,-0.001231510166791,0.0012315095165047,-0.0012315101289261,0.0012315095438958,-0.0012744598201544,0.0012744594422825,-0.001274459839218,0.0012744594613143,-0.0012744598567973,0.0012744594150253,-0.0012744598608886,0.0012744594191469,-0.00086342013270156,0.00086341971542644,0.72644232686627,123579,2954,0.0042622537865083,0.0069523126656979,0.0041624790698676,29.265873063381,0.00014932698450705,0.00014932698450705,0.00014932698450705,3585220.0275735,0.015496542412545
32391759,0.96157390699506,0.015998529338308,0.004766077390828,0.006506203392593,0.0047262485548869,-0.001029766116711,0.0010297652945196,-4.4610170416386e-10,-4.4613283200704e-10,7.5078090768804e-10,-1.66295861205e-09,-0.00047595341876256,0.00047595084767841,-0.0011954282035121,0.0011954249647937,-0.00119542837677,0.0011954251382964,-0.00047595132643288,0.00047595341371435,-0.00047595109468697,0.00047595318128721,-0.0011954258465192,0.0011954273565208,-0.0011954260200506,0.0011954275303061,-0.0012215592166661,0.0012215589512186,-0.0012215592850978,0.0012215590195674,-0.001221560032468,0.0012215581278293,-0.0012215601007973,0.0012215581960745,-0.00091319024109584,0.00091318864146409,-0.00091319021038163,0.00091318861065867,-0.00091318944754966,0.00091318944172215,-0.00091318941685648,0.00091318941091849,-0.00047595365061756,0.00047595108023607,-4.9359028383211e-10,1.8298262774236e-09,6.7251581877984e-10,6.3901038267144e-10,-0.0016941894998472,0.0016941908067568,-0.0017457619263148,0.0017457624283076,-0.0015151874776269,0.0015151865432731,-0.0015151853286145,0.0015151889487293,-0.0017056386879294,0.0017056392131291,-0.0017056390257415,0.001705639530306,-0.0017056379784421,0.0017056400570083,-0.0017056383162896,0.0017056403742196,-0.0017457610352831,0.0017457631465463,-0.0017457611507587,0.0017457631955049,-0.001515187564839,0.0015151866095337,-0.0015151854158069,0.0015151890149649,-0.0017457618109784,0.0017457623794939,-1.2835525215868e-10,-1.2838279896421e-10,-0.0010043215666303,0.0010043212665733,-1.2125492344385e-10,-8.7778340637829e-11,-0.00086236623687861,0.0008623661173931,-0.00073183595854616,0.00073183598940527,-0.00073183593951821,0.00073183597051399,-0.00086236619197961,0.00086236599818859,-0.00086236625929331,0.00086236606688999,-0.00073183599902392,0.00073183595877725,-0.00073183597569979,0.00073183593558772,-0.0012403324693224,0.0012403320107798,-0.0012403324591706,0.0012403320231928,-0.0012403325702413,0.0012403321117753,-0.0012403325548171,0.0012403321189155,-0.0012846893118882,0.0012846890158585,-0.0012846894207376,0.001284689124677,-0.0012846894207837,0.0012846891021387,-0.0012846893294552,0.0012846890108393,-0.00086236614174753,0.0008623660209327,0.79219730183482,123579,2954,0.004284132404353,0.007032648943965,0.0041774050470451,29.297797343511,0.00014958237874809,0.00014958237874809,0.00014958237874809,3509446.9452319,0.015615536598013
32891759,0.96832487122953,0.016105823352221,0.0047974591734305,0.0065518025151167,0.0047565616636742,-0.0010307986924997,0.001030798221202,-2.8777358594978e-10,-2.8780482752478e-10,7.9463651784102e-10,-1.3882135457644e-09,-0.00046186044471338,0.0004618584762527,-0.0011981404079372,0.0011981377287624,-0.0011981405450696,0.0011981378661386,-0.0004618585855251,0.00046186082231725,-0.00046185834621979,0.00046186058233105,-0.0011981382749704,0.0011981398923589,-0.0011981384123729,0.0011981400300141,-0.0012279395357479,0.0012279395160611,-0.0012279395903138,0.0012279395705435,-0.0012279402772433,0.0012279387698068,-0.0012279403317019,0.0012279388241809,-0.00091149794521438,0.00091149675298162,-0.00091149791322104,0.00091149672089761,-0.0009114972277737,0.00091149747622482,-0.00091149719582847,0.00091149744416976,-0.00046186068413077,0.00046185871637247,-4.1908252372834e-10,1.6765771628215e-09,6.102821472699e-10,6.255608196346e-10,-0.0017103168989526,0.0017103181299188,-0.001765317561277,0.0017653181116837,-0.0015295136607559,0.0015295128568024,-0.0015295117170237,0.0015295150185462,-0.0017193555218792,0.0017193560313838,-0.0017193558339241,0.0017193563553533,-0.0017193548804402,0.0017193567917342,-0.0017193551925206,0.0017193571157379,-0.0017653168119437,0.0017653187241088,-0.0017653168534353,0.0017653187944545,-0.0015295137387971,0.0015295129463636,-0.0015295117950463,0.0015295151080835,-0.0017653175199251,0.0017653180414829,-1.2122061117589e-10,-1.2124810148682e-10,-0.0010031106791951,0.0010031104615495,-8.0876208397643e-11,-9.6447040557644e-11,-0.00085156044783172,0.00085156033587809,-0.00072110498907443,0.00072110509720705,-0.0007211049757218,0.00072110508399056,-0.00085156034269782,0.00085156025217363,-0.00085156042348211,0.00085156033434996,-0.00072110498136363,0.00072110511433696,-0.00072110496452734,0.00072110509763485,-0.001246172777363,0.0012461723546661,-0.0012461727833387,0.0012461723504721,-0.0012461728707065,0.0012461724480867,-0.001246172871805,0.0012461724390149,-0.0012918540422018,0.0012918537346341,-0.001291854166967,0.0012918538593694,-0.001291854151276,0.0012918538537629,-0.0012918540431689,0.0012918537456837,-0.00085156034089683,0.00085156022760984,0.66888370250489,123579,2954,0.0042885724539714,0.0070992998500624,0.0041724799063233,29.182795155302,0.00014866236124241,0.00014866236124241,0.00014866236124241,3372243.5752563,0.015682787362177
33391759,0.97393562150555,0.016208222199885,0.0048276034281091,0.0065948950508208,0.0047857237209548,-0.0010371841528995,0.0010371833285816,-4.4464834675411e-10,-4.4467955215375e-10,6.0270581619221e-10,-1.5062521818827e-09,-0.00047848965848909,0.00047848738150576,-0.0012075576894668,0.0012075547586002,-0.0012075578715143,0.0012075549408936,-0.00047848786765122,0.00047848963821389,-0.00047848763843651,0.00047848940831571,-0.0012075556306087,0.001207556846808,-0.0012075558127074,0.0012075570291618,-0.0012319154050505,0.001231915047085,-0.0012319154761957,0.0012319151181472,-0.0012319161237447,0.0012319143248033,-0.0012319161949095,0.001231914395884,-0.00091828102007964,0.00091827952279747,-0.00091828099079814,0.00091827949342597,-0.00091828032781702,0.00091828022085348,-0.00091828029829595,0.00091828019122292,-0.00047848988744286,0.00047848761116355,-3.9603132058853e-10,1.6226284636525e-09,5.8364307842811e-10,6.2239290300051e-10,-0.0017177157046173,0.0017177169056673,-0.001766316204336,0.0017663167732688,-0.0015338176828244,0.0015338169173701,-0.0015338158361699,0.0015338190226741,-0.0017323268721073,0.001732327367839,-0.0017323271873934,0.0017323277096273,-0.0017323262600089,0.0017323281111393,-0.0017323265753308,0.001732328452962,-0.0017663154765671,0.0017663173109137,-0.0017663155298535,0.001766317439392,-0.0015338177431206,0.0015338170045231,-0.0015338158964459,0.0015338191098017,-0.0017663161511903,0.0017663166449368,-1.4291761128861e-10,-1.4294518499037e-10,-0.0010103572779873,0.0010103569323755,-1.0337804107769e-10,-1.4165221355593e-10,-0.0008686536472325,0.00086865341044593,-0.00073529530849889,0.00073529521144231,-0.00073529528924639,0.00073529519232676,-0.00086865353458459,0.00086865336624813,-0.00086865359851743,0.00086865343156767,-0.00073529527853991,0.00073529525178085,-0.0007352952551161,0.00073529522849226,-0.0012508512960891,0.0012508508374004,-0.0012508513096399,0.0012508508259686,-0.0012508513980994,0.0012508509394876,-0.0012508514064079,0.001250850922813,-0.001295022125251,0.0012950217805937,-0.0012950222281799,0.0012950218834927,-0.0012950222043549,0.0012950218850928,-0.0012950221191114,0.0012950217998775,-0.00086865355535068,0.00086865331723643,0.76703045550565,123579,2954,0.0043149892114045,0.0071298897916007,0.0042024966193041,29.274750868105,0.00014939800694484,0.00014939800694484,0.00014939800694484,3478059.226146,0.01577114498959
33891759,0.97873877493932,0.016295135078545,0.0048529895749836,0.0066318023603924,0.0048103431431688,-0.0010390238102436,0.001039021608916,-1.0623708881663e-09,-1.0624021663431e-09,8.8776260122662e-11,-2.2181921648696e-09,-0.00045917080821311,0.0004591668902451,-0.001210060513161,0.0012100561121149,-0.0012100608426428,0.0012100564418405,-0.00045916880717158,0.00045916929421271,-0.00045916860940402,0.0004591690957625,-0.0012100582673867,0.0012100583905666,-0.0012100585963664,0.0012100587197992,-0.0012401043956639,0.0012401028413934,-0.0012401045248724,0.001240102970518,-0.0012401051800753,0.0012401020507671,-0.0012401053096025,0.001240102180209,-0.00091723707905502,0.00091723422199663,-0.00091723706022563,0.00091723420307862,-0.0009172363232892,0.00091723498486182,-0.00091723630352998,0.00091723496499417,-0.00045917100474619,0.00045916708748152,-4.5630963436272e-10,1.7466773477722e-09,6.2568375949652e-10,6.4164866366201e-10,-0.0017348757750656,0.0017348770375996,-0.0017910963094898,0.0017910968547322,-0.0015508248236525,0.0015508239495588,-0.0015508228656769,0.001550826302468,-0.0017436909434592,0.0017436914413837,-0.0017436913158991,0.001743691822933,-0.0017436902976839,0.0017436922857657,-0.0017436906701592,0.0017436926673499,-0.0017910954207606,0.0017910974008832,-0.0017910956111867,0.001791097622766,-0.001550824870637,0.001550824007701,-0.0015508229126423,0.0015508263605862,-0.0017910961192043,0.0017910966329952,-2.0486334056557e-10,-2.0489095479918e-10,-0.0010095951399137,0.0010095943946708,-2.1163642960823e-10,-2.2526853319359e-10,-0.00085352922682499,0.00085352872611517,-0.00072107253143949,0.0007210719127143,-0.00072107249312151,0.00072107187453343,-0.00085352919372914,0.00085352871857308,-0.0008535291958404,0.00085352872207818,-0.00072107252585287,0.00072107193108007,-0.0007210724805326,0.00072107188589455,-0.0012582108111267,0.0012582101989458,-0.0012582108170096,0.0012582101970347,-0.0012582109500133,0.0012582103379098,-0.0012582109488949,0.0012582103289963,-0.0013055004732387,0.0013055000487617,-0.0013055005056781,0.0013055000811739,-0.0013055004874784,0.0013055000724916,-0.0013055004770774,0.0013055000621159,-0.00085352918960884,0.00085352868756439,0.76172156471974,123579,2954,0.0043228181932571,0.0072008181360336,0.0041994633432898,30.026968120313,0.0001554157449625,0.0001554157449625,0.0001554157449625,3290289.393214,0.015848137601236
34391759,0.98292971653033,0.016367002823912,0.0048742471291247,0.0066618807526537,0.0048308749421331,-0.0010435919786313,0.001043588452322,-1.6570034274621e-09,-1.6570347311676e-09,-3.3242856877071e-10,-2.9809814262107e-09,-0.00046086707301033,0.00046086142576916,-0.0012162741023501,0.0012162681327885,-0.0012162745750054,0.0012162686056881,-0.00046086472474747,0.00046086412880342,-0.00046086455175812,0.00046086395513188,-0.0012162715290102,0.0012162707446053,-0.0012162720007382,0.001216271216587,-0.001246251410701,0.0012462487549956,-0.0012462515963616,0.001246248940572,-0.0012462523067428,0.0012462478485799,-0.0012462524929594,0.0012462480347113,-0.00092083476510938,0.00092083054990462,-0.00092083475404597,0.0009208305387525,-0.00092083389813002,0.0009208314256831,-0.0009208338855781,0.00092083141302328,-0.00046086724401561,0.00046086159747817,-5.6479820677306e-10,1.964739623509e-09,7.0661665472859e-10,6.6590890358715e-10,-0.0017461562653791,0.0017461576334461,-0.0018017760728602,0.0018017765577022,-0.0015604145621725,0.0015604134951578,-0.0015604123501396,0.0015604162345211,-0.0017556930238497,0.0017556935326837,-0.0017556934636756,0.0017556939420908,-0.0017556922974292,0.0017556945229998,-0.0017556927372905,0.0017556949324413,-0.0018017749505153,0.0018017772005169,-0.0018017753009076,0.0018017774721961,-0.0015604146068037,0.0015604135128216,-0.0015604123947516,0.0015604162521608,-0.0018017757226088,0.0018017762861696,-2.5789375672864e-10,-2.5792135782295e-10,-0.0010132355635116,0.0010132344432618,-3.2713932985332e-10,-2.8207562448183e-10,-0.00085590663867803,0.0008559059328769,-0.00072292861888481,0.00072292753774211,-0.00072292856188675,0.00072292748088086,-0.00085590670990056,0.00085590591912973,-0.00085590665922067,0.0008559058698427,-0.00072292867105997,0.00072292750047441,-0.00072292860434384,0.00072292743389294,-0.001264218675491,0.0012642179149691,-0.0012642186623617,0.0012642179338111,-0.0012642188486213,0.0012642180881769,-0.0012642188268794,0.0012642180984059,-0.0013114111102962,0.0013114106342919,-0.0013114110782239,0.0013114106021925,-0.0013114110771346,0.0013114105719133,-0.0013114111352395,0.0013114106300434,-0.00085590664742959,0.00085590594029337,0.71950148343769,123579,2954,0.0043418143172504,0.0072474378451683,0.0042145944232282,31.389265223419,0.00016631412178735,0.00016631412178735,0.00016631412178735,3248791.3708723,0.015930177431461
34891759,0.98663351433766,0.016434439878934,0.004894219902855,0.0066900225576574,0.0048501974184218,-0.0010505720576032,0.0010505669944472,-2.3472133475523e-09,-2.3472446902124e-09,-7.9581008460701e-10,-3.891511187328e-09,-0.00046895670218506,0.00046894901169085,-0.0012248558387185,0.0012248479999962,-0.0012248564725569,0.0012248486340794,-0.00046895389914784,0.00046895211060232,-0.00046895375670586,0.00046895196747673,-0.0012248528356405,0.0012248510492321,-0.0012248534681018,0.0012248516819474,-0.0012532491028506,0.0012532451781253,-0.0012532493536223,0.0012532454288132,-0.0012532501447442,0.0012532441203367,-0.0012532503963211,0.0012532443718286,-0.00092743809518258,0.00092743228777838,-0.00092743809392462,0.00092743228643225,-0.0009274370823939,0.00092743331149629,-0.00092743707905365,0.00092743330804856,-0.00046895684181771,0.0004689491520282,-7.0238737620956e-10,2.2564471148175e-09,8.2242785327597e-10,6.9838266483016e-10,-0.0017566648674378,0.0017566663842291,-0.0018104295294288,0.0018104299363063,-0.0015693527802756,0.0015693514723259,-0.0015693502177036,0.0015693547037735,-0.0017679372190834,0.0017679377557211,-0.0017679377459155,0.0017679381948195,-0.0017679363832425,0.0017679389327476,-0.0017679369101101,0.0017679393718805,-0.0018104281157973,0.0018104307390829,-0.0018104286548885,0.0018104310371246,-0.0015693528314944,0.0015693514407334,-0.0015693502689027,0.0015693546721561,-0.0018104289904791,0.0018104296384118,-3.160778618324e-10,-3.1610547427195e-10,-0.0010201107303079,0.0010201091925463,-4.6149734683754e-10,-3.3092950047063e-10,-0.00086488879221291,0.00086488788980885,-0.00073072756215929,0.00073072600089872,-0.00073072748325321,0.00073072592212934,-0.00086488899935322,0.00086488784897949,-0.0008648888894547,0.00086488774047195,-0.00073072769865527,0.00073072588200528,-0.00073072760661282,0.00073072579009774,-0.0012713863302561,0.0012713853918093,-0.0012713862893459,0.0012713854405436,-0.0012713865439489,0.0012713856055799,-0.001271386492457,0.001271385643732,-0.001318361154483,0.0013183606266863,-0.0013183610529779,0.0013183605251543,-0.0013183610773736,0.0013183604638152,-0.0013183612098169,0.0013183605962836,-0.00086488885149293,0.00086488794775623,0.76368749739881,123579,2954,0.0043707684726365,0.0072908842822567,0.0042431183706123,33.428140560188,0.0001826251244815,0.0001826251244815,0.0001826251244815,3251120.5700551,0.016032711355315
35391759,0.98986398182246,0.016486805610785,0.0049097400669144,0.0067118526686488,0.004865212875222,-0.0010557161096016,0.0010557101293338,-2.7618468438718e-09,-2.7618782220162e-09,-9.9686068806084e-10,-4.523135454199e-09,-0.00046391788475127,0.00046390878410068,-0.0012304816105016,0.0012304724838275,-0.0012304823465525,0.0012304732201221,-0.00046391466020964,0.00046391230032439,-0.00046391452093027,0.0004639121603602,-0.0012304781904232,0.0012304759568245,-0.0012304789250018,0.0012304766916566,-0.0012616291464837,0.0012616245263825,-0.0012616294355043,0.0012616248153185,-0.0012616303274449,0.0012616233244043,-0.0012616306173361,0.0012616236142095,-0.00093098579135395,0.000930978974122,-0.00093098579062424,0.00093097897330455,-0.0009309846366704,0.00093098014129643,-0.00093098463368892,0.0009309801382092,-0.00046391802108,0.00046390892113455,-8.4809328402351e-10,2.5329652594662e-09,9.3330568138738e-10,7.1288222505501e-10,-0.001770042270819,0.0017700439134541,-0.0018271547798041,0.0018271550763226,-0.0015822902406843,0.0015822886783026,-0.0015822873171645,0.0015822923801489,-0.0017788800391391,0.0017788805912872,-0.0017788806294909,0.001778881029238,-0.0017788790861812,0.0017788819340001,-0.0017788796765681,0.0017788823719857,-0.0018271530667301,0.0018271560499856,-0.0018271537912998,0.0018271563452838,-0.0015822903059812,0.0015822885965528,-0.0015822873824429,0.001582292298374,-0.0018271540553766,0.0018271547811712,-3.4048708239747e-10,-3.4051475162572e-10,-0.0010237397622727,0.0010237379855798,-5.6310442420078e-10,-3.3529311562841e-10,-0.00086118789781374,0.00086118692040176,-0.00072760660811487,0.00072760477889277,-0.00072760651887375,0.00072760468978841,-0.00086118823341778,0.0008611868191662,-0.00086118808784843,0.00086118667499237,-0.00072760683968093,0.00072760456521404,-0.00072760673617385,0.00072760446184197,-0.0012793298120822,0.0012793287820712,-0.0012793297391608,0.0012793288638572,-0.0012793300465458,0.0012793290166123,-0.001279329962206,0.0012793290869801,-0.0013275012718547,0.0013275007565067,-0.0013275011236998,0.0013275006083257,-0.0013275011792345,0.0013275005134024,-0.0013275013602482,0.00132750069444,-0.0008611879900365,0.00086118701128727,0.67947291040117,123579,2954,0.0043922109694585,0.0073461803887275,0.0042582435147271,35.83662376667,0.00020189299013336,0.00020189299013336,0.00020189299013336,3144511.8723558,0.016126088583124
35891759,0.99248968295772,0.016531552123464,0.0049230715717882,0.0067303655406334,0.0048781150110422,-0.0010619148250692,0.0010619104765116,-2.0314807898475e-09,-2.0315121965792e-09,-2.6086458173668e-10,-3.8125884253348e-09,-0.00047826081896304,0.00047825343624022,-0.0012382254696711,0.001238217828227,-0.0012382260185368,0.0012382183773383,-0.00047825757625003,0.00047825702977352,-0.00047825740863512,0.00047825686147378,-0.0012382220170497,0.0012382213347357,-0.0012382225652392,0.0012382218831802,-0.0012657778362456,0.0012657747039909,-0.0012657780544013,0.0012657749220625,-0.0012657790222392,0.0012657734963787,-0.0012657792408168,0.001265773714871,-0.0009377258334925,0.00093772054133287,-0.00093772582508285,0.00093772053283563,-0.00093772466767546,0.00093772171888445,-0.00093772465805012,0.00093772170915241,-0.00047826098499768,0.00047825360298092,-8.4779660646915e-10,2.574766947843e-09,9.6974491160567e-10,7.1754668955883e-10,-0.0017751055142849,0.0017751071980976,-0.0018275718584716,0.001827572152319,-0.0015856177777812,0.0015856162237021,-0.0015856147227735,0.0015856198820173,-0.0017878499422445,0.0017878505393591,-0.0017878504908059,0.0017878509179472,-0.0017878489512114,0.0017878518531779,-0.0017878494998082,0.0017878522318003,-0.0018275702157035,0.001827573283477,-0.0018275708134414,0.0018275733883971,-0.0015856178870329,0.001585616165636,-0.0015856148320056,0.0015856198239259,-0.0018275712608759,0.0018275720475468,-2.5476054416672e-10,-2.5478819034421e-10,-0.0010307562864921,0.0010307550362686,-4.4141268613073e-10,-1.8483608974463e-10,-0.00087536811741973,0.00087536757054373,-0.00074018145774495,0.00074018040436004,-0.00074018139153869,0.00074018033829133,-0.00087536841122855,0.0008753673626197,-0.00087536834351198,0.00087536729629292,-0.0007401817174409,0.0007401801593633,-0.00074018163997989,0.00074018008203759,-0.0012839430327305,0.0012839421832053,-0.0012839429498345,0.0012839422730246,-0.0012839432261631,0.0012839423767157,-0.0012839431337818,0.0012839424570492,-0.0013308268076491,0.0013308264221789,-0.0013308267516936,0.0013308263661973,-0.0013308268196132,0.0013308262637061,-0.0013308269035221,0.001330826347639,-0.00087536813933447,0.00087536759112574,0.71348599053829,123579,2954,0.0044178611145572,0.0073671182239577,0.0042873081704697,37.445446352484,0.00021476357081987,0.00021476357081987,0.00021476357081987,3211059.0724565,0.016202935475202
36391759,0.99444434414081,0.016564403966797,0.0049328154635539,0.006744027624211,0.0048875608790323,-0.001062104061529,0.0010621031199912,-5.0172213013038e-10,-5.0175358688999e-10,8.4654440706122e-10,-1.8771890182523e-09,-0.00046891222923293,0.0004689092314011,-0.0012384822466747,0.0012384785881406,-0.0012384824371953,0.0012384787789056,-0.00046890983429693,0.00046891211317748,-0.00046890959678093,0.00046891187497635,-0.001238479586843,0.0012384812872965,-0.0012384797778369,0.0012384814785441,-0.0012687365341375,0.0012687362620619,-0.0012687366086566,0.0012687363364963,-0.0012687374492066,0.0012687353358492,-0.0012687375234981,0.001268735410055,-0.00093662913029465,0.00093662731402765,-0.00093662910143989,0.00093662728508608,-0.0009366282334901,0.00093662821813256,-0.0009366282049447,0.00093662818948115,-0.00046891246722581,0.00046890947010008,-5.9909531634344e-10,2.0310973439512e-09,7.7077130417162e-10,6.3237434833891e-10,-0.0017815742020629,0.0017815756009609,-0.0018377432893772,0.00183774367815,-0.0015922056198591,0.0015922045118192,-0.0015922031815228,0.001592207234133,-0.0017915320971944,0.0017915326483814,-0.0017915324855578,0.0017915329475318,-0.0017915313036133,0.0017915336065888,-0.001791531692012,0.0017915339057735,-0.0018377421758168,0.0018377445827604,-0.0018377424225619,0.0018377445574171,-0.0015922057425639,0.0015922045440713,-0.0015922033042083,0.0015922072663607,-0.0018377430427742,0.0018377437036408,-1.1416299459006e-10,-1.1419067059016e-10,-0.0010297845579512,0.0010297842640436,-1.6428685731105e-10,-2.612447138592e-11,-0.00086758454366973,0.000867584542201,-0.00073293774765803,0.00073293787761426,-0.00073293773082614,0.00073293786091933,-0.00086758460123117,0.00086758431792365,-0.0008675846700664,0.00086758438815225,-0.00073293789035027,0.00073293774332528,-0.00073293786978881,0.00073293772289903,-0.0012865215522285,0.001286521093428,-0.0012865215074096,0.0012865211406061,-0.0012865216579124,0.00128652119919,-0.0012865216079754,0.0012865212412496,-0.0013348454627246,0.0013348452360581,-0.0013348455650597,0.0013348453383686,-0.001334845600174,0.0013348452808855,-0.0013348455148625,0.0013348451955967,-0.00086758444773981,0.0008675844449351,0.70433655235509,123579,2954,0.0044187449110887,0.0073938492380911,0.0042833396113185,37.53343317482,0.00021546746539856,0.00021546746539856,0.00021546746539856,3129583.8122577,0.016226999488483
36891759,0.99584884269757,0.016585750932848,0.0049391848725527,0.0067528415612672,0.0048937244990285,-0.0010609756308316,0.0010609765447484,3.331686000015e-10,3.3313712097786e-10,1.4077559041117e-09,-7.7547563983975e-10,-0.00046667968374264,0.00046667916554273,-0.0012379216118644,0.0012379202152048,-0.0012379216075124,0.0012379202110973,-0.00046667783445413,0.00046668156335348,-0.0004666775648764,0.0004666812930903,-0.0012379194715939,0.0012379223857751,-0.0012379194682389,0.0012379223826739,-0.0012682242548624,0.001268225512274,-0.0012682242519266,0.0012682255092535,-0.0012682249937529,0.0012682247688667,-0.0012682249902932,0.0012682247653212,-0.00093515722683044,0.00093515733599581,-0.00093515718872234,0.00093515729780093,-0.00093515650648673,0.00093515806109744,-0.00093515646941376,0.0009351580239185,-0.00046667995475609,0.00046667943726255,-4.3030374585417e-10,1.68114028473e-09,6.349490879765e-10,5.9387598473161e-10,-0.0017828779506746,0.0017828791747307,-0.0018388070856808,0.001838807570059,-0.0015929090834038,0.0015929082727776,-0.0015929070654752,0.0015929103972039,-0.0017931006925002,0.0017931012157818,-0.0017931009826147,0.0017931014837216,-0.0017931000340381,0.0017931019516159,-0.001793100324188,0.0017931022195898,-0.0018388063278248,0.001838808292003,-0.0018388063439742,0.0018388082255784,-0.0015929092021556,0.0015929083663126,-0.0015929071842077,0.0015929104907143,-0.0018388070696737,0.0018388076366313,-4.4362334511132e-11,-4.4390015327267e-11,-0.0010283208911877,0.0010283211016723,-8.0427098889689e-13,3.7202715313467e-11,-0.00086561792310888,0.00086561817036452,-0.00073081188828249,0.00073081261821735,-0.00073081189733641,0.00073081262740821,-0.00086561781746595,0.0008656179735309,-0.00086561795954801,0.00086561811700609,-0.0007308119322957,0.00073081257950523,-0.00073081194156766,0.00073081258891246,-0.0012859376101787,0.0012859373606242,-0.0012859375979044,0.0012859373727913,-0.0012859376690758,0.0012859374195994,-0.0012859376539938,0.0012859374289583,-0.0013342086940237,0.001334208527279,-0.0013342088822847,0.0013342087155154,-0.0013342088874685,0.0013342086942982,-0.0013342087106651,0.0013342085175174,-0.0008656177636703,0.00086561800959019,0.6357490455962,123579,2954,0.0044140864860674,0.0073992243497072,0.0042772780901718,36.818470471544,0.00020974776377235,0.00020974776377235,0.00020974776377235,3118731.9607242,0.01622157209302
37391759,0.99693485654971,0.016603073591855,0.0049443512666064,0.0067599913345715,0.004898730990677,-0.0010645514620291,0.0010645490584806,-1.1530136969877e-09,-1.1530451796877e-09,2.5982682423358e-11,-2.3360026687514e-09,-0.00047725922244484,0.00047725505447385,-0.0012422790736123,0.0012422744340179,-0.0012422794291736,0.0012422747898242,-0.00047725717646877,0.00047725751646105,-0.00047725697232861,0.00047725731163479,-0.0012422767748993,0.0012422767660233,-0.001242277130046,0.0012422771214243,-0.0012697813185678,0.0012697795926765,-0.001269781459157,0.0012697797331814,-0.0012697821213953,0.0012697787833699,-0.001269782262255,0.0012697789241441,-0.0009393885403286,0.00093938547580393,-0.00093938852169549,0.00093938545708375,-0.00093938776666921,0.00093938625653843,-0.00093938774722416,0.00093938623698741,-0.00047725942552717,0.00047725525826175,-4.7395637660509e-10,1.7795942056112e-09,6.6666912609817e-10,6.151931228018e-10,-0.001783851649502,0.0017838529266303,-0.0018363416136356,0.0018363420903678,-0.0015929480271556,0.0015929471409379,-0.001592946025394,0.0015929495493549,-0.0017969171443277,0.001796917661423,-0.0017969175609852,0.0017969180427868,-0.0017969164937199,0.0017969185356997,-0.0017969169104129,0.0017969189170979,-0.0018363406313698,0.0018363427090126,-0.0018363409086775,0.0018363428856935,-0.0015929480970178,0.0015929471772245,-0.0015929460952363,0.001592949585617,-0.001836341336471,0.0018363419138355,-2.0238892520138e-10,-2.0241660519401e-10,-0.0010328019905348,0.0010328012048936,-2.4734182134773e-10,-1.9336358774277e-10,-0.00087600198771978,0.00087600154336207,-0.00074004134090247,0.00074004073729261,-0.00074004130163281,0.00074004069816007,-0.00087600201870931,0.00087600146655624,-0.00087600202284761,0.00087600147208578,-0.00074004140169085,0.00074004068923906,-0.00074004135535455,0.00074004064303911,-0.0012879076911027,0.001287907053304,-0.0012879076746009,0.0012879070739749,-0.0012879078376896,0.001287907199969,-0.0012879078140652,0.0012879072135167,-0.0013352446074413,0.0013352442150104,-0.0013352446340154,0.0013352442415589,-0.0013352446380568,0.0013352442099755,-0.0013352446341116,0.0013352442060533,-0.00087600194741594,0.00087600150172432,0.66747126441366,123579,2954,0.0044288476334215,0.0074032609154095,0.0042958232686272,37.627217300414,0.00021621773840331,0.00021621773840331,0.00021621773840331,3182983.5935576,0.016259496613029
37891759,0.99773981161738,0.016614794608371,0.004947836682925,0.0067648470911193,0.0049021108343263,-0.0010641957415243,0.0010641949116762,-4.4783686853813e-10,-4.4786838956048e-10,6.2275677085519e-10,-1.5341491251797e-09,-0.00046887321376025,0.00046887090062388,-0.0012415529391962,0.001241549959257,-0.0012415531262164,0.0012415501465217,-0.00046887138450518,0.00046887321461924,-0.00046887114581743,0.00046887297524542,-0.0012415508333656,0.0012415520949881,-0.0012415510204981,0.0012415522823744,-0.0012716730441344,0.0012716726939706,-0.0012716731168913,0.0012716727666426,-0.0012716737781575,0.0012716719558053,-0.0012716738508844,0.0012716720284463,-0.00093807800989861,0.00093807649056036,-0.00093807798108116,0.00093807646165658,-0.00093807730153395,0.00093807720463672,-0.00093807727260555,0.0009380771756028,-0.00046887345233444,0.00046887113990503,-4.1449111131636e-10,1.6507691601353e-09,6.0418082222002e-10,6.1077353922881e-10,-0.0017876396061698,0.0017876408162462,-0.0018436559166883,0.0018436564476986,-0.001597234742374,0.0015972339509811,-0.0015972328511503,0.0015972361039256,-0.0017979805813712,0.0017979810818248,-0.0017979809219522,0.0017979814280794,-0.0017979799660402,0.0017979818509057,-0.0017979803066565,0.0017979821971945,-0.001843655129134,0.0018436570191757,-0.001843655235292,0.0018436571374238,-0.0015972348178368,0.0015972340320259,-0.0015972329265936,0.0015972361849457,-0.0018436558106728,0.0018436563295983,-1.3614256336461e-10,-1.3617026579038e-10,-0.0010315142609575,0.001031513928187,-1.1473769437161e-10,-1.2100431794527e-10,-0.00086857427950144,0.00086857409135247,-0.00073338560514095,0.00073338555613089,-0.00073338558902091,0.00073338554014795,-0.00086857419286013,0.00086857400938426,-0.00086857426310531,0.00086857408102248,-0.00073338560620587,0.00073338556441505,-0.00073338558655472,0.00073338554489926,-0.001289448699218,0.0012894482466934,-0.001289448702177,0.0012894482458335,-0.0012894488047544,0.001289448352308,-0.0012894488026389,0.0012894483463732,-0.001337989047322,0.0013379887280828,-0.0013379891493643,0.001337988830101,-0.0013379891363537,0.001337988821115,-0.0013379890517096,0.0013379887364929,-0.0008685741820677,0.00086857399258297,0.60954457296434,123579,2954,0.0044274503710206,0.0074189143005158,0.004290531934679,37.70927391408,0.00021687419131264,0.00021687419131264,0.00021687419131264,3114508.4526142,0.016268636066561
38391759,0.99832113908972,0.016624249468573,0.0049506551787827,0.0067687516594766,0.0049048426303134,-0.0010645972715165,0.0010645978060333,1.657595809527e-10,1.6572802544611e-10,1.0930426624146e-09,-7.8637571437936e-10,-0.0004755125472947,0.00047551192634291,-0.0012426079165912,0.0012426064764268,-0.0012426079632182,0.0012426065232992,-0.00047551100214552,0.00047551400895158,-0.00047551073666429,0.00047551374278436,-0.0012426060754716,0.0012426083428261,-0.0012426061226447,0.0012426083902535,-0.0012703563541522,0.0012703571726278,-0.0012703563699491,0.0012703571883403,-0.0012703569967907,0.0012703565293128,-0.0012703570123179,0.0012703565447545,-0.00093912104989272,0.00093912090585767,-0.0009391210127452,0.00093912086862378,-0.00093912043132484,0.00093912152865332,-0.00093912039463916,0.00093912149186198,-0.00047551281345674,0.00047551219321197,-3.330488670122e-10,1.4704052213431e-09,5.2738702210025e-10,5.9211923234037e-10,-0.0017856000110913,0.0017856011254759,-0.0018385975784181,0.0018385981595057,-0.0015944262844913,0.0015944256316973,-0.0015944245894789,0.0015944274688322,-0.0017983903642874,0.0017983908426094,-0.0017983906348779,0.0017983911593364,-0.0017983898097484,0.0017983914866926,-0.0017983900803742,0.0017983918034537,-0.0018385969931697,0.0018385986430004,-0.0018385969490827,0.0018385987240912,-0.0015944263588228,0.0015944257506683,-0.0015944246637902,0.0015944275877781,-0.0018385976226478,0.0018385980785624,-8.1548943309289e-11,-8.1576602773135e-11,-0.0010326605881962,0.0010326606273357,-1.0395145670729e-12,-6.7373919206839e-11,-0.00087486991390745,0.00087486991919927,-0.00073879389939364,0.00073879429109914,-0.00073879390228332,0.00073879429412539,-0.00087486972074285,0.00087486984413314,-0.00087486984493343,0.00087486996971421,-0.00073879384103077,0.00073879435617666,-0.00073879384344519,0.00073879435872669,-0.0012884433166727,0.001288443023701,-0.0012884433390269,0.0012884430015615,-0.0012884433862282,0.0012884430933345,-0.0012884434053316,0.0012884430679438,-0.0013360812953494,0.0013360810340292,-0.0013360814591442,0.0013360811977999,-0.0013360814288104,0.0013360812110863,-0.0013360812778813,0.0013360810601796,-0.00087486977029161,0.0008748697742508,0.68081525693754,123579,2954,0.0044290626187132,0.0074104843391939,0.0042952490040239,37.199222587907,0.00021279378070326,0.00021279378070326,0.00021279378070326,3176499.1014901,0.016266478679824
38880000,0.99874535511498,0.016631528293799,0.0049528154208472,0.0067717761712123,0.0049069367017397,-0.001063015385816,0.0010630148095453,-3.3199147255017e-10,-3.3202281934254e-10,6.0008941973897e-10,-1.2759126915372e-09,-0.00046175564263263,0.0004617538769722,-0.0012404021996772,0.0012403997400444,-0.0012404023622443,0.0012403999028558,-0.00046175409323561,0.00046175591488832,-0.00046175385160653,0.00046175567257356,-0.0012404003674732,0.0012404015976236,-0.0012404005300047,0.0012404017604086,-0.0012722927328789,0.0012722925252175,-0.0012722927961284,0.001272292588382,-0.0012722933766815,0.0012722918805627,-0.0012722934399804,0.0012722919437756,-0.00093616987067568,0.0009361686850311,-0.0009361698415467,0.00093616865581646,-0.000936169255361,0.00093616930524752,-0.00093616922595889,0.00093616927574055,-0.0004617558839113,0.00046175411895737,-3.2245899565785e-10,1.4646330025407e-09,5.1205490666233e-10,6.124290564186e-10,-0.0017902845767336,0.0017902856960417,-0.001848717292828,0.0018487179182009,-0.0016000003530119,0.0015999997119552,-0.0015999987217833,0.0016000015759179,-0.0017987563841959,0.0017987568554511,-0.0017987566870555,0.0017987572257541,-0.0017987558539913,0.0017987575265238,-0.0017987561568862,0.001798757896861,-0.0018487166986849,0.0018487183142222,-0.0018487166981796,0.0018487185094534,-0.0016000004020033,0.0015999998287451,-0.0015999987707555,0.0016000016926835,-0.0018487172934757,0.0018487177231174,-1.4166212552519e-10,-1.4169004315027e-10,-0.001029483394256,0.0010294830944279,-6.8097215809154e-11,-1.6807525334285e-10,-0.00086206623739047,0.00086206597082542,-0.00072743202831108,0.00072743194785028,-0.00072743201558553,0.00072743193526171,-0.0008620660510922,0.00086206597411745,-0.00086206612928643,0.00086206605370682,-0.00072743193734849,0.00072743204814823,-0.000727431921601,0.00072743203253605,-0.0012897652342,0.0012897648056356,-0.0012897652681343,0.0012897647734445,-0.0012897653348612,0.0012897649063751,-0.0012897653639694,0.0012897648693574,-0.0013391315638195,0.0013391311958262,-0.0013391316754397,0.0013391313074233,-0.0013391316315311,0.00133913133016,-0.0013391315368475,0.0013391312354975,-0.00086206613301051,0.00086206586510754,0.71913113407407,123579,2954,0.0044226159932426,0.0074298355307349,0.0042821456543106,37.193705576011,0.00021274964460809,0.00021274964460809,0.00021274964460809,3065124.0194555,0.016266320709271
