time,ASR_ext,ASR_strain,ASR_strain_xx,ASR_strain_yy,ASR_strain_zz,disp_x_101,disp_x_102,disp_x_103,disp_x_104,disp_x_105,disp_x_106,disp_x_p1_neg,disp_x_p1_pos,disp_x_p2_neg,disp_x_p2_pos,disp_x_p3_neg,disp_x_p3_pos,disp_x_p4_neg,disp_x_p4_pos,disp_x_p5_neg,disp_x_p5_pos,disp_x_p6_neg,disp_x_p6_pos,disp_y_101,disp_y_102,disp_y_103,disp_y_104,disp_y_105,disp_y_106,disp_y_p1_neg,disp_y_p1_pos,disp_y_p2_neg,disp_y_p2_pos,disp_y_p3_neg,disp_y_p3_pos,disp_y_p4_neg,disp_y_p4_pos,disp_y_p5_neg,disp_y_p5_pos,disp_y_p6_neg,disp_y_p6_pos,disp_y_p7_neg,disp_y_p7_pos,disp_y_p8_neg,disp_y_p8_pos,disp_z_101,disp_z_102,disp_z_103,disp_z_104,disp_z_105,disp_z_106,disp_z_p1_neg,disp_z_p1_pos,disp_z_p2_neg,disp_z_p2_pos,disp_z_p3_neg,disp_z_p3_pos,disp_z_p4_neg,disp_z_p4_pos,disp_z_p5_neg,disp_z_p5_pos,disp_z_p6_neg,disp_z_p6_pos,humidity,ndof,nelem,strain_xx,strain_yy,strain_zz,temp,thermal_strain_xx,thermal_strain_yy,thermal_strain_zz,vonmises,vstrain
2419200,0,0,0,0,0,0,0,0,0,0,0,0,0,0,0,0,0,0,0,0,0,0,0,0,0,0,0,0,0,0,0,0,0,0,0,0,0,0,0,0,0,0,0,0,0,0,0,0,0,0,0,0,0,0,0,0,0,0,0,0,0,0,0,0,0,0,0,0,0,0,0,0,0,0,0
2919200,0.076491938093591,0.0015975326436362,0.00053251088121207,0.00053251088121207,0.00053251088121207,-0.00016145684783685,0.00016143605599182,-8.1259076802012e-09,-8.1259076509226e-09,-7.0674915523079e-09,-8.9034514271558e-09,-0.00016219417284577,0.00016217702068197,-0.00016219497252546,0.00016217782036092,-0.00016219550513615,0.00016217716188099,-0.00016219629324037,0.0001621779499852,-0.00016543517807394,0.00016541757445698,-0.0001654358870931,0.00016541828347654,-3.6172370378782e-09,-2.0468750468962e-09,-3.4161577256438e-09,-2.4256238875269e-09,-0.0001676170471358,0.00016760855984016,-0.00016776462114039,0.0001677570926996,-0.0001677650513119,0.00016775824612974,-0.00016776549936868,0.00016775917684849,-0.00016776592954024,0.00016776033027859,-0.0001702168561595,0.00017021021420109,-0.00017021664436114,0.00017021191827219,-0.00016878570093312,0.00016877839614807,-0.00016878502049196,0.00016878082337981,-3.1978145403138e-09,-3.1978145201674e-09,-0.00016761734601248,0.00016760826096351,-2.6460197092377e-09,-3.6957107129385e-09,-0.00016776414635542,0.00016775735573252,-0.00016776537182226,0.00016775786221717,-0.00016776579110732,0.00016775900048561,-0.00016776696460019,0.00016775945499555,-0.00016878660661363,0.00016877946443995,-0.0001687855311287,0.00016877838895511,0.83502648770561,125301,3014,0.00067246729166515,0.00069814187611668,0.00069814187611673,32.419256405929,0.00017455405124743,0.00017455405124743,0.00017455405124743,1044490.7215854,0.0020708943345824
3419200,0.15565112307805,0.0031136775638455,0.0010144820836816,0.0010495977400997,0.0010495977400642,-0.0002672592507436,0.00026724043626205,-7.6737133010026e-09,-7.6737777570923e-09,-7.036534480937e-09,-7.9984101567512e-09,-0.00027457847715877,0.00027456242015738,-0.00027457941135569,0.00027456335419958,-0.00027457967080731,0.00027456299578184,-0.0002745805928673,0.00027456391768725,-0.0002757405898701,0.00027572432315385,-0.00027574206646258,0.00027572579951513,-3.2288853324242e-09,-2.5626721070711e-09,-3.2568612640425e-09,-2.7779926111467e-09,-0.00028778433707099,0.00028777603945778,-0.00029365459419583,0.00029364784315984,-0.00029365551252328,0.0002936491120903,-0.00029365659429001,0.0002936503648169,-0.00029365751250323,0.00029365163362433,-0.00029219327239123,0.00029218657507721,-0.00029219495773416,0.0002921891856028,-0.00028714643673315,0.00028713966594826,-0.00028714786259225,0.00028714244016559,-3.1002995649029e-09,-3.100364001552e-09,-0.00028778446949975,0.0002877759070141,-2.8238665953948e-09,-3.3632378861265e-09,-0.00029365433758231,0.00029364795017401,-0.0002936556707436,0.0002936489208706,-0.0002936567140767,0.0002936503265487,-0.00029365799853349,0.00029365124853547,-0.00028714868718768,0.00028714186222065,-0.0002871463712387,0.00028713954637208,0.77960726241633,125301,3014,0.0011129281532118,0.0011983621853189,0.0011983621852878,31.910896348121,0.00017048717078496,0.00017048717078496,0.00017048717078496,1565099.3542872,0.003515824070186
3919200,0.24244754474106,0.0046729748186975,0.0014901876514691,0.0015913935836286,0.0015913935835998,-0.0003736169299985,0.00037360720602769,-3.7416969066544e-09,-3.7417517886542e-09,-3.8831860924628e-09,-3.4450729415923e-09,-0.00039033114398499,0.00039032303180056,-0.00039033177549183,0.00039032366315228,-0.00039033159062097,0.00039032379928352,-0.00039033221541772,0.00039032442392794,-0.00038843691543568,0.00038842904923696,-0.0003884377446789,0.0003884298782825,-2.1101527550333e-09,-2.7068863259321e-09,-2.5628386031842e-09,-2.2867961700913e-09,-0.00041528416519759,0.00041527758805668,-0.00043226174120011,0.00043225666474173,-0.00043226236504208,0.00043225750034786,-0.00043226321916814,0.00043225775869611,-0.00043226384288479,0.0004322585941635,-0.00042154770493155,0.00042154198677329,-0.00042154858661918,0.00042154338683464,-0.00040947740433137,0.00040947274841032,-0.00040947903989313,0.00040947325211825,-2.3653446920345e-09,-2.3653995912103e-09,-0.00041528407796641,0.00041527767527597,-2.1415805133986e-09,-2.4575390695742e-09,-0.00043226161923309,0.00043225674316941,-0.00043226248242435,0.00043225739329683,-0.0004322629288719,0.00043225805271489,-0.00043226377782613,0.00043225868860164,-0.00040947886433064,0.00040947354270903,-0.00040947769652249,0.00040947237499393,0.74640349119053,125301,3014,0.0015555360561036,0.0017288314391156,0.0017288314390909,32.496690399938,0.0001751735231995,0.0001751735231995,0.0001751735231995,2194481.327986,0.0050257996800399
4419200,0.33745959467541,0.0063458021475482,0.0019862016060764,0.0021798002707477,0.0021798002707241,-0.00048496525912435,0.00048495973913212,-2.0418766418496e-09,-2.0419355438149e-09,-2.5076113481064e-09,-1.5424036837439e-09,-0.0005132763895613,0.00051327223478959,-0.00051327674784096,0.00051327259291169,-0.00051327641441546,0.00051327292804753,-0.0005132767712822,0.00051327328476026,-0.00050888023199884,0.00050887612200878,-0.00050888059053888,0.00050887648036645,-9.8331674786924e-10,-1.9642470135736e-09,-1.4062970540871e-09,-1.6619409505255e-09,-0.00055394699381631,0.00055394272048525,-0.00058556355824286,0.00058556102704354,-0.00058556412981099,0.00058556144259272,-0.00058556454749825,0.00058556136769061,-0.00058556511894957,0.00058556178311148,-0.00056375653148585,0.00056375296714903,-0.0005637578860218,0.00056375379620868,-0.00054209896759612,0.00054209648185242,-0.00054210082459199,0.00054209643449885,-1.2300999968483e-09,-1.2301589089309e-09,-0.00055394674214804,0.00055394297214422,-1.3879218910713e-09,-1.1442994097767e-09,-0.00058556356806556,0.00058556104973915,-0.00058556397155536,0.00058556161967471,-0.00058556419929722,0.00058556168084451,-0.00058556461883935,0.00058556226683042,-0.0005421000362379,0.000542097254414,-0.00054209910250717,0.00054209632076664,0.74424082049435,125301,3014,0.0020187203491527,0.0023054193243421,0.0023054193243228,33.598705541221,0.00018398964432977,0.00018398964432977,0.00018398964432977,2758263.2441366,0.006651616055149
4919200,0.44064920109833,0.0081425808853021,0.0025045500961117,0.0028190153946057,0.0028190153945847,-0.00060100663393915,0.00060100279244899,-1.4156160827239e-09,-1.415665458392e-09,-1.9711411479616e-09,-8.9603399995284e-10,-0.0006453820745547,0.00064537956209028,-0.00064538225746729,0.00064537974483981,-0.00064538189753388,0.00064538013304041,-0.00064538208293085,0.00064538031827778,-0.0006364464616408,0.0006364437407598,-0.00063644661721118,0.00063644389616681,-4.0569196610382e-10,-1.3897414796201e-09,-6.535164055332e-10,-1.2665278785965e-09,-0.00070423447364491,0.00070423160680061,-0.00075510716409574,0.00075510606315648,-0.00075510769546173,0.00075510619481555,-0.00075510779495768,0.00075510604455339,-0.00075510832619651,0.0007551061760745,-0.00071961690194454,0.0007196148084482,-0.00071961845420348,0.00071961512906873,-0.00068618133162311,0.00068617988172154,-0.0006861831436457,0.00068617977623607,-5.0562491971166e-10,-5.0567426293955e-10,-0.00070423410958313,0.00070423197085439,-9.1753348886409e-10,-2.8559592951981e-10,-0.000755107218088,0.00075510608747354,-0.00075510730034962,0.00075510660230159,-0.0007551074598478,0.0007551063291314,-0.00075510758009818,0.00075510688194651,-0.00068618205945354,0.00068618084829553,-0.0006861812058661,0.00068617999478748,0.74696695512676,125301,3014,0.002501239017167,0.0029299587576976,0.002929958757681,35.343644511141,0.00019794915608913,0.00019794915608913,0.00019794915608913,3218999.5756602,0.0083962817604688
5419200,0.54130349958057,0.0098349838814022,0.0029843960303756,0.0034252939255212,0.0034252939255054,-0.00070460711895338,0.00070460554337986,-5.5733010562431e-10,-5.5738329473471e-10,-1.2257140507771e-09,9.9145987040505e-12,-0.00076917422656421,0.00076917380944972,-0.00076917426869725,0.00076917385142031,-0.00076917386296066,0.00076917430704024,-0.0007691739109914,0.00076917435491204,-0.00075148592883141,0.00075148510472677,-0.00075148595850339,0.00075148513424154,3.5056065344025e-10,-7.0451674566246e-10,3.2658939600729e-10,-8.1434164351323e-10,-0.00084313685763288,0.00084313578661193,-0.00091700802430151,0.00091700882871336,-0.00091700859064084,0.00091700863232838,-0.00091700844093967,0.00091700853880117,-0.00091700900714677,0.00091700834227504,-0.00086417797436747,0.00086417779840835,-0.00086417999442502,0.00086417755925346,-0.00081883946599284,0.00081883940953755,-0.00081884137284563,0.00081883924691176,3.155539694546e-10,3.1550096769142e-10,-0.00084313642503008,0.0008431362192093,-4.2799549659019e-10,7.5782477588505e-10,-0.00091700823931769,0.00091700874009751,-0.0009170079625755,0.00091700927436362,-0.00091700820537782,0.00091700870603522,-0.0009170079828255,0.00091700929448962,-0.00081883994440701,0.00081884060922679,-0.00081883911519756,0.00081883978008647,0.73229095938568,125301,3014,0.002931892254486,0.0035068335804616,0.0035068335804503,36.272950944479,0.00020538360755583,0.00020538360755583,0.00020538360755583,3559446.7219234,0.0099953180526028
5919200,0.63259670895862,0.011147456974219,0.0033537939917408,0.0038968314912454,0.0038968314912326,-0.00077999676516504,0.00077999721801319,2.3591735523968e-10,2.358687712533e-10,-5.0880790623831e-10,8.1896991338425e-10,-0.00086647659860842,0.00086647810165205,-0.00086647649478442,0.00086647799766817,-0.00086647607429595,0.00086647849535487,-0.00086647597971814,0.00086647840062054,-0.00083355815914278,0.00083355904969354,-0.00083355811569801,0.00083355900610566,1.0544485537654e-09,-6.560704773502e-12,1.4037534407252e-09,-4.0178113161883e-10,-0.00094757714532568,0.00094757784924897,-0.0010469561567218,0.0010469588533561,-0.0010469567588741,0.0010469582353174,-0.0010469563344649,0.0010469583076854,-0.0010469569364845,0.0010469576895057,-0.00097008949794666,0.00097009148256036,-0.00097009198580957,0.00097009041812523,-0.00091457386696643,0.00091457504181561,-0.00091457570006469,0.00091457478338598,1.1170706786105e-09,1.1170223512927e-09,-0.00094757664231786,0.00094757835225283,2.4546544972842e-11,1.9013114673868e-09,-0.0010469565662708,0.0010469586169876,-0.001046955838708,0.001046959170863,-0.0010469562535066,0.0010469583041115,-0.0010469555949345,0.0010469589269758,-0.00091457391720889,0.00091457645506566,-0.0009145732068075,0.00091457574472889,0.6360792580923,125301,3014,0.0032452250580502,0.0039403695165434,0.0039403695165352,36.779090840191,0.00020943272672153,0.00020943272672153,0.00020943272672153,3760664.0312953,0.011188291903039
6419200,0.70995368034373,0.012176316801497,0.0036467448303626,0.0042647859855725,0.0042647859855618,-0.00083677076775115,0.00083677314925371,9.8445982589867e-10,9.8441107182925e-10,1.6719596824853e-10,1.5844885928141e-09,-0.00094079250563684,0.00094079587329235,-0.00094079225782477,0.0009407956253187,-0.0009407918239573,0.00094079616339238,-0.00094079158799756,0.00094079592727436,-0.00089549967570177,0.00089550217393831,-0.00089549961340632,0.00089550211150094,1.6985219100339e-09,6.3162408401817e-10,2.4597275167155e-09,-1.1681085034074e-10,-0.0010261481147129,0.00102615046608,-0.0011471127840472,0.0011471173338691,-0.0011471134718928,0.0011471162762184,-0.0011471127471763,0.0011471165562132,-0.0011471134348855,0.001147115498418,-0.0010494446373499,0.0010494487367838,-0.0010494478218577,0.0010494468626404,-0.00098569831009594,0.00098570056242311,-0.00098570016573987,0.00098570030848174,1.8758478822525e-09,1.8757994310856e-09,-0.0010261475222159,0.001026151058574,3.7324973994724e-10,3.0441817872625e-09,-0.0011471134005714,0.0011471169317848,-0.001147112208247,0.0011471175586885,-0.0011471128356858,0.0011471163667844,-0.0011471117252944,0.0011471170756193,-0.00098569798204911,0.00098570234420549,-0.00098569728525054,0.00098570164746973,0.59525943091212,125301,3014,0.0034811484208197,0.0042664001895366,0.0042664001895306,36.741514588094,0.00020913211670475,0.00020913211670475,0.00020913211670475,3937909.0399997,0.012086672276856
6919200,0.77967458994367,0.013176765239366,0.0039358242598558,0.0046204704897597,0.0046204704897507,-0.00089426990294278,0.00089427002397983,7.846413847443e-11,7.8415970298876e-11,-5.8939729919944e-10,5.4078987956392e-10,-0.0010158104564795,0.0010158120492584,-0.0010158102527173,0.0010158118453348,-0.0010158099034348,0.0010158122849939,-0.0010158097102922,0.0010158120916933,-0.00096026352458904,0.00096026404363265,-0.00096026353329309,0.0009602640521985,1.4209061570885e-09,6.4895154878079e-10,2.5442865560725e-09,-4.5755965287404e-10,-0.0011032994906888,0.0011033013276902,-0.0012441545510248,0.0012441588529183,-0.0012441553871478,0.0012441576692909,-0.0012441544908096,0.0012441582720689,-0.0012441553267942,0.0012441570882952,-0.0011307126522331,0.0011307169529784,-0.0011307162994819,0.0011307147045955,-0.0010599822248659,0.0010599837296836,-0.0010599838704225,0.0010599838490778,1.7582263418039e-09,1.758178444326e-09,-0.0011032988921448,0.0011033019262322,3.9278846734665e-11,3.1374487884167e-09,-0.0012441552419132,0.0012441583601584,-0.0012441539218601,0.0012441591455797,-0.0012441547763315,0.0012441578944617,-0.0012441535372019,0.0012441587608046,-0.0010599816837973,0.001059985903662,-0.0010599808881761,0.001059985108101,0.64378173705164,125301,3014,0.0037200377275186,0.0045864290148995,0.0045864290148954,38.62442749803,0.00022419541998424,0.00022419541998424,0.00022419541998424,4027635.6608493,0.012976724201413
7419200,0.83978874669076,0.013917943448833,0.0041508981360618,0.0048835226563895,0.0048835226563817,-0.00093126461126129,0.0009312639696454,-2.5980781746128e-10,-2.5985572149785e-10,-7.909198957048e-10,7.2256819368473e-11,-0.0010738108425878,0.0010738118286708,-0.0010738106815537,0.0010738116674753,-0.0010738104109335,0.0010738120137295,-0.0010738102590501,0.0010738118616879,-0.0010010705599723,0.0010010703027179,-0.0010010706243442,0.0010010703669543,1.2720044278533e-09,7.6810606722513e-10,2.654252912344e-09,-5.9792336293855e-10,-0.0011544843789217,0.0011544861332406,-0.0013174126137442,0.0013174168669769,-0.0013174135561952,0.0013174156271188,-0.0013174125192439,0.0013174164369134,-0.0013174134615545,0.0013174151969072,-0.0011838354183346,0.0011838400094305,-0.0011838393372464,0.0011838375421527,-0.0011085645393583,0.0011085656552326,-0.0011085659651797,0.001108566086274,1.7120813887359e-09,1.7120338986572e-09,-0.0011544838122683,0.0011544866998928,-1.2864542841164e-10,3.2183592466871e-09,-0.0013174133686406,0.0013174162990097,-0.0013174119954746,0.0013174171976113,-0.0013174129689672,0.0013174158992208,-0.0013174116738385,0.0013174168758578,-0.0011085638632741,0.0011085680671379,-0.0011085630118475,0.0011085672157702,0.55664260548471,125301,3014,0.0038737935507287,0.0047987008902652,0.0047987008902626,40.763144442806,0.00024130515554245,0.00024130515554245,0.00024130515554245,3947993.0093079,0.013562810829352
7919200,0.88496566357037,0.014425372673765,0.0043015615655094,0.0050619055541315,0.0050619055541245,-0.00095241858065476,0.00095242162374635,1.1625726517917e-09,1.1625248955742e-09,5.6469372122973e-10,1.5022522708714e-09,-0.0011080248745332,0.0011080290830426,-0.0011080245488907,0.0011080287572388,-0.0011080242702713,0.0011080291361575,-0.001108023955893,0.0011080288216212,-0.0010246358559906,0.0010246386346069,-0.0010246358928748,0.0010246386713566,2.1399686437673e-09,1.6336087598664e-09,3.8414714834436e-09,3.321934341807e-12,-0.0011839901927948,0.001183994329386,-0.0013615945024446,0.0013616010244667,-0.0013615954667777,0.0013615993991235,-0.0013615941610156,0.0013616003151232,-0.0013615951252073,0.001361598689631,-0.0012141846600383,0.0012141917052276,-0.0012141890828453,0.0012141886009278,-0.0011357298327447,0.0011357326058602,-0.0011357312428873,0.0011357330086884,2.6427532147034e-09,2.6427058831493e-09,-0.0011839895831216,0.0011839949390585,4.9471293447708e-10,4.4457270638252e-09,-0.001361595450992,0.0013616003046645,-0.0013615936752131,0.001361601209871,-0.0013615947577831,0.0013615996113399,-0.0013615930696778,0.001361600604218,-0.0011357288571202,0.0011357352334113,-0.0011357280613374,0.0011357344376865,0.5070717593097,125301,3014,0.0039617250063088,0.004921054903108,0.0049210549031065,40.956098583735,0.00024284878866988,0.00024284878866988,0.00024284878866988,3923178.8159277,0.013900080494549
8419200,0.91861487077249,0.014784694178547,0.0044097586542452,0.0051874677621542,0.0051874677621477,-0.00096565531322156,0.00096565815896474,1.0836416854315e-09,1.0835939858005e-09,5.019775734297e-10,1.4060476818261e-09,-0.0011326833094068,0.0011326874010736,-0.0011326829811322,0.0011326870726377,-0.0011326827122532,0.0011326874387152,-0.0011326823943034,0.0011326871206073,-0.0010395919126947,0.0010395945145753,-0.0010395919773259,0.0010395945790727,2.1963682083017e-09,1.7330136296967e-09,4.1556077809015e-09,-1.4446103816515e-10,-0.0012019530121252,0.001201957305568,-0.0013915735597997,0.0013915804157079,-0.0013915746565308,0.0013915786182411,-0.0013915732008558,0.0013915797201756,-0.0013915742974447,0.001391577922559,-0.0012333064462079,0.0012333141195362,-0.0012333113230144,0.0012333105638564,-0.0011531841545213,0.0011531868851049,-0.0011531855409912,0.0011531873487447,2.7443678330936e-09,2.7443206655933e-09,-0.0012019523824627,0.0012019579352302,3.7034087936976e-10,4.7817429519469e-09,-0.0013915746336684,0.0013915795662297,-0.0013915726872271,0.0013915806075982,-0.0013915739405953,0.0013915788730406,-0.0013915720813373,0.0013915800015907,-0.0011531830009387,0.001153189732059,-0.0011531821825818,0.0011531889137594,0.48138031764921,125301,3014,0.0040167638291543,0.0049955388420634,0.0049955388420626,41.432378560942,0.00024665902848754,0.00024665902848754,0.00024665902848754,3847457.7464915,0.01410701273468
8919200,0.9431527510653,0.015019343420658,0.0044813029814779,0.0052690202195931,0.0052690202195868,-0.00097192970392627,0.00097193279613614,1.1790251330033e-09,1.1789775034583e-09,6.1334332387071e-10,1.480406820529e-09,-0.0011488731156034,0.001148877453029,-0.0011488727718598,0.001148877109124,-0.0011488725150572,0.0011488774617779,-0.0011488721809928,0.0011488771275555,-0.0010467245918212,0.0010467273838497,-0.0010467246711986,0.0010467274630941,2.3153417181088e-09,1.899153570958e-09,4.5116201602499e-09,-2.029619428652e-10,-0.0012101639979852,0.0012101686426936,-0.0014097796858165,0.001409786997777,-0.0014097808899734,0.0014097850330474,-0.0014097792859742,0.0014097862912506,-0.0014097804899885,0.0014097843263708,-0.0012423978371889,0.001242406238996,-0.0012424031076681,0.0012424022650003,-0.0011616895782354,0.0011616924218219,-0.001161690919902,0.0011616929327545,2.9015802857728e-09,2.9015332027994e-09,-0.0012101633567499,0.0012101692839288,3.2566721335489e-10,5.1506162747083e-09,-0.0014097808796109,0.0014097860275464,-0.0014097787668737,0.0014097871782274,-0.0014097801599993,0.0014097853078188,-0.0014097781344304,0.0014097865456662,-0.0011616882504808,0.001161695445777,-0.0011616874307403,0.0011616946260935,0.43063171924148,125301,3014,0.0040428892708915,0.0050295939622827,0.0050295939622825,41.891397928084,0.00025033118342467,0.00025033118342467,0.00025033118342467,3745628.3280193,0.01420264718081
9419200,0.95995203682343,0.015171882380096,0.0045284544982483,0.0053217139409268,0.0053217139409208,-0.00097325263517755,0.00097325859822969,2.3082561460651e-09,2.3082085328432e-09,1.6455948212666e-09,2.6612115696662e-09,-0.0011561097313726,0.001156116596647,-0.0011561092436468,0.0011561161087599,-0.001156108954002,0.0011561165172229,-0.0011561084776252,0.0011561160406881,-0.0010487648443414,0.00104877006491,-0.0010487649136692,0.0010487701341051,3.0917266434251e-09,2.5838717814815e-09,5.5884150397768e-09,2.3326287346762e-10,-0.0012123716398292,0.001212378257438,-0.0014180624163899,0.0014180717250011,-0.0014180636789453,0.0014180693790603,-0.0014180618407116,0.001418070759172,-0.001418063103124,0.0014180684130809,-0.0012453046024904,0.0012453151914608,-0.0012453104455143,0.0012453105405752,-0.0011642476536277,0.0011642519319158,-0.0011642490779908,0.0011642523360608,3.6992876223024e-09,3.6992405738574e-09,-0.0012123709484793,0.0012123789487881,7.9656511686482e-10,6.2751742983209e-09,-0.0014180638200489,0.0014180705771142,-0.0014180613129447,0.0014180717738699,-0.001418062859382,0.0014180696163314,-0.0014180604474815,0.0014180709082887,-0.0011642460650823,0.0011642551624295,-0.0011642452825266,0.0011642543799304,0.40723906797413,125301,3014,0.0040484359840359,0.0050387589510363,0.0050387589510365,41.151138133674,0.00024440910506939,0.00024440910506939,0.00024440910506939,3686566.2005545,0.014226901074513
9919200,0.97125325969892,0.01527415032093,0.0045603402190559,0.0053569050509402,0.0053569050509342,-0.0009717884574329,0.00097179599524079,2.9335280891129e-09,2.9334804778027e-09,2.1861912860039e-09,3.3496830674228e-09,-0.0011598442991719,0.0011598525279201,-0.0011598437320275,0.0011598519606144,-0.0011598434024944,0.0011598524205163,-0.0011598428470035,0.0011598518648674,-0.0010477985086366,0.0010478050940534,-0.0010477985791059,0.0010478051643904,3.5755681571233e-09,2.9492425424718e-09,6.3433099913879e-09,3.6002023129399e-10,-0.0012109746906442,0.0012109824431152,-0.001421698520052,0.0014217090829575,-0.0014216998991168,0.0014217064312986,-0.0014216978688526,0.0014217079528552,-0.0014216992477743,0.0014217053010457,-0.0012446576233607,0.0012446697155931,-0.001244664046686,0.0012446644165388,-0.0011636595528406,0.0011636646445388,-0.0011636610885432,0.0011636649206907,4.1757930886816e-09,4.1757460845882e-09,-0.0012109739568739,0.0012109831768858,9.6162931303164e-10,7.0720525528549e-09,-0.0014217001237817,0.0014217077481386,-0.0014216973062191,0.0014217090570352,-0.0014216990327145,0.0014217066569553,-0.0014216963141936,0.0014217080648918,-0.0011636577489689,0.001163668061098,-0.0011636569854117,0.0011636672975973,0.40432824355073,125301,3014,0.0040424066877589,0.005032979277217,0.0050329792772175,39.828051843562,0.00023382441474849,0.00023382441474849,0.00023382441474849,3625204.2352002,0.014209103387109
10419200,0.97884815044796,0.015347299608333,0.0045833203562189,0.0053819896260601,0.0053819896260542,-0.00096867432665641,0.00096868297913985,3.3761668602729e-09,3.3761192877556e-09,2.5575170966377e-09,3.8512384571617e-09,-0.0011613943042077,0.001161403469868,-0.0011613936820726,0.0011614028475716,-0.0011613933153274,0.0011614033513916,-0.0011613927046807,0.001161402740587,-0.0010451405935118,0.0010451481566776,-0.0010451406653422,0.0010451482283759,3.9377635981452e-09,3.1989526807962e-09,6.9521807088206e-09,3.869323062418e-10,-0.0012074679694459,0.0012074765432776,-0.0014225641069465,0.0014225756109064,-0.0014225656118234,0.0014225726968603,-0.001422563412805,0.0014225743572157,-0.0014225649175387,0.0014225714430189,-0.0012419676155149,0.0012419809134726,-0.0012419745783738,0.0012419750146247,-0.0011612392712638,0.0011612449366988,-0.0011612409087115,0.0011612450882679,4.5204154968801e-09,4.5203685107861e-09,-0.0012074672029914,0.0012074773097324,1.0211830727934e-09,7.7137485956283e-09,-0.0014225658972378,0.0014225740954845,-0.0014225628158623,0.0014225755287573,-0.0014225647173249,0.0014225729154554,-0.0014225617370965,0.0014225744498735,-0.0011612372778955,0.0011612485136014,-0.0011612365313577,0.00116124776712,0.42845224819223,125301,3014,0.0040295254760188,0.0050184524347104,0.005018452434711,38.099889260379,0.00021999911408303,0.00021999911408303,0.00021999911408303,3566398.6358235,0.014166614809373
10919200,0.98441777576074,0.015396891934412,0.0045989731212665,0.0053989594065756,0.0053989594065698,-0.00096745765912207,0.00096746280334596,1.9978925844294e-09,1.9978450567049e-09,1.2713712935679e-09,2.4357916231203e-09,-0.0011651677971673,0.0011651738779891,-0.0011651673484206,0.001165173429081,-0.0011651670035658,0.0011651738794208,-0.0011651665624018,0.0011651734380987,-0.0010440923221986,0.0010440969381502,-0.0010440924195748,0.0010440970353946,3.082606569609e-09,2.4106438779015e-09,6.1960934700926e-09,-5.5197887966688e-10,-0.001205074341436,0.0012050806671772,-0.0014248006003713,0.0014248101702256,-0.0014248023282346,0.001424807382972,-0.0014248001248621,0.0014248092085677,-0.001424801852582,0.0014248064211634,-0.0012402690691279,0.0012402807833679,-0.0012402762588485,0.0012402747428951,-0.0011600989868225,0.0011601027698802,-0.0011601005600465,0.0011601029989003,3.6660798787762e-09,3.6660328990938e-09,-0.0012050735895628,0.0012050814190507,9.9056597477178e-11,6.9491075446522e-09,-0.001424802411144,0.0014248085865232,-0.0014247994788155,0.0014248102649538,-0.0014248015175165,0.0014248076927797,-0.0014247986756018,0.0014248094616221,-0.0011600969604099,0.0011601064354417,-0.0011600961727679,0.001160105647856,0.39597081456719,125301,3014,0.0040245094294228,0.0050085377636009,0.0050085377636015,37.946235608527,0.00021876988486821,0.00021876988486821,0.00021876988486821,3489037.9643208,0.01414146325612
11419200,0.98847614771023,0.015433023433083,0.0046104547618439,0.0054112843356224,0.0054112843356166,-0.00096676512070012,0.00096677064643083,2.1422842787446e-09,2.1422367493143e-09,1.4354312490901e-09,2.5513003351143e-09,-0.0011656667578318,0.0011656732009559,-0.0011656662862068,0.0011656727291696,-0.0011656659594661,0.0011656731644442,-0.0011656654955126,0.0011656727003327,-0.0010437547987559,0.001043759707419,-0.0010437548964003,0.0010437598049317,3.1670167494889e-09,2.5555177059236e-09,6.3994902922888e-09,-5.1863499602971e-10,-0.0012041928098215,0.0012041994472591,-0.0014252072481402,0.001425217138509,-0.0014252090061317,0.0014252142669831,-0.0014252067233876,0.0014252161629793,-0.0014252084812357,0.0014252132913025,-0.0012397343019781,0.0012397464526254,-0.0012397416517943,0.0012397402395789,-0.0011595426606867,0.0011595465732664,-0.0011595441767559,0.0011595468634684,3.7966557524788e-09,3.796608766973e-09,-0.0012041920450784,0.0012042002120026,1.439633162548e-10,7.1655312959669e-09,-0.0014252090980856,0.0014252155207974,-0.0014252060799392,0.0014252172281658,-0.0014252081684626,0.0014252145910583,-0.001425205242015,0.0014252163901235,-0.0011595405313811,0.0011595503402638,-0.0011595397464545,0.0011595495553933,0.39457194111806,125301,3014,0.0040216454495029,0.0050048852576716,0.0050048852576724,37.628519721426,0.00021622815777141,0.00021622815777141,0.00021622815777141,3473780.1268998,0.014131155708409
11919200,0.99141749352566,0.015461316513365,0.0046194676369049,0.005420924438233,0.0054209244382272,-0.00096540989651766,0.00096541594973641,2.34962352732e-09,2.3495760034483e-09,1.6444857948231e-09,2.749888621349e-09,-0.0011666193443557,0.0011666262514773,-0.0011666188468753,0.0011666257538356,-0.0011666185253566,0.0011666261860953,-0.0011666180356359,0.0011666256962166,-0.0010425425045103,0.0010425478486965,-0.0010425426032518,0.0010425479473064,3.3032533514237e-09,2.7098967041886e-09,6.6431919681438e-09,-4.6234155887287e-10,-0.0012022776463627,0.001202284673853,-0.0014254562985225,0.001425466581234,-0.0014254580884723,0.0014254636155841,-0.0014254557306429,0.0014254655704316,-0.0014254575204493,0.0014254626046308,-0.0012381978891144,0.0012382105475076,-0.001238205409372,0.0012382041384116,-0.0011582449248177,0.0011582490686638,-0.0011582464190217,0.001158249371439,3.9448845968364e-09,3.9448376265066e-09,-0.0012022768805333,0.0012022854396828,2.0014490153417e-10,7.4101773317867e-09,-0.0014254582107103,0.0014254649051326,-0.0014254550973854,0.0014254666433283,-0.0014254572386938,0.001425463933,-0.0014254542179354,0.0014254657637603,-0.0011582427149426,0.0011582529028273,-0.001158241938447,0.0011582521263878,0.42516298576731,125301,3014,0.0040160397763309,0.0049969525450948,0.0049969525450956,37.105073127841,0.00021204058502272,0.00021204058502272,0.00021204058502272,3439346.6465073,0.014109404001365
12419200,0.99358300361599,0.015483238468554,0.0046264706041211,0.0054283839322192,0.0054283839322134,-0.00096372396275297,0.00096372955071865,2.1680455844015e-09,2.1679980732059e-09,1.4888051221431e-09,2.5516916321016e-09,-0.0011683741342996,0.0011683806249832,-0.0011683736621542,0.0011683801526765,-0.0011683733504197,0.001168380568439,-0.0011683728852452,0.0011683801031065,-0.0010409285791545,0.0010409335277267,-0.0010409286834793,0.0010409336319201,3.1870632762623e-09,2.6247568318794e-09,6.5997177421891e-09,-6.2661206847067e-10,-0.0011994197226006,0.0011994264709907,-0.0014257832317408,0.0014257932862957,-0.0014257850823071,0.0014257903056796,-0.0014257826864778,0.0014257923228859,-0.0014257845369006,0.0014257893421188,-0.0012358456130005,0.0012358581838901,-0.0012358532518512,0.0012358516548253,-0.0011564006817587,0.0011564045410658,-0.0011564021387554,0.0011564048694341,3.8272081221837e-09,3.8271611760884e-09,-0.0011994189698767,0.001199427223715,2.8876912947778e-11,7.3548228816507e-09,-0.0014257851837622,0.0014257915611809,-0.0014257820600153,0.0014257933645035,-0.0014257842525248,0.0014257906298275,-0.0014257812191002,0.0014257925234704,-0.0011563984316909,0.0011564084116281,-0.0011563976549805,0.0011564076349736,0.44663644431852,125301,3014,0.0040090687682659,0.0049851149997594,0.0049851149997603,36.802458804243,0.00020961967043394,0.00020961967043394,0.00020961967043394,3382595.3400935,0.014078361417406
12919200,0.9951584886445,0.01549819459359,0.0046312651139712,0.0054334647398122,0.0054334647398065,-0.0009610058612276,0.00096101231595061,2.5053283105281e-09,2.5052807877152e-09,1.810237645012e-09,2.8935867626165e-09,-0.0011681861613283,0.0011681933940737,-0.0011681856460559,0.0011681928786399,-0.0011681853315355,0.0011681933023406,-0.0011681848236826,0.0011681927943296,-0.0010383436261662,0.0010383492988938,-0.0010383437294911,0.0010383494020875,3.4147528151467e-09,2.8447245688929e-09,6.9027571488231e-09,-4.668206467446e-10,-0.001195704318539,0.0011957116836428,-0.001424487541098,0.0014244981682883,-0.0014244893924703,0.0014244950892552,-0.0014244869381159,0.0014244971354724,-0.0014244887893446,0.0014244940562881,-0.0012325506038381,0.0012325638065046,-0.0012325583644031,0.0012325571202167,-0.0011534718928606,0.0011534761961322,-0.001153473351073,0.0011534765078121,4.0540342054496e-09,4.0539872965297e-09,-0.0011957035663972,0.001195712435785,1.838334440733e-10,7.6564497604801e-09,-0.0014244895502141,0.0014244963935987,-0.0014244863251584,0.0014244981946243,-0.0014244885500856,0.0014244953933542,-0.001424485416964,0.001424497286312,-0.0011534695851578,0.0011534801017706,-0.001153468822238,0.0011534793389067,0.41875849256559,125301,3014,0.0039978096273132,0.0049697211076838,0.0049697211076846,36.13687338519,0.00020429498708152,0.00020429498708152,0.00020429498708152,3340366.9581679,0.014035747159439
13419200,0.99628098898411,0.015508616247611,0.0046346165544672,0.0054369998465749,0.0054369998465692,-0.00095775224860608,0.00095776029331741,3.1238219967352e-09,3.1237744673931e-09,2.3649315660228e-09,3.5509311347266e-09,-0.0011647499560013,0.0011647585721274,-0.0011647493570511,0.0011647579730159,-0.0011647490189123,0.001164758434618,-0.0011647484283719,0.0011647578439196,-0.0010353443131269,0.0010353513304777,-0.0010353444128792,0.0010353514300987,3.8460094694336e-09,3.2045425502906e-09,7.4627753931088e-09,-2.0773357885005e-10,-0.0011925697804273,0.001192578237874,-0.001421282362219,0.0014212940730416,-0.0014212842262313,0.0014212907988526,-0.0014212816689899,0.0014212928898583,-0.0014212835328586,0.0014212896155183,-0.0012295552799923,0.0012295696218907,-0.0012295633119815,0.0012295626205355,-0.0011503481536404,0.0011503532786253,-0.0011503496857322,0.0011503535178562,4.4921862130889e-09,4.4921392924046e-09,-0.0011925689954612,0.0011925790228405,4.6700400652464e-10,8.2477020625399e-09,-0.0014212844682897,0.001421292219584,-0.00142128104079,0.0014212940259813,-0.0014212833346336,0.0014212910858119,-0.0014212800036924,0.0014212929887658,-0.0011503457317105,0.0011503572828671,-0.0011503449821678,0.0011503565333801,0.40900439415344,125301,3014,0.0039843081779537,0.0049567248284219,0.0049567248284229,34.79608140376,0.00019356865123008,0.00019356865123008,0.00019356865123008,3346224.5698462,0.013995692868165
13919200,0.99710757689548,0.015516129352715,0.0046370326256732,0.0054395483635239,0.0054395483635182,-0.00095532685421175,0.00095533407013078,2.8007977841973e-09,2.800750254414e-09,2.0457242986446e-09,3.2368047856592e-09,-0.0011628990004645,0.0011629068928337,-0.0011628984428744,0.0011629063350824,-0.001162898098799,0.0011629067961268,-0.0011628975485663,0.0011629062457362,-0.0010329806532808,0.0010329869878073,-0.0010329807600254,0.0010329870944207,3.6547488131362e-09,2.9951968281017e-09,7.3315750054796e-09,-4.8924256783005e-10,-0.0011900173684169,0.0011900252742941,-0.0014192828443401,0.0014192941396421,-0.0014192847962859,0.0014192908605866,-0.0014192822134318,0.001419293013953,-0.0014192841652341,0.0014192897347463,-0.0012271080899503,0.0012271221355497,-0.0012271162831171,0.0012271149979426,-0.00114794098483,0.0011479456471047,-0.0011479425391613,0.0011479458752091,4.2976637575575e-09,4.2976168366968e-09,-0.001190016574148,0.0011900260685636,2.0354286266997e-10,8.1276012045093e-09,-0.0014192849837428,0.0014192922415121,-0.0014192815568316,0.0014192941415656,-0.0014192839168738,0.0014192911745272,-0.0014192805842649,0.001419293168881,-0.0011479385269251,0.0011479497083352,-0.0011479377637985,0.0011479489452644,0.40047476240274,125301,3014,0.0039742438218484,0.0049461427510686,0.0049461427510696,33.82917231645,0.0001858333785316,0.0001858333785316,0.0001858333785316,3338146.0245445,0.013964033588734
14419200,0.99771718883547,0.015521414550333,0.0046387331266739,0.0054413407118324,0.0054413407118267,-0.00095245372844076,0.00095246145580656,3.0005940240299e-09,3.0005464923349e-09,2.2263292255821e-09,3.4488055430933e-09,-0.0011605381436706,0.0011605464775941,-0.0011605375602213,0.0011605458939835,-0.0011605372085696,0.0011605463663466,-0.0011605366326565,0.0011605457902756,-0.0010301855936947,0.0010301923615299,-0.0010301857000033,0.0010301924677073,3.7967631929024e-09,3.11438507642e-09,7.546658049377e-09,-4.3416529402968e-10,-0.0011870491166019,0.0011870573800057,-0.0014168046610556,0.0014168163277559,-0.001416806637727,0.0014168129653474,-0.0014168040013564,0.0014168151544481,-0.0014168059778841,0.0014168117918886,-0.0012242550068514,0.0012242694880784,-0.0012242633473375,0.0012242621850084,-0.0011451253813452,0.001145130293741,-0.0011451269575425,0.0011451304970069,4.4412909332577e-09,4.4412440146322e-09,-0.001187048311962,0.0011870581846461,2.6736127791413e-10,8.3527464222715e-09,-0.001416806851734,0.0014168143830083,-0.0014168033398394,0.0014168163060901,-0.0014168057430442,0.0014168132742026,-0.0014168023266956,0.0014168152928283,-0.0011451228652464,0.0011451344057111,-0.0011451221073996,0.00114513364792,0.38210045494667,125301,3014,0.0039623245000413,0.0049338380872721,0.0049338380872731,32.643063648517,0.00017634450918814,0.00017634450918814,0.00017634450918814,3332069.6413596,0.013927000641835
14919200,0.9981544541442,0.015525357145983,0.0046400026806166,0.005442677232686,0.0054426772326802,-0.00094799771212551,0.00094800746090964,3.7914799560664e-09,3.7914324161069e-09,2.9426613828029e-09,4.2849318603318e-09,-0.0011560360994393,0.0011560461850953,-0.0011560354133655,0.0011560454988604,-0.0011560350340561,0.0011560460155727,-0.001156034356918,0.0011560453382767,-0.0010258757031302,0.0010258841830032,-0.0010258758030813,0.001025884282823,4.3382768591662e-09,3.5713367651409e-09,8.2085759877089e-09,-6.3598577243208e-11,-0.0011828365706349,0.0011828462039378,-0.0014125661192213,0.001412579104577,-0.0014125680871121,0.0014125755291734,-0.0014125653452029,0.0014125777454899,-0.0014125673129501,0.0014125741699353,-0.0012201243733124,0.0012201402049945,-0.0012201329665762,0.0012201325881768,-0.0011409026398759,0.0011409086110543,-0.0011409042982828,0.0011409087231695,4.9787766897309e-09,4.9787297801639e-09,-0.0011828357385065,0.0011828470360667,6.5342592252189e-10,9.0398493266906e-09,-0.0014125684148535,0.0014125770773075,-0.0014125646805816,0.0014125789820569,-0.0014125671404,0.0014125758027382,-0.0014125635071731,0.0014125778085304,-0.0011409000166618,0.0011409128006333,-0.0011408992802665,0.0011409120642935,0.39678962402156,125301,3014,0.003943835753533,0.0049163735202281,0.0049163735202292,30.57994856428,0.00015983958851424,0.00015983958851424,0.00015983958851424,3339772.1581388,0.013872839349305
15419200,0.99845239780371,0.015528660964364,0.0046410668934568,0.0054437970354562,0.0054437970354505,-0.00093993238266457,0.00093994541359357,5.0781565695673e-09,5.0781090290196e-09,4.0925751562853e-09,5.667315733571e-09,-0.0011496492665578,0.0011496621435242,-0.0011496484195261,0.0011496612963314,-0.0011496479810805,0.0011496618960871,-0.0011496471449695,0.0011496610598181,-0.0010179042110522,0.0010179154915364,-0.0010179042996424,0.0010179155799956,5.2387647817971e-09,4.2878427097382e-09,9.2959398184182e-09,5.2035355618288e-10,-0.0011745265611868,0.0011745384151633,-0.001405793658389,0.0014058087695025,-0.0014057956256867,0.0014058048433114,-0.0014057927185442,0.0014058071001249,-0.0014057946856982,0.0014058031737828,-0.001212071409096,0.0012120894483915,-0.001212080434287,0.0012120812838137,-0.0011330172994363,0.0011330250257796,-0.0011330191255752,0.0011330249318857,5.8324561782026e-09,5.8324092973407e-09,-0.001174525698908,0.0011745392774426,1.250284499255e-09,1.0153767855803e-08,-0.0014057961519348,0.0014058065755648,-0.0014057920538545,0.0014058084659977,-0.0014057946177484,0.0014058050412623,-0.001405790628316,0.0014058070403413,-0.0011330145231014,0.0011330293016458,-0.0011330138296435,0.0011330286082436,0.48651353790675,125301,3014,0.0039103841026018,0.0048819278983529,0.004881927898354,27.071773268215,0.00013177418614572,0.00013177418614572,0.00013177418614572,3324141.6432125,0.013769102170629
15919200,0.99868134503894,0.01553177700376,0.0046420719774803,0.0054448525131426,0.0054448525131369,-0.00093396364178049,0.00093397265655762,3.5091999693792e-09,3.5091524839475e-09,2.5923036341093e-09,4.0965643043607e-09,-0.0011485582762504,0.0011485675830492,-0.0011485576378962,0.0011485669445336,-0.0011485571983616,0.0011485675089458,-0.001148556566774,0.0011485668772001,-0.0010118874932585,0.0010118954376241,-0.0010118876014506,0.0010118955456853,4.2575165329965e-09,3.2995560909495e-09,8.3356850486557e-09,-5.5216314449125e-10,-0.0011665576931336,0.0011665668543935,-0.0014024035051619,0.001402416272988,-0.0014024057114428,0.0014024125402098,-0.0014024028516792,0.001402414920278,-0.0014024050578163,0.0014024111873484,-0.0012047168932606,0.0012047328991013,-0.0012047260811215,0.0012047246651241,-0.0011264959987295,0.0011265015894769,-0.0011264978233076,0.0011265014916821,4.7916667876923e-09,4.7916199238298e-09,-0.0011665568644122,0.0011665676831155,1.7919776254313e-10,9.1662975791951e-09,-0.0014024060186883,0.0014024140036147,-0.0014024021389073,0.0014024161581487,-0.0014024048227683,0.0014024128075786,-0.001402401039037,0.0014024150581605,-0.0011264932671634,0.0011265058649547,-0.0011264925358775,0.0011265051337243,0.59571470761932,125301,3014,0.0038856410049037,0.0048489017900866,0.0048489017900877,25.354506712289,0.00011803605369831,0.00011803605369831,0.00011803605369831,3243730.6296068,0.013677118063769
16419200,0.99886711543368,0.015533903594766,0.0046427606448514,0.0054455714749602,0.0054455714749545,-0.00092863686988085,0.00092864411891975,2.8135669774896e-09,2.8135194782936e-09,1.9692898380178e-09,3.3555729442558e-09,-0.0011482747513083,0.0011482825116815,-0.0011482742024695,0.0011482819626813,-0.001148273790295,0.0011482824827983,-0.0011482732467179,0.0011482819390628,-0.0010066358647338,0.0010066423055316,-0.0010066359845038,0.0010066424251707,3.789009061561e-09,2.917813693017e-09,7.8554908794092e-09,-9.495978318083e-10,-0.0011585714211279,0.0011585794277802,-0.0013993768815026,0.001399388569069,-0.0013993791477142,0.0013993849621551,-0.0013993763221767,0.001399387381618,-0.0013993785882444,0.0013993837745528,-0.0011974641499014,0.001197479182286,-0.0011974732800813,0.0011974710479564,-0.0011201500937865,0.0011201547203143,-0.0011201518271939,0.0011201547082101,4.3158886823574e-09,4.3158418642583e-09,-0.001158570632449,0.0011585802164596,-2.4593669730272e-10,8.648906668544e-09,-0.0013993793717886,0.0013993863000957,-0.001399375627511,0.0013993885251688,-0.0013993783212092,0.0013993852494002,-0.0013993746671493,0.0013993875646892,-0.0011201474046824,0.0011201589687934,-0.001120146659063,0.0011201582232294,0.50210013400473,125301,3014,0.0038635645649749,0.0048158090239872,0.0048158090239883,24.412377242293,0.00011049901793834,0.00011049901793834,0.00011049901793834,3152954.6972583,0.013587708844625
16919200,0.99902150490676,0.015536215892251,0.0046435143321996,0.0054463507800287,0.005446350780023,-0.00092687039223623,0.00092687692312543,2.5234876343908e-09,2.5234401119014e-09,1.7362886937781e-09,3.0063132804282e-09,-0.0011427427622145,0.0011427499976882,-0.0011427422372573,0.0011427494725697,-0.0011427418633837,0.0011427499550959,-0.0011427413433576,0.0011427494349119,-0.0010053404037027,0.0010053461921597,-0.0010053405301026,0.0010053463184285,3.5624088369831e-09,2.8127958321817e-09,7.6228581816109e-09,-1.0582668041941e-09,-0.0011580920650676,0.0011580996208362,-0.0013954096618716,0.0013954209453159,-0.0013954119126145,0.0013954174078259,-0.0013954091049776,0.0013954198415441,-0.0013954113555769,0.001395416303903,-0.0011968763029835,0.0011968908831219,-0.0011968853414525,0.0011968828992236,-0.0011189013706066,0.0011189055566169,-0.0011189030130707,0.0011189056955669,4.1859023077049e-09,4.1858554532245e-09,-0.0011580912425924,0.0011581004433121,-3.1809280768896e-10,8.4510804699104e-09,-0.0013954120578746,0.0013954187707619,-0.0013954083838151,0.0013954209816556,-0.001395411048939,0.0013954177617104,-0.0013954074655651,0.0013954200632878,-0.0011188986557265,0.0011189098896547,-0.001118897880893,0.0011189091148764,0.65164127745866,125301,3014,0.0038561995099757,0.00481379757651,0.0048137975765113,23.779995267,0.000105439962136,0.000105439962136,0.000105439962136,3210115.2645799,0.013576108332261
17419200,0.99914261938753,0.015537842457995,0.0046440426792207,0.0054468998893902,0.0054468998893845,-0.00091995172302347,0.00091996087423306,3.5446518300844e-09,3.5446043108008e-09,2.7191550157984e-09,4.0420124611762e-09,-0.0011425869655382,0.0011425963847935,-0.0011425863173743,0.0011425957364681,-0.0011425859341726,0.0011425962386804,-0.0011425852927667,0.0011425955971164,-0.00099808263618312,0.00099809061775667,-0.00099808275964593,0.00099809074108909,4.243052160509e-09,3.4642541023802e-09,8.3575140158514e-09,-4.2147257511562e-10,-0.0011480505845331,0.0011480599782381,-0.0013918581036167,0.0013918709260611,-0.0013918602588659,0.0013918672133298,-0.0013918573802354,0.0013918696202986,-0.0013918595353408,0.0013918659074162,-0.0011874304904785,0.0011874466302957,-0.0011874395668934,0.0011874384989137,-0.0011106510728366,0.0011106567008161,-0.0011106527136182,0.0011106567735286,4.8075444959627e-09,4.807497722774e-09,-0.0011480498117451,0.0011480607510268,2.5232988537756e-10,9.1328039706959e-09,-0.0013918606050609,0.0013918686651399,-0.0013918567466779,0.0013918707705044,-0.0013918594008287,0.0013918674607916,-0.0013918556362166,0.0013918696599252,-0.0011106483425003,0.0011106609654142,-0.001110647615227,0.0011106602381964,0.58772740813402,125301,3014,0.003827532780445,0.0047721991269469,0.0047721991269479,21.98351989013,9.1068159121042e-05,9.1068159121042e-05,9.1068159121042e-05,3093409.5332173,0.013462820879848
17919200,0.99923515090049,0.015538881939796,0.0046443824618097,0.0054472497389958,0.0054472497389901,-0.0009136627768254,0.00091367350220104,4.1486880468103e-09,4.1486405157623e-09,3.2470973047004e-09,4.6913342827226e-09,-0.0011340309989799,0.0011340418165804,-0.0011340302588481,0.0011340410762872,-0.0011340298492103,0.0011340416237162,-0.0011340291169604,0.0011340408913082,-0.00099227520629887,0.0009922845115091,-0.00099227533203752,0.0009922846371169,4.681814594244e-09,3.8213437428254e-09,8.9094181090248e-09,-1.4599890879811e-10,-0.0011425824279534,0.0011425929359337,-0.0013842650152137,0.0013842789696608,-0.0013842671672982,0.0013842750611225,-0.001384264200538,0.0013842775036909,-0.0013842663524788,0.0013842735950014,-0.0011820742606175,0.0011820915200929,-0.0011820835966439,0.0011820831102139,-0.0011048822820637,0.0011048887571264,-0.0011048840243707,0.0011048887636656,5.2730703636435e-09,5.2730235734847e-09,-0.0011425816010324,0.0011425937628554,5.7193108051573e-10,9.7368845906241e-09,-0.0013842675901968,0.0013842766574439,-0.0013842635273212,0.0013842787507371,-0.0013842662438236,0.0013842753109548,-0.0013842622806044,0.0013842775039026,-0.0011048794409489,0.0011048931468252,-0.0011048787129681,0.0011048924188994,0.4915601615792,125301,3014,0.0038014137209904,0.0047495092331269,0.0047495092331282,19.503566184637,7.1228529477094e-05,7.1228529477094e-05,7.1228529477094e-05,3130588.7107639,0.013390322589269
18419200,0.99930870509369,0.015539747270448,0.0046446649515728,0.0054475411594402,0.0054475411594345,-0.00091017169590634,0.00091018146023564,3.7775145583468e-09,3.7774669793297e-09,2.8695076378349e-09,4.3317522876763e-09,-0.0011265321768272,0.0011265422387187,-0.0011265314779225,0.0011265415396528,-0.0011265310614006,0.0011265420932631,-0.0011265303695312,0.0011265414012357,-0.00098906014316382,0.00098906865460597,-0.00098906027837586,0.00098906878968701,4.453307167925e-09,3.5738143126851e-09,8.7492577009592e-09,-4.7435417882544e-10,-0.0011411099177399,0.0011411197541009,-0.0013789141709882,0.0013789276919532,-0.0013789164198986,0.0013789237749966,-0.0013789134218222,0.001378926284481,-0.0013789156705889,0.0013789223673733,-0.0011802908645109,0.0011803077474288,-0.0011803003981105,0.0011802992027071,-0.0011023379933168,0.001102343905439,-0.0011023397832516,0.0011023439247212,5.087266132247e-09,5.0872193181771e-09,-0.0011411090395478,0.0011411206322938,3.0267005534345e-10,9.6298793657074e-09,-0.0013789167493661,0.0013789253713374,-0.0013789126810121,0.0013789275651452,-0.0013789154667227,0.0013789240885784,-0.0013789114979527,0.0013789263819682,-0.0011023350857522,0.0011023484258577,-0.0011023343240413,0.0011023476642018,0.51421839069127,125301,3014,0.0037868891371885,0.0047433793476341,0.0047433793476355,17.480146347609,5.5041170780869e-05,5.5041170780869e-05,5.5041170780869e-05,3201542.3294896,0.013363132575213
18919200,0.99937289622,0.015540610398674,0.0046449456303795,0.00544783238415,0.0054478323841443,-0.00090849901847821,0.00090850560257903,2.5464036025885e-09,2.5463560606585e-09,1.7509314655986e-09,3.0386604136278e-09,-0.0011265694934772,0.0011265767901234,-0.0011265689652907,0.0011265762617756,-0.0011265685853023,0.0011265767491775,-0.0011265680614482,0.0011265762251655,-0.0009871367418245,0.00098714258216499,-0.00098713688523357,0.00098714272544318,3.6174945903715e-09,2.8514618305502e-09,7.8528269161766e-09,-1.1918158902254e-09,-0.0011388462276521,0.0011388538927136,-0.0013781663229332,0.0013781778483186,-0.0013781686838805,0.0013781741823791,-0.0013781657655487,0.0013781767341623,-0.0013781681263523,0.0013781730680716,-0.001178062820047,0.0011780778505905,-0.0011780722218431,0.0011780695165336,-0.0011004252330319,0.0011004294113296,-0.0011004269044359,0.0011004295466115,4.2480792716237e-09,4.2480324414661e-09,-0.0011388453904865,0.0011388547298799,-4.3239978763036e-10,8.6970496800139e-09,-0.0013781688257262,0.0013781755636051,-0.0013781650255153,0.0013781778870668,-0.0013781678126589,0.0013781745504221,-0.0013781641025994,0.0013781769640332,-0.0011004224046763,0.0011004338857918,-0.0011004216151898,0.0011004330963604,0.5877987766322,125301,3014,0.0037799490688357,0.0047339967790236,0.004733996779025,16.875242314413,5.0201938515304e-05,5.0201938515304e-05,5.0201938515304e-05,3171067.2844604,0.013337110985727
19419200,0.99943343771452,0.015541521561195,0.0046452423466465,0.0054481396072772,0.0054481396072715,-0.00090822078210638,0.00090822447962282,1.4223725729943e-09,1.4223250818862e-09,7.6465408084271e-10,1.8179741199915e-09,-0.0011298197483115,0.0011298245668463,-0.0011298193704648,0.0011298241888383,-0.0011298190491597,0.00112982459171,-0.0011298186737953,0.0011298242161876,-0.00098671711594677,0.00098672049640613,-0.00098671726742001,0.00098672064774851,2.8174945909737e-09,2.2334504950543e-09,6.9231130307011e-09,-1.728913645218e-09,-0.0011366062711915,0.001136611974616,-0.0013793201674851,0.0013793297959629,-0.0013793225526553,0.0013793264298024,-0.0013793197542375,0.0013793289676487,-0.0013793221392639,0.001379325601337,-0.0011762225015034,0.0011762356517415,-0.0011762315598584,0.0011762277370071,-0.0010993128195837,0.0010993154213371,-0.0010993143047553,0.001099315739436,3.4609142044761e-09,3.4608673800831e-09,-0.0011366054952638,0.0011366127505444,-1.0142995062581e-09,7.7091177743026e-09,-0.0013793225397323,0.0013793276100857,-0.001379319052449,0.0013793299712922,-0.0013793217641492,0.0013793268343867,-0.0013793183587765,0.0013793292775018,-0.0010993101211528,0.001099319791567,-0.0010993093096002,0.0010993189800693,0.65664642788028,125301,3014,0.0037788118367195,0.0047247235617847,0.004724723561786,17.54556460122,5.5564516809763e-05,5.5564516809763e-05,5.5564516809763e-05,3102293.6237852,0.013317208868024
19919200,0.99949181616567,0.015542377907835,0.0046455222370138,0.0054484278354136,0.0054484278354079,-0.00090846775173753,0.00090847037652664,1.0033558799901e-09,1.0033084080874e-09,4.477727764961e-10,1.3093616669293e-09,-0.0011330100202326,0.0011330139588891,-0.0011330096967903,0.0011330136352853,-0.0011330094310904,0.0011330139725393,-0.0011330091099538,0.0011330136512446,-0.00098695652571497,0.00098695895443014,-0.00098695668248832,0.00098695911107294,2.4746820472555e-09,2.0652978869477e-09,6.4480631122194e-09,-1.7837169986153e-09,-0.0011347840292318,0.0011347890207853,-0.00138045907152,0.0013804678931542,-0.0013804613765261,0.0013804647283311,-0.0013804586756785,0.0013804672038841,-0.0013804609805409,0.0013804640389097,-0.0011748318539657,0.0011748440862735,-0.001174840519584,0.001174836601202,-0.0010985696223927,0.0010985716385046,-0.0010985709343156,0.00109857213252,3.1517540494302e-09,3.1517072488011e-09,-0.0011347833001797,0.0011347897498382,-1.1143750626362e-09,7.1878712421734e-09,-0.0013804613130989,0.0013804658290456,-0.0013804580300471,0.0013804681134738,-0.0013804606230598,0.0013804651388907,-0.0013804574188002,0.0013804675021092,-0.001098567035018,0.00109857590911,-0.0010985662148977,0.0010985750890446,0.63949909152816,125301,3014,0.0037798518615293,0.0047171826485241,0.0047171826485255,18.681470303509,6.4651762428073e-05,6.4651762428073e-05,6.4651762428073e-05,3039534.829012,0.013303012869297
20419200,0.99954394516949,0.015543205441385,0.0046457936704641,0.0054487058854632,0.0054487058854575,-0.00090712111626354,0.00090712645268325,2.0524861078995e-09,2.0524386128798e-09,1.4730031222363e-09,2.3421476890546e-09,-0.0011312100878412,0.0011312163887534,-0.0011312096227658,0.0011312159235166,-0.0011312093690147,0.0011312162693098,-0.0011312089087473,0.0011312158088844,-0.00098578546005086,0.00098579012425806,-0.00098578561111104,0.00098579027518766,3.1539536554268e-09,2.7814710249511e-09,7.1015019479764e-09,-9.9865824805528e-10,-0.0011332143413751,0.0011332212582782,-0.0013784929750833,0.0013785033943214,-0.0013784950958577,0.0013785001135489,-0.0013784923788383,0.0013785025067735,-0.001378494499469,0.0013784992258498,-0.0011733835585204,0.0011733972048073,-0.0011733920570012,0.001173389819072,-0.0010971119486648,0.0010971154779636,-0.0010971132250004,0.0010971160009403,3.8637609327557e-09,3.8637141304502e-09,-0.0011332136112892,0.0011332219883648,-3.5034439480746e-10,7.8378981634148e-09,-0.0013784951968591,0.0013785013820479,-0.0013784917837978,0.0013785034668846,-0.0013784942867907,0.0013785004718639,-0.0013784909592549,0.001378502642224,-0.0010971093548417,0.001097119719728,-0.0010971085614707,0.0010971189264118,0.69004788769245,125301,3014,0.0037742603871512,0.0047106728608603,0.0047106728608618,18.601923404654,6.4015387237228e-05,6.4015387237228e-05,6.4015387237228e-05,3039530.5730404,0.013284141890429
20919200,0.99958730272916,0.015543847194326,0.0046460042158275,0.0054489214892522,0.0054489214892465,-0.0009026096635841,0.00090261786024183,3.1647581395759e-09,3.1647106254686e-09,2.5019038951416e-09,3.5022662294355e-09,-0.0011290104522207,0.0011290191899275,-0.0011290098422202,0.0011290185797657,-0.0011290095598286,0.001129018973977,-0.0011290089567763,0.0011290183707666,-0.00098122302546652,0.00098123009808329,-0.0009812231762622,0.00098123024874836,3.9238741618297e-09,3.4629204990565e-09,7.9267211589415e-09,-3.252310477707e-10,-0.0011273947330669,0.0011274036557694,-0.0013749437188623,0.0013749559205317,-0.0013749457418803,0.0013749524240683,-0.0013749429535888,0.0013749547851016,-0.0013749449764629,0.0013749512884869,-0.0011678207304935,0.0011678360959951,-0.0011678293325629,0.0011678285237698,-0.001091986047329,0.001091991183304,-0.0010919874048408,0.0010919916037196,4.6025595319656e-09,4.6025127625709e-09,-0.0011273940022148,0.0011274043866222,3.04209998711e-10,8.6603964564359e-09,-0.0013749460325754,0.001374953844375,-0.0013749423911033,0.0013749558181986,-0.0013749448959721,0.001374952707656,-0.0013749413460528,0.0013749547730304,-0.0010919834113563,0.0010919954213665,-0.0010919826487152,0.0010919946587801,0.64466974006305,125301,3014,0.0037555514408018,0.0046865554983958,0.0046865554983972,17.277903590803,5.3423228726425e-05,5.3423228726425e-05,5.3423228726425e-05,2997444.1305217,0.013216340221833
21419200,0.99962209964794,0.015544359933632,0.0046461728161635,0.0054490935587373,0.0054490935587316,-0.00089768630225265,0.00089769619754799,3.8229885161486e-09,3.8229409774244e-09,3.0647617393973e-09,4.2287916520825e-09,-0.0011226070840973,0.0011226172939061,-0.001122606380964,0.0011226165906114,-0.0011226060571855,0.0011226170433861,-0.0011226053621462,0.0011226163481888,-0.00097656483176376,0.00097657335483977,-0.00097656498522216,0.00097657350816764,4.4189088199095e-09,3.8297294288378e-09,8.5241826044757e-09,-2.8825152880087e-11,-0.0011231451338844,0.0011231552511735,-0.0013692188478722,0.0013692322538131,-0.0013692208744168,0.0013692285516622,-0.0013692180014741,0.0013692309390287,-0.0013692200278749,0.0013692272367266,-0.0011636167572941,0.0011636333228603,-0.0011636256374987,0.0011636254425331,-0.0010875211040703,0.0010875271953321,-0.001087522601786,0.0010875274962162,5.0864170832731e-09,5.0863703233781e-09,-0.0011231443620171,0.0011231560230415,6.31324211214e-10,9.2969354957229e-09,-0.0013692212620985,0.0013692300974388,-0.0013692174064804,0.001369232066214,-0.0013692199808395,0.0013692288160643,-0.0013692162220491,0.0013692308816652,-0.001087518380727,0.0010875315229555,-0.0010875176226026,0.0010875307648859,0.64095610021346,125301,3014,0.0037351057462372,0.0046689226377217,0.0046689226377232,15.232194473297,3.7057555786375e-05,3.7057555786375e-05,3.7057555786375e-05,3023480.0321336,0.013159870934824
21919200,0.99965168959479,0.015544783270818,0.0046463118677782,0.0054492357015227,0.005449235701517,-0.00089450067815219,0.00089450877821685,3.1288707936156e-09,3.128823258656e-09,2.3827504219043e-09,3.5496443878005e-09,-0.0011196539533282,0.0011196626002319,-0.0011196533441462,0.0011196619908885,-0.0011196530100216,0.0011196624404257,-0.0011196524071416,0.0011196618373877,-0.00097337177838808,0.00097337882514386,-0.00097337193838717,0.00097337898501243,3.983862220001e-09,3.3622022572753e-09,8.1097001112182e-09,-5.454289149437e-10,-0.001119876624938,0.0011198854904365,-0.0013661204850367,0.0013661328660216,-0.0013661226374466,0.0013661292351465,-0.0013661197747065,0.0013661316810971,-0.0013661219269726,0.0013661280500707,-0.0011603800461875,0.0011603957084991,-0.0011603890549706,0.001160387751152,-0.0010843354875642,0.0010843406014465,-0.0010843370209542,0.001084340879275,4.6338121889243e-09,4.6337654250588e-09,-0.0011198758463108,0.0011198862690644,1.3733751447732e-10,8.8922613476668e-09,-0.0013661229108956,0.0013661306758827,-0.0013661191366079,0.0013661327810318,-0.001366121776743,0.0013661295416145,-0.0013661180946989,0.0013661317390053,-0.0010843327640123,0.0010843449615915,-0.0010843319834304,0.0010843441810643,0.62311101531201,125301,3014,0.0037218769656415,0.0046553653404774,0.0046553653404789,13.996533879769,2.7172271038152e-05,2.7172271038152e-05,2.7172271038152e-05,3018977.123912,0.013119002166782
22419200,0.99968039687523,0.01554521275987,0.0046464529608741,0.005449379899501,0.0054493798994953,-0.00089603208744768,0.00089603537861273,1.2546886819456e-09,1.2546411769556e-09,7.9089407031728e-10,1.4531701470907e-09,-0.0011206905189656,0.0011206951151898,-0.0011206901551524,0.0011206947512152,-0.0011206899578718,0.0011206950244535,-0.0011206895976901,0.0011206946641137,-0.00097490209362825,0.00097490499654725,-0.00097490225898708,0.00097490516177557,2.5876855022293e-09,2.392785514477e-09,6.4192850205785e-09,-1.3059343854709e-09,-0.0011213842933256,0.0011213898730166,-0.0013671149865283,0.0013671240998997,-0.0013671170878043,0.0013671210577638,-0.0013671144741487,0.0013671234275086,-0.0013671165752809,0.0013671203852215,-0.0011618755182694,0.0011618877984724,-0.0011618836944792,0.0011618808215382,-0.001085832838796,0.0010858352822664,-0.0010858339551159,0.0010858360026349,3.3505050658407e-09,3.3504582710056e-09,-0.0011213835898055,0.0011213905765374,-6.7413396558186e-10,7.1313844420711e-09,-0.0013671170626028,0.0013671222140331,-0.0013671138962993,0.0013671242876482,-0.0013671163156883,0.001367121467003,-0.0013671132298157,0.001367123621047,-0.0010858303436331,0.001085839480381,-0.0010858295168166,0.0010858386536192,0.65096373206224,125301,3014,0.0037282173417869,0.0046616088440079,0.0046616088440095,14.849665048117,3.3997320384936e-05,3.3997320384936e-05,3.3997320384936e-05,3019263.465208,0.013138070740212
22919200,0.99970754718164,0.015545578620903,0.0046465731638002,0.0054495027285542,0.0054495027285485,-0.00089626965894494,0.00089627370847286,1.549190478706e-09,1.5491429899215e-09,1.0838315327201e-09,1.7394545375932e-09,-0.0011223798612649,0.001122385115476,-0.0011223794595022,0.001122384713552,-0.0011223792676768,0.0011223849860795,-0.0011223788704661,0.0011223845887108,-0.00097502765506056,0.00097503118154261,-0.00097502781970672,0.00097503134605831,2.7727126724562e-09,2.5957162685744e-09,6.5501259253082e-09,-1.0365961837754e-09,-0.0011206726977969,0.0011206788112544,-0.0013678101462352,0.0013678196611215,-0.0013678121652685,0.0013678166218505,-0.0013678095749626,0.0013678189357498,-0.0013678115938521,0.0013678158963276,-0.0011612907302301,0.0011613033071824,-0.0011612987578023,0.0011612964558224,-0.0010855808126339,0.0010855837026364,-0.0010855819063936,0.0010855844338127,3.5294232114848e-09,3.529376413385e-09,-0.0011206720118855,0.0011206794971666,-4.3082752835298e-10,7.2433456390422e-09,-0.0013678121994299,0.0013678178069728,-0.0013678090312406,0.001367819793665,-0.001367811391723,0.0013678169991503,-0.0013678083054305,0.0013678190677373,-0.0010855783595999,0.00108558783977,-0.0010855775443799,0.0010855870246048,0.58748017292924,125301,3014,0.0037292121371834,0.0046586680686651,0.0046586680686666,15.357234334667,3.8057874677336e-05,3.8057874677336e-05,3.8057874677336e-05,2987903.6823842,0.013133139235563
23419200,0.99973290964362,0.015545931059806,0.0046466891362099,0.0054496209618011,0.0054496209617954,-0.00089733383341552,0.00089733823507473,1.683260925093e-09,1.6832134229559e-09,1.2089605861428e-09,1.8743463335061e-09,-0.0011210927239781,0.001121098298388,-0.0011210923004595,0.0011210978747081,-0.0011210921086265,0.001121098152031,-0.001121091690145,0.0011210977333915,-0.00097627874073444,0.00097628255612858,-0.00097627890445288,0.00097628271971659,2.8706857389699e-09,2.6944160155285e-09,6.6189453796913e-09,-9.0281264894013e-10,-0.0011227127245266,0.0011227191067582,-0.0013675366055981,0.0013675463475808,-0.0013675385830095,0.0013675433063191,-0.0013675360084965,0.0013675455932463,-0.0013675379857643,0.0013675425518335,-0.0011632263004278,0.001163239026044,-0.0011632342655117,0.0011632322410626,-0.0010871503474408,0.0010871534684927,-0.0010871514488328,0.0010871542071914,3.6426472940079e-09,3.6426004724089e-09,-0.0011227120273538,0.0011227198039319,-2.9002948062198e-10,7.3226790402848e-09,-0.0013675386324784,0.0013675445264964,-0.0013675354592251,0.0013675464684098,-0.0013675377929276,0.00136754368683,-0.0013675347031977,0.0013675457122649,-0.0010871479052334,0.0010871576038732,-0.0010871470871456,0.0010871567858402,0.60459639632209,125301,3014,0.0037336128659058,0.0046671149125855,0.0046671149125872,15.705605369375,4.0844842955002e-05,4.0844842955002e-05,4.0844842955002e-05,3024028.2382625,0.013154681816441
23919200,0.99975790504917,0.015546340791726,0.0046468236867713,0.00544975855248,0.0054497585524743,-0.00089973416130477,0.00089973639957932,8.4207043006168e-10,8.4202294510055e-10,4.3890805483667e-10,9.9384029453767e-10,-0.001124606994487,0.0011246106961536,-0.001124606684179,0.0011246103856844,-0.0011246065157927,0.0011246106214137,-0.0011246062089475,0.0011246103144106,-0.00097846834395987,0.00097847033772204,-0.00097846851080424,0.00097847050443597,2.2864056941119e-09,2.1819024150536e-09,5.9309361969543e-09,-1.3480051634143e-09,-0.00112440399979,0.0011244088705087,-0.0013702753938742,0.001370283718332,-0.0013702774062182,0.001370280885505,-0.0013702749248449,0.0013702831564048,-0.0013702769370452,0.0013702803234266,-0.0011649139024579,0.0011649252107885,-0.001164921659371,0.0011649186882723,-0.0010891085965046,0.0010891105456886,-0.0010891096219232,0.001089111357418,3.0551058519369e-09,3.0550590279555e-09,-0.0011244033299287,0.0011244095403708,-7.4860037781644e-10,6.6099652420109e-09,-0.0013702773317278,0.001370281961842,-0.0013702743773106,0.0013702839492394,-0.0013702766693287,0.0013702812993272,-0.0013702737925228,0.0013702833643341,-0.001089106247396,0.0010891146073206,-0.0010891054124643,0.0010891137724436,0.71228945632067,125301,3014,0.0037435767318518,0.0046741336275531,0.0046741336275548,17.004015181734,5.1232121453875e-05,5.1232121453875e-05,5.1232121453875e-05,2997616.9332719,0.013179016096395
24419200,0.99978174068152,0.015546712918067,0.0046469460423763,0.0054498834378483,0.0054498834378426,-0.00089964785570593,0.0008996510696108,1.2254298729291e-09,1.2253824056439e-09,8.2098092994908e-10,1.3672580803512e-09,-0.0011289215085037,0.0011289260578575,-0.0011289211513835,0.0011289257005758,-0.0011289209895797,0.001128925934912,-0.001128920637028,0.0011289255822023,-0.0009781820067513,0.00097818480900265,-0.00097818217589655,0.00097818497801762,2.5207112966112e-09,2.4365707503993e-09,6.1133537973785e-09,-1.0251106463549e-09,-0.0011216399967402,0.0011216455376622,-0.0013719259401396,0.0013719347781583,-0.0013719278602403,0.0013719319382897,-0.0013719253967873,0.0013719341481442,-0.0013719273167442,0.0013719313081243,-0.001162575645523,0.0011625873621386,-0.0011625832470853,0.0011625809628278,-0.0010876506349878,0.0010876531376864,-0.0010876516311877,0.0010876539580476,3.2727360154848e-09,3.2726892278259e-09,-0.0011216393560761,0.0011216461783271,-4.6475378872313e-10,6.7614387925979e-09,-0.0013719278664864,0.0013719330431148,-0.0013719248997255,0.0013719349328113,-0.0013719271276025,0.0013719323041152,-0.0013719242398927,0.0013719342728609,-0.0010876483346716,0.0010876571223487,-0.0010876475162294,0.0010876563039612,0.6789410524186,125301,3014,0.003743247371945,0.0046627008046795,0.0046627008046811,17.881467183143,5.8251737465144e-05,5.8251737465144e-05,5.8251737465144e-05,2913251.3154737,0.013155572414873
24919200,0.99980381697899,0.015547021723976,0.0046470480364314,0.005449986843775,0.0054499868437693,-0.00089989566298284,0.00089989979668743,1.5800558272614e-09,1.5800083412121e-09,1.148922692171e-09,1.7336436618762e-09,-0.0011281124015778,0.0011281177497733,-0.0011281119943641,0.0011281173423982,-0.001128111825906,0.0011281175918079,-0.0011281114240865,0.0011281171898303,-0.00097864060191764,0.00097864417273746,-0.00097864077052124,0.00097864434121072,2.7737076033538e-09,2.6697566291977e-09,6.3591159421796e-09,-7.6922405085591e-10,-0.0011219377221712,0.001121943934302,-0.0013712122923693,0.0013712217199601,-0.0013712141592785,0.0013712188271965,-0.0013712116915467,0.0013712210116927,-0.0013712135583121,0.0013712181187778,-0.0011629724492921,0.0011629846819116,-0.0011629800327503,0.0011629782872191,-0.0010879570818023,0.0010879601320749,-0.0010879581042085,0.0010879609360697,3.5322839213862e-09,3.5322371331684e-09,-0.001121937071044,0.00112194458543,-2.0595949388766e-10,7.0163000743195e-09,-0.0013712142197446,0.0013712199954423,-0.0013712111949485,0.0013712218266928,-0.0013712134053262,0.0013712191809083,-0.0013712104622129,0.0013712210938397,-0.0010879547781065,0.0010879641195144,-0.001087953963119,0.0010879633045815,0.60789483588396,125301,3014,0.0037442680850976,0.0046639287888161,0.0046639287888178,18.351785607755,6.201428486204e-05,6.201428486204e-05,6.201428486204e-05,2924046.0367599,0.013159073222913
25419200,0.99982549938814,0.015547390798952,0.0046471698509659,0.0054501104739958,0.0054501104739901,-0.00090366052438572,0.00090366211720915,5.8783736458967e-10,5.8778985048237e-10,2.3454435730147e-10,6.9702177446325e-10,-0.0011291995975894,0.0011292027608507,-0.0011291993189982,0.0011292024820982,-0.0011291991772199,0.0011292026861061,-0.0011291989021181,0.0011292024108463,-0.00098245278063048,0.00098245420735789,-0.00098245295030666,0.00098245437690366,2.0969457196035e-09,2.0764487946922e-09,5.5843650562616e-09,-1.3080138109709e-09,-0.0011267908394277,0.001126795299924,-0.0013733661955258,0.0013733740147753,-0.0013733681156512,0.0013733713467376,-0.00137336574475,0.00137337353056,-0.0013733676647316,0.0013733708623711,-0.0011675731686709,0.0011675837987564,-0.0011675805627414,0.0011675776710504,-0.0010921778592509,0.001092179535058,-0.001092178804892,0.0010921804351335,2.8796670539129e-09,2.8796202573719e-09,-0.0011267901946637,0.0011267959446889,-7.3422346621239e-10,6.2385030351763e-09,-0.0013733680118519,0.0013733723750673,-0.0013733652233798,0.0013733742715564,-0.0013733674018584,0.0013733717649583,-0.0013733646891766,0.0013733737372358,-0.0010921756307305,0.001092183489752,-0.0010921747869703,0.0010921826460464,0.7372586897946,125301,3014,0.0037598688285864,0.0046840357644675,0.0046840357644693,19.919551771428,7.4556414171427e-05,7.4556414171427e-05,7.4556414171427e-05,2961426.382945,0.013215589016485
25919200,0.99984567952553,0.015547729707728,0.0046472815107752,0.0054502240984794,0.0054502240984737,-0.00090351335568267,0.00090351670256063,1.2758674147145e-09,1.2758199347238e-09,8.9683621085761e-10,1.3898407572895e-09,-0.0011342855410466,0.0011342902222869,-0.0011342851768098,0.001134289857889,-0.0011342850327001,0.0011342900748958,-0.0011342846735855,0.0011342897156231,-0.00098190333705429,0.00098190622982567,-0.00098190350938083,0.00098190640202183,2.5363208305722e-09,2.5081157854315e-09,6.0128337279104e-09,-8.3568726725984e-10,-0.0011236598881688,0.0011236655455205,-0.0013754595898733,0.0013754684158816,-0.0013754614095012,0.001375465664087,-0.0013754590189382,0.0013754677936291,-0.0013754608384223,0.0013754650416831,-0.0011647729390078,0.0011647844839783,-0.0011647802583839,0.0011647783725234,-0.0010903840621532,0.0010903866989489,-0.0010903850035062,0.0010903875749111,3.2944768652579e-09,3.2944301113038e-09,-0.0011236592695689,0.0011236661641212,-3.0265216644877e-10,6.6381362863019e-09,-0.0013754614357201,0.0013754667642581,-0.0013754585548935,0.0013754685512673,-0.0013754606862192,0.0013754660146415,-0.0013754578843708,0.0013754678806269,-0.0010903818509777,0.0010903905936009,-0.0010903810331835,0.0010903897758611,0.72914636768882,125301,3014,0.0037592916619396,0.0046710888448916,0.0046710888448933,20.734155976593,8.1073247812746e-05,8.1073247812746e-05,8.1073247812746e-05,2863117.0290415,0.013188840686787
26419200,0.99986319777074,0.015548050578562,0.0046473876939968,0.0054503314422856,0.0054503314422799,-0.00090174324613086,0.00090174924157475,2.3037793517398e-09,2.3037318568084e-09,1.835344320932e-09,2.4703831686664e-09,-0.0011324356826544,0.0011324426342453,-0.0011324351804351,0.0011324421318647,-0.001132435004909,0.001132442401344,-0.0011324345097881,0.001132441906065,-0.00098034308363001,0.00098034820996719,-0.00098034325479372,0.00098034838100063,3.2660404174479e-09,3.1404709866641e-09,6.816564026348e-09,-2.3248812383918e-10,-0.0011214833243973,0.0011214908630462,-0.0013732452450836,0.0013732557880792,-0.0013732469906485,0.0013732528132361,-0.0013732445223829,0.0013732549297674,-0.001373246267804,0.0013732519547731,-0.0011628168798754,0.0011628300876439,-0.0011628243597415,0.0011628237504974,-0.0010884988404086,0.001088502978752,-0.001088499881709,0.0010885037531364,4.0106652274597e-09,4.0106184776232e-09,-0.0011214826846008,0.0011214915028435,3.0377413662923e-10,7.4596213872165e-09,-0.0013732471805275,0.001373254075233,-0.0013732440642463,0.0013732557752252,-0.0013732462181485,0.0013732531127385,-0.0013732431873882,0.0013732548982496,-0.0010884965631314,0.0010885069125256,-0.0010884957667973,0.001088506116246,0.7920419595447,125301,3014,0.0037519467522148,0.0046620638816026,0.0046620638816044,20.398997071141,7.8391976569125e-05,7.8391976569125e-05,7.8391976569125e-05,2859546.6578138,0.013163102685334
26919200,0.9998795076593,0.01554833188463,0.0046474808457779,0.0054504255194289,0.0054504255194233,-0.00090206361592933,0.00090206684300351,1.2305655641549e-09,1.2305181000461e-09,8.1018740103692e-10,1.3891890521986e-09,-0.0011350673093156,0.0011350718625204,-0.0011350669515714,0.0011350715046148,-0.0011350667793803,0.0011350717493094,-0.0011350664263705,0.0011350713961415,-0.00098053161543077,0.00098053444067237,-0.00098053179349551,0.00098053461860689,2.5497890934947e-09,2.4345580193759e-09,6.0516539429933e-09,-9.3396287684535e-10,-0.0011200244694311,0.0011200300486154,-0.0013741585189395,0.0013741673549305,-0.0013741603877503,0.0013741645635637,-0.0013741579846313,0.0013741667138029,-0.0013741598532982,0.0013741639222848,-0.0011615708527642,0.0011615824414511,-0.0011615783109468,0.0011615761992052,-0.0010877819335833,0.0010877845479444,-0.001087782963139,0.0010877853400086,3.2741193000793e-09,3.2740725421842e-09,-0.0011200238416558,0.0011200306763916,-3.8873613253976e-10,6.6867597720201e-09,-0.0013741604127896,0.0013741656514983,-0.0013741574941735,0.0013741674896622,-0.0013741596744416,0.0013741649130347,-0.0013741568341059,0.0013741668294771,-0.0010877797146315,0.0010877884582075,-0.0010877788917229,0.0010877876353533,0.74688297492095,125301,3014,0.0037532797370479,0.0046560259934926,0.0046560259934943,21.286794795651,8.5494358365206e-05,8.5494358365206e-05,8.5494358365206e-05,2809523.127546,0.013152248148876
27419200,0.99989464786539,0.015548585965698,0.0046475651910583,0.0054505103873226,0.0054505103873169,-0.0009035775958104,0.00090358059236875,1.1364273864234e-09,1.1363799015799e-09,7.3606843755567e-10,1.2756906827018e-09,-0.0011350560007757,0.0011350603686656,-0.0011350556524203,0.0011350600201489,-0.001135055492417,0.001135060251777,-0.0011350551487324,0.0011350599079343,-0.00098214995992148,0.00098215257524381,-0.00098215013679736,0.00098215275198947,2.4819884269189e-09,2.405644628695e-09,5.95935253092e-09,-9.4282954302269e-10,-0.0011218695376379,0.0011218749837996,-0.0013744194892855,0.0013744281781055,-0.0013744213407859,0.0013744254253763,-0.0013744189578876,0.0013744275663861,-0.0013744208092442,0.0013744248135055,-0.0011633919628818,0.0011634033733946,-0.0011633993460988,0.0011633972195635,-0.0010894775718102,0.0010894800707058,-0.0010894785677497,0.0010894809065338,3.2283604088644e-09,3.2283136380873e-09,-0.0011218689073049,0.0011218756141335,-3.9458112102349e-10,6.5972008779976e-09,-0.0013744213459643,0.0013744265111479,-0.0013744184663373,0.0013744283324314,-0.001374420624177,0.0013744257892451,-0.0013744178226396,0.0013744276886163,-0.0010894753638529,0.0010894839805193,-0.0010894745353664,0.0010894831520872,0.72588280929977,125301,3014,0.0037595493165711,0.0046636662324487,0.0046636662324505,22.250725959278,9.3205807674221e-05,9.3205807674221e-05,9.3205807674221e-05,2825890.4321864,0.013174056243923
27919200,0.99990837036383,0.015548828855283,0.0046476457570653,0.0054505915491115,0.0054505915491058,-0.00090474177183755,0.00090474544774926,1.3992779924296e-09,1.3992304926748e-09,9.8934239756298e-10,1.5379477522813e-09,-0.00113564246309,0.0011356474253613,-0.0011356420787254,0.0011356470408353,-0.0011356419195277,0.0011356472769852,-0.0011356415404572,0.0011356468977566,-0.00098324564090664,0.00098324881808984,-0.00098324581808167,0.00098324899513464,2.6593306614392e-09,2.5857798915577e-09,6.1427186521318e-09,-7.5769501311504e-10,-0.0011231441580686,0.0011231500945604,-0.0013750389511953,0.0013750480648525,-0.0013750407661545,0.0013750452719055,-0.001375038371088,0.0013750474007932,-0.0013750401859033,0.001375044607695,-0.0011645752293181,0.0011645870303522,-0.0011645826027902,0.0011645808722866,-0.0010906465410522,0.0010906494227417,-0.001090647536569,0.0010906502615045,3.4121213999746e-09,3.4120746324033e-09,-0.0011231435262061,0.0011231507264238,-2.135645824986e-10,6.7810591522535e-09,-0.0013750408132496,0.0013750464007048,-0.001375037889709,0.0013750481815654,-0.0013750400356607,0.0013750456230004,-0.0013750371919704,0.0013750474837094,-0.0010906443249094,0.0010906533360444,-0.0010906435009806,0.0010906525121701,0.76533978020323,125301,3014,0.0037643752786814,0.0046689495392484,0.0046689495392503,22.918381094456,9.8547048755649e-05,9.8547048755649e-05,9.8547048755649e-05,2829188.9190488,0.01318964505773
28419200,0.99992064337834,0.015549063315486,0.0046477234939819,0.0054506699107547,0.005450669910749,-0.00090499299263827,0.00090499702579443,1.5401945395552e-09,1.5401470656232e-09,1.1190048516993e-09,1.6870339175071e-09,-0.0011375272820601,0.0011375325460172,-0.001137526881056,0.0011375321448516,-0.0011375267168256,0.0011375323877081,-0.0011375263213411,0.0011375319920654,-0.00098335964135084,0.00098336312314347,-0.00098335982081111,0.00098336330247364,2.7576496880256e-09,2.668239808497e-09,6.2507519135013e-09,-6.7863556501361e-10,-0.001122242946828,0.0011222491308255,-0.0013757776177018,0.0013757869538191,-0.0013757794246813,0.0013757841316448,-0.0013757770181546,0.0013757862577676,-0.0013757788249902,0.001375783435442,-0.001163790084367,0.0011638021087571,-0.0011637974796078,0.0011637959165557,-0.0010902327976506,0.0010902358806422,-0.0010902338058522,0.0010902366997772,3.4985865525529e-09,3.4985397765701e-09,-0.0011222423197669,0.0011222497578876,-1.4145443603172e-10,6.8839013972582e-09,-0.0013757794992494,0.0013757852725868,-0.0013757765453126,0.0013757870441466,-0.0013757786945837,0.0013757844678057,-0.0013757758208913,0.0013757863196078,-0.0010902305793027,0.0010902397873894,-0.0010902297603917,0.0010902389685328,0.82558911402084,125301,3014,0.0037654254711267,0.004665224418301,0.0046652244183028,23.441310114627,0.00010273048091702,0.00010273048091702,0.00010273048091702,2794256.5631053,0.013183183631683
28919200,0.99993158222956,0.015549256599339,0.0046477877009092,0.0054507344492176,0.0054507344492119,-0.0009047783947528,0.00090478239737446,1.5295687499893e-09,1.5295213017624e-09,1.1047231706419e-09,1.682268578085e-09,-0.0011394921051126,0.0011394973328114,-0.0011394917073358,0.0011394969348732,-0.0011394915393038,0.0011394971802954,-0.0011394911469305,0.0011394967877641,-0.00098308785533554,0.00098309131773046,-0.00098308803722275,0.0009830914994877,2.7549038923814e-09,2.6537804738465e-09,6.2516161920531e-09,-6.9655678882882e-10,-0.0011203195745047,0.0011203257362422,-0.0013761264194493,0.0013761357396226,-0.0013761282348762,0.0013761329139961,-0.0013761258262229,0.001376135042978,-0.0013761276415059,0.0013761322172001,-0.0011621305262435,0.0011621425490757,-0.0011621379387245,0.0011621363370746,-0.0010890687617286,0.0010890718328564,-0.0010890697779099,0.0010890726370155,3.4836917821074e-09,3.4836450150655e-09,-0.0011203189529279,0.0011203263578199,-1.6402518081979e-10,6.8794987771376e-09,-0.0013761283129169,0.0013761340443882,-0.0013761253563877,0.001376135825245,-0.0013761275126555,0.0013761332440113,-0.0013761246357446,0.0013761351044844,-0.0010890665468375,0.0010890757313147,-0.001089065729708,0.0010890749142396,0.76400561131051,125301,3014,0.0037645440729993,0.004657263762305,0.0046572637623069,23.983579753488,0.0001070686380279,0.0001070686380279,0.0001070686380279,2748288.8652079,0.013166187137519
29419200,0.99994141443472,0.015549398299105,0.0046478349176045,0.0054507816907528,0.0054507816907471,-0.00090623952551031,0.00090624291114742,1.286178502512e-09,1.2861310331974e-09,8.7631120700003e-10,1.4295598453398e-09,-0.0011389366658487,0.001138941372158,-0.001138936296951,0.001138941003099,-0.0011389361346112,0.0011389412397489,-0.0011389357706626,0.0011389408756423,-0.00098468874045392,0.00098469167969593,-0.00098468892177954,0.00098469186089149,2.5969626719377e-09,2.5144861650395e-09,6.0843271410361e-09,-8.3663813791791e-10,-0.0011224901061156,0.0011224958578598,-0.0013761812727093,0.0013761902385245,-0.0013761831086185,0.0013761874550246,-0.0013761807155213,0.0013761895941066,-0.0013761825512867,0.0013761868104554,-0.0011642526681773,0.0011642643407982,-0.0011642600674176,0.0011642581673785,-0.0010909666845063,0.001090969424444,-0.001090967689129,0.0010909702554432,3.3424426853174e-09,3.342395903923e-09,-0.0011224894759889,0.0011224964879875,-2.9155032173486e-10,6.7215919224071e-09,-0.0013761831410045,0.0013761885635625,-0.0013761802289263,0.0013761903674966,-0.0013761823877736,0.0013761878102161,-0.0013761795543987,0.0013761896928516,-0.0010909644716057,0.0010909733400672,-0.0010909636435054,0.0010909725120212,0.62417410960896,125301,3014,0.0037705919734585,0.0046662492667825,0.0046662492667844,24.778312167693,0.00011342649734154,0.00011342649734154,0.00011342649734154,2775458.2308064,0.013190490618144
29919200,0.99995013868316,0.015549536954489,0.0046478810375727,0.0054508279584608,0.0054508279584551,-0.00090928581662476,0.00090928940606747,1.3594519632345e-09,1.359404402658e-09,9.5122952394394e-10,1.4934863049597e-09,-0.0011368201638561,0.0011368250695541,-0.0011368197788892,0.0011368246844259,-0.0011368196228534,0.0011368249190704,-0.0011368192431478,0.0011368245392069,-0.0009879327676736,0.00098793586148967,-0.00098793294561146,0.00098793603929711,2.6535683909919e-09,2.5918585246685e-09,6.1561778380255e-09,-7.7202197271935e-10,-0.00112838957853,0.001128395510862,-0.0013767618324016,0.0013767709719308,-0.0013767636561219,0.0013767681693528,-0.001376761252644,0.0013767703158096,-0.0013767630762205,0.0013767675130805,-0.0011697242247643,0.0011697360515903,-0.0011697316354466,0.0011697298762946,-0.0010955634744524,0.0010955663331255,-0.0010955644706648,0.0010955671955903,3.4337560862557e-09,3.4337093259783e-09,-0.0011283889277317,0.0011283961616613,-2.0881810055919e-10,6.813649431437e-09,-0.0013767636849594,0.0013767693188949,-0.0013767607512622,0.0013767711081484,-0.0013767629100289,0.0013767685438491,-0.0013767600568165,0.0013767704135853,-0.0010955612330737,0.0010955702941111,-0.001095560398214,0.0010955694593058,0.68688558505508,125301,3014,0.0037832040372223,0.0046906817581095,0.0046906817581115,25.464964439335,0.00011891971551468,0.00011891971551468,0.00011891971551468,2863095.31425,0.01325271580798
30419200,0.99995782145088,0.01554963642955,0.004647914024314,0.005450861202621,0.0054508612026154,-0.00091034502017509,0.00091034870241133,1.4020409373176e-09,1.401993419034e-09,9.9626110084841e-10,1.5368511253413e-09,-0.0011410085104427,0.0011410134846806,-0.0011410081262849,0.0011410131003615,-0.0011410079694583,0.0011410133336442,-0.0011410075905546,0.0011410129545824,-0.00098854251890054,0.00098854569806297,-0.00098854269909838,0.00098854587813057,2.6690139040319e-09,2.6034470649462e-09,6.1709715496309e-09,-7.5839144837975e-10,-0.0011279607591209,0.0011279667231289,-0.0013794119644831,0.001379421115729,-0.0013794137883423,0.0013794183123887,-0.0013794113805698,0.001379420453476,-0.0013794132042853,0.0013794176499844,-0.0011692731653507,0.0011692850244821,-0.0011692805685524,0.0011692788394809,-0.001095663794604,0.0010956666855724,-0.0010956647837952,0.0010956675337674,3.4255247715402e-09,3.4254780121745e-09,-0.001127960127598,0.0011279673546528,-2.1441761539491e-10,6.8091117588686e-09,-0.0013794138350301,0.0013794194426946,-0.0013794109012592,0.0013794212325124,-0.0013794130567978,0.0013794186643469,-0.0013794102027322,0.0013794205338681,-0.0010956615668643,0.001095670614026,-0.0010956607409487,0.0010956697881648,0.56251928746541,125301,3014,0.0037876181569424,0.0046889252444909,0.0046889252444928,26.130281103384,0.00012424224882707,0.00012424224882707,0.00012424224882707,2805605.2194501,0.013253676528024
30919200,0.9999646539644,0.015549743309801,0.004647949506619,0.005450896901594,0.0054508969015883,-0.00091408327311386,0.00091408612953689,1.0736863386782e-09,1.0736387706608e-09,6.9558486694802e-10,1.1883360547963e-09,-0.0011400701571412,0.001140074427111,-0.0011400698106081,0.0011400740804167,-0.0011400696662747,0.0011400742970667,-0.0011400693244281,0.0011400739550622,-0.00099262572566702,0.00099262819730385,-0.00099262590125876,0.00099262837276504,2.4525124959836e-09,2.4267070309351e-09,5.9358665743686e-09,-9.3139911818261e-10,-0.0011340752930561,0.0011340807170388,-0.0013808526282584,0.001380861290772,-0.0013808544712656,0.0013808585524189,-0.0013808520885115,0.0013808607041979,-0.0013808539313748,0.0013808579656938,-0.0011751544390554,0.0011751658142418,-0.0011751617985498,0.001175159705348,-0.0011007501856959,0.0011007526339239,-0.0011007511441935,0.0011007535319261,3.2426805410118e-09,3.2426337716759e-09,-0.0011340746461316,0.0011340813639643,-3.6676923054e-10,6.5903905210052e-09,-0.0013808544504565,0.0013808596600739,-0.0013808515846058,0.00138086147209,-0.0013808537356642,0.0013808589451663,-0.0013808509485262,0.0013808608358931,-0.0011007479570192,0.0011007565870087,-0.0011007471175886,0.0011007557476325,0.67617106509292,125301,3014,0.0038031060127597,0.0047142525311189,0.0047142525311209,27.11934726247,0.00013215477809976,0.00013215477809976,0.00013215477809976,2885347.0070134,0.013320636290617
31419200,0.99997076662723,0.015549841982919,0.004647982142571,0.0054509299201769,0.0054509299201712,-0.00091577705002466,0.00091577917056817,7.9320690525e-10,7.9315936984923e-10,4.5104723014026e-10,8.861274202391e-10,-0.0011467803622155,0.0011467839924251,-0.0011467800590779,0.0011467836891261,-0.0011467799276285,0.0011467838841116,-0.0011467796286762,0.0011467835850012,-0.00099381414875005,0.00099381600136791,-0.00099381432808046,0.000993816180568,2.2292759422657e-09,2.2420520319505e-09,5.6617834993886e-09,-1.0768081935606e-09,-0.0011331020659752,0.0011331069291798,-0.0013849065002059,0.0013849146054147,-0.0013849083441373,0.0013849119574039,-0.0013849059988481,0.0013849140889709,-0.0013849078426355,0.0013849114408086,-0.001174352375099,0.0011743631948257,-0.001174359610419,0.0011743572120156,-0.001100855770899,0.0011008577849595,-0.0011008566768115,0.0011008587099379,2.9961284827138e-09,2.9960817549355e-09,-0.0011331014546192,0.0011331075405367,-5.4335820539745e-10,6.2815606474576e-09,-0.0013849082981265,0.0013849129884537,-0.0013849055268239,0.0013849148055747,-0.0013849076454538,0.0013849123356655,-0.0013849049498379,0.0013849142284714,-0.001100853600108,0.0011008616648721,-0.0011008527652936,0.0011008608301121,0.69952705654839,125301,3014,0.0038101645927703,0.0047102498085614,0.0047102498085632,28.436465403066,0.00014269172322453,0.00014269172322453,0.00014269172322453,2792224.0244281,0.013319747264296
31919200,0.99997603161359,0.015549929632978,0.0046480112484551,0.0054509591922642,0.0054509591922585,-0.00091670128506776,0.00091670454122549,1.23624214171e-09,1.2361946075151e-09,8.7399128157804e-10,1.3333002048293e-09,-0.0011487596352298,0.0011487642533314,-0.0011487592738882,0.0011487638918284,-0.0011487591404871,0.0011487640972423,-0.0011487587843489,0.001148763740946,-0.00099483715104237,0.00099483995199346,-0.00099483733087069,0.00099484013169156,2.5268107083469e-09,2.5342335210507e-09,5.9604370391406e-09,-7.670389646065e-10,-0.0011329991817165,0.0011330048527425,-0.0013859706788522,0.0013859794795377,-0.0013859724611223,0.0013859767694651,-0.0013859701012674,0.00138597887447,-0.0013859718833936,0.001385976164246,-0.001174509622653,0.001174521076012,-0.0011745168324577,0.0011745150928759,-0.0011012730780407,0.001101275736157,-0.0011012739903862,0.001101276653332,3.2949990151007e-09,3.2949522954985e-09,-0.0011329985717043,0.0011330054627556,-2.4409525473399e-10,6.577231643544e-09,-0.0013859724876914,0.0013859778643411,-0.001385969648456,0.0013859796138472,-0.0013859717444965,0.0013859771210307,-0.0013859689836002,0.0013859789488739,-0.0011012709034782,0.0011012796074543,-0.0011012700783597,0.0011012787823901,0.71926751588325,125301,3014,0.0038140093839132,0.0047098323989057,0.0047098323989076,29.268891959724,0.00014935113567779,0.00014935113567779,0.00014935113567779,2768276.8609757,0.013322805850229
32419200,0.99998035470231,0.015550008725884,0.004648037538153,0.0054509855938685,0.0054509855938628,-0.00091593688916267,0.00091594206717247,1.9858097635219e-09,1.9857622322681e-09,1.552466639651e-09,2.1286391186831e-09,-0.001148935674168,0.0011489419370714,-0.0011489352147195,0.0011489414774615,-0.0011489350536704,0.0011489417252799,-0.0011489346007835,0.0011489412722349,-0.00099408756943494,0.0009940920003331,-0.00099408774996585,0.00099409218073379,3.0603716971274e-09,2.980348164095e-09,6.5610514690192e-09,-3.5514150107298e-10,-0.0011314565971796,0.0011314636177428,-0.0013854231282359,0.0013854331805423,-0.0013854248724336,0.001385430296133,-0.0013854224467559,0.0013854323998982,-0.0013854241908098,0.0013854295153376,-0.0011731068968177,0.001173119584061,-0.0011731142642126,0.0011731133934172,-0.0011000777771477,0.001100081516448,-0.0011000787767441,0.001100082341723,3.8082889292991e-09,3.8082422178437e-09,-0.0011314559732683,0.0011314642416551,1.6965803272532e-10,7.1890960866817e-09,-0.0013854250195197,0.0013854315023854,-0.0013854219975818,0.0013854332047468,-0.0013854241235695,0.0013854306063198,-0.0013854211844792,0.0013854323915267,-0.0011000755495523,0.0011000854188701,-0.0011000747409016,0.0011000846102736,0.78912843059547,125301,3014,0.0038108443753778,0.004703444029287,0.0047034440292889,29.299099226983,0.00014959279381586,0.00014959279381586,0.00014959279381586,2749427.4065154,0.013306661187102
32919200,0.99998387676725,0.015550065044282,0.0046480562893366,0.0054510043774756,0.00545100437747,-0.00091423827237833,0.00091424385021381,2.1429042825686e-09,2.1428567892842e-09,1.6716903152437e-09,2.3218074763459e-09,-0.0011497490056058,0.0011497555818051,-0.0011497485279563,0.0011497551039941,-0.0011497483443606,0.0011497553761845,-0.001149747873227,0.0011497549048928,-0.00099232769581145,0.00099233248579568,-0.00099232787959773,0.00099233266945186,3.1914515975794e-09,3.0421901880585e-09,6.7417124125635e-09,-3.3510213179435e-10,-0.0011279943694137,0.0011280016627776,-0.0013846048848169,0.001384615233114,-0.0013846066607391,0.0013846122732888,-0.001384604199098,0.0013846144009579,-0.0013846059748764,0.0013846114409814,-0.0011699050935725,0.0011699181333982,-0.0011699126097938,0.001169911777129,-0.001097370593069,0.0010973745594042,-0.0010973716567152,0.0010973753106235,3.9100900964904e-09,3.9100433753e-09,-0.001127993741391,0.0011280022908012,1.9359958265094e-10,7.3741311254295e-09,-0.0013846068379931,0.0013846134935949,-0.0013846037404616,0.0013846152276962,-0.0013846059136282,0.0013846125691147,-0.0013846028991246,0.0013846143862417,-0.0010973683363564,0.0010973784806905,-0.0010973675330165,0.0010973776774048,0.69092321609739,125301,3014,0.0038038063782401,0.0046891044911118,0.0046891044911136,29.174655723796,0.00014859724579037,0.00014859724579037,0.00014859724579037,2701659.9122648,0.013270501443916
33419200,0.99998678725235,0.015550117477045,0.004648073773425,0.0054510218518128,0.0054510218518071,-0.0009147986328993,0.00091480356869164,1.8884382995062e-09,1.8883907626643e-09,1.4100489453256e-09,2.0784637723585e-09,-0.0011470578400531,0.0011470638779741,-0.0011470573896992,0.0011470634274589,-0.0011470571991391,0.0011470637054491,-0.001147056754729,0.0011470632608809,-0.00099310712384366,0.00099311138019301,-0.00099310730769858,0.00099311156391767,3.0431436294458e-09,2.8733049047979e-09,6.6289489372664e-09,-5.4847367563601e-10,-0.0011301452188509,0.0011301520791352,-0.0013833319016023,0.0013833419474188,-0.0013833337378437,0.001383338985611,-0.0013833312639231,0.0013833411533833,-0.0013833331000207,0.0013833381914242,-0.0011719110477267,0.0011719238277683,-0.0011719186792349,0.0011719173875064,-0.0010989010395869,0.0010989046488544,-0.0010989021364136,0.0010989053938653,3.777368573483e-09,3.7773218453223e-09,-0.0011301445653741,0.0011301527326131,1.0839278073378e-11,7.2878509815522e-09,-0.0013833338625821,0.0013833401960731,-0.0013833307652736,0.0013833419932074,-0.0013833329830127,0.0013833393163884,-0.0013833299684282,0.0013833411962447,-0.001098898748925,0.0010989086337978,-0.0010988979295865,0.0010989078145136,0.77567308772676,125301,3014,0.0038061095450983,0.004697997979514,0.004697997979516,29.316053851777,0.00014972843081422,0.00014972843081422,0.00014972843081422,2755345.1540461,0.013290808658519
33919200,0.99998926029033,0.015550161198179,0.0046480883239596,0.0054510364371126,0.005451036437107,-0.00091529729508867,0.00091530079468258,1.3335500745194e-09,1.3335025411774e-09,8.9649911209692e-10,1.5062634528325e-09,-0.0011506933900312,0.0011506981726826,-0.0011506930185857,0.0011506978010757,-0.0011506928376522,0.0011506980556268,-0.0011506924708544,0.0011506976886708,-0.00099329534486874,0.00099329840157295,-0.00099329553137771,0.00099329858795179,2.6540652116892e-09,2.5138250859151e-09,6.2128094932026e-09,-9.051662341663e-10,-0.0011286875307856,0.0011286933589717,-0.0013851026991957,0.0013851118084748,-0.0013851045939084,0.0013851089543667,-0.0013851021527047,0.0013851111373231,-0.0013851040472735,0.0013851082830637,-0.0011705595503863,0.0011705714629144,-0.001170567137754,0.0011705650909237,-0.001098151802676,0.0010981545960557,-0.0010981528594902,0.0010981553648363,3.371886856877e-09,3.371840168715e-09,-0.0011286868991446,0.0011286939906136,-3.5622683055897e-10,6.8521048881344e-09,-0.0013851046389024,0.0013851100593625,-0.0013851016576575,0.0013851119235016,-0.0013851038792621,0.0013851092996067,-0.001385100976137,0.0013851112418636,-0.001098149548445,0.0010981585457055,-0.0010981487232587,0.0010981577205732,0.76303060755973,125301,3014,0.00380819052602,0.0046919745366005,0.0046919745366025,30.069489808023,0.00015575591846419,0.00015575591846419,0.00015575591846419,2693993.8161745,0.013280756711447
34419200,0.99999140855123,0.015550197470376,0.0046481004289823,0.0054510485206998,0.0054510485206941,-0.00091773519083176,0.00091773708623158,7.0724349122623e-10,7.071959597371e-10,3.3089120308911e-10,8.395751679961e-10,-0.0011527380053683,0.0011527414180813,-0.0011527377156197,0.0011527411281713,-0.0011527375591423,0.001152741346195,-0.0011527372728983,0.0011527410597929,-0.0009957814047256,0.00099578309930656,-0.00099578159072574,0.00099578328517653,2.2115397403392e-09,2.1483222982468e-09,5.7103730030411e-09,-1.2379634388548e-09,-0.0011308132162905,0.0011308179306315,-0.0013868255716329,0.0013868336450224,-0.0013868274937125,0.001386830940009,-0.0013868251111881,0.0013868331221579,-0.0013868270331239,0.0013868304169931,-0.0011727588292716,0.0011727697111302,-0.0011727662746554,0.0011727635257917,-0.00110042671379,0.0011004286149236,-0.0011004276952477,0.0011004294657209,2.9511305174002e-09,2.951083812327e-09,-0.0011308125940592,0.0011308185528637,-6.8823635146953e-10,6.3423115028842e-09,-0.0013868274360092,0.0013868319550556,-0.0013868246109918,0.0013868338540866,-0.001386826804285,0.0013868313232162,-0.0013868240536005,0.0013868332965779,-0.0011004245043795,0.0011004325405801,-0.0011004236642451,0.0011004317004998,0.72790058071019,125301,3014,0.0038183003965795,0.0047007849675423,0.0047007849675442,31.478845339035,0.00016703076271228,0.00016703076271228,0.00016703076271228,2691038.0273292,0.013308846323846
34919200,0.99999329944338,0.015550230748786,0.0046481115349462,0.005451059606923,0.0054510596069173,-0.00092215400774287,0.00092215419231244,3.8617764547919e-11,3.8570236146938e-11,-2.5445936970563e-10,1.0969926626272e-10,-0.0011559949163189,0.0011559968691766,-0.0011559947143911,0.0011559966670872,-0.0011559945953644,0.0011559968339381,-0.0011559943958489,0.0011559966342646,-0.0010001391337432,0.0010001393632248,-0.001000139317444,0.0010001395467954,1.7250829220433e-09,1.7788495676333e-09,5.1258825939914e-09,-1.5399471351946e-09,-0.0011354812405586,0.00113548477244,-0.0013902458667974,0.0013902527867764,-0.001390247786327,0.0013902502756407,-0.001390245488017,0.0013902524348997,-0.0013902474074027,0.0013902499236127,-0.0011773019352973,0.0011773116349567,-0.0011773091287328,0.0011773057477135,-0.0011049077383604,0.0011049086935316,-0.0011049086030975,0.0011049096645288,2.4962901887541e-09,2.4962434616228e-09,-0.0011354806366043,0.0011354853763952,-9.9869830567288e-10,5.7414492611956e-09,-0.0013902476196369,0.0013902511913943,-0.0013902449958497,0.0013902530953773,-0.0013902471258444,0.0013902506974866,-0.0013902445722285,0.0013902526716387,-0.0011049056000833,0.0011049125664496,-0.0011049047459762,0.0011049117123966,0.75808686568768,125301,3014,0.0038366268734178,0.004720133376016,0.0047201333760179,33.571949136837,0.00018377559309469,0.00018377559309469,0.00018377559309469,2700674.9849588,0.01336661351527
35419200,0.99999493428558,0.01555025627057,0.0046481200549605,0.0054510681078077,0.005451068107802,-0.00092662636346401,0.00092662586475571,-2.2765125364576e-10,-2.276987461949e-10,-4.5683310265053e-10,-2.1286180442387e-10,-0.0011615510523647,0.0011615524471371,-0.0011615508856009,0.0011615522802119,-0.001161550801455,0.0011615524061705,-0.0011615506370582,0.0011615522416155,-0.0010044030723694,0.0010044026956656,-0.0010044032561842,0.0010044028793507,1.4980478223435e-09,1.6608000476048e-09,4.7983926005956e-09,-1.5698671736907e-09,-0.0011388911422928,0.0011388941944931,-0.0013947808269369,0.0013947872025679,-0.0013947826868477,0.0013947848305225,-0.0013947804591022,0.0013947869374198,-0.0013947823188689,0.0013947845652235,-0.0011807102560339,0.0011807193188082,-0.0011807171675956,0.0011807137321642,-0.0011086344386828,0.001108635010777,-0.0011086351924981,0.0011086360890194,2.2914765859338e-09,2.2914298357738e-09,-0.001138890566188,0.0011388947705988,-1.0559759722471e-09,5.386323145834e-09,-0.0013947824854746,0.0013947856966303,-0.0013947800022924,0.0013947875426043,-0.0013947820447024,0.0013947852557428,-0.0013947796299154,0.00139478717011,-0.0011086323771103,0.0011086388082482,-0.001108631520728,0.0011086379519203,0.67379056419234,125301,3014,0.0038551900291792,0.0047342831315885,0.0047342831315905,35.927798167534,0.00020262238534027,0.00020262238534027,0.00020262238534027,2669468.6280577,0.013414119638194
35919200,0.99999625665613,0.015550278438601,0.0046481274606515,0.0054510754889778,0.0054510754889721,-0.0009306712435839,0.00093067248778961,4.4513423442528e-10,4.4508668555434e-10,2.0619811678907e-10,4.4306355188909e-10,-0.0011627519669618,0.0011627548841957,-0.0011627517070207,0.0011627546240931,-0.0011627516345876,0.0011627547518763,-0.0011627513787858,0.0011627544959164,-0.001008543983162,0.0010085450380574,-0.0010085441648555,0.0010085452196207,1.9457998193019e-09,2.1453639596607e-09,5.2156896928529e-09,-1.0283755631792e-09,-0.0011442781292896,0.0011442824595547,-0.0013971739457924,0.0013971813703654,-0.0013971756737987,0.0013971789355279,-0.0013971734460324,0.0013971809832236,-0.0013971751738949,0.0013971785482348,-0.0011859111764174,0.0011859211484258,-0.0011859179476285,0.0011859156706595,-0.0011134483419522,0.0011134499240645,-0.0011134490672015,0.0011134510406228,2.7648917326614e-09,2.7648449982361e-09,-0.0011442775547342,0.0011442830341111,-5.3191162246505e-10,5.7989998609466e-09,-0.0013971755795987,0.0013971799111,-0.0013971730235414,0.0013971816145562,-0.0013971749979555,0.0013971793293415,-0.0013971725149313,0.0013971811058288,-0.0011134462912175,0.0011134537009626,-0.0011134454457125,0.0011134528555117,0.72183945217264,125301,3014,0.0038719637664899,0.0047566049464403,0.0047566049464423,37.535207538546,0.00021548166030837,0.00021548166030837,0.00021548166030837,2712274.7182241,0.013476322693313
36419200,0.99999723194604,0.015550294367552,0.0046481327735567,0.0054510807970005,0.0054510807969948,-0.00093008932887804,0.00093009466788489,2.0447144125253e-09,2.0446668730658e-09,1.6851579887861e-09,2.1081773076304e-09,-0.0011642337591236,0.0011642402189021,-0.0011642332891772,0.0011642397487942,-0.0011642331780561,0.0011642399466202,-0.0011642327155298,0.0011642394839358,-0.0010077564243498,0.0010077609310645,-0.001007756611025,0.0010077611176095,3.0485211202665e-09,3.1253916415961e-09,6.4163920391708e-09,-7.6552598873726e-11,-0.0011425966396645,0.0011426038304902,-0.0013976094332078,0.001397619454714,-0.0013976110309749,0.0013976166988014,-0.0013976086878805,0.0013976187105349,-0.0013976102855038,0.001397615954471,-0.0011842756313736,0.0011842880948081,-0.0011842825902339,0.0011842823277753,-0.0011121625985308,0.0011121664629122,-0.0011121634484268,0.0011121674487379,3.8391977665259e-09,3.8391510591587e-09,-0.0011425960514471,0.0011426044187086,4.0456834021491e-10,7.0074696220543e-09,-0.0013976111988448,0.0013976179076507,-0.0013976083020631,0.0013976194600612,-0.0013976102871696,0.0013976169958602,-0.0013976074732706,0.0013976186311513,-0.0011121604716151,0.0011121702716415,-0.0011121596604225,0.001112169460503,0.70447270805609,125301,3014,0.0038695676371426,0.0047496534076737,0.0047496534076758,37.488419657398,0.00021510735725919,0.00021510735725919,0.00021510735725919,2674994.5400129,0.013459835444343
36919200,0.99999793456355,0.015550304912838,0.0046481362975295,0.0054510843076571,0.0054510843076514,-0.0009286236216269,0.00092863042187584,2.6157522482702e-09,2.6157046998404e-09,2.1610103649697e-09,2.7548423204581e-09,-0.0011624513530379,0.0011624590512335,-0.00116245080713,0.0011624585051642,-0.0011624506494851,0.0011624587625526,-0.0011624501118075,0.0011624582247169,-0.0010064025382951,0.0010064083120938,-0.0010064027266788,0.0010064085003473,3.4902908517703e-09,3.4239953260597e-09,6.9665805858348e-09,1.4057600721392e-10,-0.0011412640170788,0.0011412722289874,-0.0013959451198822,0.0013959561885873,-0.001395946748504,0.001395953235574,-0.0013959443194203,0.0013959552846487,-0.0013959459478983,0.001395952331484,-0.0011830208175748,0.0011830343754479,-0.0011830280841843,0.0011830282662164,-0.0011108639055403,0.0011108685994985,-0.0011108649021545,0.0011108694436541,4.2482082850647e-09,4.2481615822562e-09,-0.0011412633988865,0.0011412728471808,6.4401337233354e-10,7.5865005849088e-09,-0.0013959470045999,0.0013959545370023,-0.0013959439043579,0.001395956114292,-0.0013959459751331,0.0013959535074202,-0.0013959429616799,0.0013959551714967,-0.0011108616969639,0.0011108724817445,-0.0011108608939502,0.0011108716787848,0.64727478642577,125301,3014,0.0038634859195109,0.0047441262565501,0.0047441262565521,36.862072627572,0.00021009658102058,0.00021009658102058,0.00021009658102058,2681646.7924215,0.013442462756877
37419200,0.99999847681875,0.015550313147441,0.0046481390480799,0.0054510870496836,0.0054510870496779,-0.00093090503638426,0.00093090833013525,1.2486629782325e-09,1.2486154158032e-09,8.4705294473163e-10,1.3841659981201e-09,-0.0011629310088306,0.0011629356473771,-0.0011629306435739,0.0011629352819591,-0.0011629304862825,0.0011629355130085,-0.0011629301260397,0.0011629351526076,-0.0010087270412086,0.0010087298963318,-0.0010087272275198,0.0010087300825126,2.5877595403679e-09,2.5222592287432e-09,6.0417558159344e-09,-7.9638410012336e-10,-0.0011444917006682,0.0011444974388336,-0.0013972791379928,0.0013972880735674,-0.0013972809504093,0.0013972853206903,-0.0013972785806334,0.0013972874409261,-0.001397280392906,0.0013972846878976,-0.0011860971797247,0.0011861087712085,-0.0011861045053081,0.0011861026868881,-0.0011136677720293,0.0011136705181829,-0.0011136687652076,0.0011136713712848,3.338849126304e-09,3.3388024083783e-09,-0.0011444910740448,0.0011444980654581,-2.5586474336066e-10,6.6755465808401e-09,-0.0013972809797316,0.0013972864247565,-0.0013972780980698,0.0013972882049538,-0.0013972802331139,0.0013972856780234,-0.0013972774297954,0.001397287536562,-0.0011136655864336,0.0011136744178696,-0.0011136647521157,0.0011136735836059,0.65462458225499,125301,3014,0.0038729364837323,0.004757493369645,0.0047574933696471,37.673433661107,0.00021658746928886,0.00021658746928886,0.00021658746928886,2710612.0638027,0.013479110687968
37919200,0.99999887676228,0.015550318804903,0.0046481409360758,0.0054510889344165,0.0054510889344108,-0.00093093625793431,0.00093094150909678,2.0127967314709e-09,2.0127491724238e-09,1.5600906351255e-09,2.1728070568829e-09,-0.0011636207646554,0.0011636270994947,-0.0011636202996553,0.0011636266343331,-0.0011636201279513,0.0011636268945049,-0.001163619669493,0.0011636264358884,-0.0010086536500693,0.0010086581493462,-0.0010086538363032,0.0010086583354499,3.1083581861724e-09,2.9970819910554e-09,6.6334681510334e-09,-3.6006482087606e-10,-0.0011442692400965,0.0011442763437317,-0.0013977197514373,0.001397729933448,-0.0013977215139578,0.0013977270156631,-0.0013977190725536,0.0013977291343346,-0.0013977208349302,0.0013977262163984,-0.0011858456283381,0.0011858584488673,-0.0011858530770336,0.0011858521881002,-0.0011135099700871,0.0011135137814344,-0.0011135110084182,0.0011135145831386,3.852831509848e-09,3.8527848011572e-09,-0.0011442686061634,0.0011442769776659,1.7449680033076e-10,7.2717850553111e-09,-0.00139772166528,0.0013977282336749,-0.0013977186094817,0.001397729954182,-0.0013977207606446,0.0013977273289242,-0.001397717787968,0.001397729132551,-0.0011135077274315,0.0011135177134247,-0.0011135069114023,0.0011135168974497,0.61069305856341,125301,3014,0.0038730738372944,0.0047565787452228,0.0047565787452248,37.676464297222,0.00021661171437778,0.00021661171437778,0.00021661171437778,2699262.2204195,0.013477407379217
38419200,0.99999916590823,0.015550323485038,0.0046481424970894,0.0054510904939771,0.0054510904939714,-0.00093044295794689,0.00093044940203689,2.4790147765944e-09,2.4789672123121e-09,1.9673992546562e-09,2.679873063541e-09,-0.0011618956826558,0.001161903051178,-0.001161895154786,0.0011619025231469,-0.0011618949581846,0.0011619028193213,-0.0011618944376531,0.0011619022986317,-0.0010082642849442,0.0010082698037287,-0.0010082644708677,0.0010082699895219,3.4494632673942e-09,3.2623969270262e-09,7.0650241217786e-09,-1.6394333413925e-10,-0.0011445891520196,0.0011445970867954,-0.0013967641804816,0.0013967751994122,-0.0013967659563614,0.001396772132465,-0.0013967634424125,0.0013967742819602,-0.0013967652181484,0.0013967712148617,-0.0011861047506859,0.0011861184408068,-0.0011861124157456,0.0011861119375056,-0.0011135267049981,0.0011135311643107,-0.0011135278245447,0.0011135318932292,4.1886060576366e-09,4.1885593408873e-09,-0.0011445884929644,0.0011445977458517,3.8861123689935e-10,7.7273468604753e-09,-0.001396766173428,0.0013967734342791,-0.0013967629625173,0.0013967751625364,-0.001396765170261,0.0013967724309967,-0.0013967620460831,0.0013967742459849,-0.0011135243876229,0.001113535166829,-0.0011135235776589,0.0011135343569191,0.69725492786578,125301,3014,0.0038710232716423,0.0047578981688947,0.0047578981688968,37.198313764441,0.00021278651011553,0.00021278651011553,0.00021278651011553,2723995.1843544,0.013477987202133
38880000,0.99999936782406,0.01555032687684,0.0046481436270544,0.0054510916248955,0.0054510916248898,-0.00092945231833886,0.0009294576419376,2.0460579331581e-09,2.0460104001102e-09,1.5409857050915e-09,2.2628224973848e-09,-0.0011642282120323,0.0011642345610742,-0.0011642277480039,0.0011642340968844,-0.0011642275403925,0.0011642343920499,-0.0011642270822202,0.0011642339337194,-0.0010070970564598,0.0010071016608874,-0.0010070972441614,0.0010071018484588,3.1708720428065e-09,2.9481420766693e-09,6.8238973418905e-09,-5.3419852333575e-10,-0.0011416853049919,0.0011416924314486,-0.0013973459857156,0.0013973563262468,-0.0013973478643836,0.0013973532865747,-0.0013973453401399,0.0013973554886563,-0.001397347218664,0.0013973524488328,-0.0011834241631056,0.0011834373255436,-0.001183431960729,0.0011834306976492,-0.0011114076592453,0.0011114114775126,-0.0011114088002536,0.0011114121612514,3.8757930794466e-09,3.8757463732558e-09,-0.0011416846543833,0.0011416930820581,2.2744737134481e-11,7.4801007847026e-09,-0.0013973480181558,0.0013973545027801,-0.0013973448433945,0.0013973563425243,-0.00139734711333,0.0013973535978388,-0.0013973440210804,0.0013973555200929,-0.0011114053299352,0.0011114154850437,-0.0011114045184945,0.0011114146736571,0.72416034322609,125301,3014,0.0038669281659744,0.0047458794534039,0.0047458794534059,37.193685392219,0.00021274948313775,0.00021274948313775,0.00021274948313775,2664024.2748595,0.013449522844092
