time,ASR_ext,ASR_strain,ASR_strain_xx,ASR_strain_yy,ASR_strain_zz,disp_x_101,disp_x_102,disp_x_103,disp_x_104,disp_x_105,disp_x_106,disp_x_p1_neg,disp_x_p1_pos,disp_x_p2_neg,disp_x_p2_pos,disp_x_p3_neg,disp_x_p3_pos,disp_x_p4_neg,disp_x_p4_pos,disp_x_p5_neg,disp_x_p5_pos,disp_x_p6_neg,disp_x_p6_pos,disp_y_101,disp_y_102,disp_y_103,disp_y_104,disp_y_105,disp_y_106,disp_y_p1_neg,disp_y_p1_pos,disp_y_p2_neg,disp_y_p2_pos,disp_y_p3_neg,disp_y_p3_pos,disp_y_p4_neg,disp_y_p4_pos,disp_y_p5_neg,disp_y_p5_pos,disp_y_p6_neg,disp_y_p6_pos,disp_y_p7_neg,disp_y_p7_pos,disp_y_p8_neg,disp_y_p8_pos,disp_z_101,disp_z_102,disp_z_103,disp_z_104,disp_z_105,disp_z_106,disp_z_p1_neg,disp_z_p1_pos,disp_z_p2_neg,disp_z_p2_pos,disp_z_p3_neg,disp_z_p3_pos,disp_z_p4_neg,disp_z_p4_pos,disp_z_p5_neg,disp_z_p5_pos,disp_z_p6_neg,disp_z_p6_pos,humidity,ndof,nelem,strain_xx,strain_yy,strain_zz,temp,thermal_strain_xx,thermal_strain_yy,thermal_strain_zz,vonmises,vstrain
2419200,0,0,0,0,0,0,0,0,0,0,0,0,0,0,0,0,0,0,0,0,0,0,0,0,0,0,0,0,0,0,0,0,0,0,0,0,0,0,0,0,0,0,0,0,0,0,0,0,0,0,0,0,0,0,0,0,0,0,0,0,0,0,0,0,0,0,0,0,0,0,0,0,0,0,0
2619200,0.021294718569604,0.0004365501068548,0.00014551670228493,0.00014551670228493,0.00014551670228493,-3.8847884150072e-05,3.8846727383073e-05,-5.7180676714246e-10,-5.7116791160391e-10,2.0775726992456e-09,-3.3261599566866e-09,-3.9074632878973e-05,3.9075265764124e-05,-3.9074636201459e-05,3.9075268307397e-05,-3.9076356370618e-05,3.9073464450725e-05,-3.9076363806172e-05,3.9073473714412e-05,-3.978258906286e-05,3.9779668784573e-05,-3.9782606592396e-05,3.9779687796413e-05,-3.0495628062958e-09,5.3916648224286e-09,-1.7595409413439e-11,2.2192689082805e-09,-4.0285716536708e-05,4.0287931468587e-05,-4.0352970768911e-05,4.035167304889e-05,-4.0352258518548e-05,4.0352425526186e-05,-4.0350297029547e-05,4.0354490202337e-05,-4.0349583498544e-05,4.0355244019834e-05,-4.0867790466579e-05,4.0870602652972e-05,-4.0865629565222e-05,4.0872832510883e-05,-4.0558296974506e-05,4.0553010084389e-05,-4.0550085540558e-05,4.0561481872982e-05,1.5662694463965e-11,1.1845204758449e-11,-4.0286811357839e-05,4.0286836647604e-05,-8.6477688331423e-12,3.3212641863722e-11,-4.035235437177e-05,4.0352369523196e-05,-4.0352353327579e-05,4.0352393177308e-05,-4.0352351973862e-05,4.0352363401092e-05,-4.0352359084726e-05,4.0352397817118e-05,-4.0555706917536e-05,4.0555747049588e-05,-4.0555685078735e-05,4.0555732431043e-05,0.81993057593412,131329,3014,0.000161850689852,0.00016784764393261,0.00016784764393276,32.692879965479,2.3943039723834e-05,2.3943039723834e-05,2.3943039723834e-05,416144.13147484,0.00049766986434784
2819200,0.043224502797083,0.00087827390387373,0.00028981719968049,0.00029422835202811,0.00029422835216513,-7.2330397905478e-05,7.2330951551542e-05,2.3687173128268e-10,3.1605110580787e-10,-2.8546286732741e-10,8.4961053268363e-10,-7.3183752230515e-05,7.3183897423984e-05,-7.3183727263001e-05,7.318389557808e-05,-7.3183365285037e-05,7.3184276167648e-05,-7.3183348362438e-05,7.318434056286e-05,-7.4483798823158e-05,7.4484621351582e-05,-7.4483718134513e-05,7.4484776540054e-05,-1.1957089626761e-09,1.7221918940663e-09,-3.6973453283676e-10,8.4894783876438e-10,-7.6058202206166e-05,7.6058682130479e-05,-7.6544875789044e-05,7.6543954602974e-05,-7.6544483594189e-05,7.6544372481201e-05,-7.6543937925388e-05,7.6544957834123e-05,-7.654351663237e-05,7.6545404655605e-05,-7.7342863478363e-05,7.7343090043319e-05,-7.734164825455e-05,7.7344352340188e-05,-7.6480444576825e-05,7.647842468202e-05,-7.6477569954467e-05,7.6481411838437e-05,-1.0113881656534e-11,5.8306256353744e-11,-7.6058417876088e-05,7.605846652353e-05,-4.7487608416674e-11,9.5887516801446e-11,-7.6544442703582e-05,7.6544417204263e-05,-7.6544394171895e-05,7.654447504642e-05,-7.6544435961761e-05,7.6544427273848e-05,-7.654437794138e-05,7.6544533625082e-05,-7.6479386314288e-05,7.6479586968227e-05,-7.6479432972517e-05,7.6479418938566e-05,0.82138593607454,131329,3014,0.00030133257951696,0.00031685981943539,0.00031685981956654,32.940925262192,2.5927402097538e-05,2.5927402097538e-05,2.5927402097538e-05,675308.59300412,0.00093548992526334
3019200,0.065251728947927,0.0013146232572025,0.00043004923203759,0.00044228701251301,0.00044228701265192,-0.00010422496658099,0.00010422586138708,4.1714783072526e-10,4.7154801586636e-10,-1.3007584561191e-09,2.251824351139e-09,-0.00010600044942584,0.00010600014036727,-0.0001060004374265,0.0001060001243301,-0.00010599929315249,0.00010600132842403,-0.00010599927379132,0.00010600138651548,-0.00010785922221896,0.00010786118041818,-0.00010785914101239,0.00010786132605918,1.8076818652625e-10,-8.1008878502039e-10,-4.1467035347667e-10,-1.9658456732477e-10,-0.00011100358933118,0.00011100297321657,-0.00011217621358419,0.00011217578695917,-0.00011217614259723,0.0001121758648855,-0.0001121764891259,0.0001121755049104,-0.00011217637755584,0.00011217562403642,-0.00011313254682275,0.0001131313524894,-0.00011313227391821,0.00011313164050656,-0.00011151020750017,0.00011151056387502,-0.00011151111454933,0.00011150964048998,4.3896176281358e-12,4.170635397672e-11,-0.00011100325765726,0.00011100330495476,-6.7328587187289e-11,1.1614066576363e-10,-0.0001121760106826,0.00011217598071771,-0.00011217594537976,0.00011217604357669,-0.00011217601813931,0.00011217597535025,-0.00011217593155437,0.00011217609866055,-0.00011151030329381,0.00011151050525452,-0.00011151034190895,0.00011151035472945,0.82013449158784,131329,3014,0.00043417892063528,0.00046240634546832,0.00046240634560215,32.856829089841,2.5254632718727e-05,2.5254632718727e-05,2.5254632718727e-05,910171.93905563,0.0013599165625751
3219200,0.086603868490971,0.0017250529210951,0.00056002541024158,0.000582513755359,0.00058251375549453,-0.00013282757907635,0.00013282893438826,6.0484486133114e-10,7.4113638007174e-10,-2.4867726088185e-09,3.953229498126e-09,-0.00013589164342842,0.00013589081922944,-0.0001358916090237,0.0001358908336107,-0.00013588958594854,0.00013589296997235,-0.00013588953759374,0.00013589305597324,-0.00013789202679868,0.00013789532436164,-0.00013789186289596,0.00013789554887654,8.0542097672007e-10,-1.9612624472854e-09,-5.0740433753256e-10,-5.9048949259626e-10,-0.00014313537919892,0.00014313427174242,-0.00014538136058978,0.00014538113542503,-0.00014538139352495,0.0001453811054442,-0.00014538219811077,0.00014538026078673,-0.00014538218799565,0.00014538027439315,-0.00014598963502877,0.00014598767429294,-0.0001459896611561,0.00014598765640133,-0.00014345890814895,0.00014346041530176,-0.00014346154996569,0.00014345769437786,6.6445526075965e-11,1.7919516418133e-10,-0.00014313470154212,0.00014313494946357,-3.5185356392764e-10,6.1290752936775e-10,-0.00014538128579253,0.00014538117664179,-0.00014538096830643,0.00014538149044061,-0.00014538127571421,0.00014538120196829,-0.00014538093679164,0.00014538158092468,-0.00014345930346968,0.00014346004128385,-0.00014345939590002,0.00014345979874216,0.80676032532073,131329,3014,0.00055329953621864,0.00059621657428802,0.00059621657442199,32.291021881204,2.072817504963e-05,2.072817504963e-05,2.072817504963e-05,1079579.4892914,0.0017472593929401
3419200,0.10538299432299,0.0020724026115943,0.00066862271841992,0.00070188994652044,0.00070188994665398,-0.00015400956379466,0.00015401102128496,9.2902313737057e-10,5.1341181572439e-10,-3.1227725291781e-09,4.7293671262204e-09,-0.00015857897820001,0.0001585779329221,-0.00015857909507878,0.0001585777986994,-0.00015857643801849,0.00015858058681837,-0.00015857660604633,0.00015858045454577,-0.0001601610622524,0.00016016554291388,-0.00016016153445757,0.00016016513099386,2.8992512558929e-09,-5.5678167784458e-09,-7.6515058730242e-10,-1.7502430633321e-09,-0.00016774131407672,0.00016773878339715,-0.00017136866346375,0.0001713691427641,-0.00017136894835624,0.00017136884517421,-0.0001713712535305,0.00017136640295576,-0.00017137156314703,0.00017136608190145,-0.00017101357598583,0.00017100927838628,-0.00017101456866494,0.00017100826726509,-0.00016756310131716,0.00016756855138374,-0.00016757137158358,0.00016755999865726,4.3709821440547e-10,-9.302558548516e-12,-0.00016773983303114,0.00016774026450443,-6.3168891063518e-10,1.0898186102932e-09,-0.00017136887817946,0.00017136884750215,-0.0001713682652549,0.00017136943842549,-0.00017136901764211,0.00017136871898163,-0.00017136843936133,0.00017136929630289,-0.00016756550566375,0.00016756603267689,-0.00016756499904098,0.00016756647947792,0.78590062791858,131329,3014,0.0006415067074597,0.00069867158999663,0.00069867159012494,30.39096109555,5.5276887644011e-06,5.5276887644011e-06,5.5276887644011e-06,1190092.7390756,0.00204093263774
3619200,0.12334864901604,0.0023946354308153,0.00076870323807755,0.00081296609630356,0.00081296609643421,-0.00017539400996591,0.00017539473856153,4.1033517596851e-10,3.087879000725e-10,-2.0766846936272e-09,2.9127440996671e-09,-0.00018148928369912,0.0001814884270062,-0.00018148933479742,0.00018148835618291,-0.00018148773227515,0.00018149007005233,-0.00018148776717449,0.00018149006777227,-0.00018256407574956,0.00018256646074443,-0.00018256413341032,0.00018256645844159,1.4059772112817e-09,-3.3176794470724e-09,-4.1568891604094e-10,-1.3772937111583e-09,-0.00019261823664178,0.00019261643445383,-0.00019783278491806,0.00019783282713677,-0.0001978330950715,0.00019783250006854,-0.00019783424174854,0.00019783126441008,-0.00019783450758955,0.0001978309851702,-0.00019622543799211,0.00019622295502378,-0.00019622629052387,0.00019622207877804,-0.00019170176031918,0.00019170415562849,-0.00019170627479505,0.00019169945375645,2.5180320173209e-10,1.12229180005e-10,-0.00019261715192209,0.00019261751924258,-5.6506043369604e-10,9.5873361279476e-10,-0.00019783281716154,0.00019783273095671,-0.00019783231113872,0.00019783322628677,-0.00019783290002406,0.00019783266063465,-0.00019783235386889,0.00019783320696915,-0.0001917025062999,0.00019170331620923,-0.00019170242166727,0.00019170336299823,0.77012035023565,131329,3014,0.00073054793706968,0.00080224867488757,0.00080224867503122,29.682973874355,-1.3620900516125e-07,-1.3620900516125e-07,-1.3620900516125e-07,1334626.3302745,0.0023377774465887
3819200,0.14084038208702,0.0027052698613814,0.00086472168133331,0.00092027409002779,0.00092027409002033,-0.00019630221423281,0.00019630259274853,-1.30759872758e-10,5.0496927581466e-10,-1.6025535062375e-09,2.0635659719099e-09,-0.00020388337982304,0.0002038824594527,-0.00020388326680173,0.0002038825541662,-0.00020388233899899,0.0002038835727354,-0.00020388204947585,0.00020388389381456,-0.00020461843843747,0.00020461909344935,-0.00020461754044893,0.00020462003894445,2.2443022820583e-11,-9.7431259798694e-10,-8.3457939633569e-11,-7.9568644338891e-10,-0.00021706405850909,0.00021706317536363,-0.00022395068667428,0.00022395043981435,-0.00022395099853137,0.00022395011486991,-0.00022395105655006,0.00022395002931161,-0.00022395116308537,0.00022394991303752,-0.0002210754436498,0.00022107463403501,-0.00022107583070371,0.0002210742361911,-0.00021538224230585,0.00021538176530192,-0.00021538292693503,0.00021538102841948,-1.6024054514369e-10,4.2992264711412e-10,-0.00021706348076644,0.00021706375311293,-4.5456785542949e-10,7.4971893041748e-10,-0.00022395066191688,0.00022395042900952,-0.00022395034491844,0.00022395073669768,-0.00022395058542845,0.00022395051985166,-0.00022395007538732,0.00022395104830213,-0.00021538122887599,0.00021538278242174,-0.0002153820642646,0.00021538185995324,0.77140879774092,131329,3014,0.00081759999818758,0.00090402055330975,0.00090402055332358,29.233875458316,-3.7289963334708e-06,-3.7289963334708e-06,-3.7289963334708e-06,1476719.3293306,0.0026290961590044
4019200,0.16013606917707,0.0030455572229513,0.00096934693689897,0.0010381051430405,0.0010381051430118,-0.00022240319638611,0.00022240234882071,-2.6318113909244e-10,-5.7974853308762e-10,9.2186004206586e-10,-1.7770843607706e-09,-0.00023166611221597,0.00023166628607509,-0.00023166622692871,0.00023166615042188,-0.00023166702689169,0.00023166536935054,-0.00023166711703732,0.00023166530803106,-0.00023218392989603,0.00023218240242542,-0.00023218418265611,0.00023218218788447,-1.202804495781e-09,1.1152967006545e-09,-5.905650103734e-11,-5.4977822304651e-12,-0.00024731387301488,0.00024731381186973,-0.00025614584685888,0.00025614498165416,-0.00025614583688374,0.00025614498503747,-0.00025614505744817,0.0002561457669952,-0.000256144995124,0.00025614583200782,-0.00025190014667676,0.00025190071553859,-0.00025190002637344,0.00025190085181509,-0.00024480632128045,0.00024480392825671,-0.00024480402358778,0.00024480626505229,2.0153829230528e-10,-1.7161141335971e-10,-0.00024731382710613,0.00024731385777232,-1.0894645388194e-10,1.5012956164127e-10,-0.00025614537849021,0.00025614545067577,-0.00025614530166195,0.00025614551811753,-0.00025614551816025,0.00025614530054344,-0.00025614539649152,0.00025614543712049,-0.00024480522092617,0.00024480504856247,-0.00024480492102653,0.00024480533639157,0.77300335552553,131329,3014,0.00092626075671084,0.0010299401359128,0.0010299401358999,30.536627490043,6.6930199203458e-06,6.6930199203458e-06,6.6930199203458e-06,1652266.1385955,0.0029906108797793
4219200,0.18124633520717,0.0034151818596619,0.0010820026165548,0.0011665896215707,0.0011665896215364,-0.00025023129395347,0.0002502298390443,-3.090838586047e-10,-1.1373534567944e-09,1.7130465247222e-09,-3.2373971817751e-09,-0.00026145068871921,0.00026145114749382,-0.00026145093071615,0.00026145088289091,-0.00026145228099894,0.00026144952071872,-0.00026145259440896,0.00026144923278434,-0.00026174914843664,0.00026174691105279,-0.00026175003971564,0.00026174605049289,-1.613761308576e-09,1.9659725752642e-09,-1.1237668957612e-10,4.6243761221285e-10,-0.00027994241480535,0.00027994277278054,-0.00029107567253642,0.00029107461825089,-0.00029107544856445,0.0002910748458259,-0.00029107446796926,0.00029107585948486,-0.00029107429230192,0.00029107604334485,-0.00028527009370317,0.00028527111643161,-0.00028526961130783,0.00028527161911992,-0.00027652992634091,0.00027652705504842,-0.0002765265665689,0.00027653051439745,3.6903398457391e-10,-5.2450937545156e-10,-0.00027994267180108,0.00027994251577546,9.551855626779e-11,-2.5214640118141e-10,-0.00029107505100602,0.00029107527397264,-0.00029107512749213,0.00029107518918214,-0.00029107531030774,0.00029107498440781,-0.00029107544517741,0.00029107486596757,-0.00027652910701631,0.00027652789315016,-0.00027652818121333,0.00027652886992946,0.77489565203608,131329,3014,0.0010421016547187,0.0011657423588021,0.0011657423587826,31.77976561104,1.6638124888317e-05,1.6638124888317e-05,1.6638124888317e-05,1828569.0679874,0.003379292858718
4419200,0.20268611397447,0.0037876180837731,0.0011944568696839,0.0012965806070659,0.0012965806070233,-0.00027607714462955,0.00027607634664744,-3.9211198974787e-10,-4.027566711631e-10,6.3889360282722e-12,-8.4875558276132e-10,-0.00028944501250578,0.00028944457001069,-0.00028944504271153,0.00028944451920422,-0.00028944531932955,0.00028944424438014,-0.0002894453201722,0.00028944426985155,-0.0002894580901548,0.00028945693420193,-0.00028945804088212,0.0002894570131783,-6.5195709039223e-10,9.4570028201106e-10,-1.5502952220474e-10,4.523098130814e-10,-0.00031090439792848,0.00031090470286961,-0.00032455997051875,0.00032455959066465,-0.00032455979123173,0.0003245597791838,-0.00032455949889397,0.00032456009762238,-0.00032455926910789,0.0003245603381968,-0.00031709183987069,0.00031709196247079,-0.00031709117779432,0.00031709264717216,-0.00030656596845241,0.00030656486737427,-0.00030656440987165,0.0003065665074727,-2.1170759703706e-11,-1.0433987200324e-10,-0.00031090461354038,0.00031090448724812,-7.7092653614998e-11,-4.9556647438732e-11,-0.00032455983327411,0.00032455976059796,-0.00032455983660253,0.00032455974911001,-0.00032455988931414,0.00032455967627366,-0.00032455985725554,0.00032455973204773,-0.00030656548900698,0.00030656536909845,-0.00030656548688722,0.00030656539470459,0.77613010091595,131329,3014,0.0011496837848625,0.0012945896860886,0.0012945896860687,31.980771609605,1.8246172876839e-05,1.8246172876839e-05,1.8246172876839e-05,1978252.4326838,0.003745874384299
4619200,0.22566517441684,0.0041838665215483,0.0013132099118901,0.0014353283048446,0.0014353283048135,-0.00030489573463986,0.00030489578324012,-1.1824572083616e-09,1.2310483684938e-09,-1.1346046485186e-09,1.1854196007155e-09,-0.0003207562504142,0.00032075489632411,-0.00032075558007935,0.00032075555005317,-0.00032075563106104,0.00032075551438353,-0.00032075471834327,0.00032075646264195,-0.0003204100118562,0.00032040806175915,-0.00032040727635898,0.0003204108554456,-2.0423726421675e-09,2.6449468947964e-09,-4.9544680289235e-10,1.0761453636966e-09,-0.00034548236641912,0.00034548295485507,-0.00036198162954314,0.00036198030188034,-0.00036198124448623,0.00036198070382273,-0.00036198026743492,0.00036198172892822,-0.00036197961749709,0.00036198240824828,-0.00035273487751989,0.00035273504768237,-0.00035273295989681,0.00035273702408226,-0.00034018166666794,0.00034017781914513,-0.00034017678199241,0.00034018286643759,-1.1459240515421e-09,1.1846869419654e-09,-0.00034548264176049,0.00034548267951267,-3.3675598270353e-10,3.8153467028948e-10,-0.00036198140341019,0.00036198056840759,-0.00036198128467293,0.00036198067668295,-0.00036198077294851,0.00036198118542304,-0.00036198041372979,0.00036198159559309,-0.00034017832590202,0.00034018128925085,-0.00034018094326024,0.00034017855544225,0.77694609378949,131329,3014,0.0012696283621984,0.0014384654113933,0.0014384654113911,33.01191955734,2.6495356458719e-05,2.6495356458719e-05,2.6495356458719e-05,2142757.1553285,0.0041551856803857
4819200,0.25093617268139,0.004616024136813,0.0014416715495158,0.0015871762936538,0.0015871762936434,-0.00033679893001438,0.00033679883164578,-3.8339267207292e-10,2.8623938534797e-10,3.5102297641549e-10,-4.5123346771554e-10,-0.00035567961851582,0.00035567955114706,-0.00035567940555062,0.00035567974383199,-0.00035567988800406,0.00035567925201979,-0.00035567959703127,0.00035567957650943,-0.0003547635920712,0.00035476236781932,-0.00035476279368831,0.00035476325090639,-1.6817091107515e-09,2.378578179459e-09,-3.8690776994725e-10,1.0492797151909e-09,-0.00038398736950375,0.00038398804036583,-0.00040379150521205,0.00040379034383811,-0.00040379104868979,0.0004037907910696,-0.00040379018192339,0.00040379167114996,-0.00040378964116568,0.00040379225363505,-0.0003925388437463,0.00039253924031541,-0.00039253729271174,0.00039254085527526,-0.00037766762892005,0.00037766469439431,-0.00037766359302629,0.00037766883993117,-3.0187057064951e-10,2.6402045829741e-10,-0.00038398772466877,0.00038398768520955,6.7579885370597e-11,-1.0317079792353e-10,-0.00040379101901396,0.00040379084793141,-0.00040379108793203,0.00040379075564009,-0.00040379084520373,0.000403790986642,-0.0004037908467619,0.00040379104655455,-0.00037766591076995,0.00037766650524701,-0.00037766656232506,0.00037766576775847,0.7779312316816,131329,3014,0.001402395229335,0.0015986555731319,0.00159865557315,34.499595615789,3.839676492631e-05,3.839676492631e-05,3.839676492631e-05,2316822.9586399,0.0046103253227379
5019200,0.27826290460341,0.0050775997382352,0.001577754134577,0.0017499228018325,0.0017499228018257,-0.00037014029258021,0.00037013973416618,6.3393242634364e-10,-1.1917289487192e-09,1.2468557691915e-09,-1.842240145034e-09,-0.00039262097721984,0.00039262193288955,-0.00039262147729449,0.00039262140880065,-0.0003926218737169,0.00039262099469201,-0.00039262254608955,0.00039262034771098,-0.0003908056662641,0.00039080605492768,-0.00039080768412348,0.00039080409482002,-6.7615176577051e-10,1.2299075874597e-09,-1.7977320729342e-10,7.0442422020866e-10,-0.00042468018206032,0.00042468071600938,-0.00044831924039122,0.00044831869534232,-0.00044831883939031,0.00044831909527169,-0.00044831847912394,0.00044831944621787,-0.00044831824636463,0.00044831970028365,-0.00043468367743063,0.00043468417314999,-0.00043468304149199,0.00043468483104269,-0.00041725477562201,0.0004172540280997,-0.00041725319960922,0.00041725563196451,8.6260438293998e-10,-1.0849515859738e-09,-0.00042468056092921,0.00042468033715525,3.9949937234781e-10,-6.3204562299154e-10,-0.00044831865512753,0.000448319291162,-0.00044831888647903,0.00044831905273765,-0.00044831918015335,0.00044831872898605,-0.00044831959080635,0.00044831835587099,-0.00041725576257441,0.00041725304126465,-0.00041725361688492,0.00041725520680247,0.77678229388838,131329,3014,0.0015411323327774,0.0017679180192637,0.0017679180192944,35.809440174085,4.8875521392681e-05,4.8875521392681e-05,4.8875521392681e-05,2485288.5752379,0.0050899106525173
5219200,0.30701437900646,0.0055590967964284,0.0017188022117197,0.0019201472923434,0.0019201472923653,-0.00040397770973537,0.00040397722192917,3.4251826058167e-10,-8.3262773867648e-10,4.2217456507742e-10,-9.5323272389461e-10,-0.00043052824055378,0.00043052859368383,-0.00043052860052218,0.00043052821085222,-0.00043052863741516,0.00043052816092619,-0.00043052909150267,0.00043052772988458,-0.00042759052737507,0.00042759085563756,-0.00042759180684256,0.0004275896024559,-3.4415945336896e-10,7.7404122388995e-10,-2.0454782873411e-10,6.0989539346117e-10,-0.000466387980484,0.00046638839490133,-0.00049432370386955,0.00049432341311491,-0.00049432339321073,0.00049432375623885,-0.0004943232933026,0.00049432385202212,-0.00049432305808022,0.00049432408443972,-0.00047803472335088,0.00047803483548218,-0.00047803404950305,0.00047803549510989,-0.00045785375006647,0.00045785355112033,-0.00045785283526755,0.00045785445928763,5.2872193609896e-10,-7.7330740184264e-10,-0.00046638831044732,0.00046638806496048,2.1653610232365e-10,-4.7640576019722e-10,-0.00049432338150488,0.00049432375823268,-0.00049432355864073,0.00049432359538075,-0.00049432377189249,0.00049432334974954,-0.00049432404300672,0.00049432309486206,-0.00045785458251414,0.00045785268332243,-0.0004578531698597,0.00045785414960568,0.77856400245843,131329,3014,0.00168192126004,0.0019413709467471,0.0019413709467938,36.762265301148,5.6498122409186e-05,5.6498122409186e-05,5.6498122409186e-05,2653080.9303506,0.0055802185784535
5419200,0.3368690294717,0.0060477229684294,0.0018611305412853,0.002093296213557,0.0020932962135871,-0.00043785369148859,0.00043785344302935,5.7781379799392e-10,-8.3085584942412e-10,-3.5868275645859e-11,-2.4297406022101e-10,-0.00046901879193708,0.00046901904401154,-0.000469019198264,0.000469018616222,-0.00046901877543388,0.00046901903117371,-0.00046901934237618,0.00046901848660409,-0.00046433416678098,0.00046433543478888,-0.00046433576701573,0.00046433386426055,1.3795254861596e-10,1.238397838559e-10,-1.9491022969498e-10,4.3949906370987e-10,-0.00050847639713059,0.00050847664902616,-0.00054124705456882,0.00054124702094418,-0.0005412467772465,0.00054124732261484,-0.00054124699327498,0.00054124709188926,-0.00054124684577888,0.00054124724448177,-0.00052165541186125,0.00052165522050294,-0.00052165499139373,0.00052165564636814,-0.00049870614336041,0.00049870689642358,-0.00049870640319344,0.00049870662132469,6.8318766255646e-10,-8.5778960227823e-10,-0.00050847661073667,0.00050847643545466,7.9701208734253e-11,-2.6784436069305e-10,-0.00054124684632044,0.00054124724396649,-0.00054124688279943,0.00054124721609684,-0.00054124730096919,0.00054124676907229,-0.00054124748280366,0.00054124660777441,-0.00049870751076815,0.00049870549586567,-0.00049870579300507,0.00049870725501366,0.76958753835904,131329,3014,0.0018228588255527,0.0021163740169187,0.0021163740169906,37.573612786245,6.2988902289956e-05,6.2988902289956e-05,6.2988902289956e-05,2799237.6265561,0.0060740367204712
5619200,0.36656703191042,0.0065064108227919,0.0019939617572897,0.0022562245327357,0.0022562245327664,-0.00046827919096463,0.00046827908892036,1.2100865282901e-09,-1.3192474046327e-09,-2.332806559508e-10,1.1345917019435e-10,-0.00050445765523287,0.00050445820092212,-0.00050445839331538,0.00050445744038342,-0.00050445741410693,0.00050445842101327,-0.00050445840802923,0.00050445744365526,-0.00049680749807935,0.00049681034168091,-0.00049681034702226,0.00049680751248562,1.3114030581381e-09,-1.253492760856e-09,2.068415568861e-10,-1.5292084695874e-10,-0.00054709812228282,0.00054709818225023,-0.00058523565953445,0.00058523655272881,-0.00058523565360282,0.00058523657564606,-0.00058523637516439,0.00058523581952104,-0.00058523659676118,0.00058523558767431,-0.00056113970375034,0.00056113958240349,-0.00056114038892624,0.00056113888019664,-0.00053552135777911,0.00053552423629984,-0.00053552422964033,0.00053552126339428,1.2608732784221e-09,-1.4103397029431e-09,-0.00054709822708805,0.0005470980774685,2.0433134345007e-10,-3.6764502684385e-10,-0.00058523568992062,0.00058523651759665,-0.00058523574916926,0.00058523646990661,-0.00058523647736697,0.00058523571047609,-0.00058523678057808,0.0005852354245956,-0.00053552441661808,0.00053552108766011,-0.00053552144955829,0.00053552412245718,0.73637637930773,131329,3014,0.0019494345489109,0.0022769327445545,0.0022769327446033,37.74142354998,6.4331388399838e-05,6.4331388399838e-05,6.4331388399838e-05,2920948.3361796,0.0065245634781722
5819200,0.39373251434971,0.0069063438642085,0.0021094150910658,0.0023984643865552,0.0023984643865874,-0.00049210608818293,0.0004921060770944,2.338230967796e-09,-2.3588567125907e-09,-6.5284632772811e-10,6.3640127180446e-10,-0.00053292478563683,0.000532925830881,-0.00053292622800551,0.00053292436215237,-0.00053292421778278,0.00053292638686301,-0.00053292598917348,0.0005329246250527,-0.00052205895265878,0.00052206449121854,-0.00052206406672413,0.0005220593323833,3.3528675367169e-09,-3.6073691917343e-09,1.0433283118324e-09,-1.2800938225375e-09,-0.00057843383886906,0.0005784336072641,-0.00062179322251615,0.0006217959265441,-0.00062179383944216,0.00062179532552745,-0.0006217953570947,0.00062179374745902,-0.00062179627433235,0.00062179279433848,-0.00059284123812993,0.00059284143960914,-0.00059284394417165,0.00059283861857804,-0.00056472399784802,0.00056473040621337,-0.00056473126210944,0.00056472286728568,2.3253075699205e-09,-2.5205284746441e-09,-0.0005784338201334,0.00057843362601239,4.9699522532819e-10,-7.116963611794e-10,-0.00062179370091704,0.0006217954207867,-0.00062179395112217,0.00062179519523137,-0.00062179519882582,0.00062179390989062,-0.00062179576325983,0.00062179334628999,-0.00056473002615616,0.00056472414037202,-0.00056472481278058,0.00056472953666657,0.7131819340772,131329,3014,0.0020485608237382,0.0024071785646314,0.0024071785646575,36.55566855497,5.4845348439758e-05,5.4845348439758e-05,5.4845348439758e-05,3033810.4619255,0.0068866058158533
6019200,0.41935104700298,0.0072734062923914,0.0022152924237677,0.0025290569342888,0.0025290569343348,-0.00051462864759578,0.00051462868033011,2.6193963209757e-09,-2.5990133115303e-09,-1.019073254394e-09,1.0508395012804e-09,-0.00055994094778227,0.00055994205117987,-0.00055994258929124,0.00055994036600441,-0.00055994013982127,0.00055994283912327,-0.00055994220492387,0.00055994079941222,-0.00054581462457575,0.0005458212155798,-0.00054582043142433,0.0005458152892618,3.8898934148817e-09,-4.441314576199e-09,1.3162721888449e-09,-1.8372961903188e-09,-0.00060824132111945,0.00060824080406759,-0.00065655859172625,0.00065656180300819,-0.00065655949268641,0.00065656093666496,-0.00065656120077957,0.00065655915982471,-0.00065656247599527,0.00065655782825946,-0.00062276208621884,0.00062276258473053,-0.00062276567318563,0.00062275866645432,-0.00059248861411509,0.0005924960417308,-0.00059249734041305,0.00059248681049182,2.5648132953026e-09,-2.7972789120788e-09,-0.00060824117760409,0.00060824094761498,3.1054933832794e-10,-5.6409642253562e-10,-0.00065655927073569,0.00065656109517785,-0.00065655941285844,0.0006565609886618,-0.00065656098011694,0.00065655938804823,-0.00065656151625229,0.00065655883620502,-0.00059249538625199,0.00059248883252771,-0.00059248950130522,0.00059249506877961,0.70262235396136,131329,3014,0.002142260028947,0.0025310531575768,0.0025310531576432,35.891298163918,4.9530385311342e-05,4.9530385311342e-05,4.9530385311342e-05,3123846.1772254,0.0072304788924992
6219200,0.44428745837379,0.0076315614877443,0.0023184045631257,0.0026565784622878,0.0026565784623308,-0.0005374124920701,0.00053741253085501,2.42494144088e-09,-2.3984030419628e-09,-1.043937377665e-09,1.0851686213435e-09,-0.00058733474099851,0.00058733577679739,-0.00058733624942488,0.00058733413714722,-0.00058733390628735,0.000587336512181,-0.0005873359408563,0.00058733459250432,-0.0005700417721998,0.00057004818096728,-0.00057004737905967,0.00057004243630738,3.5449786712446e-09,-4.3208196233842e-09,1.3491089547199e-09,-2.0894612191123e-09,-0.00063852668420504,0.00063852594696474,-0.00069185780506278,0.00069186077878594,-0.00069185874792937,0.00069185977570969,-0.00069186023210614,0.00069185822051736,-0.00069186169412269,0.0006918567977215,-0.00065332748297116,0.00065332836830039,-0.00065333138683075,0.00065332398767273,-0.00062087202676774,0.00062087887037173,-0.00062088046577076,0.00062086991035138,2.3761428032625e-09,-2.5830069675278e-09,-0.00063852641753672,0.00063852621366297,-2.838339258331e-11,-1.9577474270129e-10,-0.00069185850313674,0.00069186004206021,-0.00069185836438794,0.00069186013860288,-0.00069186008073148,0.00069185839039341,-0.00069186046279681,0.00069185806899254,-0.00062087826444455,0.00062087218686107,-0.00062087257795068,0.00062087822506808,0.7074629673582,131329,3014,0.0022370430474469,0.0026568966849314,0.0026568966849935,35.771163255434,4.8569306043474e-05,4.8569306043474e-05,4.8569306043474e-05,3175407.0700349,0.0075795322426069
6419200,0.46896441629596,0.0079829042470357,0.0024187592116139,0.0027820725176947,0.0027820725177271,-0.00056006266826908,0.00056006267158793,2.4771413645905e-09,-2.4845409361563e-09,-6.421706765384e-10,6.4774775004499e-10,-0.00061480198066239,0.00061480343059193,-0.00061480362783802,0.00061480161733618,-0.00061480152266855,0.00061480376147785,-0.00061480354389193,0.00061480189073164,-0.00059409722235595,0.00059410326968916,-0.00059410279893229,0.00059409756027482,3.0340687373901e-09,-3.963824674219e-09,1.5306908587407e-09,-2.4238701770207e-09,-0.00066904750231522,0.00066904661267579,-0.0007275977460278,0.00072760057037756,-0.0007275989138438,0.00072759925380089,-0.00072759995103858,0.00072759815026132,-0.00072760154741031,0.00072759667538892,-0.0006841151623599,0.0006841164899059,-0.00068411932272151,0.00068411179018867,-0.0006493511063987,0.00064935655909517,-0.0006493585043736,0.00064934868573507,2.4641372172406e-09,-2.6316622989644e-09,-0.00066904713981826,0.00066904697518824,-1.7217366422745e-10,-9.2096299315391e-12,-0.00072759831636028,0.00072759995255973,-0.00072759813163753,0.00072760002716771,-0.00072760001916657,0.00072759810586514,-0.00072760024763443,0.00072759800689774,-0.000649356561555,0.00064935069851258,-0.00064935092141773,0.00064935665208301,0.70211760924336,131329,3014,0.0023312676218156,0.0027837010877624,0.0027837010877946,35.957434207624,5.0059473660996e-05,5.0059473660996e-05,5.0059473660996e-05,3224577.7176903,0.0079300827606133
6619200,0.49417443181923,0.008364715661839,0.0025278123387468,0.0029184516615351,0.0029184516615571,-0.00058526181219064,0.00058526174015557,2.3013102902268e-09,-2.3827898065835e-09,1.8010944278016e-11,-9.4167916852427e-11,-0.00064481359076122,0.0006448153729638,-0.00064481515917703,0.00064481363239583,-0.00064481360980587,0.00064481522396288,-0.00064481556681908,0.0006448134252473,-0.00062167037007594,0.00062167559619581,-0.00062167570602753,0.00062167014116905,2.174407742282e-09,-3.1800049888613e-09,1.5927089066269e-09,-2.5646410696055e-09,-0.00070279871741143,0.00070279774900102,-0.00076654359630674,0.00076654589017591,-0.00076654482897195,0.00076654447390828,-0.00076654525787831,0.00076654398744149,-0.00076654694496111,0.00076654245360374,-0.00071905669820976,0.00071905868198011,-0.00071906103836953,0.00071905378972869,-0.00068132974414445,0.00068133342542343,-0.0006813355557395,0.00068132720876283,2.3440097587873e-09,-2.473209450649e-09,-0.00070279829610576,0.00070279817032696,-3.9088073624417e-10,2.5102134114681e-10,-0.00076654399081628,0.00076654544833916,-0.00076654364806379,0.00076654565358472,-0.00076654561099979,0.00076654365664232,-0.00076654570106499,0.00076654372281978,-0.00068133411031397,0.00068132871610907,-0.00068132871732951,0.00068133436900258,0.74071517970132,131329,3014,0.0024360887965305,0.0029239070198044,0.0029239070198465,36.729526549775,5.6236212398201e-05,5.6236212398201e-05,5.6236212398201e-05,3260458.4089767,0.0083184692165847
6819200,0.52081030099524,0.0088017459672454,0.0026523084756523,0.0030747187457872,0.003074718745806,-0.00061479486684138,0.00061479472723045,1.9706811278678e-09,-2.1187325709096e-09,9.2945604890277e-10,-1.083272060841e-09,-0.00067880473165986,0.00067880687604332,-0.00067880608733655,0.00067880535243171,-0.00067880536654327,0.00067880611343356,-0.00067880716172442,0.00067880447470409,-0.00065499910164583,0.00065500305070278,-0.00065500393286737,0.00065499813082625,1.0941224042994e-09,-2.0952082066345e-09,1.546047188827e-09,-2.52089404854e-09,-0.00074164111767006,0.0007416401470064,-0.00081031932741478,0.00081032084865713,-0.00081032051118688,0.00081031948724288,-0.0008103202550821,0.00081031969346306,-0.00081032193135881,0.00081031816397063,-0.00076039117557204,0.00076039383456968,-0.00076039549771831,0.00076038899409055,-0.00071878089182195,0.00071878250685904,-0.00071878469029549,0.00071877843767891,2.0719600127497e-09,-2.1555880906164e-09,-0.00074164067219076,0.0007416405925048,-6.6433587639205e-10,5.7418113707216e-10,-0.00081031952132261,0.00081032061237361,-0.00081031896001786,0.00081032104006263,-0.00081032092923217,0.00081031903638831,-0.00081032084112741,0.0008103192768209,-0.00071878389930026,0.00071877926785737,-0.00071877899470005,0.00071878434305538,0.79222279159388,131329,3014,0.0025589248674698,0.0030852366963216,0.0030852366963614,38.161114120944,6.7688912967554e-05,6.7688912967554e-05,6.7688912967554e-05,3345591.9853746,0.0087677991395506
7019200,0.5492147499025,0.0092308115050125,0.0027716811940283,0.0032295651554859,0.0032295651554983,-0.00064451328437264,0.00064451306783599,2.3041996559881e-09,-2.5277362686274e-09,1.9274341387689e-09,-2.1702153103237e-09,-0.00071380831830039,0.00071381134251042,-0.00071380992742999,0.00071380955093129,-0.00071380966367338,0.00071380985239028,-0.00071381167849704,0.00071380800827651,-0.00068753611423024,0.00068753990847622,-0.00068754158808769,0.00068753435947294,1.5777139206463e-10,-1.089950844533e-09,1.8747954537293e-09,-2.7897633793651e-09,-0.00078171521880803,0.00078171430895619,-0.00085616559309913,0.00085616674340955,-0.00085616698307475,0.00085616515543266,-0.00085616589025285,0.00085616620840724,-0.00085616774593147,0.00085616451456952,-0.00080183332632236,0.00080183718680306,-0.00080183816228703,0.00080183186090192,-0.00075665366887598,0.00075665317368087,-0.00075665554367643,0.0007566511286715,2.4612229141235e-09,-2.5118782989893e-09,-0.00078171478712774,0.00078171474065028,-5.2889685028486e-10,4.7301053724983e-10,-0.00085616541860747,0.00085616687380933,-0.00085616495043667,0.00085616720064634,-0.0008561670784931,0.00085616503582927,-0.00085616704716928,0.00085616522808367,-0.0007566560053311,0.00075665067190743,-0.00075665042992325,0.00075665638555824,0.73336568042436,131329,3014,0.0026825311583344,0.0032516515191629,0.0032516515191917,39.888248502715,8.1505988021723e-05,8.1505988021723e-05,8.1505988021723e-05,3374856.1808374,0.0092283744739574
7219200,0.57782276307409,0.0096449843267099,0.0028854986220548,0.0033797428523259,0.0033797428523293,-0.00067162391821215,0.00067162364673423,1.9084436877671e-09,-2.1858693762498e-09,2.258894689259e-09,-2.5650821939997e-09,-0.00074623411054922,0.00074623708289885,-0.00074623547009491,0.00074623552732157,-0.00074623567304003,0.00074623535972255,-0.00074623749237887,0.00074623372611229,-0.00071692677266818,0.0007169296556889,-0.00071693163374734,0.00071692471525725,-3.1068890629502e-10,-5.3609988290995e-10,1.7968378079942e-09,-2.6324724650911e-09,-0.00081933619083136,0.0008193353600365,-0.00089980247936997,0.00089980328693994,-0.00089980377724232,0.0008998017757923,-0.00089980241628672,0.00089980310482006,-0.00089980423634603,0.00089980146107277,-0.00084030991600641,0.00084031406004207,-0.00084031457842925,0.00084030886623856,-0.00079162142785762,0.00079162016118382,-0.000791622351058,0.00079161904061623,2.1166699161576e-09,-2.1218453978149e-09,-0.00081933577565447,0.00081933577522107,-7.8504206775371e-10,7.7747480904591e-10,-0.00089980232326267,0.00089980340531476,-0.00089980165272736,0.00089980391520204,-0.00089980372588577,0.00089980180395871,-0.00089980355331574,0.00089980215716675,-0.00079162293796678,0.000791618479373,-0.00079161799480311,0.00079162355224505,0.70719547587591,131329,3014,0.0027952932384314,0.0034078500593958,0.0034078500594119,40.740576072142,8.8324608577136e-05,8.8324608577136e-05,8.8324608577136e-05,3417130.5154858,0.0096575816961038
7419200,0.6059736419102,0.010036754778196,0.0029922775801699,0.0035222385990112,0.0035222385990145,-0.00069664808404071,0.00069664777203466,1.8867739891733e-09,-2.2039304744368e-09,2.3533287087175e-09,-2.7054705667901e-09,-0.0007764683122912,0.00077647130832042,-0.00077646965194825,0.00077646975270647,-0.00077646994868254,0.00077646949026085,-0.00077647174783368,0.00077646789725515,-0.00074376197185933,0.00074376472652603,-0.00074376682486479,0.00074375980215016,-4.0508313729267e-10,-3.6923256682721e-10,1.886263834555e-09,-2.6530604594748e-09,-0.00085470190397558,0.00085470114251972,-0.00094125726985747,0.00094125810096049,-0.00094125857600593,0.00094125652053201,-0.0009412571064491,0.00094125796654194,-0.00094125897363924,0.00094125633181173,-0.00087607060255223,0.00087607499815652,-0.00087607531693968,0.00087606971574141,-0.00082402416007725,0.00082402266726761,-0.00082402484632646,0.00082402183898054,2.1420626348686e-09,-2.0964549385054e-09,-0.00085470149806195,0.00085470154844002,-8.0664921108207e-10,8.5249259489228e-10,-0.00094125711569497,0.00094125820908603,-0.00094125639737342,0.00094125872946224,-0.00094125850015057,0.00094125658674906,-0.00094125829807284,0.00094125700818191,-0.00082402552051917,0.00082402116429106,-0.00082402059323082,0.0008240262194588,0.68502083762265,131329,3014,0.0028993775930964,0.0035546590835616,0.0035546590835756,41.272208450808,9.2577667606462e-05,9.2577667606462e-05,9.2577667606462e-05,3472281.4610885,0.010059238997625
7619200,0.63247794002355,0.010396093057203,0.0030898140242497,0.0036531395164738,0.0036531395164794,-0.00071817056519249,0.00071817024434046,1.8038800398501e-09,-2.1298913541929e-09,2.0146641079827e-09,-2.3772366318762e-09,-0.00080328764094024,0.00080329033535978,-0.00080328891555345,0.00080328885583448,-0.0008032890428961,0.00080328876281419,-0.00080329079785535,0.00080328720318894,-0.00076676525586288,0.00076676816022993,-0.00076677002108755,0.00076676332056105,-1.0805146462645e-10,-6.3925415045796e-10,1.8901252546143e-09,-2.629051979814e-09,-0.00088598311750974,0.00088598238331213,-0.00097842263492528,0.00097842366626123,-0.0009784239264321,0.00097842210795884,-0.00097842265213575,0.00097842336329366,-0.00097842453042132,0.00097842170655167,-0.00090740562612881,0.00090740989218878,-0.00090741036924203,0.00090740458452946,-0.00085235300271521,0.00085235216785725,-0.00085235429373685,0.00085235071393953,2.0889575026646e-09,-1.9979500391154e-09,-0.00088598270238294,0.00088598279845601,-8.5683595957312e-10,9.498469363281e-10,-0.00097842261544822,0.00097842364199461,-0.0009784218400853,0.00097842422525371,-0.000978423933696,0.00097842209174314,-0.0009784237036002,0.00097842253520674,-0.0008523545820283,0.00085235042354457,-0.0008523497629831,0.00085235539756514,0.67223853611199,131329,3014,0.0029889011566196,0.0036844921270832,0.0036844921271188,41.070865262047,9.096692209638e-05,9.096692209638e-05,9.096692209638e-05,3510787.8282488,0.010412037973015
7819200,0.65751711507205,0.010731199604057,0.0031806775855816,0.0037752610092335,0.0037752610092415,-0.00073821044527088,0.00073821012742864,1.7599204065514e-09,-2.0834204424944e-09,1.6880468233577e-09,-2.0483130045908e-09,-0.00082873503105971,0.00082873746004629,-0.00082873626043745,0.00082873603306901,-0.00082873620314302,0.00082873612518498,-0.00082873793107138,0.0008287345853864,-0.00078818075571307,0.00078818383801025,-0.0007881854601471,0.00078817905768864,1.8689402704753e-10,-9.3904829316041e-10,1.8656699661597e-09,-2.6079706992947e-09,-0.00091554770392333,0.00091554696659386,-0.0010139011090784,0.0010139023073971,-0.0010139023825068,0.0010139007890545,-0.0010139013189003,0.0010139018384377,-0.0010139031935654,0.0010139001581939,-0.0009369658380354,0.00093696989400023,-0.00093697058944056,0.00093696459759218,-0.00087901638796102,0.00087901619032328,-0.00087901829759556,0.00087901410566136,2.0653584371292e-09,-1.9361474692885e-09,-0.00091554726819585,0.00091554740232856,-8.6335000651463e-10,9.9634705717838e-10,-0.0010139011879288,0.0010139021875664,-0.0010139003913748,0.0010139028102823,-0.0010139024622698,0.0010139006997669,-0.0010139022315849,0.001013901125382,-0.00087901822333192,0.0008790141739466,-0.0008790134642495,0.00087901910451101,0.66655684126112,131329,3014,0.0030722569421127,0.0038071852285035,0.0038071852285187,40.972025890998,9.0176207127988e-05,9.0176207127988e-05,9.0176207127988e-05,3523015.8966408,0.010744294893514
8019200,0.68125103540495,0.011045590613874,0.0032655476121542,0.0038900215008555,0.0038900215008644,-0.00075704043754323,0.00075704012757056,1.7204647687176e-09,-2.0364708580073e-09,1.3978968066827e-09,-1.7499941568798e-09,-0.00085289562200956,0.00085289781519847,-0.00085289680472549,0.00085289644104361,-0.00085289658285931,0.00085289669832526,-0.00085289829697737,0.00085289516625823,-0.00080832106941675,0.00080832431722037,-0.00080832572004585,0.00080831959062261,4.4172505550442e-10,-1.2184681122348e-09,1.8067220528263e-09,-2.5713785787852e-09,-0.00094361133722081,0.0009436105775202,-0.0010477139268292,0.0010477152300277,-0.001047715156418,0.0010477137686644,-0.0010477143014602,0.0010477146113393,-0.0010477161570983,0.0010477129335682,-0.00096497697608255,0.00096498078279031,-0.00096498169768151,0.00096497554227355,-0.00090434469670294,0.00090434508423854,-0.00090434717833982,0.00090434242587537,2.0407241614542e-09,-1.8805965686834e-09,-0.00094361087487842,0.00094361103987332,-8.4427731229e-10,1.0094007713376e-09,-0.001047714067559,0.0010477150498884,-0.0010477132604129,0.0010477156933464,-0.0010477152953356,0.0010477136190127,-0.0010477150834078,0.0010477140154166,-0.00090434678576536,0.00090434280862807,-0.00090434206959174,0.0009043477037386,0.66097842475754,131329,3014,0.003150579780779,0.0039236355047657,0.0039236355047883,40.977141210459,9.0217129683674e-05,9.0217129683674e-05,9.0217129683674e-05,3531562.3164595,0.011058950062244
8219200,0.70379885098634,0.011341496523732,0.0033450371336532,0.0039982296950353,0.0039982296950432,-0.00077482067048826,0.00077482036947318,1.6892358522395e-09,-1.9965461107397e-09,1.1572704591524e-09,-1.4996606965422e-09,-0.00087582243649427,0.00087582443844881,-0.00087582357936248,0.0008758231086272,-0.00087582322049281,0.00087582350414288,-0.00087582493169426,0.0008758219705169,-0.00082735447326728,0.00082735786484235,-0.00082735908388436,0.00082735317711488,6.4134774521699e-10,-1.4531885078496e-09,1.7245554336127e-09,-2.5219805313465e-09,-0.00097028110143845,0.00097028030883849,-0.0010799083082411,0.0010799096584732,-0.0010799094763861,0.0010799082673519,-0.0010799088124687,0.0010799089195093,-0.0010799106371224,0.0010799072614165,-0.00099153671126904,0.00099154025905872,-0.00099154136824415,0.000991535103577,-0.00092841567368989,0.00092841655676603,-0.00092841863806119,0.00092841341588747,2.0185439423976e-09,-1.8349219872752e-09,-0.00097028061097603,0.00097028079932185,-8.0061159058606e-10,9.8998576077633e-10,-0.0010799084738394,0.0010799094538462,-0.0010799076701907,0.0010799101012996,-0.00107990965992,0.0010799080719659,-0.0010799094844734,0.0010799084243354,-0.00092841799861917,0.00092841404266099,-0.00092841330040201,0.00092841892443746,0.65549730790945,131329,3014,0.0032245367270886,0.0040342887025912,0.0040342887026351,41.071198290103,9.0969586320823e-05,9.0969586320823e-05,9.0969586320823e-05,3538987.2066244,0.01135756278581
8419200,0.7252405077956,0.011622233263003,0.0034202408183681,0.0041009962223226,0.0041009962223128,-0.00079170963494349,0.00079170934415135,1.6829303937787e-09,-1.9801718468446e-09,9.7754924642389e-10,-1.3088188028957e-09,-0.0008976049403291,0.00089760681734728,-0.00089760606902467,0.00089760550471539,-0.00089760559762231,0.00089760601400461,-0.00089760730894876,0.00089760447732456,-0.00084548805594317,0.00084549156217587,-0.00084549263681284,0.00084548690187304,7.8871652234171e-10,-1.6401143902654e-09,1.6327555447679e-09,-2.4675467852879e-09,-0.00099570910577514,0.00099570827571541,-0.0011105922376786,0.0011105936019063,-0.0011105933469689,0.0011105922701301,-0.0011105928459964,0.0011105927590074,-0.0011105946224582,0.0011105911472535,-0.0010168758942215,0.001016879163223,-0.0010168804317094,0.0010168741426305,-0.00095141693870683,0.00095141818209514,-0.00095142025026454,0.00095141469445256,2.017850899599e-09,-1.8179063473854e-09,-0.00099570858847258,0.00099570879302445,-7.3115465425661e-10,9.3718877717323e-10,-0.0011105923920426,0.0011105934083567,-0.0011105916191835,0.001110594024846,-0.0011105935616514,0.001110592042818,-0.0011105934288528,0.0011105923524634,-0.00095141945198833,0.00095141547857525,-0.00095141475906251,0.00095142035748922,0.65381527780039,131329,3014,0.0032947855381668,0.0041397784384114,0.0041397784384253,41.233965052,9.2271720416001e-05,9.2271720416001e-05,9.2271720416001e-05,3545072.2346668,0.011642065940664
8619200,0.74606629701615,0.011894564317085,0.0034930327423181,0.0042007657873917,0.004200765787375,-0.00080885668695084,0.00080885639776025,1.6137531925359e-09,-1.910018198314e-09,1.0037012098817e-09,-1.33466172053e-09,-0.00091946323345439,0.00091946506390842,-0.00091946429231958,0.00091946382301788,-0.00091946388634666,0.00091946426760668,-0.00091946558069022,0.00091946274618087,-0.00086393166818041,0.00086393508033088,-0.00086393616401847,0.00086393050709026,7.0214317254493e-10,-1.5832598057571e-09,1.5025512454686e-09,-2.3664589083268e-09,-0.0010212250413657,0.0010212241820234,-0.0011411891360084,0.0011411903183518,-0.0011411901402771,0.0011411890902572,-0.001141189671981,0.0011411895471172,-0.0011411913912421,0.0011411879931024,-0.0010423401963374,0.0010423433260116,-0.0010423445879231,0.0010423384708582,-0.00097460188921027,0.0009746031141759,-0.00097460513740209,0.00097459969463191,1.9575434797139e-09,-1.7468528232277e-09,-0.0010212245040108,0.0010212247193732,-6.7247881460147e-10,8.8928573293129e-10,-0.0011411892129469,0.0011411902026335,-0.0011411884475868,0.0011411908094561,-0.0011411903126003,0.0011411889053555,-0.0011411902361057,0.0011411891603979,-0.00097460437138286,0.00097460043977099,-0.00097459974171839,0.00097460525664147,0.65261451223226,131329,3014,0.0033661029294425,0.0042456213472489,0.0042456213472389,41.855648147957,9.7245185183655e-05,9.7245185183655e-05,9.7245185183655e-05,3555741.3991924,0.011928446263322
8819200,0.76570362826277,0.012140918990637,0.0035581897432093,0.0042913646237246,0.004291364623703,-0.00082362135471542,0.00082362107127622,1.6696289398937e-09,-1.9595552863723e-09,8.9569706648122e-10,-1.2196444129063e-09,-0.00093879357699712,0.00093879539373854,-0.00093879468956078,0.00093879410015933,-0.00093879417971336,0.00093879465061892,-0.00093879588531698,0.00093879311662881,-0.0008796112957921,0.0008796148102483,-0.00087961580343811,0.00087961021597753,8.1388192842899e-10,-1.7337229369654e-09,1.4119139570111e-09,-2.3122305658614e-09,-0.0010438648168919,0.0010438639207546,-0.001168766804185,0.001168768004745,-0.0011687677760142,0.0011687668057297,-0.0011687674469677,0.0011687671225014,-0.0011687690897857,0.0011687656481033,-0.0010645910475238,0.0010645938400881,-0.0010645952275409,0.0010645892045621,-0.00099492366345513,0.00099492509986405,-0.00099492710232244,0.00099492147951994,2.016381132617e-09,-1.8022741531147e-09,-0.0010438642596369,0.0010438644780108,-5.5578502559015e-10,7.752111279057e-10,-0.0011687668250531,0.0011687679446939,-0.0011687661529315,0.0011687684551498,-0.0011687679784254,0.0011687665902414,-0.0011687679510021,0.0011687667993038,-0.00099492631092672,0.00099492225534985,-0.00099492163527817,0.00099492712809984,0.62942561061209,131329,3014,0.0034275187677713,0.0043395221376039,0.0043395221376069,41.996886360402,9.8375090883219e-05,9.8375090883219e-05,9.8375090883219e-05,3575042.5009735,0.012180709684597
9019200,0.78408428570001,0.012371671336243,0.0036192110468425,0.0043762301447122,0.0043762301446887,-0.00083719470064911,0.00083719442337154,1.6984084735223e-09,-1.982013886101e-09,7.8313384621033e-10,-1.0998391683448e-09,-0.00095665021610052,0.00095665201098883,-0.00095665137338392,0.00095665067188761,-0.00095665077053792,0.00095665131698727,-0.00095665247280546,0.00095664978723434,-0.00089408889358136,0.00089409246508243,-0.00089409337285568,0.00089408788918398,9.1940830535392e-10,-1.8804034937508e-09,1.3032954604904e-09,-2.2423872066822e-09,-0.0010648531755565,0.0010648522402532,-0.0011943867259355,0.001194387935963,-0.0011943876617941,0.0011943867694367,-0.0011943874774448,0.0011943869407672,-0.0011943890319483,0.0011943855585632,-0.0010852783854809,0.0010852808018792,-0.0010852823083163,0.0010852764233395,-0.0010137153398001,0.001013716970115,-0.0010137189349415,0.0010137131570528,2.0440417889853e-09,-1.8325212843503e-09,-0.0010648526000094,0.0010648528158019,-4.5029447069537e-10,6.6634589214922e-10,-0.0011943866954597,0.0011943879271949,-0.0011943861181865,0.0011943883387457,-0.0011943878924111,0.0011943865254837,-0.001194387907646,0.0011943866955185,-0.0010137181007863,0.0010137139832379,-0.0010137134527008,0.0010137188554822,0.62978086065389,131329,3014,0.0034839790480755,0.0044265657672068,0.0044265657672108,42.046729462178,9.8773835697423e-05,9.8773835697423e-05,9.8773835697423e-05,3583997.7810258,0.012414133132241
9219200,0.8010762198224,0.01258246164808,0.0036747745461277,0.0044538435509864,0.0044538435509663,-0.00084919279058484,0.0008491925212429,1.7266117487845e-09,-2.0020827076299e-09,6.478601405233e-10,-9.5508715033139e-10,-0.00097266575047588,0.00097266751416597,-0.00097266695835108,0.00097266612308917,-0.00097266624633699,0.00097266687892586,-0.0009726679372923,0.00097266536213597,-0.00090681087732656,0.00090681451141597,-0.00090681531303648,0.00090680996929556,1.0558621938723e-09,-2.0626999730053e-09,1.1918507379215e-09,-2.1739492308924e-09,-0.0010837108473804,0.0010837098686076,-0.0012175827475259,0.0012175839938951,-0.0012175836561476,0.0012175828524299,-0.0012175836386442,0.0012175828560486,-0.0012175850980891,0.0012175815721852,-0.0011038105812486,0.0011038125759967,-0.0011038142251351,0.0011038084721329,-0.0010304550774353,0.0010304569427808,-0.001030458879984,0.0010304529010116,2.0674930310659e-09,-1.8628893478033e-09,-0.0010837102534942,0.0010837104624773,-3.4829588441746e-10,5.565074314035e-10,-0.0012175826770184,0.0012175840256282,-0.0012175822022488,0.0012175843306818,-0.0012175839264734,0.0012175825685162,-0.0012175839771716,0.0012175827061362,-0.0010304579689657,0.0010304538123233,-0.0010304533666081,0.0010304586513943,0.62301125114794,131329,3014,0.0035338911431625,0.0045047658063828,0.0045047658063489,41.896785605973,9.7574284847781e-05,9.7574284847781e-05,9.7574284847781e-05,3590449.5494327,0.012623067660952
9419200,0.81649914586515,0.012771538530165,0.0037244879425791,0.0045235252937934,0.0045235252937928,-0.00085927662654806,0.00085927636819027,1.7806982171271e-09,-2.0444640910842e-09,4.7453824291771e-10,-7.6820086846137e-10,-0.00098641579381807,0.0009864175475995,-0.0009864170982912,0.00098641605757158,-0.00098641623361513,0.00098641696705895,-0.00098641789856301,0.00098641547918699,-0.00091748268301184,0.00091748638031692,-0.00091748704779237,0.00091748190289919,1.2695706689924e-09,-2.3318925442173e-09,1.0873757574345e-09,-2.1214755313723e-09,-0.0010999863436234,0.0010999853128279,-0.0012378269557473,0.0012378283250727,-0.0012378278763714,0.0012378271698021,-0.0012378280729749,0.0012378269584517,-0.0012378294155776,0.0012378257954921,-0.001119740736359,0.0011197421745261,-0.0011197440241529,0.0011197384108376,-0.001044749703692,0.0010447518507467,-0.0010447537782986,0.0010447475161876,2.1140807221675e-09,-1.9201981594114e-09,-0.0010999857289632,0.001099985927402,-2.4475912554143e-10,4.4159345671126e-10,-0.0012378268648091,0.0012378283790201,-0.0012378265248319,0.0012378285427961,-0.0012378282158796,0.0012378268169443,-0.0012378282745754,0.0012378269500933,-0.0010447527337897,0.0010447485711975,-0.001044748218387,0.0010447533303904,0.61621359466285,131329,3014,0.0035758453264995,0.0045722523301259,0.0045722523299457,41.414316524071,9.3714532192565e-05,9.3714532192565e-05,9.3714532192565e-05,3594116.3788062,0.012802281352871
9619200,0.83015365373054,0.012936951875213,0.0037679028443713,0.0045845245153841,0.0045845245154574,-0.00086706908331163,0.00086706883952176,1.7810326074117e-09,-2.0308581775297e-09,2.0298595100677e-10,-4.7955793183436e-10,-0.00099748668930784,0.00099748829904214,-0.00099748801692293,0.00099748678615292,-0.00099748697152678,0.00099748788040587,-0.00099748861567158,0.00099748641259077,-0.00092571594111498,0.00092571977626336,-0.00092572024181108,0.00092571536104861,1.5263239721974e-09,-2.6512529051503e-09,9.7089338627975e-10,-2.0638516459292e-09,-0.001113201261499,0.00111320017162,-0.0012545825133695,0.0012545839894636,-0.0012545834026327,0.0012545828621184,-0.0012545838498031,0.001254582397263,-0.0012545851097908,0.0012545813206055,-0.0011326001123619,0.00113260106036,-0.0011326031559782,0.0011325975316944,-0.0010561604078494,0.0010561630498676,-0.0010561649742491,0.001056158207517,2.1052265891846e-09,-1.9221803051817e-09,-0.0011132006227577,0.0011132008103858,-1.6688819432728e-10,3.5216197863446e-10,-0.001254582437037,0.0012545840271606,-0.0012545821799724,0.0012545841058597,-0.001254583816637,0.0012545824329475,-0.0012545839063687,0.0012545825384875,-0.0010561636736436,0.0010561595190426,-0.0010561592373259,0.0010561642093138,0.60938555688395,131329,3014,0.0036082741962946,0.004627044191099,0.0046270441911494,40.447173282384,8.5977386259072e-05,8.5977386259072e-05,8.5977386259072e-05,3591647.8528075,0.012946156032911
9819200,0.84251838248575,0.01308772902694,0.0038076047561354,0.0046400621353609,0.0046400621354434,-0.00087467830583587,0.00087467806881283,1.7394599561924e-09,-1.983529007021e-09,1.417680336133e-10,-4.1127441302546e-10,-0.0010080623772687,0.0010080638782243,-0.0010080636259206,0.0010080624427758,-0.0010080625681317,0.0010080635515291,-0.0010080642428603,0.0010080620545323,-0.00093379158941422,0.0009337955606314,-0.00093379597698258,0.000933791060153,1.5071991065142e-09,-2.6755049335855e-09,8.6240360788281e-10,-1.9980392170253e-09,-0.0011257338721017,0.001125732740168,-0.0012703013703002,0.0012703027033251,-0.0012703021510329,0.0012703016820126,-0.0012703026604151,0.00127030115433,-0.0012703039146388,0.0012703000863389,-0.0011448847976471,0.0011448857097013,-0.0011448878466686,0.0011448821681742,-0.0010670924296445,0.0010670952536881,-0.0010670971656209,0.0010670902392736,2.0592684008815e-09,-1.8868185948106e-09,-0.0011257332176529,0.0011257333946372,-1.1228889950414e-10,2.8658844327272e-10,-0.0012703012438332,0.0012703027910821,-0.0012703009758396,0.0012703028774658,-0.0012703025499057,0.0012703012675607,-0.0012703027321373,0.0012703012839677,-0.0010670958489677,0.001067091561744,-0.0010670913294199,0.0010670963362095,0.61214217102152,131329,3014,0.0036399356592408,0.0046790047472216,0.0046790047472638,39.873336055837,8.1386688446694e-05,8.1386688446694e-05,8.1386688446694e-05,3589536.8272568,0.013083534439727
10019200,0.85359841686864,0.013223957732255,0.0038435721596861,0.0046901927862423,0.0046901927863265,-0.00088101773258963,0.00088101749725949,1.748538641933e-09,-1.9880066632905e-09,1.7440487510961e-10,-4.38804135129e-10,-0.0010170367022712,0.0010170381555914,-0.0010170378866015,0.0010170367888846,-0.0010170368429345,0.0010170378857706,-0.0010170385953627,0.0010170363074844,-0.00094060611537778,0.00094061030843772,-0.00094061073569479,0.00094060555354408,1.5534628150939e-09,-2.7591176311959e-09,7.8291301746201e-10,-1.9538868404666e-09,-0.0011364320779303,0.0011364309105526,-0.001283842131395,0.0012838433579648,-0.0012838427996645,0.0012838424467659,-0.001283843388976,0.001283841835658,-0.0012838446746496,0.001283840741959,-0.0011554149240807,0.0011554158836626,-0.001155418082179,0.0011554122201745,-0.0010763838174575,0.0010763869966667,-0.0010763888744704,0.001076381620634,2.0653013115214e-09,-1.9055477209428e-09,-0.0011364314125383,0.0011364315761272,-5.664505397366e-11,2.188562771792e-10,-0.0012838419669744,0.0012838434832309,-0.001283841668762,0.0012838435974543,-0.0012838432108558,0.0012838420182685,-0.0012838435053819,0.001283841925342,-0.0010763875691299,0.0010763829633981,-0.0010763828111008,0.0010763880012962,0.61575181215191,131329,3014,0.00366631790585,0.0047233567339149,0.0047233567342917,39.083259387448,7.5066075099587e-05,7.5066075099587e-05,7.5066075099587e-05,3582019.1364028,0.013200161045732
10219200,0.86341299645965,0.013345785984547,0.003875846720067,0.0047349696321998,0.00473496963228,-0.00088605080943067,0.00088605057619446,1.7437690185829e-09,-1.9833423875456e-09,1.6149622284242e-10,-4.257016002848e-10,-0.001024332880135,0.0010243343348908,-0.0010243340659648,0.0010243329649399,-0.0010243330209196,0.0010243340648281,-0.0010243347666241,0.0010243324937174,-0.00094610799457793,0.00094611218365174,-0.00094611260399992,0.00094610745635152,1.5396089180385e-09,-2.7762515785211e-09,7.186172590885e-10,-1.919135254364e-09,-0.0011452501499097,0.0011452489518373,-0.001295161936539,0.0012951631058147,-0.0012951625730558,0.001295162224917,-0.0012951632009565,0.0012951615758167,-0.0012951644518127,0.0012951605182693,-0.0011641427157977,0.0011641435367084,-0.0011641457711844,0.0011641399799647,-0.001084002926815,0.0010840061083362,-0.0010840080010018,0.0010840007349066,2.0607253340791e-09,-1.9105114506572e-09,-0.0011452494732952,0.0011452496284922,-1.5594599860385e-11,1.661126044916e-10,-0.0012951617305363,0.0012951632727666,-0.0012951614643744,0.001295163352962,-0.0012951629784552,0.0012951618034579,-0.001295163301872,0.0012951616822342,-0.0010840066922078,0.0010840020595922,-0.0010840019357167,0.0010840070879126,0.62007541812889,131329,3014,0.0036872689871069,0.0047599115987715,0.0047599115988545,38.043616202781,6.6748929622246e-05,6.6748929622246e-05,6.6748929622246e-05,3569980.1933842,0.013295492324726
10419200,0.8724649524492,0.013459341112502,0.0039060549618922,0.0047766430752621,0.0047766430753473,-0.00089188736511951,0.00089188712498411,1.6860751938837e-09,-1.9341913095773e-09,3.3808375362634e-10,-6.1257499325445e-10,-0.0010322173203764,0.001032218835041,-0.0010322184435934,0.0010322175288364,-0.0010322175598022,0.0010322184675093,-0.001032219303074,0.0010322168977669,-0.00095248483099615,0.00095248887126643,-0.00095248942625916,0.00095248417337971,1.1217829442976e-09,-2.3508891713172e-09,6.8100583289827e-10,-1.8772654898485e-09,-0.0011546178800158,0.0011546166862005,-0.0013068088079018,0.0013068096507513,-0.0013068093869157,0.0013068088271008,-0.0013068097692611,0.0013068084259836,-0.0013068110247909,0.001306807364361,-0.001173518602149,0.0011735197161183,-0.0011735216733337,0.0011735161502505,-0.0010923095598677,0.0010923120366288,-0.001092313912885,0.0010923074045915,2.0084606651995e-09,-1.8655278152881e-09,-0.0011546172091113,0.0011546173571233,6.6511850461565e-14,1.4200680678953e-10,-0.0013068084665017,0.0013068099542153,-0.001306808182032,0.0013068100516986,-0.0013068096546602,0.0013068085446398,-0.0013068100226203,0.0013068083800582,-0.0010923129774155,0.0010923083392108,-0.0010923082226674,0.0010923133559583,0.62506671129935,131329,3014,0.0037115539216414,0.0047987440160169,0.0047987440160548,37.717329094985,6.4138632759879e-05,6.4138632759879e-05,6.4138632759879e-05,3563799.5657625,0.013398826010465
10619200,0.88093073720621,0.01356344819448,0.0039336624775713,0.0048148928584115,0.0048148928584975,-0.00089767486599237,0.00089767462937949,1.5126373618493e-09,-1.7610065282829e-09,3.0854948852492e-10,-5.8400535389026e-10,-0.0010399522068437,0.0010399533503013,-0.0010399529578894,0.0010399524160835,-0.0010399521792174,0.0010399532496296,-0.0010399540721707,0.001039951530092,-0.00095874117985216,0.00095874568660834,-0.00095874623055016,0.00095874056226633,3.1501064481572e-10,-1.5021336906299e-09,6.505891157207e-10,-1.8111966028989e-09,-0.0011637218592966,0.0011637207004401,-0.0013180652164503,0.0013180652632901,-0.0013180655006704,0.0013180647329349,-0.001318065382967,0.0013180648403783,-0.0013180668686874,0.0013180635501002,-0.0011825850976903,0.0011825875199305,-0.0011825889062301,0.0011825832417654,-0.0011003987683658,0.0011004004775015,-0.0011004023212661,0.0011003966981579,1.8380136241807e-09,-1.6986781071381e-09,-0.001163721207064,0.0011637213524396,-1.8061567878558e-11,1.5383470024962e-10,-0.0013180646707442,0.0013180657753443,-0.001318064110896,0.0013180661415275,-0.0013180654887518,0.0013180647346082,-0.0013180661114502,0.0013180643219176,-0.0011004020324238,0.0011003969605633,-0.0011003968001386,0.0011004024100515,0.61395642873024,131329,3014,0.0037356330786436,0.0048364814819683,0.0048364814814868,37.647237624154,6.3577900993233e-05,6.3577900993233e-05,6.3577900993233e-05,3562935.4773268,0.013499741922001
10819200,0.88887493161253,0.013659357811764,0.0039590214943466,0.0048501681586418,0.0048501681587756,-0.00090314339562962,0.00090314313668366,1.5190676086155e-09,-1.7858561599672e-09,7.6307926715807e-10,-1.0610621746907e-09,-0.0010472529151677,0.001047254199655,-0.0010472535416193,0.0010472533899571,-0.001047253049966,0.0010472539370037,-0.0010472550775932,0.0010472520816237,-0.00096460943381565,0.00096461400044788,-0.00096461486014498,0.00096460847451472,2.0991939718291e-11,-1.174326872837e-09,6.6384668557869e-10,-1.7943301748435e-09,-0.0011722936674814,0.0011722925400728,-0.0013286661532922,0.0013286658829541,-0.0013286663047395,0.001328665479653,-0.0013286659687043,0.0013286658030378,-0.0013286675843131,0.0013286643895477,-0.0011910729622152,0.0011910760124256,-0.001191077154202,0.001191071342967,-0.0011079847213987,0.0011079862474271,-0.0011079880324319,0.0011079826788996,1.8566451694704e-09,-1.7216863837216e-09,-0.0011722930342805,0.0011722931733288,-1.0922243038855e-11,1.4415269614585e-10,-0.0013286655083161,0.0013286664947218,-0.0013286648230734,0.0013286669818428,-0.0013286662041723,0.0013286655661699,-0.0013286669638203,0.0013286650237459,-0.0011079881315666,0.0011079825874561,-0.0011079824542933,0.001107988485626,0.60387279409485,131329,3014,0.0037583842087323,0.0048720116838401,0.0048720116839537,37.649662478351,6.3597299826809e-05,6.3597299826809e-05,6.3597299826809e-05,3565756.2886972,0.013594846027546
11019200,0.89639332922391,0.013748322750932,0.0039824671401341,0.0048829278053334,0.0048829278054647,-0.0009085443242715,0.00090854404450614,1.5166652950928e-09,-1.8051108827781e-09,1.157540703632e-09,-1.4815446398576e-09,-0.0010543994598645,0.0010544005490277,-0.0010543996483968,0.00105440017751,-0.0010543994156731,0.0010544004637594,-0.0010544018848912,0.001054398166017,-0.00097035809222677,0.00097036366503096,-0.000970364816438,0.00097035685195287,-2.9983991328885e-10,-8.1402206413324e-10,6.9214093306179e-10,-1.7867890917861e-09,-0.0011806376498968,0.0011806365584441,-0.0013389587409456,0.0013389578339932,-0.0013389584559913,0.001338957862883,-0.0013389578784419,0.0013389584317231,-0.0013389599409607,0.0013389565743223,-0.0011992931238774,0.0011992978199375,-0.0011992987005896,0.0011992917708468,-0.0011153589026378,0.001115361095925,-0.001115362862937,0.0011153568963063,1.8691279864819e-09,-1.7369935075113e-09,-0.0011806370357295,0.0011806371725576,-1.2561640809319e-11,1.4218397414189e-10,-0.0013389579987239,0.0013389585455448,-0.0013389568690326,0.0013389594704594,-0.0013389582564633,0.0013389580492544,-0.0013389594579871,0.0013389570715442,-0.0011153633169906,0.0011153564391917,-0.0011153562953441,0.0011153636680151,0.5932124081068,131329,3014,0.0037808515798257,0.0049065965991196,0.004906596599009,37.826211556159,6.5009692449269e-05,6.5009692449269e-05,6.5009692449269e-05,3572772.0025567,0.013687754116623
11219200,0.9034745061989,0.013832077342521,0.0040045521410775,0.0049137626006498,0.004913762600794,-0.00091351945973238,0.0009135191571589,1.559121590935e-09,-1.8684557301659e-09,1.5459076971692e-09,-1.8951290066391e-09,-0.001061003222008,0.0010610047542251,-0.0010610036218911,0.0010610041709112,-0.0010610036123035,0.0010610042324941,-0.0010610059321555,0.0010610020845481,-0.00097567502231441,0.00097567983125323,-0.00097568126105682,0.00097567349175701,-3.9953042068619e-10,-6.8564017760072e-10,7.2398521110125e-10,-1.7916333377159e-09,-0.0011883657512138,0.0011883646870147,-0.0013485218888312,0.0013485210992334,-0.0013485217864791,0.0013485209487569,-0.0013485211068382,0.0013485216196819,-0.0013485230106883,0.0013485199185203,-0.0012069136462647,0.0012069178713695,-0.0012069186423086,0.0012069123987344,-0.0011221630397806,0.0011221644619734,-0.0011221662016398,0.0011221610466009,1.9267525072688e-09,-1.7969097255237e-09,-0.0011883651522182,0.0011883652860447,-2.0509829997596e-11,1.4822797403126e-10,-0.0013485211086966,0.0013485218504412,-0.0013485201439009,0.001348522612129,-0.0013485215687926,0.0013485211518408,-0.0013485225952404,0.0013485203478005,-0.0011221668477353,0.0011221604068572,-0.001122160273597,0.0011221672018666,0.59263757209633,131329,3014,0.0038015475549969,0.0049386277635858,0.0049386277636567,37.936217584397,6.5889740675178e-05,6.5889740675178e-05,6.5889740675178e-05,3578631.7281267,0.013773695487541
11419200,0.9100733758638,0.013910740540065,0.0040253402758764,0.0049427001320212,0.0049427001321669,-0.00091785750823566,0.00091785718239041,1.6240058174723e-09,-1.9539591518892e-09,1.9104271529971e-09,-2.2840471658975e-09,-0.0010668413771509,0.0010668432253247,-0.0010668418794127,0.0010668425400025,-0.0010668420604491,0.0010668424094948,-0.0010668443715179,0.0010668402705843,-0.00098035687713718,0.00098036134938694,-0.00098036303811457,0.00098035506138837,-2.1486210304355e-10,-8.6239811157967e-10,7.4409037264225e-10,-1.8033675528247e-09,-0.0011952407898688,0.0011952397349278,-0.0013570944475815,0.0013570938214512,-0.0013570943983372,0.0013570936226929,-0.0013570938101657,0.0013570941997148,-0.0013570956835256,0.001357092525562,-0.0012137212036425,0.0012137251482285,-0.0012137260135585,0.0012137198439651,-0.0011281939925243,0.0011281955835469,-0.0011281972990829,0.0011281919875357,2.006741513189e-09,-1.8785235226312e-09,-0.0011952401967079,0.0011952403282749,-4.0729461272328e-11,1.6908255390875e-10,-0.0013570937123759,0.0013570945272124,-0.0013570927771956,0.0013570952658348,-0.0013570942621847,0.001357093742654,-0.0013570952324769,0.0013570929886805,-0.001128197868808,0.0011281914486963,-0.0011281913330502,0.0011281982369731,0.59626754251954,131329,3014,0.0038195954070959,0.0049671220849651,0.0049671220853501,37.863822885671,6.531058308537e-05,6.531058308537e-05,6.531058308537e-05,3579915.5683793,0.013849786247715
11619200,0.91615403198972,0.013983634024028,0.0040446399097347,0.0049694970570821,0.0049694970572112,-0.0009214773982294,0.00092147705383764,1.6990952270424e-09,-2.0486410442753e-09,2.2070115101957e-09,-2.6035483870898e-09,-0.001071826971968,0.001071829005589,-0.0010718274760296,0.0010718283169647,-0.001071827799866,0.0010718280411873,-0.0010718302188639,0.0010718257966407,-0.0009843083878123,0.00098431296092411,-0.00098431487079958,0.00098430635862414,1.9660029547806e-10,-1.290053148556e-09,7.4744288964841e-10,-1.8190840215832e-09,-0.0012011677328264,0.0012011666643455,-0.0013645706459027,0.0013645702160212,-0.0013645705391731,0.0013645700785973,-0.0013645702154496,0.0013645703926645,-0.0013645721588688,0.0013645686454078,-0.0012196121540808,0.0012196160006221,-0.0012196171510018,0.0012196105040305,-0.0011333632888278,0.001133365871708,-0.0011333676130195,0.0011333612589241,2.0966841816787e-09,-1.9693256440416e-09,-0.0012011671323201,0.0012011672647924,-7.5659595092481e-11,2.0231996117583e-10,-0.0013645700231854,0.0013645708084706,-0.0013645690022744,0.0013645716382804,-0.0013645705692318,0.0013645700364989,-0.0013645715778627,0.0013645692359559,-0.001133367822511,0.0011333610764162,-0.0011333609415337,0.0011333682247228,0.59873866765372,131329,3014,0.0038346588175933,0.0049916857581744,0.0049916857580537,37.583843763687,6.3070750109496e-05,6.3070750109496e-05,6.3070750109496e-05,3577224.5311135,0.013914884635906
11819200,0.92168003002188,0.014050381657053,0.0040623565598983,0.0049940125485031,0.0049940125486516,-0.00092425070710456,0.00092425037140051,1.6638206339511e-09,-2.0052210508145e-09,1.8894836826587e-09,-2.2760003708686e-09,-0.0010758111750049,0.0010758130183586,-0.0010758116791811,0.0010758123277794,-0.0010758118273885,0.0010758122297175,-0.0010758142010045,0.0010758100312115,-0.00098739033147391,0.00098739496347491,-0.00098739666788906,0.00098738851510285,2.8006449536644e-10,-1.38863118748e-09,7.6078799294261e-10,-1.8466052662487e-09,-0.001205988886493,0.0012059878041208,-0.0013707789344315,0.0013707785883895,-0.0013707788543277,0.0013707784290943,-0.0013707785890762,0.0013707786840084,-0.0013707805329555,0.0013707769301318,-0.0012244228495912,0.0012244265760259,-0.0012244278050943,0.0012244211207374,-0.0011375177527749,0.0011375204289916,-0.0011375222005891,0.0011375156956379,2.0636033665101e-09,-1.9334502775977e-09,-0.0012059882778741,0.0012059884127867,-1.0058681867115e-10,2.3037128555065e-10,-0.0013707783656878,0.0013707791248859,-0.0013707773420338,0.0013707799661529,-0.0013707789054143,0.0013707783664876,-0.0013707798820302,0.001370777589451,-0.0011375222493286,0.0011375156501982,-0.001137515497051,0.0011375226814022,0.60218599368142,131329,3014,0.0038462042485192,0.0050116654932731,0.0050116654933689,37.0328600377,5.8662880301604e-05,5.8662880301604e-05,5.8662880301604e-05,3570094.6095478,0.013967122367207
12019200,0.92674893724635,0.014113689006536,0.0040792937163968,0.0050171976449969,0.0050171976451422,-0.00092707367809086,0.00092707335840234,1.6214524385645e-09,-1.9480396478142e-09,1.4718013180388e-09,-1.8403579576218e-09,-0.0010797039034262,0.0010797054607128,-0.0010797043715704,0.0010797048059273,-0.0010797042834606,0.001079704945962,-0.0010797066340213,0.0010797027706922,-0.00099057885332934,0.00099058369102121,-0.00099058510579158,0.00099057733448671,2.2976306875844e-10,-1.3473111759361e-09,7.8806766060931e-10,-1.8828268114649e-09,-0.0012106937997352,0.0012106927084039,-0.0013767167289556,0.0013767163730823,-0.0013767166597794,0.0013767162052219,-0.0013767163636867,0.0013767164923097,-0.0013767183373997,0.001376714705565,-0.001229207918399,0.0012292117301504,-0.0012292129454083,0.0012292062075762,-0.0011416612562294,0.0011416638376519,-0.0011416656469531,0.001141659172396,2.0196191712559e-09,-1.8870116605008e-09,-0.00121069318546,0.0012106933227124,-1.1733781399856e-10,2.4926692568417e-10,-0.0013767161785803,0.0013767168901049,-0.0013767151339661,0.0013767177569643,-0.0013767166839254,0.0013767161713684,-0.0013767176568173,0.0013767153939405,-0.0011416656610055,0.0011416591518126,-0.001141658974883,0.0011416661098461,0.61930375987216,131329,3014,0.0038579540851828,0.0050311631959058,0.0050311631959746,36.630728609383,5.5445828875064e-05,5.5445828875064e-05,5.5445828875064e-05,3561272.6132002,0.014018591190739
12219200,0.93149358657812,0.014175051385416,0.0040958306190911,0.0050396103830907,0.0050396103832341,-0.00093041563811457,0.00093041533407106,1.5968622246316e-09,-1.9081636119409e-09,1.1194762389458e-09,-1.4699117286174e-09,-0.0010840509542915,0.0010840522212262,-0.0010840513476134,0.0010840516412055,-0.0010840510493057,0.0010840519931269,-0.0010840534347686,0.0010840497829674,-0.00099436190449757,0.00099436709733058,-0.00099436825845916,0.000994360640077,6.513159591301e-11,-1.1802577246756e-09,8.2902069753639e-10,-1.9224133569103e-09,-0.0012158426278273,0.0012158415376653,-0.0013829952781205,0.0013829947862882,-0.001382995171083,0.0013829946610823,-0.0013829947534369,0.0013829950707416,-0.0013829968156806,0.0013829931910494,-0.0012345343996579,0.0012345385610348,-0.0012345396679623,0.0012345327999032,-0.0011463405175257,0.0011463429205353,-0.001146344755982,0.0011463384102279,1.9928034040475e-09,-1.8587258502012e-09,-0.0012158420134243,0.0012158421521,-1.2693681528507e-10,2.6024814706834e-10,-0.0013829947042363,0.0013829953274137,-0.0013829935875783,0.0013829962702793,-0.0013829951301806,0.0013829946924531,-0.0013829961584777,0.0013829938565122,-0.0011463448901427,0.0011463382726354,-0.0011463380813414,0.0011463453433368,0.63790519844318,131329,3014,0.0038718593661428,0.0050525002073062,0.0050525002073715,36.590925945686,5.5127407565485e-05,5.5127407565485e-05,5.5127407565485e-05,3552427.6044,0.014075979005121
12419200,0.93597297186501,0.014230968063411,0.0041108018024097,0.0050600831304297,0.0050600831305717,-0.00093377370913114,0.0009337734386109,1.5675119268219e-09,-1.8463188592556e-09,4.461087943002e-10,-7.5827676507709e-10,-0.0010884340379343,0.0010884343667624,-0.0010884339105003,0.0010884343073047,-0.001088433192272,0.0010884350822083,-0.0010884360389585,0.0010884324109753,-0.00099809159737361,0.00099809868924519,-0.00099809935508588,0.00099809082941271,-5.0226191994009e-10,-5.8549076820672e-10,9.0532419729901e-10,-1.9762214171155e-09,-0.0012209305283819,0.0012209294609826,-0.0013892009612293,0.0013891996661411,-0.0013892004017321,0.0013891999944499,-0.0013891995710515,0.0013892008217924,-0.00138920216991,0.0013891984037948,-0.0012397414382509,0.0012397476484617,-0.0012397483454386,0.0012397402499936,-0.0011509720730592,0.0011509748073927,-0.0011509766696136,0.0011509699522988,1.9525408189241e-09,-1.8175498073363e-09,-0.0012209299248204,0.0012209300645402,-1.0952954306529e-10,2.4346200278529e-10,-0.0013892002428599,0.001389200355842,-0.0013891986384192,0.0013892017806367,-0.0013892001453761,0.0013892002402185,-0.0013892016835041,0.0013891989029178,-0.0011509773364892,0.0011509692906635,-0.0011509690864036,0.00115097776171,0.61827140438975,131329,3014,0.0038858323166237,0.0050735837924319,0.0050735837924234,36.71741406878,5.6139312550244e-05,5.6139312550244e-05,5.6139312550244e-05,3546693.9880524,0.014132925889406
12619200,0.9401449241915,0.01428007987538,0.0041238076269537,0.0050781361241352,0.0050781361242913,-0.00093635928442571,0.00093635900103235,1.5779134113284e-09,-1.8683343918727e-09,7.7921486837359e-10,-1.1054292504246e-09,-0.0010919834041686,0.0010919841473812,-0.0010919835039082,0.0010919838606614,-0.0010919829782991,0.0010919844419378,-0.0010919856142688,0.0010919819809993,-0.0010009087474839,0.0010009149305175,-0.0010009158203327,0.0010009077494415,6.7523577613566e-11,-1.1866966992856e-09,8.8125894056524e-10,-1.9786826832485e-09,-0.0012250815051003,0.0012250804106059,-0.0013944147808288,0.0013944140397327,-0.0013944144266355,0.0013944141630691,-0.0013944139754794,0.0013944146062322,-0.0013944163577114,0.0013944124046128,-0.0012438844132456,0.0012438894774007,-0.0012438905959334,0.0012438828033944,-0.0011546405350446,0.0011546437294245,-0.0011546456007455,0.0011546383862437,1.9751296956142e-09,-1.8373631737574e-09,-0.0012250808867466,0.0012250810289956,-1.5748955177289e-10,2.9472993940854e-10,-0.001394414243309,0.0013944145523745,-0.0013944128135673,0.0013944157934711,-0.0013944143651963,0.0013944142063547,-0.0013944156646003,0.0013944131151989,-0.0011546456906711,0.0011546383116342,-0.0011546380827036,0.0011546461530454,0.5873172721862,131329,3014,0.003896593958904,0.0050907841527061,0.0050907841527801,36.603522110235,5.5228176881877e-05,5.5228176881877e-05,5.5228176881877e-05,3544523.045785,0.014178740886299
12819200,0.94402561091416,0.014326171339131,0.0041360534615784,0.0050950589386982,0.0050950589388543,-0.0009387344986951,0.00093873419041983,1.5818179677822e-09,-1.8963214298291e-09,1.3331359013192e-09,-1.6877528935429e-09,-0.0010951860636602,0.0010951871582026,-0.0010951861896093,0.001095186845595,-0.0010951860037331,0.0010951870851311,-0.0010951886321728,0.0010951846315669,-0.0010035027768108,0.001003508516109,-0.0010035097964355,0.0010035013842171,8.4675150598874e-10,-2.0132467150955e-09,8.3094226164458e-10,-1.969019809656e-09,-0.0012288872206282,0.0012288860851483,-0.0013991647176595,0.0013991644253818,-0.0013991643546895,0.0013991645585331,-0.0013991644181385,0.001399164482508,-0.0013991667731226,0.0013991623074671,-0.0012476813321585,0.0012476857123582,-0.0012476874004953,0.0012476791502329,-0.0011579841801846,0.0011579888660016,-0.001157990752609,0.0011579819988735,1.9980508803289e-09,-1.8565708813869e-09,-0.0012288865799795,0.0012288867258802,-2.1739483785458e-10,3.5932416521693e-10,-0.0013991644103302,0.0013991647051702,-0.001399162951775,0.0013991659792083,-0.0013991645552521,0.0013991643390277,-0.0013991658030452,0.0013991632932544,-0.0011579900423865,0.0011579827256949,-0.001157982472035,0.0011579905607544,0.5913507362157,131329,3014,0.0039064773735525,0.00510655426537,0.0051065542655427,36.464569326184,5.4116554609473e-05,5.4116554609473e-05,5.4116554609473e-05,3544895.1176143,0.014220763193491
13019200,0.94755608983612,0.014368268335754,0.0041472569315374,0.0051105057020315,0.0051105057021847,-0.00094012243986352,0.00094012213096821,1.5663274890939e-09,-1.881109738977e-09,1.3381577825512e-09,-1.6930790237451e-09,-0.0010973081247966,0.001097309242248,-0.0010973082710827,0.0010973089091457,-0.0010973080988235,0.0010973091351215,-0.0010973106864557,0.0010973067225742,-0.0010050687767141,0.0010050743681459,-0.0010050756573563,0.0010050673724046,1.225134403077e-09,-2.4307279884027e-09,8.0016587430716e-10,-1.973439634448e-09,-0.0012315154814521,0.0012315143109423,-0.0014026412143654,0.0014026411603694,-0.0014026408700273,0.0014026412762082,-0.0014026411957019,0.0014026409360934,-0.0014026435153321,0.0014026387954214,-0.0012503004368471,0.0012503043806017,-0.0012503063633025,0.0012502979579118,-0.0011602051002858,0.0011602104377212,-0.0011602123479728,0.0011602028877897,1.9890666793195e-09,-1.8447944269142e-09,-0.0012315148218874,0.0012315149705651,-2.4668673180144e-10,3.9217748154126e-10,-0.0014026410227885,0.0014026413193958,-0.001402639575301,0.0014026425924725,-0.0014026411925277,0.0014026409391615,-0.001402642387412,0.0014026399341613,-0.0011602112134691,0.0011602040325942,-0.0011602037689466,0.001160211762684,0.59303210398001,131329,3014,0.0039122594095564,0.0051174443774186,0.0051174443775377,35.905191019611,4.9641528156886e-05,4.9641528156886e-05,4.9641528156886e-05,3539571.2290889,0.014248727064135
13219200,0.95074494940913,0.014406476626367,0.0041574504203983,0.0051245131029085,0.00512451310306,-0.00094099488470571,0.00094099457457042,1.5331812831877e-09,-1.8487781090978e-09,1.3450616115264e-09,-1.7007695046297e-09,-0.0010988276329958,0.0010988286519908,-0.0010988276731777,0.0010988284249176,-0.0010988275316431,0.0010988286204802,-0.0010988301827218,0.0010988261446573,-0.0010061003256261,0.0010061061047745,-0.0010061074039384,0.0010060989113564,1.5860326293382e-09,-2.8302838271836e-09,7.5894335189026e-10,-1.9670401813455e-09,-0.0012334707369999,0.001233469531373,-0.0014053507794201,0.0014053508415231,-0.0014053503326339,0.00140535106151,-0.0014053509272678,0.0014053504496798,-0.0014053533177914,0.0014053482366692,-0.0012522557806153,0.0012522596472558,-0.0012522619190576,0.0012522530147855,-0.0011618050201443,0.0011618113285185,-0.0011618132552446,0.0011618027846558,1.9622549586344e-09,-1.8157344606174e-09,-0.0012334700587965,0.0012334702096762,-2.7550193198744e-10,4.2377523922204e-10,-0.0014053507052052,0.0014053508790066,-0.0014053491543788,0.0014053522639637,-0.0014053507739091,0.0014053506078207,-0.0014053520312222,0.0014053495306318,-0.0011618116947352,0.0011618043518691,-0.0011618040778765,0.0011618122741042,0.59512912952768,131329,3014,0.0039158990899969,0.0051255453610579,0.0051255453612637,35.183057945398,4.3864463563188e-05,4.3864463563188e-05,4.3864463563188e-05,3531530.1452543,0.014268859818744
13419200,0.95362962695405,0.014440459196115,0.0041665018080213,0.0051369786939736,0.0051369786941198,-0.00094162179145481,0.00094162150805035,1.5575598164991e-09,-1.8478395024775e-09,7.7444951551067e-10,-1.1000489592006e-09,-0.0011000453801028,0.0011000461972071,-0.0011000455542658,0.0011000458358685,-0.0011000450440263,0.0011000464029498,-0.0011000475740476,0.0011000440483442,-0.0010068523129748,0.0010068581199636,-0.0010068590204931,0.0010068513063413,1.2622220638879e-09,-2.5090051139579e-09,7.9565002912481e-10,-2.0081332661017e-09,-0.0012350561710206,0.001235054960813,-0.0014076255372054,0.0014076255484762,-0.0014076252342907,0.001407625626745,-0.0014076256183812,0.0014076252279531,-0.0014076279099684,0.001407623111465,-0.0012538265316239,0.0012538302687826,-0.0012538323328656,0.0012538239758273,-0.0011630694293843,0.0011630746768192,-0.0011630766429977,0.0011630671701708,1.9787431368143e-09,-1.8324893368263e-09,-0.0012350554903841,0.0012350556414806,-2.3641575413158e-10,3.8342701489142e-10,-0.0014076253586318,0.0014076256879022,-0.0014076239548416,0.0014076269332464,-0.0014076255638542,0.0014076252888857,-0.0014076267209329,0.0014076243058779,-0.0011630754058872,0.0011630684057911,-0.0011630681428618,0.0011630759579674,0.58608787518054,131329,3014,0.0039185177725644,0.0051321138307373,0.0051321138308015,34.452474719468,3.8019797755747e-05,3.8019797755747e-05,3.8019797755747e-05,3523551.7175845,0.014284848027332
13619200,0.95627080070562,0.014471157777618,0.0041746724573629,0.0051482426600551,0.0051482426602002,-0.00094240920688672,0.00094240895493939,1.6165164641199e-09,-1.8777513793372e-09,1.4289667069303e-10,-4.3416315937821e-10,-0.0011013663143049,0.0011013668614901,-0.0011013665912872,0.0011013663967615,-0.0011013656494616,0.0011013673983345,-0.0011013681314412,0.0011013650919652,-0.0010077485754045,0.0010077546930882,-0.0010077551422296,0.0010077480342313,6.4479659017516e-10,-1.8706102540195e-09,8.6430665628229e-10,-2.0604036253281e-09,-0.0012367204120771,0.0012367192181885,-0.0014099144987111,0.0014099142453222,-0.0014099142991209,0.0014099142234859,-0.0014099142668214,0.0014099142463184,-0.0014099165263265,0.001409912158076,-0.0012554657261829,0.0012554697728596,-0.0012554714091161,0.0012554635991321,-0.0011644313120554,0.0011644350836532,-0.0011644370893548,0.0011644290415685,2.027531477011e-09,-1.882726672816e-09,-0.0012367197400124,0.0012367198901583,-1.7150647897715e-10,3.1512529731495e-10,-0.0014099141202904,0.0014099145869817,-0.0014099128221931,0.0014099157264725,-0.0014099144255772,0.0014099140901773,-0.0014099155577395,0.0014099131344868,-0.0011644365106274,0.0011644296087652,-0.001164429359469,0.0011644370116804,0.57890325757985,131329,3014,0.003921800849463,0.0051390093527593,0.0051390093525631,33.907749696864,3.366199757491e-05,3.366199757491e-05,3.366199757491e-05,3518935.9187094,0.014302172976682
13819200,0.9587116469241,0.014499523272606,0.0041822341914087,0.0051586445405224,0.0051586445406746,-0.00094333005119736,0.00094332983811459,1.7272015855301e-09,-1.9506354775722e-09,-6.4919246943921e-10,4.0254376703482e-10,-0.001102769329352,0.0011027694965789,-0.0011027697029581,0.0011027689350615,-0.0011027681895547,0.0011027705121412,-0.0011027706910501,0.0011027681863009,-0.0010087769467884,0.0010087837023898,-0.0010087835793074,0.001008776978242,-3.147943475862e-10,-8.6078046053824e-10,9.7930538139144e-10,-2.133091802693e-09,-0.0012384525796557,0.001238451427796,-0.00141221487937,0.0014122141434858,-0.0014122147766135,0.0014122140269094,-0.0014122140685142,0.0014122147311903,-0.001412216348717,0.001412212619728,-0.0012571762769548,0.0012571810900909,-0.0012571820266011,0.0012571748431771,-0.0011658811903867,0.00116588289496,-0.00116588492239,0.0011658789101419,2.1222210193693e-09,-1.9821697484277e-09,-0.0012384519308557,0.0012384520764513,-7.0146593834415e-11,2.0722752742952e-10,-0.0014122141831172,0.0014122148103916,-0.0014122129829332,0.0014122158414618,-0.0014122145820798,0.001412214210427,-0.0014122157510626,0.0014122132328932,-0.0011658854406848,0.0011658783918922,-0.0011658781903399,0.0011658858542001,0.57842618293467,131329,3014,0.0039256363150704,0.0051461867458106,0.0051461867455126,33.507481231789,3.0459849854309e-05,3.0459849854309e-05,3.0459849854309e-05,3516468.2407889,0.014320629607123
14019200,0.96100495238147,0.014526180162997,0.0041893498722233,0.0051684151453071,0.0051684151454667,-0.00094466619337388,0.00094466591150476,1.5521487277159e-09,-1.8418297748353e-09,8.5456210924357e-10,-1.1798378937916e-09,-0.001104566529072,0.0011045675850484,-0.0011045668962272,0.0011045670294127,-0.0011045664335345,0.0011045675491874,-0.001104568763976,0.0011045653951387,-0.0010102360111514,0.0010102411865455,-0.0010102421029831,0.0010102349830517,8.2004216157002e-10,-2.0450437743128e-09,8.0527151684983e-10,-1.9999556856599e-09,-0.0012405770667774,0.0012405758748297,-0.0014148738647641,0.0014148737986145,-0.0014148737492809,0.001414873696651,-0.001414873854867,0.0014148735782032,-0.0014148759573546,0.0014148716439943,-0.001259294616201,0.0012592980383646,-0.0012592997928482,0.0012592923618969,-0.0011677401289849,0.0011677439582593,-0.0011677459076721,0.001167737892914,1.9881741102339e-09,-1.8414168195684e-09,-0.0012405763955078,0.0012405765461382,-2.0650232702507e-10,3.531248017797e-10,-0.0014148735490835,0.0014148740887869,-0.0014148723390781,0.0014148751215577,-0.0014148739377326,0.0014148734873869,-0.0014148749387701,0.0014148726810059,-0.0011677451169409,0.0011677386718001,-0.0011677384268954,0.0011677456578327,0.57821463875044,131329,3014,0.0039311953717575,0.005154989971939,0.0051549899720183,33.390992897406,2.9527943179249e-05,2.9527943179249e-05,2.9527943179249e-05,3516783.2541898,0.014344133222691
14219200,0.96315528689849,0.01455020407486,0.0041957177373661,0.0051772431686679,0.0051772431688265,-0.00094579126226826,0.00094579094094369,1.4500024370385e-09,-1.7784727408786e-09,1.7060225651229e-09,-2.0777577650442e-09,-0.0011061390458734,0.0011061406557106,-0.0011061394502824,0.0011061400640034,-0.0011061395942784,0.0011061399735738,-0.0011061417820847,0.0011061379611976,-0.0010114444081342,0.0010114485398915,-0.0010114500823017,0.0010114427619076,1.3162009312487e-09,-2.5618356073462e-09,7.0936588626214e-10,-1.9204855973898e-09,-0.0012424298161892,0.0012424286072012,-0.0014172415454765,0.0014172417888195,-0.0014172414638334,0.0014172416528972,-0.0014172419162941,0.0014172411843999,-0.0014172438753471,0.0014172393949942,-0.0012611096731123,0.0012611123049272,-0.0012611144089798,0.0012611070812123,-0.0011693327496604,0.0011693373147725,-0.0011693392244834,0.0011693305460429,1.9108280565733e-09,-1.7615527843599e-09,-0.0012424291348837,0.0012424292885573,-2.7616779035181e-10,4.2578280868629e-10,-0.0014172413809885,0.0014172419215075,-0.0014172402217788,0.0014172429156681,-0.0014172418168223,0.0014172412844091,-0.0014172426769498,0.0014172406037553,-0.0011693378641445,0.0011693318920344,-0.0011693316137607,0.0011693384598569,0.55856767369321,131329,3014,0.0039358773949808,0.0051626670371555,0.0051626670372607,33.233872450887,2.8270979607094e-05,2.8270979607094e-05,2.8270979607094e-05,3517495.8538854,0.014364462991682
14419200,0.96515891300056,0.014572854361042,0.0042017431656868,0.0051855555976005,0.0051855555977546,-0.00094662497974551,0.0009466246325195,1.3614795564106e-09,-1.714882927239e-09,2.2503931475047e-09,-2.6522195011913e-09,-0.0011073448417498,0.0011073469320593,-0.0011073453906686,0.0011073461960351,-0.0011073459441402,0.0011073456938348,-0.0011073478899381,0.0011073439235475,-0.0010123514164097,0.001012354430875,-0.0010123563678867,0.0010123493716743,1.5884285825708e-09,-2.8484938085172e-09,6.3493459000259e-10,-1.8581556739832e-09,-0.0012439117348895,0.001243910514101,-0.0014191725375782,0.001419173083151,-0.0014191726063219,0.0014191727967391,-0.0014191732654643,0.0014191721203765,-0.0014191749865101,0.0014191705700913,-0.0012625509359764,0.0012625526325133,-0.0012625549293184,0.0012625481541581,-0.0011705639027602,0.0011705684643609,-0.0011705703390462,0.0011705617262187,1.8399017021483e-09,-1.6887727574456e-09,-0.0012439110467555,0.0012439112022603,-3.2079414110625e-10,4.7329627012383e-10,-0.0014191724592735,0.0014191731229375,-0.0014191714720806,0.0014191739587483,-0.0014191730524528,0.0014191723422966,-0.0014191736807486,0.001419171877499,-0.001170568638813,0.0011705634143012,-0.0011705631172415,0.0011705692671003,0.56383594026036,131329,3014,0.0039393470373439,0.0051688078154675,0.0051688078155191,32.955719107061,2.6045752856492e-05,2.6045752856492e-05,2.6045752856492e-05,3518443.9983502,0.014380444789763
14619200,0.96694112362102,0.01459312494789,0.00420714691354,0.0051929890170985,0.0051929890172517,-0.00094578859007837,0.0009457883129025,1.6685845226823e-09,-1.9555432367906e-09,5.2765020782482e-10,-8.4832343771306e-10,-0.0011068130493951,0.0011068137349075,-0.0011068132187377,0.0011068133810928,-0.0011068125109419,0.0011068141493241,-0.0011068151760749,0.0011068116578536,-0.0010115277230674,0.0010115341530273,-0.001011534905329,0.0010115268793693,3.4646525597012e-11,-1.2155474612308e-09,8.6877765102367e-10,-2.0271194027893e-09,-0.0012435420526755,0.0012435408961418,-0.0014191776255024,0.0014191768218052,-0.0014191772683085,0.001419176955174,-0.0014191768165634,0.001419177390716,-0.0014191792137219,0.001419175169015,-0.0012621227782669,0.0012621277745177,-0.0012621289374911,0.0012621211191061,-0.0011699802118116,0.0011699832229591,-0.001169985163564,0.0011699779796341,2.1150791912531e-09,-1.9729625812298e-09,-0.0012435414014991,0.0012435415478641,-8.8424133585769e-11,2.3011978770433e-10,-0.001419176984244,0.0014191774154268,-0.0014191756059764,0.0014191786567706,-0.0014191772065587,0.0014191770113994,-0.0014191785317125,0.0014191758470301,-0.001169985381515,0.0011699777722285,-0.0011699776002881,0.0011699858277384,0.56645706819819,131329,3014,0.0039358810483015,0.0051672751137584,0.0051672751148991,31.822541122479,1.6980328979834e-05,1.6980328979834e-05,1.6980328979834e-05,3507745.401686,0.014373822401836
14819200,0.96854672080195,0.014611523142306,0.0042120689539157,0.0051997270941474,0.0051997270942424,-0.00094517223575389,0.00094517195960173,1.6290798988744e-09,-1.9129824247295e-09,6.3984963582695e-10,-9.5884939645618e-10,-0.0011064581954424,0.0011064589439112,-0.0011064583625127,0.0011064585920676,-0.0011064577465642,0.0011064592684505,-0.0011064603617545,0.0011064568239197,-0.0010109387042096,0.0010109449639606,-0.001010945761454,0.0010109378174874,2.0736776514995e-10,-1.4085161734816e-09,8.1976095353883e-10,-1.9948969173397e-09,-0.0012433386625908,0.001243337489591,-0.00141930065917,0.00141929996024,-0.0014193002977978,0.0014193001062508,-0.0014193000024442,0.0014193003908238,-0.0014193023481675,0.0014192982127783,-0.0012618851218553,0.001261889813864,-0.0012618911158511,0.0012618833182641,-0.0011695943315593,0.0011695976549052,-0.0011695995889402,0.0011695921165211,2.0806760420693e-09,-1.9361531841434e-09,-0.0012433380026122,0.0012433381494598,-9.3916622058722e-11,2.3806161891037e-10,-0.0014193000809418,0.001419300503981,-0.0014192987079963,0.0014193017219824,-0.0014193002957208,0.0014193000981848,-0.0014193016025227,0.0014192989651889,-0.0011695995699121,0.0011695921260548,-0.0011695919656601,0.001169600029667,0.56962156281087,131329,3014,0.0039333278156825,0.0051664315582969,0.0051664315580633,30.870447112917,9.3635769033385e-06,9.3635769033385e-06,9.3635769033385e-06,3497940.5099759,0.014369523848149
15019200,0.96996450744868,0.01462771078136,0.0042164039598405,0.0052056534107138,0.0052056534108057,-0.00094372594005468,0.00094372565251439,1.5359605355776e-09,-1.8313014054991e-09,8.7336916608325e-10,-1.2056237651392e-09,-0.0011052155687995,0.0011052165020798,-0.0011052157910032,0.0011052160958823,-0.0011052153704828,0.0011052165752566,-0.0011052178214702,0.001105214294388,-0.0010094841460211,0.0010094897305492,-0.0010094906899859,0.0010094831023889,6.646783149405e-10,-1.8968477463019e-09,7.304448874634e-10,-1.9330125550554e-09,-0.0012422070482645,0.0012422058479919,-0.0014184411145922,0.0014184407440217,-0.0014184408137042,0.0014184408297759,-0.0014184408590935,0.0014184407696072,-0.0014184430501138,0.001418438746432,-0.0012607083817758,0.0012607122089661,-0.001260713858264,0.0012607062367303,-0.0011683028697932,0.0011683067935978,-0.0011683087033486,0.0011683006732299,1.9990194445634e-09,-1.8519788468469e-09,-0.0012422063737549,0.0012422065225785,-1.2623632603748e-10,2.7409165474692e-10,-0.0014184406809079,0.0014184411427285,-0.0014184393956689,0.0014184422729968,-0.0014184409516501,0.0014184406797017,-0.001418442129966,0.001418439672928,-0.0011683081304422,0.0011683012202589,-0.001168301053334,0.0011683086250996,0.5673822824693,131329,3014,0.0039273275843319,0.0051617410711598,0.0051617410713155,29.524915210414,-1.40067831669e-06,-1.40067831669e-06,-1.40067831669e-06,3482832.4972429,0.014353923702357
15219200,0.97112942273844,0.014640393622631,0.0042197756815141,0.0052103089705154,0.0052103089706012,-0.00093975772922796,0.00093975745489914,1.5005694941026e-09,-1.7825267818539e-09,6.4035902826536e-10,-9.5654134831841e-10,-0.0011013280081415,0.0011013289193685,-0.0011013283626262,0.0011013283817303,-0.0011013278022623,0.0011013290017085,-0.0011013300679269,0.0011013269061047,-0.0010053964553591,0.0010054016541361,-0.0010054024329293,0.0010053955901478,1.1479154689323e-09,-2.4139708098377e-09,6.6152727718686e-10,-1.8932333616134e-09,-0.0012383575487965,0.0012383563189697,-0.001414760544116,0.0014147605928792,-0.0014147603666249,0.0014147605566742,-0.0014147607724578,0.0014147601344806,-0.0014147627693129,0.0014147583055715,-0.0012567528367466,0.0012567556919409,-0.0012567577038446,0.0012567503329661,-0.0011643021235951,0.0011643065444363,-0.001164308448326,0.0011642999283731,1.9606363385528e-09,-1.8151110877199e-09,-0.001238356860063,0.0012383570077234,-1.1701919170284e-10,2.6311402837057e-10,-0.0014147602483206,0.0014147608524465,-0.0014147591294929,0.0014147618179254,-0.0014147606562466,0.0014147602555598,-0.0014147616821796,0.0014147593990695,-0.0011643073589055,0.0011643010006643,-0.0011643008461153,0.0011643078457951,0.54391446059426,131329,3014,0.0039108532699129,0.0051457866234458,0.0051457866234862,26.88229168559,-2.2541666515279e-05,-2.2541666515279e-05,-2.2541666515279e-05,3452460.7418811,0.014304846636596
15419200,0.9721896743505,0.014653718578042,0.0042234243589314,0.0052151471095125,0.0052151471095986,-0.00093886818399032,0.00093886789565535,1.4652882144509e-09,-1.7626115846613e-09,7.8870853449566e-10,-1.1222431610065e-09,-0.0011004995268611,0.0011005004705811,-0.0011004998250874,0.0011004999881612,-0.0011004993866877,0.0011005004862996,-0.0011005016693473,0.0011004983712253,-0.0010045408707413,0.0010045460040356,-0.0010045469048519,0.0010045398877315,1.0785190297223e-09,-2.3474119232874e-09,6.36022014101e-10,-1.8709191624671e-09,-0.0012376658750521,0.0012376646433942,-0.0014142003054258,0.0014142002542665,-0.001414200075454,0.0014142002657274,-0.0014142004446222,0.0014141998739211,-0.001414202466309,0.0014141980222373,-0.0012560643383469,0.0012560672611256,-0.0012560692390836,0.0012560618666113,-0.0011635056109156,0.0011635099908248,-0.0011635118790148,0.0011635034316214,1.9401333524931e-09,-1.7891651240571e-09,-0.0012376651841554,0.0012376653344446,-1.1783262414716e-10,2.7004103134362e-10,-0.0014141999844358,0.0014142005356689,-0.0014141988299529,0.0014142015397716,-0.00141420033834,0.0014141999899862,-0.0014142013972826,0.0014141990925907,-0.0011635108204549,0.0011635044125242,-0.0011635042672477,0.0011635113265613,0.61488004356243,131329,3014,0.0039071604571809,0.0051429204024835,0.0051429204027944,25.930840472531,-3.0153276219749e-05,-3.0153276219749e-05,-3.0153276219749e-05,3442619.3010823,0.014295285981841
15619200,0.97318940893383,0.014666565939673,0.004226955722149,0.0052198051087328,0.0052198051087916,-0.00093895694484303,0.00093895664981909,1.5023709960091e-09,-1.8068909478983e-09,9.6956562046524e-10,-1.3118433673503e-09,-0.001100807179327,0.0011008084674672,-0.001100807695536,0.0011008077687084,-0.0011008073631076,0.001100808159414,-0.0011008094773942,0.0011008062137476,-0.0010047207416839,0.00100472524602,-0.0010047262745532,0.0010047196299421,7.2930948974828e-10,-1.9721519518579e-09,6.7946755413842e-10,-1.8916113035644e-09,-0.001238015396931,0.0012380141873714,-0.0014147717413517,0.001414771690353,-0.0014147717238593,0.0014147714912675,-0.0014147718437921,0.0014147713527126,-0.0014147736906939,0.0014147696764399,-0.0012564880539046,0.0012564907383181,-0.0012564924433179,0.0012564858546613,-0.0011638260524293,0.0011638291520861,-0.0011638310414785,0.0011638238761483,1.9839264945251e-09,-1.8362086384983e-09,-0.0012380147182208,0.0012380148661634,-8.776967146149e-11,2.3555913635949e-10,-0.001414771301113,0.0014147720911417,-0.0014147703599969,0.0014147728849302,-0.0014147718782795,0.0014147713273648,-0.0014147727624629,0.0014147706048957,-0.0011638304012099,0.0011638244676315,-0.0011638243388527,0.0011638308818948,0.62695262833034,131329,3014,0.0039075367842777,0.0051443676790926,0.0051443676792617,25.55387223016,-3.3169022158722e-05,-3.3169022158722e-05,-3.3169022158722e-05,3431595.3152673,0.014298608438706
15819200,0.97411159555852,0.014679330901604,0.0042305048755963,0.0052244130129815,0.005224413013026,-0.00093833193646544,0.00093833164316067,1.5311049637061e-09,-1.8321151886386e-09,1.0367070903982e-09,-1.3761836930917e-09,-0.0011003785734124,0.0011003797250262,-0.0011003789088205,0.0011003792070351,-0.0011003786026255,0.0011003795714114,-0.0011003809335479,0.0011003774091079,-0.0010041791297873,0.0010041842721429,-0.001004185342366,0.0010041779769353,4.6160640526898e-10,-1.6848856481868e-09,6.8978504323343e-10,-1.8850938631047e-09,-0.0012376051348553,0.0012376039418817,-0.0014145547333515,0.001414554317246,-0.0014145545195551,0.0014145543177222,-0.0014145544568426,0.0014145543659817,-0.0014145565006006,0.0014145524895209,-0.0012561643584964,0.0012561678733942,-0.0012561693771442,0.0012561623629719,-0.0011634121224933,0.0011634153157214,-0.0011634171896494,0.0011634099654189,2.0139800221751e-09,-1.8690206242911e-09,-0.0012376044652091,0.0012376046115353,-8.3542858146559e-11,2.2903516116245e-10,-0.0014145541998296,0.0014145548147115,-0.0014145530619603,0.0014145558025643,-0.0014145545997115,0.0014145542276402,-0.0014145556870023,0.0014145533064541,-0.0011634168744659,0.0011634102519333,-0.0011634101242354,0.0011634173425747,0.66920158511535,131329,3014,0.0039049497424899,0.0051426657881965,0.0051426657882119,24.791839032273,-3.9265287741815e-05,-3.9265287741815e-05,-3.9265287741815e-05,3414994.921097,0.01429253632711
16019200,0.97499222760591,0.01469148803045,0.0042338837312157,0.0052288021495949,0.0052288021496397,-0.00093866199524787,0.00093866171791157,1.706681134857e-09,-1.9935448621611e-09,8.6093545660101e-10,-1.1850094940087e-09,-0.0011009940898205,0.0011009948367813,-0.0011009941174849,0.0011009946276988,-0.001100993585868,0.0011009952181247,-0.0011009964456991,0.0011009925286952,-0.0010046341002769,0.0010046409912254,-0.0010046419127528,0.0010046330954321,-2.3743561661301e-10,-9.3916351474709e-10,7.7325753435319e-10,-1.9283793865972e-09,-0.0012382005573771,0.0012381994061818,-0.001415389972169,0.0014153887462881,-0.0014153893812872,0.0014153891274356,-0.0014153888081961,0.0014153896954354,-0.0014153913109573,0.0014153873583121,-0.0012568862873835,0.001256891719365,-0.0012568926864079,0.0012568848139895,-0.0011640512641785,0.0011640543080639,-0.0011640561967998,0.0011640491104216,2.1861601846011e-09,-2.042581424716e-09,-0.0012381999092936,0.001238200054256,-3.5076958511231e-11,1.7812327586796e-10,-0.001415389173962,0.0014153895126505,-0.0014153876470078,0.0014153908871681,-0.0014153892688122,0.001415389233421,-0.0014153908107755,0.0014153878652506,-0.0011640567734226,0.0011640485147464,-0.0011640483946941,0.0011640571869352,0.66743248324317,131329,3014,0.0039063321902806,0.005145130984362,0.0051451309843422,24.593257744852,-4.0853938041182e-05,-4.0853938041182e-05,-4.0853938041182e-05,3401735.3874629,0.014298946566473
16219200,0.9758612480695,0.014703425662444,0.0042371997835082,0.0052331129394448,0.0052331129394911,-0.00093996765109395,0.00093996735329256,1.6579757362146e-09,-1.9626726988139e-09,1.321683036961e-09,-1.6678100737236e-09,-0.0011026138790468,0.0011026150093551,-0.0011026140048906,0.0011026147012937,-0.0011026138052644,0.0011026149574912,-0.001102616516911,0.0011026124161243,-0.0010060852822779,0.0010060913820344,-0.0010060926336204,0.0010060839424118,-4.1631447965231e-10,-7.4826900146549e-10,7.798987018175e-10,-1.9250937727532e-09,-0.0012398137820003,0.001239812640736,-0.0014172597121072,0.0014172584990235,-0.0014172592499052,0.0014172587542643,-0.0014172585512556,0.0014172594480432,-0.0014172609268789,0.0014172572342828,-0.0012586273636973,0.0012586325490898,-0.0012586333888761,0.0012586260192496,-0.0011657085448742,0.0011657108476739,-0.0011657127248312,0.0011657063996569,2.151069076728e-09,-2.0076643239389e-09,-0.0012398131387025,0.0012398132839389,-6.205634451539e-11,2.0557198044652e-10,-0.0014172588794552,0.0014172593041104,-0.0014172574583923,0.0014172605681583,-0.0014172590751075,0.0014172589180886,-0.0014172604745541,0.0014172576964058,-0.0011657134500219,0.0011657056661177,-0.0011657055359292,0.0011657138852864,0.66426057916623,131329,3014,0.0039117656349967,0.0051518143258908,0.0051518143256933,24.945026724617,-3.803978620306e-05,-3.803978620306e-05,-3.803978620306e-05,3397461.3032425,0.014318023043829
16419200,0.97665839558103,0.014713171877763,0.0042398560792295,0.0052366578992394,0.0052366578992944,-0.00093895961426076,0.00093895926371175,1.2901633644831e-09,-1.6449857387854e-09,2.3361691230193e-09,-2.7414994120748e-09,-0.0011018601671623,0.0011018613647012,-0.0011018597336588,0.0011018616162913,-0.0011018604363944,0.0011018609655064,-0.0011018632588695,0.0011018583131753,-0.0010050936678539,0.0010050993240555,-0.0010051013292143,0.0010050915577138,6.5875586473235e-10,-1.8961469515931e-09,6.1778559746193e-10,-1.8272492979297e-09,-0.0012389902788514,0.0012389890727117,-0.0014166539813192,0.0014166530122736,-0.0014166530989395,0.0014166536859831,-0.0014166532092116,0.001416653561487,-0.0014166558357545,0.0014166510994872,-0.0012578329792959,0.0012578380903046,-0.0012578397506368,0.0012578308280014,-0.0011648937029845,0.001164899212924,-0.001164901059487,0.001164891568861,1.8154488322844e-09,-1.6671969321605e-09,-0.0012389895995934,0.0012389897517857,-1.9027232351701e-10,3.3828510491637e-10,-0.0014166535847355,0.0014166533754114,-0.0014166517474801,0.0014166550632945,-0.0014166532260246,0.0014166535473581,-0.001416654868466,0.001416652070856,-0.0011649003231685,0.0011648922837487,-0.00116489208682,0.0011649008709549,0.5998214392169,131329,3014,0.0039075904373418,0.0051483985823839,0.0051483985820035,24.072948189069,-4.5016414487447e-05,-4.5016414487447e-05,-4.5016414487447e-05,3380989.5465863,0.014306864059453
16619200,0.97741570504844,0.014724264085671,0.0042429705215359,0.005240646782038,0.0052406467820975,-0.00093905583569662,0.00093905547361451,1.1841085967658e-09,-1.5527709907945e-09,2.5402680452608e-09,-2.9612690580571e-09,-0.0011020806445678,0.0011020815243698,-0.0011020797762101,0.0011020822106906,-0.0011020806679672,0.0011020813706426,-0.0011020838004651,0.0011020784057179,-0.0010052751504868,0.0010052815748062,-0.0010052837412935,0.0010052728889857,7.9027704850827e-10,-2.0358127305171e-09,5.9833252093768e-10,-1.814013832043e-09,-0.0012392720327602,0.0012392708203442,-0.0014170593852721,0.0014170580929772,-0.0014170581183711,0.0014170591460615,-0.00141705830068,0.0014170589467741,-0.0014170612947309,0.0014170561193937,-0.0012581818707528,0.0012581880293779,-0.0012581897910874,0.001258179629895,-0.0011651734098485,0.0011651802889105,-0.0011651821343342,0.0011651712868464,1.7228068687269e-09,-1.5688351747505e-09,-0.0012392713486369,0.0012392715045865,-2.17860620537e-10,3.7244098759525e-10,-0.0014170590474262,0.0014170583911113,-0.0014170568219283,0.0014170604744425,-0.0014170582610789,0.0014170589956042,-0.001417060254704,0.0014170571568593,-0.0011651811500304,0.0011651722180299,-0.0011651719995435,0.0011651817393874,0.70236008357106,131329,3014,0.00390799474242,0.0051495652914488,0.0051495652916924,23.766174083584,-4.7470607331327e-05,-4.7470607331327e-05,-4.7470607331327e-05,3376213.4458881,0.014309642169504
16819200,0.97814348824262,0.014734972122427,0.0042459761773503,0.0052444979725102,0.0052444979725664,-0.00093941309822656,0.00093941275034065,1.3102490688492e-09,-1.6644878757144e-09,2.0813451285409e-09,-2.484003126439e-09,-0.0011027294559865,0.0011027303666669,-0.0011027288960934,0.0011027307434846,-0.0011027294261875,0.0011027302668456,-0.0011027323936264,0.0011027274646654,-0.0010057526951877,0.0010057588771485,-0.0010057607384372,0.0010057507352088,2.8379667974008e-10,-1.4958150672956e-09,6.7668875574801e-10,-1.862631188532e-09,-0.0012398643771696,0.0012398631929898,-0.0014178750664325,0.0014178737556041,-0.0014178740822356,0.0014178745214367,-0.0014178738933077,0.0014178746889656,-0.0014178766853529,0.0014178720651658,-0.0012589083505859,0.0012589141288782,-0.001258915510297,0.0012589064857707,-0.0011658492304564,0.001165854275356,-0.0011658561169038,0.0011658470971227,1.8453304388924e-09,-1.6944041021766e-09,-0.0012398637089078,0.0012398638614188,-1.7405800276514e-10,3.2596025802022e-10,-0.0014178745451578,0.001417874234693,-0.001417872593387,0.0014178760461609,-0.0014178740772397,0.0014178745167516,-0.0014178758536968,0.0014178728906147,-0.0011658558013159,0.0011658473642554,-0.001165847184315,0.0011658563634819,0.70571911233189,131329,3014,0.0039094911426018,0.0051520171286099,0.0051520171289553,23.643525817042,-4.8451793463664e-05,-4.8451793463664e-05,-4.8451793463664e-05,3364380.8716617,0.014316141117993
17019200,0.97883868879263,0.014744986314308,0.0042487787445749,0.0052481037848407,0.0052481037848927,-0.00093953742112496,0.00093953710143986,1.469437917592e-09,-1.7950199029624e-09,1.7892181044386e-09,-2.160609610183e-09,-0.0011031439402661,0.0011031455096071,-0.0011031442078207,0.0011031450604477,-0.0011031444452624,0.0011031448775833,-0.0011031467763585,0.0011031427149831,-0.001005975629488,0.0010059801694035,-0.0010059817814491,0.0010059739184599,7.734828791739e-11,-1.2752554172636e-09,7.2817854514391e-10,-1.90229001544e-09,-0.0012402075499779,0.0012402063790944,-0.0014184359331158,0.0014184352607203,-0.0014184357064486,0.0014184352763637,-0.0014184353635689,0.0014184356098795,-0.00141843745431,0.0014184336840389,-0.0012593647624962,0.0012593686563658,-0.0012593698743478,0.0012593630545745,-0.0011662742823905,0.0011662767386907,-0.0011662786168385,0.0011662721330672,1.9930661891372e-09,-1.845568091044e-09,-0.0012402068891201,0.0012402070398954,-1.4507485797444e-10,2.9197356343747e-10,-0.0014184353127182,0.0014184358442076,-0.0014184341042238,0.0014184369093685,-0.0014184356722675,0.0014184353059409,-0.0014184367448263,0.0014184343937418,-0.0011662786530288,0.0011662720718704,-0.0011662718866474,0.0011662791636078,0.69246305697381,131329,3014,0.0039100205204785,0.0051534360394515,0.0051534360393342,23.41627371053,-5.0269810315757e-05,-5.0269810315757e-05,-5.0269810315757e-05,3352714.6265716,0.01431956328831
17219200,0.9794952819008,0.014754174846255,0.0042513406419687,0.0052514171021149,0.0052514171021713,-0.00093927018809315,0.00093926987582171,1.5013478103844e-09,-1.8207543098233e-09,1.5754736068333e-09,-1.9386742097454e-09,-0.0011031266801612,0.0011031282880147,-0.0011031271222625,0.0011031276637586,-0.0011031271993053,0.0011031276430841,-0.001103129390864,0.0011031256189191,-0.0010057730887147,0.0010057773486737,-0.0010057788074532,0.001005771532191,1.1088076059046e-10,-1.3095609985531e-09,7.432426062459e-10,-1.9178442530498e-09,-0.0012401240416191,0.0012401228697084,-0.0014185429786502,0.0014185424915569,-0.0014185429123304,0.0014185423446477,-0.0014185425835019,0.0014185426608631,-0.0014185445347159,0.0014185408751674,-0.0012593595143943,0.0012593629492224,-0.0012593641913599,0.0012593577827593,-0.0011662537492895,0.0011662558060867,-0.0011662576880323,0.0011662515892614,2.0267639945159e-09,-1.8788816685724e-09,-0.0012401233803487,0.0012401235310209,-1.3650951678679e-10,2.8396764404222e-10,-0.0014185423620605,0.0014185430694294,-0.0014185413107928,0.0014185439785448,-0.0014185428909422,0.0014185423595921,-0.0014185438182253,0.0014185415911234,-0.0011662577149706,0.0011662515259271,-0.0011662513519685,0.0011662582267809,0.67476321355413,131329,3014,0.0039089221897601,0.0051530869345301,0.0051530869346165,22.993095646961,-5.3655234824312e-05,-5.3655234824312e-05,-5.3655234824312e-05,3341169.7219111,0.014317746235464
17419200,0.98012208072989,0.014762548715951,0.0042536608653463,0.0052544439252751,0.0052544439253298,-0.0009392712552251,0.00093927095149481,1.4931038740839e-09,-1.8035161520548e-09,1.46036282233e-09,-1.8133483324532e-09,-0.0011033514401036,0.0011033528844948,-0.001103351790637,0.0011033523521909,-0.0011033517960745,0.0011033524031252,-0.0011033540629206,0.0011033503042914,-0.0010058246246932,0.0010058292082939,-0.0010058305766294,0.0010058231556544,1.9376202064026e-10,-1.3989323062033e-09,7.4455331491742e-10,-1.9246444388466e-09,-0.0012403028467879,0.0012403016696534,-0.0014188953060233,0.0014188947918309,-0.0014188951582197,0.0014188947291761,-0.0014188948880217,0.0014188949885891,-0.0014188969249578,0.0014188931152804,-0.0012595906328375,0.0012595942769016,-0.0012595955821961,0.0012595888358602,-0.0011664740383515,0.0011664765281784,-0.0011664784231313,0.0011664718687957,2.0187856017797e-09,-1.8710129467211e-09,-0.0012403021827892,0.00124030233363,-1.4123523197826e-10,2.8820981891728e-10,-0.0014188947238445,0.0014188953375965,-0.0014188935828705,0.0014188963339053,-0.001418895162443,0.0014188947179971,-0.0014188961722839,0.00141889387011,-0.0011664783510773,0.0011664719157298,-0.0011664717320258,0.0011664788604008,0.64748128238222,131329,3014,0.0039089360124722,0.0051538254610581,0.0051538254610123,22.736619930107,-5.5707040559144e-05,-5.5707040559144e-05,-5.5707040559144e-05,3334224.330495,0.014319262551783
17619200,0.98063328504802,0.014769098286844,0.0042554646809004,0.0052568168029434,0.0052568168030002,-0.00093452042529107,0.00093452011305275,1.2270083885889e-09,-1.5476154943796e-09,1.4775214166173e-09,-1.8403445552665e-09,-0.001098618693126,0.0010986198575516,-0.0010986187660336,0.0010986196017008,-0.0010986189493815,0.0010986194748886,-0.0010986211491326,0.0010986174419005,-0.001000931608784,0.0010009359715152,-0.0010009373677908,0.0010009301207168,1.4756122662566e-09,-2.770211480393e-09,6.1374362307888e-10,-1.8712265847852e-09,-0.0012354684834217,0.0012354672281986,-0.0014140965527371,0.001414096672267,-0.0014140962393725,0.0014140967709012,-0.0014140968984991,0.0014140960895833,-0.0014140989823689,0.0014140941720394,-0.0012546855248618,0.0012546883212255,-0.0012546905992177,0.0012546827657784,-0.0011616312775912,0.0011616366708299,-0.0011616385743714,0.0011616290860765,1.7653959057198e-09,-1.61335967444e-09,-0.0012354677788114,0.00123546793293,-1.7435898733497e-10,3.2647458601373e-10,-0.0014140964299884,0.0014140967520669,-0.0014140951647995,0.0014140978766035,-0.0014140965965135,0.0014140964047372,-0.0014140976840219,0.0014140954685365,-0.0011616369084727,0.0011616306920724,-0.0011616305024173,0.001161637466958,0.62390560048762,131329,3014,0.0038892129402163,0.0051337877657552,0.0051337877660036,19.883696265007,-7.8530429879947e-05,-7.8530429879947e-05,-7.8530429879947e-05,3298230.4665806,0.014258607957535
17819200,0.9811112674918,0.014775004512696,0.004257086921993,0.0052589587953256,0.0052589587953775,-0.00093367573031754,0.00093367544814036,1.3940509596707e-09,-1.6839011043595e-09,9.6205139251975e-10,-1.28915048472e-09,-0.0010978286955341,0.001097829603096,-0.001097828832308,0.0010978292847898,-0.0010978285662581,0.0010978296091888,-0.0010978309031377,0.0010978274399185,-0.001000074047009,0.0010000792202309,-0.0010000802249539,0.0010000729396146,1.0600248665799e-09,-2.3248146839705e-09,6.7339074991297e-10,-1.9043729446542e-09,-0.0012346809951094,0.0012346797664828,-0.0014133623583955,0.001413362214541,-0.0014133620383092,0.0014133623225216,-0.0014133623879866,0.0014133619561994,-0.0014133645378761,0.0014133599720764,-0.0012538891880431,0.0012538925337588,-0.0012538944908346,0.001253886744947,-0.0011608416322785,0.001160846288483,-0.0011608482054065,0.0011608394360566,1.9207456410097e-09,-1.7728974736697e-09,-0.0012346803056209,0.001234680455974,-1.2883040229023e-10,2.7547471111314e-10,-0.0014133620570122,0.0014133624744285,-0.0014133607855175,0.0014133636057136,-0.0014133622929572,0.0014133620616204,-0.0014133634500999,0.0014133610597493,-0.00116084714825,0.001160840458896,-0.001160840294334,0.0011608476595111,0.60341924873633,131329,3014,0.0038857077861824,0.0051305233578202,0.0051305233578265,19.210489251197,-8.391608599042e-05,-8.391608599042e-05,-8.391608599042e-05,3290765.8777142,0.014248430474642
18019200,0.98157643154965,0.014780748097355,0.0042586665556187,0.005261040770842,0.0052610407708939,-0.0009339804814638,0.00093398018605247,1.3755761969738e-09,-1.6788297586386e-09,1.2060684787888e-09,-1.5491105511478e-09,-0.0010982066556236,0.0010982078816955,-0.0010982069561851,0.0010982073991585,-0.0010982068663521,0.0010982075465699,-0.0010982090215762,0.0010982055585697,-0.0010003848061244,0.001000389258452,-0.0010003904447392,0.0010003835207071,1.0086552386256e-09,-2.2716752486158e-09,6.6502702918038e-10,-1.8948107278352e-09,-0.0012350848851469,0.0012350836578088,-0.0014138374050999,0.0014138373954479,-0.0014138372527062,0.00141383733527,-0.0014138375727674,0.0014138369977623,-0.0014138395436988,0.0014138351922964,-0.0012542781220416,0.001254280949651,-0.0012542828723009,0.0012542757147894,-0.0011612228943283,0.0011612269435505,-0.0011612288506901,0.0011612207066214,1.9144414977734e-09,-1.7649712813977e-09,-0.0012350841954584,0.0012350843475096,-1.5029156331355e-10,2.9905666961226e-10,-0.0014138370934176,0.0014138376656135,-0.0014138359808343,0.0014138386382286,-0.0014138374969235,0.0014138370843723,-0.0014138384653809,0.0014138362695979,-0.0011612278255457,0.0011612216859563,-0.0011612215074524,0.0011612283552628,0.60266015211438,131329,3014,0.0038869742130693,0.0051321971382595,0.0051321971382841,19.169434890086,-8.4244520879309e-05,-8.4244520879309e-05,-8.4244520879309e-05,3294038.0278528,0.014253109843334
18219200,0.98199022996625,0.014785962869653,0.0042601061947473,0.0052629283374277,0.0052629283374782,-0.00093165999527804,0.00093165973174687,1.5533258247858e-09,-1.8238692912216e-09,6.2089031752111e-10,-9.2573328168958e-10,-0.0010958745576074,0.001095875325364,-0.0010958747612541,0.0010958749404741,-0.0010958741755935,0.0010958755863457,-0.0010958766372571,0.0010958732924793,-0.00099797839936741,0.00099798421619628,-0.00099798497112843,0.00099797754057366,6.7828447097048e-10,-1.9177790793788e-09,7.2414764288861e-10,-1.9333836672469e-09,-0.0012327307744571,0.0012327295674687,-0.0014114986626759,0.0014114982833552,-0.0014114983394339,0.0014114983974779,-0.0014114984137384,0.0014114983108944,-0.0014115006165956,0.0014114962711556,-0.0012518610399105,0.0012518648618777,-0.0012518665281619,0.0012518588810054,-0.0011588337648952,0.0011588377425086,-0.0011588396618262,0.0011588315656505,2.0786237764116e-09,-1.9349078201884e-09,-0.001232730097334,0.0012327302445454,-8.7296053518429e-11,2.2951892679551e-10,-0.0014114981957222,0.0014114987120611,-0.0014114969210062,0.0014114998439282,-0.0014114985051356,0.0014114982252821,-0.0014114997219822,0.001411497169166,-0.0011588391728621,0.0011588320412266,-0.0011588318976812,0.0011588396398806,0.61339064094397,131329,3014,0.0038773383331808,0.0051224404077219,0.0051224404076268,17.684024146231,-9.612780683015e-05,-9.612780683015e-05,-9.612780683015e-05,3279375.2432185,0.014223543139479
18419200,0.98236404541452,0.014790713292795,0.0042614213151354,0.0052646459888033,0.0052646459888566,-0.00092971876838989,0.00092971850564669,1.5696478439241e-09,-1.8398040332203e-09,5.6925160207784e-10,-8.7330178940626e-10,-0.0010939222688131,0.0010939229561133,-0.0010939224271028,0.0010939226164218,-0.0010939217956374,0.0010939233086726,-0.001093924323472,0.0010939209478474,-0.00099597918734621,0.00099598523354611,-0.00099598595473744,0.00099597836300491,6.7663914153518e-10,-1.917248229254e-09,7.2208599209581e-10,-1.9321750253917e-09,-0.0012307578999751,0.0012307566922697,-0.0014095339085414,0.0014095334687236,-0.0014095335280645,0.0014095336399235,-0.0014095335996966,0.001409533554822,-0.0014095358581866,0.0014095314586089,-0.001249852313539,0.001249856293093,-0.001249857960747,0.0012498501513937,-0.0011568437900787,0.0011568479326683,-0.001156849851328,0.0011568415913311,2.0999156527241e-09,-1.9557014521925e-09,-0.0012307572225125,0.0012307573697579,-7.7209751795082e-11,2.1991001266477e-10,-0.0014095334294905,0.0014095339100202,-0.0014095321046037,0.0014095350908564,-0.0014095336955769,0.0014095334640968,-0.0014095349763798,0.001409532344556,-0.0011568493825626,0.0011568420377511,-0.0011568418992408,0.0011568498439246,0.61738717421768,131329,3014,0.0038692776692785,0.0051142635166531,0.0051142635167054,16.425381556543,-0.00010619694754766,-0.00010619694754766,-0.00010619694754766,3265502.6927387,0.014198780090279
18619200,0.9827197200772,0.014795190270066,0.0042626604668083,0.0052662649016018,0.0052662649016561,-0.00092920498852525,0.00092920469186957,1.3451962284139e-09,-1.6497701778594e-09,1.224919892744e-09,-1.5691916672717e-09,-0.0010934435389109,0.0010934448811673,-0.0010934439453029,0.0010934442921494,-0.001093443888818,0.0010934444117002,-0.001093445898317,0.0010934425675557,-0.00099545582511305,0.00099545982962735,-0.0009954610303427,0.00099545452525096,9.5485445555483e-10,-2.2120308655784e-09,6.527411751615e-10,-1.8769311242433e-09,-0.0012302713449446,0.001230270123165,-0.0014090838607778,0.0014090839314693,-0.0014090838218377,0.0014090837573042,-0.0014090841122284,0.0014090834493498,-0.0014090859471147,0.001409081776073,-0.0012493575047271,0.0012493599787497,-0.0012493618591852,0.0012493551411942,-0.0011563505532064,0.0011563541395139,-0.0011563560347422,0.0011563483803893,1.899501279481e-09,-1.7513059413939e-09,-0.0012302706588738,0.0012302708094803,-1.4533757183106e-10,2.9229499585322e-10,-0.0014090835285905,0.0014090842189597,-0.0014090825460393,0.0014090850662681,-0.0014090840467934,0.0014090835200979,-0.0014090848980821,0.001409082828342,-0.0011563550600728,0.0011563493197,-0.0011563491403577,0.0011563555849464,0.61178947588756,131329,3014,0.0038671450913006,0.0051122467329563,0.0051122467334712,15.966978829116,-0.00010986416936707,-0.00010986416936707,-0.00010986416936707,3261210.9920415,0.014192526211346
18819200,0.98306443969932,0.014799834992839,0.0042639603083547,0.0052679373422168,0.0052679373422676,-0.0009292104330811,0.00092921013691368,1.4017263989266e-09,-1.7040568192045e-09,1.326493442977e-09,-1.669667246047e-09,-0.0010934921428043,0.0010934936130114,-0.0010934926093535,0.0010934929662683,-0.0010934925813219,0.0010934930519697,-0.0010934946068156,0.0010934911942218,-0.00099547049479853,0.00099547450020914,-0.00099547576148248,0.00099546912615372,5.5426364074618e-10,-1.7835577438477e-09,6.9229990113189e-10,-1.8927607632504e-09,-0.0012303240346232,0.0012303228365669,-0.0014091787495515,0.0014091786093323,-0.0014091787527958,0.0014091783985568,-0.0014091787549018,0.0014091783854245,-0.0014091805848602,0.0014091767179024,-0.0012494120800074,0.0012494148721809,-0.0012494164462274,0.0012494100187615,-0.0011563962846325,0.0011563990050438,-0.0011564008974335,0.0011563941162138,1.9593336204675e-09,-1.8137591641967e-09,-0.0012303233608842,0.0012303235102862,-1.3450543427484e-10,2.786596204634e-10,-0.0014091782802724,0.0014091790407917,-0.0014091773242942,0.0014091798559256,-0.0014091788635053,0.0014091782812464,-0.0014091796998297,0.0014091776059034,-0.0011564004158972,0.0011563945935623,-0.0011563944163727,0.0011564009187682,0.64923265490421,131329,3014,0.0038671684869131,0.0051124651002472,0.0051124651002097,15.790987196568,-0.00011127210242746,-0.00011127210242746,-0.00011127210242746,3260945.8741739,0.014192992848482
19019200,0.98341065116738,0.01480480809945,0.004265364328478,0.0052697218854586,0.0052697218855132,-0.00093021293969235,0.00093021261784813,1.3909440968773e-09,-1.7214237251868e-09,1.67853945736e-09,-2.0538690493574e-09,-0.0010946259828572,0.0010946274079818,-0.0010946261811483,0.001094627027968,-0.0010946263994662,0.0010946268667155,-0.0010946286923951,0.0010946247394789,-0.00099653907566259,0.00099654360974922,-0.00099654515031057,0.00099653743637965,2.4918514215618e-10,-1.4604456608728e-09,7.1268402923614e-10,-1.8979818343229e-09,-0.0012314377969889,0.0012314366142965,-0.0014103887017539,0.0014103881095023,-0.0014103884446564,0.0014103881528473,-0.0014103882266594,0.0014103883546692,-0.0014103903366437,0.0014103864100598,-0.001250581038833,0.0012505848649737,-0.001250586216213,0.0012505791996567,-0.001157543062674,0.0011575459633104,-0.0011575478401138,0.0011575409086774,1.970306440079e-09,-1.8196419243647e-09,-0.001231437129388,0.0012314372820528,-1.4569693441161e-10,2.9549276569296e-10,-0.0014103881399198,0.0014103886300632,-0.0014103869099968,0.0014103897222919,-0.0014103884571983,0.0014103881331558,-0.0014103895503731,0.0014103871933988,-0.0011575476554521,0.0011575410352382,-0.0011575408589395,0.0011575481866624,0.68719398694822,131329,3014,0.0038713357545567,0.0051170803109423,0.0051170803112626,16.17231695387,-0.00010822146436904,-0.00010822146436904,-0.00010822146436904,3263635.0185687,0.014206583780016
19219200,0.9837791641301,0.014810269006285,0.004266911264671,0.0052716788707822,0.0052716788708314,-0.00093289228333801,0.00093289196502401,1.5289205543207e-09,-1.8533408910609e-09,1.8221853723112e-09,-2.1929162671192e-09,-0.0010975537752287,0.0010975547888581,-0.0010975534663606,0.0010975549163347,-0.0010975536868514,0.0010975547509171,-0.0010975566685879,0.0010975519361552,-0.0009993571669288,0.00099936366726235,-0.00099936529257682,0.00099935543612265,-5.0041494808205e-10,-6.6072936070099e-10,7.942030071001e-10,-1.9361926278565e-09,-0.0012343316619396,0.001234330523471,-0.001413454536124,0.0014134529141795,-0.0014134537221368,0.0014134535208064,-0.0014134529552822,0.0014134542816228,-0.0014134556982257,0.0014134516983564,-0.0012535877845361,0.0012535940693215,-0.0012535948571331,0.001253586503954,-0.0011605086272864,0.0011605118039241,-0.0011605136851644,0.0011605064827708,2.1092371301947e-09,-1.9614449894961e-09,-0.0012343310173677,0.0012343311680279,-1.3505054497502e-10,2.816959777636e-10,-0.0014134537129959,0.0014134537041752,-0.0014134518880352,0.0014134553840871,-0.0014134535259028,0.0014134537103919,-0.001413455228192,0.0014134521712827,-0.0011605144204354,0.0011605057254112,-0.0011605055401149,0.0011605149251983,0.7067836045105,131329,3014,0.0038824701836432,0.0051290723324033,0.0051290723323729,17.486252910849,-9.7709976713206e-05,-9.7709976713206e-05,-9.7709976713206e-05,3274765.7293257,0.014242208264948
19419200,0.98415656467186,0.014815730749855,0.0042684515629162,0.0052736395934428,0.0052736395934964,-0.0009345127613981,0.00093451243728181,1.4269651543705e-09,-1.754960760624e-09,2.2161414342533e-09,-2.5943055829511e-09,-0.0010994356933479,0.0010994376401782,-0.0010994360570558,0.0010994370966249,-0.0010994366088053,0.0010994365970048,-0.001099438786788,0.0010994345897047,-0.0010010793402543,0.0010010831968122,-0.001001085085348,0.0010010773473754,-5.1712330904078e-10,-6.4533990447434e-10,7.8527218583221e-10,-1.930035998869e-09,-0.0012361388909337,0.0012361377512408,-0.001415444287318,0.0014154433937711,-0.0014154442116425,0.0014154432702181,-0.0014154434489154,0.0014154440362663,-0.0014154454398737,0.0014154422015066,-0.0012554903144577,0.0012554944454577,-0.0012554952219431,0.00125548904363,-0.0011623935561562,0.0011623945260956,-0.001162396420809,0.0011623914154363,2.0140028211257e-09,-1.8669161243468e-09,-0.0012361382447483,0.001236138397122,-1.7084993235773e-10,3.1594611565128e-10,-0.0014154435031519,0.001415444150816,-0.0014154423926065,0.0014154451127987,-0.0014154439975083,0.0014154434810294,-0.0014154449350973,0.001415442714421,-0.0011623970674587,0.0011623907713508,-0.0011623905442871,0.0011623975745558,0.6926516949857,131329,3014,0.0038892092276934,0.0051365599504497,0.0051365599498197,18.222670801368,-9.1818633589059e-05,-9.1818633589059e-05,-9.1818633589059e-05,3278187.9996887,0.014264238694341
19619200,0.98453068670778,0.014821000379579,0.0042699315244395,0.0052755344275386,0.0052755344276011,-0.00093521546018768,0.00093521514745334,1.5606643054532e-09,-1.877090484233e-09,1.949078485049e-09,-2.3131477890405e-09,-0.001100346841814,0.0011003479592017,-0.0011003465505419,0.0011003480695007,-0.0011003468327606,0.0011003478417231,-0.001100349836372,0.0011003450073078,-0.0010018425624806,0.0010018490439209,-0.0010018507417534,0.0010018407627952,-7.4939674104444e-10,-3.9494027981614e-10,8.2518807076297e-10,-1.9535600004694e-09,-0.0012369833361798,0.0012369822115116,-0.0014164368822918,0.0014164351172641,-0.0014164360844861,0.0014164357131773,-0.0014164351350083,0.0014164366639821,-0.0014164378914549,0.0014164340638591,-0.001256396792851,0.0012564033196655,-0.0012564039201887,0.0012563957018231,-0.0011632962298232,0.0011632989000028,-0.0011633007898542,0.0011632940845745,2.1460965559881e-09,-2.0010610278415e-09,-0.0012369826985928,0.0012369828488604,-1.4886299004372e-10,2.9227903145857e-10,-0.0014164359816446,0.0014164359897503,-0.0014164341444059,0.0014164376785342,-0.0014164358208724,0.0014164359717712,-0.0014164375175882,0.0014164344451453,-0.001163301817106,0.0011632930569139,-0.001163292854285,0.0011633023123635,0.67639367891068,131329,3014,0.0038921357482594,0.0051400575370009,0.0051400575365052,18.456254146148,-8.994996683082e-05,-8.994996683082e-05,-8.994996683082e-05,3277020.4246229,0.014274306675586
19819200,0.98489839705124,0.014826019571601,0.0042713349783509,0.0052773422965904,0.0052773422966595,-0.00093567270665104,0.00093567238895326,1.5232569106646e-09,-1.8470404962395e-09,1.9084249796916e-09,-2.2795202598678e-09,-0.0011009722843478,0.0011009734593889,-0.0011009720768433,0.0011009734855081,-0.001100972360605,0.0011009732576942,-0.0011009752318629,0.001100970554327,-0.0010023453788729,0.0010023514700056,-0.0010023531504356,0.0010023435994252,-5.4241177599588e-10,-6.1628984589692e-10,8.1138017571198e-10,-1.9520611090125e-09,-0.0012375627724312,0.0012375616350465,-0.0014171389950996,0.0014171374743845,-0.0014171383068862,0.0014171379562297,-0.0014171375053677,0.0014171387533312,-0.0014171401441158,0.0014171362739837,-0.0012570195487229,0.0012570255719726,-0.0012570263281234,0.0012570183006517,-0.0011639174787134,0.0011639202377914,-0.001163922128694,0.001163915323924,2.1193283782669e-09,-1.9713995973896e-09,-0.001237562127754,0.0012375622796353,-1.5508546730425e-10,3.0151435847273e-10,-0.0014171381688402,0.0014171382677332,-0.0014171364453373,0.0014171398473152,-0.0014171381016602,0.0014171381555051,-0.0014171396764097,0.0014171367455874,-0.0011639228980434,0.0011639145321401,-0.0011639143289875,0.0011639234094579,0.65787307110597,131329,3014,0.0038940413045506,0.0051424571284488,0.0051424571282633,18.55820506972,-8.9134359442238e-05,-8.9134359442238e-05,-8.9134359442238e-05,3275842.3338359,0.014281110438705
20019200,0.98525397652528,0.014831063298957,0.0042727536848899,0.0052791548069991,0.0052791548070676,-0.00093567239162382,0.00093567207396465,1.4573679974375e-09,-1.7820115045659e-09,1.7984296587967e-09,-2.1691990996036e-09,-0.0011010871055425,0.0011010884641181,-0.001101087157735,0.0011010882300208,-0.0011010874090934,0.001101088035171,-0.0011010899338709,0.001101085677059,-0.0010023738149394,0.0010023789551243,-0.0010023805652027,0.0010023721061079,-1.9028066110938e-10,-9.9283613430967e-10,7.8256166230458e-10,-1.9442610628851e-09,-0.0012376525092914,0.0012376513504898,-0.0014173170098003,0.0014173159974146,-0.0014173166112536,0.0014173161870492,-0.0014173160578465,0.0014173167301234,-0.00141731838434,0.0014173145644097,-0.0012571367168593,0.0012571415249381,-0.0012571425480193,0.0012571352033035,-0.0011640324405692,0.001164034977917,-0.0011640368710706,0.0011640302740889,2.0599198195694e-09,-1.9103362348335e-09,-0.0012376518535803,0.0012376520062217,-1.6138959057056e-10,3.1002539746633e-10,-0.0014173163069629,0.0014173166646731,-0.0014173148822042,0.0014173179468763,-0.0014173165012694,0.0014173162888561,-0.0014173177681257,0.0014173151824981,-0.0011640372148516,0.0011640298950414,-0.001164029696469,0.0011640377414972,0.68048788347687,131329,3014,0.0038940448299977,0.0051428276616013,0.0051428276616425,18.401176996218,-9.0390584030258e-05,-9.0390584030258e-05,-9.0390584030258e-05,3272979.7685214,0.014281867279725
20219200,0.98560022171716,0.014836125809988,0.0042741837622032,0.0052809710238597,0.0052809710239254,-0.00093585654258712,0.00093585621777345,1.3106228034318e-09,-1.6435686631055e-09,1.8366844944318e-09,-2.2158708570781e-09,-0.0011014133585193,0.0011014151974338,-0.0011014138718623,0.0011014145017048,-0.0011014142435757,0.0011014141865052,-0.0011014161177788,0.0011014124778852,-0.0010026045300842,0.0010026076897603,-0.0010026093399028,0.001002602780699,2.9035689519092e-10,-1.5074296363645e-09,7.3341656367016e-10,-1.9243756006496e-09,-0.0012379393628682,0.0012379381747864,-0.0014177072844376,0.0014177071005625,-0.0014177074141175,0.0014177067587093,-0.0014177072078509,0.0014177069488267,-0.0014177089621348,0.0014177053572813,-0.0012574738563366,0.0012574765797472,-0.0012574779666305,0.0012574719787746,-0.0011643641167509,0.0011643659717493,-0.0011643678671529,0.0011643619406801,1.9241561941138e-09,-1.7712710198274e-09,-0.0012379386915867,0.001237938846232,-1.8265379140499e-10,3.35324285985e-10,-0.0014177067701644,0.0014177075753183,-0.0014177058839486,0.0014177083217612,-0.0014177074252399,0.0014177067382846,-0.0014177081235654,0.0014177061949649,-0.0011643675721541,0.0011643621869704,-0.0011643619787921,0.0011643681276756,0.6990904372119,131329,3014,0.0038948157575746,0.0051440147781391,0.0051440147784782,18.352389203157,-9.0780886374747e-05,-9.0780886374747e-05,-9.0780886374747e-05,3269395.9992809,0.014285060187164
20419200,0.98594401057401,0.014841159218586,0.0042756058038033,0.0052827767073607,0.0052827767074218,-0.00093659038452563,0.00093659008618744,1.4087583954569e-09,-1.7135321925913e-09,1.4902789025319e-09,-1.8378903674756e-09,-0.0011023320175421,0.0011023335117867,-0.0011023324019495,0.0011023329461412,-0.0011023324759123,0.0011023329289524,-0.0011023345937664,0.001102330978797,-0.0010034068744896,0.0010034110324998,-0.0010034124116306,0.0010034053932131,2.3877096626608e-10,-1.4510651888185e-09,7.526291674621e-10,-1.9391753404949e-09,-0.0012388078567201,0.0012388066734065,-0.0014187057649939,0.0014187053661232,-0.0014187057137853,0.001418705211215,-0.0014187054632502,0.0014187054528866,-0.0014187074184972,0.0014187036573146,-0.0012584102631627,0.0012584136576768,-0.0012584149989393,0.0012584084294743,-0.0011652921948348,0.0011652945209273,-0.0011652964346248,0.0011652900103581,2.0110285852807e-09,-1.8619877430232e-09,-0.0012388071888325,0.0012388073412444,-1.6212883110491e-10,3.0980476073604e-10,-0.0014187052050542,0.0014187058910892,-0.0014187041374555,0.0014187068152909,-0.0014187057301043,0.0014187051879727,-0.0014187066383929,0.0014187044414574,-0.0011652962982421,0.0011652901298888,-0.0011652899223781,0.0011652968165321,0.69998784002207,131329,3014,0.0038978708923894,0.0051476121546638,0.0051476121545627,18.616112545763,-8.8671099633893e-05,-8.8671099633893e-05,-8.8671099633893e-05,3268516.4233725,0.01429546068345
20619200,0.98627489623357,0.014845464645137,0.0042768011119161,0.005284331766579,0.0052843317666421,-0.00093639702516694,0.0009363967540726,1.5739462089355e-09,-1.8500127244694e-09,1.0274764578877e-09,-1.341950886851e-09,-0.0011023056303138,0.001102306423047,-0.0011023056048797,0.0011023062678626,-0.0011023052619484,0.0011023066696101,-0.0011023079906902,0.0011023041097157,-0.0010032299202995,0.0010032362534211,-0.0010032372773366,0.0010032287890257,2.4298809061489e-10,-1.4529463240754e-09,7.8978594873489e-10,-1.9744700633936e-09,-0.0012387064945973,0.0012387053134304,-0.0014187248789446,0.0014187240041015,-0.0014187243449353,0.0014187243351368,-0.0014187240781013,0.001418724596536,-0.0014187265623471,0.0014187222702924,-0.0012583362122945,0.001258341188692,-0.0012583425267296,0.0012583343793116,-0.0011652343996535,0.0011652382263672,-0.0011652401659573,0.0011652321895183,2.1639748075256e-09,-2.0203870587975e-09,-0.0012387058298339,0.0012387059779879,-1.0884059122994e-10,2.5013383711239e-10,-0.0014187242672876,0.0014187245825669,-0.0014187227284665,0.00141872597689,-0.0014187243891537,0.00141872428459,-0.0014187258431995,0.001418722996969,-0.0011652401924861,0.0011652321629338,-0.0011652319912318,0.0011652406560283,0.63099508997216,131329,3014,0.0038970755033923,0.0051471899673715,0.0051471899669461,18.385240208779,-9.0518078329765e-05,-9.0518078329765e-05,-9.0518078329765e-05,3262430.8109322,0.014293800845504
20819200,0.98658463292015,0.014849829927601,0.0042780290714775,0.0052859004280287,0.005285900428095,-0.00093542759054929,0.00093542731721771,1.531415844356e-09,-1.8122786050444e-09,8.275399548989e-10,-1.1449163484738e-09,-0.0011013576266108,0.0011013582440125,-0.0011013575582134,0.0011013581302196,-0.0011013571142363,0.0011013586349122,-0.0011013598268962,0.0011013560885577,-0.0010022403947299,0.0010022468150211,-0.0010022477163958,0.001002239393889,6.076475267924e-10,-1.8445570990321e-09,7.4779690679621e-10,-1.9555326087816e-09,-0.0012377583708606,0.0012377571656076,-0.0014178033170128,0.0014178026459877,-0.0014178027539391,0.0014178029999412,-0.0014178027575016,0.0014178029808828,-0.0014178052327476,0.0014178006663942,-0.0012573702321583,0.0012573749090413,-0.0012573765279624,0.0012573681196389,-0.0011642770507747,0.0011642816324892,-0.0011642835601053,0.0011642748385115,2.1308892614428e-09,-1.984385486562e-09,-0.0012377576935112,0.0012377578429811,-1.0541506623032e-10,2.5063034779727e-10,-0.0014178028206445,0.0014178031043329,-0.0014178012777729,0.0014178045047884,-0.0014178029058126,0.0014178028378481,-0.0014178043669583,0.0014178015356993,-0.0011642831649606,0.0011642751966898,-0.0011642750403923,0.0011642836497027,0.67643100593962,131329,3014,0.003893051278594,0.0051432599396198,0.0051432599396668,17.704168836899,-9.5966649304805e-05,-9.5966649304805e-05,-9.5966649304805e-05,3256189.5158518,0.014281745244024
21019200,0.98686980626622,0.014853711751107,0.004279115838434,0.0052872979563048,0.0052872979563678,-0.00093392385874329,0.0009339235939193,1.4747177310621e-09,-1.7467829178338e-09,6.8410976779854e-10,-9.9097926132263e-10,-0.0010999112948264,0.0010999118518892,-0.0010999112591309,0.0010999117058466,-0.0010999107528605,0.0010999122728906,-0.0010999133551611,0.0010999098375063,-0.0010007073201657,0.0010007135154729,-0.0010007143070856,0.0010007064276387,9.8141185114691e-10,-2.242611017214e-09,7.0082726434004e-10,-1.9292078738942e-09,-0.0012362572092464,0.0012362559831647,-0.0014163489000756,0.0014163485124971,-0.0014163483861691,0.0014163488193898,-0.0014163486696375,0.0014163485208354,-0.0014163510470513,0.0014163463033799,-0.0012558668921839,0.0012558709862354,-0.0012558728831093,0.0012558645033133,-0.0011627955340161,0.0011628006625079,-0.0011628025893171,0.0011627933219088,2.0745246820479e-09,-1.9287521948268e-09,-0.001236256521637,0.001236256670755,-1.060552194682e-10,2.5024049811867e-10,-0.0014163485272735,0.0014163488479294,-0.0014163470563749,0.001416350175336,-0.001416348650345,0.0014163485451908,-0.0014163500389974,0.0014163473167782,-0.0011628017645214,0.0011627941237989,-0.0011627939644293,0.0011628022459187,0.65602048031397,131329,3014,0.0038868109407081,0.0051370371658807,0.0051370371658417,16.748056147474,-0.00010361555082021,-0.00010361555082021,-0.00010361555082021,3242526.002849,0.014262793163192
21219200,0.98711861026508,0.014857122513547,0.0042800726600255,0.0052885249267295,0.0052885249267922,-0.00093086758506448,0.00093086727769908,1.1823153043143e-09,-1.5037323292448e-09,1.0508527399054e-09,-1.4106643709365e-09,-0.0010968197089069,0.0010968200839784,-0.0010968192668301,0.0010968203445322,-0.0010968192009102,0.0010968204705667,-0.001096821848729,0.0010968179864459,-0.00099755867561895,0.00099756468835167,-0.00099756578365281,0.00099755748205514,2.0537507979554e-09,-3.3877692958889e-09,5.7381782901243e-10,-1.8663392232774e-09,-0.0012331108428464,0.0012331095523684,-0.0014131865136793,0.001413186507668,-0.0014131857064755,0.0014131870908144,-0.0014131867735252,0.0014131859860124,-0.0014131893298604,0.0014131836073142,-0.001252675034779,0.0012526787661656,-0.0012526814642009,0.0012526718401853,-0.0011596442412202,0.0011596521733997,-0.0011596540813526,0.0011596420119551,1.8168334697493e-09,-1.6618058099144e-09,-0.0012331101201739,0.0012331102751881,-1.4226020351902e-10,2.9604308205764e-10,-0.0014131865320678,0.0014131864319709,-0.0014131848220533,0.00141318802026,-0.0014131862546725,0.0014131865371448,-0.001413187833514,0.0014131850878663,-0.0011596518642822,0.0011596441143485,-0.0011596439726232,0.0011596524127977,0.65967491781195,131329,3014,0.0038741206846045,0.0051239962848598,0.0051239962851635,14.934618290008,-0.00011812305367993,-0.00011812305367993,-0.00011812305367993,3220166.6968705,0.014223466700623
21419200,0.98734556806927,0.014860259091505,0.0042809548950463,0.0052896520982047,0.0052896520982536,-0.00092902096245144,0.00092902070894189,1.4346477665249e-09,-1.6982673678329e-09,2.8454571982358e-10,-5.7896600948583e-10,-0.0010949589047273,0.0010949593892156,-0.0010949590541699,0.001094959058734,-0.0010949583080996,0.0010949598678305,-0.0010949606658881,0.0010949576758096,-0.00099566643679379,0.00099567218299831,-0.00099567269021604,0.00099566582588752,1.427939977042e-09,-2.7165571883036e-09,6.3858982801588e-10,-1.889831647776e-09,-0.001231216132581,0.0012312148834427,-0.0014112854306205,0.001411285506956,-0.0014112850955087,0.0014112856295305,-0.0014112857144035,0.0014112849882029,-0.0014112878490812,0.0014112830198748,-0.0012507639940394,0.0012507670104978,-0.0012507692360755,0.0012507612755359,-0.0011577581178049,0.0011577635014699,-0.0011577654176524,0.001157755908754,2.0415071308879e-09,-1.8952676401099e-09,-0.0012312154340452,0.0012312155819419,-7.2650702453262e-11,2.1621874287171e-10,-0.0014112851783895,0.0014112857132079,-0.0014112839500734,0.0014112868080184,-0.0014112854955889,0.0014112852218545,-0.0014112866893895,0.001411284178133,-0.0011577641213535,0.0011577571621805,-0.0011577570367983,0.0011577645880437,0.66373849122113,131329,3014,0.0038664537258848,0.0051161431555503,0.0051161431554801,13.799505376273,-0.00012720395698982,-0.00012720395698982,-0.00012720395698982,3205625.7060153,0.014199760022222
21619200,0.9875610400884,0.014863266868697,0.004281802860705,0.0052907320039731,0.0052907320040188,-0.00092825834559533,0.00092825813224338,1.7166076612849e-09,-1.936570814238e-09,-2.9193203735312e-10,4.7032469219762e-11,-0.0010942223673212,0.0010942231650319,-0.0010942231874016,0.0010942221665904,-0.001094221877104,0.0010942235435224,-0.0010942239103901,0.00109422167753,-0.00099489166258493,0.00099489691030211,-0.0009948969700637,0.00099489149088729,5.5144955297486e-10,-1.7709771283864e-09,7.264928141377e-10,-1.9174574531385e-09,-0.0012304520861608,0.001230450897357,-0.0014105409903666,0.0014105410613571,-0.0014105411906402,0.0014105406574761,-0.0014105411797247,0.0014105406566496,-0.0014105428491997,0.0014105391458463,-0.0012500012124175,0.001250003572698,-0.0012500051328248,0.0012499991600043,-0.0011570089536898,0.0011570111296372,-0.0011570130402755,0.0011570067665602,2.3011171216868e-09,-2.1649969558291e-09,-0.0012304514217504,0.0012304515619309,-9.7275368304271e-12,1.4246742824727e-10,-0.0014105403852272,0.001410541627598,-0.0014105396930661,0.0014105421811782,-0.001410541372822,0.0014105404625231,-0.0014105421224001,0.0014105398827173,-0.0011570129556606,0.0011570068839435,-0.0011570067782402,0.0011570133445318,0.66921248591139,131329,3014,0.0038632886478297,0.0051129761356478,0.0051129761360005,13.268934211725,-0.0001314485263062,-0.0001314485263062,-0.0001314485263062,3198719.6191285,0.014190125936686
21819200,0.98777738022422,0.014866240202791,0.0042826396530655,0.0052918002748395,0.0052918002748862,-0.00092903047233604,0.0009290302018504,1.4602523385581e-09,-1.7384869340352e-09,7.1682042953969e-10,-1.0301729806579e-09,-0.0010950823588494,0.0010950832396066,-0.0010950826246038,0.0010950827923692,-0.0010950821546171,0.0010950833229411,-0.0010950844382969,0.0010950812060908,-0.00099570158781929,0.00099570680606319,-0.00099570762787975,0.00099570066351255,7.8302876607245e-10,-2.0278451185398e-09,6.6932979776409e-10,-1.8831762378989e-09,-0.001231296624705,0.0012312954131675,-0.0014114465131617,0.0014114462920083,-0.0014114462847381,0.0014114463135618,-0.0014114464602608,0.0014114461225951,-0.0014114485011481,0.0014114442420407,-0.0012508732305731,0.0012508764629597,-0.0012508782060177,0.0012508709925457,-0.0011578751487163,0.0011578789911769,-0.0011578808786457,0.0011578729761293,2.0830853894065e-09,-1.9390545295681e-09,-0.0012312959453279,0.0012312960925681,-6.7695632827238e-11,2.0958403011645e-10,-0.0014114460531783,0.0014114467147575,-0.0014114449200897,0.0014114477049056,-0.0014114464925684,0.0014114460950226,-0.0014114475966946,0.0014114451513314,-0.0011578802969027,0.001157873537172,-0.0011578734025767,0.0011578807487675,0.65989248900479,131329,3014,0.0038664976085209,0.0051164757161946,0.0051164757162429,13.593614177549,-0.00012885108657961,-0.00012885108657961,-0.00012885108657961,3202349.5323784,0.014200480532934
22019200,0.98799639688534,0.014869197954257,0.0042834699170736,0.0052928640185686,0.0052928640186152,-0.00093004702386613,0.00093004673072705,1.4066511305382e-09,-1.7064184701165e-09,1.2163083876431e-09,-1.5561009101853e-09,-0.0010961928052928,0.0010961938969845,-0.0010961929685199,0.0010961935529568,-0.0010961928600746,0.0010961937195695,-0.0010961951934226,0.0010961915533394,-0.00099675572158801,0.00099676073472995,-0.00099676191651306,0.00099675443345617,4.7043401381133e-10,-1.6927587292468e-09,6.8218372630277e-10,-1.8768986374141e-09,-0.0012323988492889,0.0012323976571937,-0.0014126175094067,0.0014126170100194,-0.0014126172035881,0.0014126171099258,-0.0014126171583062,0.0014126171421185,-0.0014126192811265,0.001412615179471,-0.0012519951985197,0.001251998927865,-0.0012520004382946,0.001251993194671,-0.0011589898650127,0.0011589933273733,-0.0011589951999404,0.0011589877102783,2.0464563478104e-09,-1.9020195151976e-09,-0.0012323981793453,0.0012323983271529,-8.7784099226614e-11,2.3032792993396e-10,-0.001412616968582,0.0014126175146593,-0.0014126157422719,0.0014126185988304,-0.0014126173057074,0.0014126169980756,-0.001412618476225,0.001412615988369,-0.0011589949086233,0.0011589879870491,-0.0011589878403654,0.0011589953748128,0.64982772495909,131329,3014,0.0038707212900434,0.0051210434781164,0.0051210434781505,14.053249646096,-0.00012517400283123,-0.00012517400283123,-0.00012517400283123,3208871.4733975,0.014214031003913
22219200,0.98821897561052,0.01487217776923,0.0042843052528538,0.0052939362581645,0.0052939362582119,-0.00093119120345956,0.00093119089626962,1.4551821998003e-09,-1.7695939420904e-09,1.4669501303864e-09,-1.8239595719342e-09,-0.001097424126819,0.0010974256003333,-0.0010974245099435,0.0010974250326799,-0.0010974245425431,0.0010974250666606,-0.001097426725877,0.001097423047193,-0.00099794001625158,0.00099794440279819,-0.00099794577247465,0.00099793854301591,-1.222416017961e-11,-1.1750569837753e-09,7.2279000337781e-10,-1.8867214108433e-09,-0.0012336350060708,0.0012336338452583,-0.0014139205308419,0.001413919932225,-0.0014139204238405,0.0014139198274614,-0.001413920030478,0.0014139202085121,-0.0014139219838177,0.0014139184121364,-0.0012532475039244,0.0012532510952952,-0.0012532522405547,0.0012532458655352,-0.0011602306280422,0.001160232574177,-0.0011602344314921,0.0011602284931423,2.1079801782408e-09,-1.9631865791152e-09,-0.0012336343521918,0.0012336344993777,-8.9280266784428e-11,2.3188804912633e-10,-0.0014139198252136,0.0014139205945321,-0.0014139187877392,0.0014139214999834,-0.0014139203862275,0.0014139198511469,-0.0014139213730598,0.0014139190289329,-0.001160234695737,0.0011602282064791,-0.0011602280609437,0.0011602351676923,0.64497827117677,131329,3014,0.0038754744223488,0.0051261664828557,0.0051261664833666,14.582771197616,-0.00012093783041907,-0.00012093783041907,-0.00012093783041907,3216966.9648537,0.014229244604604
22419200,0.98844154344957,0.014875295313929,0.0042851847123907,0.0052950553007464,0.0052950553007915,-0.00093190778960807,0.00093190747060101,1.4302375721357e-09,-1.7563845382756e-09,1.7275415398506e-09,-2.0991628154875e-09,-0.0010982074251027,0.0010982090271611,-0.0010982077711856,0.0010982084995519,-0.0010982079909212,0.0010982083381766,-0.0010982101881282,0.0010982063068872,-0.00099868576337946,0.00099869000070517,-0.00099869156047382,0.00099868410264876,-2.074133451772e-10,-9.6785698315559e-10,7.3449304502106e-10,-1.8890149724464e-09,-0.0012344249309705,0.0012344237794556,-0.0014147651875521,0.0014147644410709,-0.001414765059607,0.0014147643609712,-0.0014147645283409,0.0014147648810709,-0.0014147665154171,0.0014147630537548,-0.0012540481461902,0.0012540519722713,-0.0012540529749723,0.0012540466518539,-0.001161019787877,0.0011610214264326,-0.0011610232796317,0.0011610176599694,2.0949972048617e-09,-1.9492758299026e-09,-0.0012344242808228,0.0012344244297113,-1.023643821031e-10,2.4630218813722e-10,-0.0014147644330053,0.0014147651583104,-0.0014147633556881,0.0014147660969085,-0.0014147649578811,0.0014147644525924,-0.0014147659614325,0.0014147636101459,-0.0011610237233447,0.0011610171895036,-0.0011610170321457,0.0011610242042098,0.67139743812652,131329,3014,0.0038784515131011,0.0051294400874716,0.0051294400876991,14.871414694945,-0.00011862868244044,-0.00011862868244044,-0.00011862868244044,3222109.2498863,0.014238905080828
22619200,0.98866186439916,0.014878418591053,0.0042860669177428,0.0052961758366332,0.0052961758366774,-0.00093233590064483,0.00093233556496688,1.3634120764322e-09,-1.7075384965181e-09,1.9804578518132e-09,-2.372630271715e-09,-0.0010987298641203,0.0010987315568584,-0.001098730140419,0.0010987310994834,-0.0010987305742246,0.0010987307228628,-0.0010987327631195,0.0010987286992662,-0.0009991456451017,0.00099914967178476,-0.00099915142314169,0.00099914379245244,-1.7210348612111e-10,-1.0052546540905e-09,7.2931855314925e-10,-1.886066002691e-09,-0.001234923875118,0.0012349227212127,-0.0014153350697525,0.0014153343099569,-0.0014153349064801,0.0014153342617918,-0.0014153343993614,0.0014153347536344,-0.0014153364191058,0.0014153328977947,-0.001254573574461,0.0012545774563745,-0.0012545784848437,0.0012545720534909,-0.0011615381400713,0.0011615399385821,-0.0011615417866549,0.0011615360099799,2.0441812787828e-09,-1.8960122758912e-09,-0.0012349232228919,0.0012349233735807,-1.2123519634797e-10,2.6772433852876e-10,-0.0014153343456211,0.0014153349932132,-0.0014153332260799,0.0014153359788168,-0.0014153348039651,0.001415334355664,-0.0014153358239925,0.0014153334901983,-0.001161542131497,0.0011615356195009,-0.0011615354584615,0.0011615426346503,0.67880652240786,131329,3014,0.0038802326952627,0.0051315071274827,0.0051315071277799,15.008278210969,-0.00011753377431225,-0.00011753377431225,-0.00011753377431225,3222714.4671021,0.01424490646868
22819200,0.98887915812433,0.014881488977127,0.0042869336902991,0.0052972776433938,0.0052972776434344,-0.00093265589949133,0.00093265559376266,1.5606758048372e-09,-1.8735785249916e-09,1.525665432733e-09,-1.8826201789517e-09,-0.0010991497002577,0.0010991513102914,-0.0010991501816844,0.0010991506505837,-0.0010991501758744,0.0010991507075858,-0.001099152406076,0.0010991486456416,-0.00099949646303415,0.0009995009565359,-0.00099950236321141,0.00099949495353741,-6.7251528852772e-10,-4.7221811487323e-10,7.899114352543e-10,-1.9187238658034e-09,-0.0012353127375613,0.0012353116116202,-0.0014157974417118,0.0014157964784252,-0.0014157973950701,0.001415796321101,-0.0014157965160582,0.0014157971920261,-0.0014157984826903,0.001415795388281,-0.0012549917556535,0.0012549958709619,-0.0012549965247951,0.0012549906064918,-0.0011619526233908,0.0011619531626479,-0.001161955017741,0.0011619504948637,2.2301632019274e-09,-2.0848647940469e-09,-0.0012353121000481,0.0012353122490554,-8.9606939775381e-11,2.3330732247439e-10,-0.0014157965071356,0.0014157973830878,-0.0014157954853014,0.0014157982579458,-0.0014157971741787,0.0014157965371661,-0.0014157981347978,0.0014157957354062,-0.0011619560743281,0.0011619494099314,-0.0011619492562315,0.001161956537406,0.67692182967253,131329,3014,0.0038815655888944,0.0051331178192358,0.0051331178190687,15.090279181482,-0.00011687776654814,-0.00011687776654814,-0.00011687776654814,3222033.1250948,0.014249527736979
23019200,0.98909256580036,0.014884281468217,0.0042877133235633,0.0052982840723062,0.0052982840723479,-0.00093284596225236,0.00093284549720673,-2.0981332522929e-10,-2.4757446200542e-10,5.4023400706603e-09,-5.9397910203145e-09,-0.0010994338354518,0.0010994360212395,-0.0010994324402008,0.0010994372298975,-0.0010994361516331,0.0010994335315433,-0.0010994380204097,0.001099431843902,-0.00099970720195474,0.00099970779661125,-0.00099971203383783,0.00099970286081023,3.237152801933e-09,-4.700790461126e-09,3.1185653793939e-10,-1.7190394470822e-09,-0.0012355653158155,0.001235563912693,-0.001416119687718,0.0014161201640327,-0.0014161186730786,0.0014161210063669,-0.0014161207216684,0.0014161189700933,-0.0014161231975108,0.0014161166350213,-0.0012552622464332,0.0012552649634699,-0.0012552686144772,0.0012552581057969,-0.001162218109661,0.0011622288855514,-0.0011622307893434,0.0011622159343991,5.4866288954887e-10,-3.8466108775016e-10,-0.001235564526419,0.0012355647001837,-4.2641455950438e-10,5.9293203915674e-10,-0.0014161205335192,0.001416119329383,-0.0014161184933979,0.0014161211652636,-0.001416119334727,0.001416120353975,-0.0014161208096443,0.0014161190392343,-0.0011622260525945,0.0011622206989271,-0.0011622202927949,0.0011622267621831,0.63260383507632,131329,3014,0.0038823582190264,0.005134163100175,0.0051341630961815,15.108085975573,-0.00011673531219541,-0.00011673531219541,-0.00011673531219541,3221010.5657993,0.014252453841375
23219200,0.9893019269257,0.014887152628218,0.0042885209874372,0.0052993158203515,0.005299315820429,-0.00093302957304804,0.00093302922758108,1.0221418313569e-09,-1.3722056130016e-09,2.4662184056912e-09,-2.8688127316815e-09,-0.001099640541018,0.0010996421124436,-0.0010996404008212,0.0010996420718044,-0.0010996413529049,0.0010996411703889,-0.0010996435285728,0.0010996391627931,-0.00099989853971758,0.00099990216922766,-0.00099990427813358,0.00099989632852331,5.4938570485144e-10,-1.7785085662951e-09,6.6381726013432e-10,-1.8662653539782e-09,-0.0012357929191351,0.0012357917208447,-0.0014163742894769,0.0014163737204801,-0.0014163739080235,0.0014163738906974,-0.0014163738795963,0.0014163739070108,-0.0014163760646628,0.001416371886809,-0.0012554828805265,0.0012554867467808,-0.0012554883246145,0.001255480818494,-0.0011624340607682,0.0011624378347246,-0.0011624397024986,0.0011624319105183,1.724219633509e-09,-1.5724927263678e-09,-0.0012357922425165,0.0012357923973312,-1.9268366532276e-10,3.4449681688813e-10,-0.0014163738747973,0.0014163740929371,-0.0014163725165165,0.0014163753189833,-0.0014163739536824,0.0014163738463782,-0.0014163751122459,0.0014163728319944,-0.001162439007198,0.0011624325748056,-0.0011624323564265,0.0011624395554083,0.65900391038006,131329,3014,0.0038831209918118,0.0051351068434936,0.0051351068432102,15.109152843137,-0.00011672677725491,-0.00011672677725491,-0.00011672677725491,3223446.3273246,0.014255141095467
23419200,0.98950659535738,0.014889927735524,0.0042893002987387,0.005300313718355,0.0053003137184302,-0.00093309810737286,0.00093309773801568,8.1030791103189e-10,-1.1866125278018e-09,2.8374928965692e-09,-3.2692949825765e-09,-0.0010997660772012,0.0010997677603126,-0.0010997657958275,0.0010997678637186,-0.0010997671651601,0.0010997665425745,-0.0010997692000879,0.0010997646755921,-0.00099998111025288,0.00099998404991657,-0.00099998644112125,0.0009999786185381,1.196986047767e-09,-2.467076708978e-09,6.0466080463179e-10,-1.842198792796e-09,-0.0012359091327223,0.0012359078981445,-0.001416538301242,0.0014165381320981,-0.0014165378868406,0.0014165383329937,-0.0014165383511655,0.0014165378469251,-0.0014165405118589,0.0014165358556978,-0.0012556079167616,0.0012556112063939,-0.0012556132664004,0.0012556053756951,-0.0011625523704449,0.0011625574897484,-0.0011625593669013,0.0011625502024696,1.5317967793657e-09,-1.3776564420708e-09,-0.0012359084371531,0.0012359085938371,-2.3776024914642e-10,3.9180833481844e-10,-0.0014165381689032,0.0014165382147595,-0.0014165367801024,0.0014165394797516,-0.0014165381070942,0.0014165381108436,-0.0014165392321217,0.0014165371226301,-0.0011625577681654,0.0011625517733286,-0.0011625515265682,0.0011625583603694,0.65256752833259,131329,3014,0.0038834075333724,0.0051355879291694,0.0051355879294271,15.055144956578,-0.00011715884034738,-0.00011715884034738,-0.00011715884034738,3222639.9650472,0.014256408346208
23619200,0.98971991257996,0.014892891789228,0.0042901358539145,0.005301377967622,0.0053013779676912,-0.00093498454926566,0.00093498415332384,4.3776872149547e-10,-8.3985849689942e-10,3.4502584282675e-09,-3.9135828350837e-09,-0.0011017563029813,0.0011017580353928,-0.0011017556861142,0.0011017584706126,-0.0011017577010208,0.001101756500707,-0.0011017595977468,0.001101754772306,-0.0010019465848447,0.0010019486610584,-0.0010019514978985,0.0010019436530401,1.6943125194096e-09,-3.0068409327941e-09,5.4113955753499e-10,-1.8146439405547e-09,-0.0012379266726902,0.0012379254021291,-0.0014186345747306,0.0014186345845467,-0.0014186340324568,0.0014186349158961,-0.0014186348710062,0.0014186340584193,-0.0014186370979272,0.001418631996321,-0.0012576680519875,0.0012576711543172,-0.0012576736077011,0.0012576651271525,-0.001164578724895,0.0011645851546108,-0.0011645870426961,0.0011645765629329,1.1827062469595e-09,-1.0225452254747e-09,-0.0012379259560017,0.0012379261187844,-3.0959627422281e-10,4.6965423656193e-10,-0.0014186347231846,0.0014186343925908,-0.0014186331809857,0.0014186358014073,-0.0014186343279339,0.0014186346189774,-0.0014186355027929,0.0014186335825099,-0.0011645845479365,0.0011645790091295,-0.0011645787155256,0.0011645852123218,0.66669416108536,131329,3014,0.0038912432836628,0.005143949100916,0.0051439491008444,16.006661505135,-0.00010954670795892,-0.00010954670795892,-0.00010954670795892,3234736.3216313,0.01428131879801
23819200,0.98994582861337,0.014896210493111,0.0042910777927358,0.0053025663501531,0.0053025663502221,-0.00093738392121529,0.00093738360559559,1.3580987552506e-09,-1.6798306847374e-09,1.9080705872239e-09,-2.2773831187737e-09,-0.0011043111773629,0.0011043128443537,-0.0011043114630585,0.0011043123771941,-0.0011043118530172,0.0011043120413813,-0.001104314010773,0.0011043100512592,-0.0010044484626695,0.0010044524708779,-0.0010044541644816,0.0010044466647112,2.1900017143337e-11,-1.2138055389012e-09,7.6940603218351e-10,-1.9381084243022e-09,-0.0012404956725459,0.0012404945075361,-0.0014213184227325,0.0014213178259005,-0.0014213183144918,0.0014213177226858,-0.0014213178967583,0.0014213181316076,-0.0014213199209831,0.0014213162719605,-0.001260299505346,0.0012603032772729,-0.0012603044522929,0.0012602978388958,-0.0011671735131195,0.0011671755549058,-0.0011671774537382,0.0011671713445553,2.0619753938906e-09,-1.9116899053621e-09,-0.0012404950133862,0.0012404951666311,-1.7071705450529e-10,3.2010514300761e-10,-0.0014213177727231,0.0014213184335085,-0.0014213166450403,0.0014213194297176,-0.0014213182834682,0.0014213177559426,-0.001421319239143,0.0014213169469167,-0.0011671776059073,0.0011671711597609,-0.0011671709541406,0.0011671781396253,0.70079571518563,131329,3014,0.0039012110069553,0.0051545955148131,0.0051545955146767,17.23971980033,-9.9682241597359e-05,-9.9682241597359e-05,-9.9682241597359e-05,3249207.5720197,0.014313029745974
24019200,0.99016825297749,0.014899515262397,0.0042920159857823,0.005303749638273,0.0053037496383416,-0.00093772735321932,0.00093772702636222,9.6919457315343e-10,-1.2994900105604e-09,2.2236389153575e-09,-2.6040958358068e-09,-0.0011048037940248,0.001104805280642,-0.0011048036925175,0.001104805201044,-0.0011048045598808,0.0011048043843863,-0.0011048065872376,0.001104802526881,-0.0010048363710276,0.0010048397744603,-0.001004841684941,0.0010048343553453,7.4439259560446e-10,-1.9892649819049e-09,6.8239814271481e-10,-1.8976890382835e-09,-0.0012409324914,0.0012409312797231,-0.0014218641270701,0.001421863826914,-0.0014218638445549,0.0014218639047056,-0.0014218639909233,0.0014218637504468,-0.0014218661001428,0.0014218618018615,-0.0012607824866349,0.0012607859808681,-0.0012607877082433,0.0012607802729206,-0.0011676497651672,0.0011676537104047,-0.0011676556179636,0.0011676475891486,1.6854024553472e-09,-1.5345965251884e-09,-0.0012409318075749,0.0012409319632792,-2.2948751734328e-10,3.7970309353701e-10,-0.0014218638440189,0.0014218640729552,-0.0014218625384456,0.0014218652402182,-0.001421863960746,0.0014218637882882,-0.0014218650087774,0.0014218628918871,-0.0011676546249733,0.001167648572226,-0.0011676483244056,0.0011676551973062,0.7086661796073,131329,3014,0.003902643547738,0.0051564040845564,0.0051564040839971,17.342950941014,-9.8856392471889e-05,-9.8856392471889e-05,-9.8856392471889e-05,3246736.52631,0.014318155407337
24219200,0.99038682021028,0.014902615528198,0.0042928905544638,0.0053048624868312,0.0053048624869033,-0.00093800008447086,0.00093799975004206,7.2918922847549e-10,-1.0690150038254e-09,2.2644882637615e-09,-2.6547862834837e-09,-0.0011052224057702,0.0011052236831457,-0.0011052220719122,0.0011052238352894,-0.0011052231253789,0.001105222834074,-0.0011052250714362,0.001105221056486,-0.0010051557872732,0.0010051589101466,-0.0010051608712726,0.0010051537287792,1.2134612938923e-09,-2.4892836281711e-09,6.3106782847692e-10,-1.8727115763817e-09,-0.0012412952828932,0.0012412940441028,-0.0014223304187479,0.0014223303093692,-0.0014223300366019,0.0014223304815621,-0.0014223305199251,0.0014223299845305,-0.0014223326810194,0.0014223279875873,-0.0012611951760852,0.0012611984516824,-0.0012612005296292,0.0012611926135439,-0.0011680583375011,0.0011680634301076,-0.0011680653336599,0.0011680561584273,1.4576160778294e-09,-1.3035460062702e-09,-0.0012412945843616,0.0012412947424825,-2.5675916068389e-10,4.1069484117216e-10,-0.0014223303476981,0.0014223303376809,-0.001422328953116,0.0014223315986325,-0.0014223302418333,0.0014223302761137,-0.0014223313429179,0.0014223293207255,-0.0011680636287633,0.0011680578274079,-0.0011680575677762,0.001168064235087,0.68010474319399,131329,3014,0.0039037828738757,0.0051579057301826,0.0051579057298638,17.418145961526,-9.8254832307792e-05,-9.8254832307792e-05,-9.8254832307792e-05,3243304.1256112,0.014322360988954
24419200,0.99060155081711,0.014905658440961,0.0042937491462714,0.0053059546473091,0.0053059546473808,-0.00093827968286181,0.00093827941154115,1.6550718863958e-09,-1.9326404449551e-09,1.0083603988996e-09,-1.3246870276618e-09,-0.0011056017999488,0.0011056031956777,-0.0011056023842768,0.001105602429427,-0.0011056019822887,0.0011056028906083,-0.0011056042040378,0.0011056008361178,-0.0010054704504998,0.0010054753072839,-0.001005476338682,0.0010054693189004,3.599090920718e-10,-1.5714986357292e-09,7.8801555604849e-10,-1.9727090178919e-09,-0.0012416533495746,0.0012416521677009,-0.0014227630810003,0.0014227628397582,-0.001422763106453,0.0014227626037192,-0.0014227629103283,0.0014227627901383,-0.0014227648345364,0.0014227610288438,-0.0012615822539869,0.0012615854942597,-0.0012615869136494,0.0012615803438419,-0.0011684403561811,0.0011684427262057,-0.0011684446586216,0.0011684381511834,2.3510305936292e-09,-2.2052822477882e-09,-0.0012416526839144,0.0012416528332614,-1.2267543752606e-10,2.6704982478175e-10,-0.0014227624392263,0.0014227634393396,-0.0014227614597112,0.0014227642850884,-0.0014227632586304,0.0014227624513708,-0.0014227641332169,0.0014227617275296,-0.0011684447539739,0.0011684380286234,-0.0011684378590869,0.0011684452456103,0.6793499462455,131329,3014,0.0039049484182019,0.0051593885895278,0.0051593885893188,17.491760111511,-9.766591910791e-05,-9.766591910791e-05,-9.766591910791e-05,3242554.8741729,0.014326553209801
24619200,0.99081159786359,0.014908783919094,0.004294636946103,0.0053070734864602,0.0053070734865314,-0.00093844324162027,0.00093844300710852,2.2249179836064e-09,-2.4657215963978e-09,2.9905773981486e-10,-5.7200323904663e-10,-0.0011058529157682,0.0011058544520297,-0.0011058540851308,0.0011058531010816,-0.0011058528408586,0.001105854407736,-0.0011058552038056,0.0011058522125614,-0.0010056668521979,0.0010056726589153,-0.0010056731550899,0.0010056662553354,-4.2738685302299e-12,-1.1811275876166e-09,8.6688867428668e-10,-2.0286307785066e-09,-0.0012418874926956,0.0012418863336368,-0.0014230636702357,0.0014230634788579,-0.0014230639568741,0.0014230629867816,-0.0014230634881502,0.0014230634504914,-0.0014230652377642,0.0014230618592554,-0.0012618455507062,0.0012618485559374,-0.0012618496990158,0.0012618439116076,-0.0011686965161545,0.0011686975084185,-0.0011686994616477,0.0011686942891252,2.9083115413729e-09,-2.7681563912518e-09,-0.0012418868408619,0.001241886985298,-4.4436773428251e-11,1.8209181436712e-10,-0.0014230627451524,0.0014230643668711,-0.0014230620315823,0.0014230649419532,-0.0014230641365999,0.001423062805036,-0.001423064852599,0.0014230622479879,-0.0011687004780258,0.0011686932619604,-0.0011686931362332,0.0011687008969335,0.70944813774104,131329,3014,0.0039056316105271,0.0051603579147824,0.0051603579144233,17.497803120463,-9.7617575036293e-05,-9.7617575036293e-05,-9.7617575036293e-05,3241037.41719,0.014329214096368
24819200,0.99101693156468,0.014911604536749,0.0042954292130572,0.0053080876618102,0.0053080876618819,-0.00093855970540537,0.00093855951032463,3.0902147133264e-09,-3.2919095153063e-09,-5.3845863775235e-10,3.1256596644193e-10,-0.0011060992101151,0.0011061010982115,-0.001106101271914,0.0011060988542359,-0.0011060988825038,0.0011061013109837,-0.0011061014897875,0.0011060988702044,-0.0010058150261139,0.0010058221494911,-0.0010058220198008,0.0010058150519202,-5.6458465223658e-10,-5.7823899092736e-10,9.8280647600434e-10,-2.1070280110682e-09,-0.0012420819872431,0.001242080865488,-0.0014233510666792,0.0014233509100716,-0.0014233517376603,0.0014233500354606,-0.0014233508194709,0.0014233509502005,-0.0014233523145662,0.0014233496094106,-0.0012620780932619,0.0012620807875194,-0.0012620815081561,0.0012620768820221,-0.001168931961057,0.001168930862696,-0.0011689328391721,0.0011689297078469,3.757786821545e-09,-3.624168191326e-09,-0.0012420813576053,0.0012420814950127,6.4438583033756e-11,6.6066685913978e-11,-0.001423349684371,0.0014233522581864,-0.0014233493631712,0.0014233524380107,-0.0014233519568947,0.0014233498102737,-0.001423352433791,0.0014233494982196,-0.0011689352705026,0.0011689272645397,-0.0011689272193806,0.001168935603903,0.66112596197778,131329,3014,0.0039061213528754,0.0051611623779914,0.0051611623777542,17.493839830184,-9.7649281358525e-05,-9.7649281358525e-05,-9.7649281358525e-05,3237310.0115891,0.014331345890339
25019200,0.9912292800156,0.014914485457132,0.0042962375764397,0.0053091239403103,0.0053091239403816,-0.0009403236486238,0.00094032345312765,3.4356692833382e-09,-3.6375118281282e-09,-6.1079310345466e-10,3.8519232472712e-10,-0.0011079743648678,0.0011079766374769,-0.0011079768462016,0.0011079739740354,-0.0011079742084393,0.0011079766787683,-0.0011079768241047,0.0011079742299874,-0.0010076539350702,0.0010076611642917,-0.0010076609949506,0.0010076539944621,-8.6515518112888e-10,-2.6515243602509e-10,1.0172338567986e-09,-2.1310754561751e-09,-0.0012439832980693,0.0012439821874247,-0.0014253359343694,0.0014253358274766,-0.0014253368259549,0.0014253347410161,-0.0014253357135458,0.0014253358526149,-0.001425337021204,0.0014253346903507,-0.0012640163341519,0.0012640186601741,-0.001264019159228,0.0012640153124166,-0.0011708433952704,0.0011708410942163,-0.0011708430746824,0.001170841132611,4.1155867998248e-09,-3.9815487991819e-09,-0.0012439826740756,0.0012439828113462,8.7483639287812e-11,4.3286359925535e-11,-0.0014253343712736,0.0014253373651703,-0.0014253342581124,0.0014253373287295,-0.0014253370489099,0.0014253345051673,-0.0014253373432346,0.0014253343847811,-0.0011708461593968,0.0011708380550207,-0.0011708380082477,0.0011708464731567,0.65362909073406,131329,3014,0.0039134490225173,0.0051690413912869,0.0051690413911347,18.392562513243,-9.0459499894056e-05,-9.0459499894056e-05,-9.0459499894056e-05,3249002.9931101,0.014354764356115
25219200,0.99145969898562,0.014917724029899,0.0042971507352877,0.0053102866472693,0.0053102866473416,-0.00094356521176984,0.00094356493504962,1.9257491508912e-09,-2.2089059776151e-09,9.2513416999203e-10,-1.2461729035673e-09,-0.0011113723737875,0.0011113740786535,-0.0011113733234218,0.00111137294713,-0.0011113726942107,0.001111373634905,-0.0011113749039758,0.001111371592885,-0.001011023141215,0.0010110280143345,-0.0010110289760735,0.0010110220717245,6.2384976586372e-11,-1.2531271935744e-09,8.1821457527043e-10,-1.9845603571669e-09,-0.0012474397160717,0.0012474385528209,-0.0014289128166775,0.0014289126088291,-0.0014289130277788,0.0014289122030125,-0.0014289126567955,0.0014289125648352,-0.0014289144194016,0.00142891094925,-0.0012675351528481,0.0012675381241037,-0.0012675393278224,0.0012675334445247,-0.0011743035820252,0.0011743049105215,-0.0011743068279697,0.0011743013779997,2.6606903396189e-09,-2.5160276467295e-09,-0.0012474390605709,0.0012474392082555,-9.2897896415385e-11,2.3604145018396e-10,-0.0014289120277073,0.0014289133713293,-0.0014289112248024,0.0014289140257131,-0.0014289131669531,0.0014289120482424,-0.0014289139018892,0.0014289114794939,-0.0011743074809679,0.0011743007112814,-0.0011743005510036,0.001174307946693,0.67455042059403,131329,3014,0.0039269124612011,0.0051833651163344,0.0051833651161979,20.10211692098,-7.6783064632162e-05,-7.6783064632162e-05,-7.6783064632162e-05,3271558.0766452,0.014397483453662
25419200,0.99169712554521,0.014921355098906,0.004298184753417,0.005311585172709,0.0053115851727803,-0.00094539649217945,0.00094539621821067,1.8290917199447e-09,-2.1070084350445e-09,1.0919039719949e-09,-1.4092816804709e-09,-0.0011133567976808,0.0011133584937945,-0.0011133576348742,0.0011133574759979,-0.0011133571623866,0.0011133580060152,-0.0011133593740472,0.0011133559647637,-0.0010129487601912,0.0010129535426505,-0.0010129546148003,0.0010129475784599,3.074797179126e-11,-1.2111114571631e-09,8.113200702545e-10,-1.9677995567995e-09,-0.0012494497106299,0.0012494485568053,-0.0014310442231115,0.0014310439245026,-0.0014310443831785,0.0014310435768798,-0.0014310439779026,0.0014310439827929,-0.0014310457752422,0.0014310423294332,-0.0012696040132357,0.0012696072073447,-0.001269608366705,0.001269602347552,-0.0011763298155147,0.0011763312441356,-0.0011763331546977,0.0011763276234884,2.5598228801681e-09,-2.4210571991292e-09,-0.0012494490612121,0.001249449206164,-1.0045037630996e-10,2.3674340894548e-10,-0.0014310434352787,0.0014310446918475,-0.0014310425811271,0.0014310453932776,-0.0014310444935669,0.001431043454716,-0.0014310452739228,0.0014310428486971,-0.0011763338021731,0.001176327009739,-0.001176326838061,0.0011763342468521,0.72789748578661,131329,3014,0.00393452168308,0.0051916938768385,0.0051916938767157,21.027146615027,-6.9382827079788e-05,-6.9382827079788e-05,-6.9382827079788e-05,3282245.3188561,0.01442210299266
25619200,0.99192682410097,0.014924888451529,0.0042991903594297,0.0053128490460097,0.0053128490460898,-0.0009453800584632,0.00094537976740278,1.8550994329857e-09,-2.154460819995e-09,1.1008768739378e-09,-1.4401223302808e-09,-0.0011135109176769,0.0011135125280357,-0.0011135116692711,0.0011135115946287,-0.0011135111883601,0.00111351213629,-0.0011135135327887,0.0011135099577926,-0.001012981025306,0.0010129861435128,-0.0010129872524698,0.0010129798164961,4.1013226309665e-10,-1.6147685117392e-09,8.5134219016687e-10,-2.0293995201384e-09,-0.0012495321222747,0.0012495309467968,-0.0014312506347385,0.0014312504996077,-0.001431250717807,0.0014312502149636,-0.0014312505266477,0.001431250392601,-0.0014312524748684,0.0014312485968715,-0.0012697459862912,0.001269749271369,-0.0012697507158088,0.0012697440393986,-0.0011764688470368,0.0011764712801419,-0.0011764732323239,0.0011764665999876,2.6016738965895e-09,-2.4577423801279e-09,-0.0012495314609274,0.0012495316080763,-1.086847808722e-10,2.5132555105929e-10,-0.0014312499632832,0.001431251136905,-0.0014312490032319,0.0014312519565296,-0.0014312509417872,0.0014312499778412,-0.0014312518198042,0.0014312492589976,-0.0011764734854358,0.0011764663162746,-0.0011764661573123,0.0011764739639854,0.73244076856386,131329,3014,0.0039344619798102,0.0051920329704146,0.0051920329702686,20.943791032981,-7.0049671736155e-05,-7.0049671736155e-05,-7.0049671736155e-05,3275492.8670948,0.014422734760315
25819200,0.99213912418202,0.014928061377773,0.0043000900313502,0.005313985673174,0.0053139856732493,-0.00094399092685372,0.00094399067219489,1.4065195229411e-09,-1.6681365192803e-09,4.7064140828686e-10,-7.657797012499e-10,-0.0011122392523107,0.0011122402895787,-0.001112239836013,0.0011122395239766,-0.0011122392298664,0.0011122401916015,-0.001112241115755,0.0011122384730608,-0.0010115930999043,0.0010115973551745,-0.0010115979935265,0.0010115923620987,3.8807935731346e-10,-1.5912968360622e-09,7.7495943205347e-10,-1.9510631210441e-09,-0.0012481720458377,0.001248170871866,-0.0014299750260665,0.0014299749635075,-0.0014299752048389,0.001429974586983,-0.0014299750446721,0.001429974736707,-0.0014299767920871,0.0014299731398002,-0.0012684196605774,0.0012684224034994,-0.0012684238278655,0.0012684177326414,-0.0011751613843248,0.0011751634038971,-0.001175165304184,0.0011751591922147,2.1429222551372e-09,-1.9936358603224e-09,-0.0012481713821977,0.0012481715353706,-2.1715667160098e-10,3.6610567242889e-10,-0.0014299745089256,0.0014299754501418,-0.0014299736175777,0.0014299761963377,-0.00142997532463,0.0014299744543931,-0.0014299759817391,0.0014299739603254,-0.001175165126695,0.001175159362206,-0.0011751591122877,0.0011751656764612,0.71386865669366,131329,3014,0.0039287017120358,0.0051863940902951,0.005186394090014,20.10979766986,-7.6721618641121e-05,-7.6721618641121e-05,-7.6721618641121e-05,3259365.4845811,0.014405453939631
26019200,0.99234094649065,0.014930951793222,0.0043009056221783,0.0053150230854846,0.0053150230855593,-0.00094339300142682,0.00094339279548801,3.8251716321618e-10,-5.9633694746266e-10,-4.8034165956849e-10,2.4185259109877e-10,-0.0011117388900166,0.0011117389727319,-0.0011117391216178,0.0011117385598739,-0.0011117385652394,0.0011117391816465,-0.0011117394063585,0.0011117385091174,-0.0010110141940135,0.0010110161026843,-0.0010110160339298,0.0010110141649841,-2.5917208343709e-10,-8.9749811124362e-10,6.0352948344931e-10,-1.7385430883025e-09,-0.0012476231600149,0.0012476220279158,-0.0014294960157731,0.0014294957703256,-0.0014294964095657,0.001429495177241,-0.001429495937411,0.0014294956429879,-0.0014294972163525,0.0014294945183707,-0.0012679026645652,0.0012679045198272,-0.0012679054527609,0.0012679012239257,-0.0011746519127446,0.0011746517840152,-0.0011746535275196,0.0011746499005237,1.107772204496e-09,-9.4261315446223e-10,-0.0012476225097495,0.0012476226780686,-4.3744941398539e-10,6.0401422448594e-10,-0.0014294956501188,0.0014294961061681,-0.0014294949483982,0.001429496660928,-0.0014294961191012,0.0014294954569186,-0.0014294962838574,0.0014294954617219,-0.0011746529848994,0.0011746504327171,-0.001174649997288,0.0011746536924343,0.68688840039171,131329,3014,0.0039262248965037,0.0051841176506438,0.0051841176504093,19.716562712022,-7.9867498303824e-05,-7.9867498303824e-05,-7.9867498303824e-05,3250728.0874252,0.014398324895659
26219200,0.99253656314871,0.014933931756067,0.0043017540843786,0.0053160888358073,0.0053160888358814,-0.00094336779803325,0.00094336761544202,-4.9020430035982e-10,2.9979801655285e-10,-1.0507255819077e-09,8.4078490071607e-10,-0.0011117840014801,0.0011117834525612,-0.0011117839596189,0.0011117833132988,-0.001111783602644,0.0011117837383777,-0.0011117835610054,0.0011117839482735,-0.00101101754775,0.0010110172555127,-0.0010110167765597,0.0010110179301632,-7.7786296349447e-10,-3.4437144907465e-10,4.8220737706889e-10,-1.5873301462467e-09,-0.0012476593460829,0.0012476582438634,-0.0014295857445036,0.0014295854020694,-0.0014295863449994,0.0014295845947997,-0.0014295856234274,0.0014295853097093,-0.0014295865217633,0.0014295845737553,-0.0012679635717805,0.0012679646395294,-0.0012679651987351,0.0012679625196937,-0.0011747073133577,0.0011747053714449,-0.0011747070014339,0.0011747054262156,2.2821397521971e-10,-5.3367380957262e-11,-0.0012476587061337,0.001247658883735,-6.0386574775709e-10,7.8189494667551e-10,-0.001429585514216,0.0014295856014745,-0.001429584996566,0.0014295859680249,-0.001429585713662,0.0014295852152892,-0.0014295854727536,0.0014295856322363,-0.0011747061220454,0.0011747062902194,-0.0011747057322768,0.0011747069451034,0.7252511069084,131329,3014,0.0039261238833961,0.0051842665827942,0.0051842665826315,19.629260679102,-8.0565914567187e-05,-8.0565914567187e-05,-8.0565914567187e-05,3248451.0729051,0.014398525261757
26419200,0.99273062637065,0.014936977606847,0.0043026243576486,0.0053171766245627,0.0053171766246358,-0.00094400606310543,0.00094400580333608,1.2947774270854e-09,-1.5616697091506e-09,4.1125118379392e-10,-7.1099367098434e-10,-0.0011125657960775,0.0011125667346572,-0.0011125663146778,0.0011125660346384,-0.0011125657401304,0.0011125666702641,-0.0011125675711456,0.0011125650060331,-0.0010117147278366,0.0010117188700725,-0.0010117194652,0.0010117140378977,4.6712860462301e-10,-1.6804483313283e-09,8.1324419667367e-10,-1.9983211575035e-09,-0.0012484019984578,0.001248400815706,-0.0014304286274342,0.0014304286580153,-0.0014304288112731,0.0014304282635966,-0.001430428707629,0.0014304283557703,-0.0014304305156887,0.0014304267103231,-0.001268765280022,0.0012687680731517,-0.0012687695752139,0.0012687632743963,-0.0011754993010744,0.0011755015428574,-0.0011755034819365,0.0011754970535274,2.0391274899961e-09,-1.8874488890262e-09,-0.0012484013295189,0.0012484014845267,-2.8099735469429e-10,4.3293191243313e-10,-0.0014304281975362,0.0014304290549551,-0.0014304272413077,0.0014304298574699,-0.0014304289627174,0.0014304281005483,-0.0014304296064114,0.001430427627987,-0.0011755030847063,0.0011754974441896,-0.0011754971617107,0.0011755036786553,0.74503106448374,131329,3014,0.0039287806746638,0.0051873423304923,0.0051873423302463,19.918584772311,-7.825132182151e-05,-7.825132182151e-05,-7.825132182151e-05,3248070.524525,0.014407463788691
26619200,0.99292961315903,0.014940069182139,0.0043035062755069,0.0053182814532797,0.0053182814533523,-0.00094561963992485,0.00094561935854796,1.1416725134531e-09,-1.4322051024113e-09,6.2195922986658e-10,-9.4904574236285e-10,-0.0011143880936252,0.0011143890465433,-0.0011143885035,0.0011143884529913,-0.0011143881786128,0.001114388840679,-0.0011143899030902,0.0011143872799972,-0.0010134279388233,0.0010134315853025,-0.0010134323654143,0.0010134270607544,2.161549452954e-10,-1.4076333162464e-09,8.2052922059086e-10,-1.9876827237108e-09,-0.0012501775431188,0.0012501763784472,-0.001432346318439,0.0014323461745224,-0.0014323465085784,0.0014323457680027,-0.0014323462043607,0.0014323460519782,-0.00143234800203,0.0014323444198539,-0.0012706278078033,0.001270630753361,-0.0012706320584751,0.00127062600376,-0.0011773454983423,0.0011773471763142,-0.0011773490810915,0.0011773432860068,1.9134640379871e-09,-1.7531647882544e-09,-0.0012501768804621,0.0012501770419167,-3.0800898786038e-10,4.6889132401544e-10,-0.0014323458608499,0.0014323465926276,-0.0014323448991338,0.0014323474122978,-0.0014323465159472,0.001432345746578,-0.001432347122169,0.0014323453002324,-0.0011773487983821,0.0011773435232296,-0.0011773432230461,0.0011773494423756,0.73848802837504,131329,3014,0.0039354896195669,0.0051946982652436,0.0051946982669259,20.757703638121,-7.153837089503e-05,-7.153837089503e-05,-7.153837089503e-05,3253563.4070516,0.014429198698789
26819200,0.99313204659301,0.014943130397442,0.0043043761172848,0.0053193771400435,0.0053193771401138,-0.00094703797617318,0.00094703769056725,1.4917069459356e-09,-1.7841622677145e-09,9.6590368995235e-10,-1.296881343224e-09,-0.0011160089064101,0.0011160102747693,-0.0011160095071679,0.0011160094918842,-0.0011160091725478,0.0011160098854528,-0.0011160111840666,0.0011160080410642,-0.0010149325638125,0.0010149368183397,-0.0010149378305948,0.001014931452025,1.5976350861728e-10,-1.3415109073656e-09,8.824605795844e-10,-2.0393679956733e-09,-0.0012517824104173,0.0012517812563606,-0.0014340857954901,0.0014340856116863,-0.001434085978136,0.0014340852224248,-0.0014340856024503,0.0014340855883776,-0.001434087478395,0.0014340838705119,-0.0012723069023949,0.0012723101758335,-0.0012723114291538,0.0012723051494309,-0.0011790141504008,0.0011790158333905,-0.0011790177843899,0.0011790119119281,2.2679604362478e-09,-2.1119982893726e-09,-0.0012517817538786,0.0012517819129438,-2.6853585400223e-10,4.2467090665413e-10,-0.0014340852117918,0.0014340861636419,-0.0014340842248178,0.0014340870008783,-0.0014340860647416,0.0014340851244693,-0.0014340867471518,0.0014340846094466,-0.0011790179212553,0.0011790117650042,-0.0011790114750932,0.0011790185103494,0.7212227621103,131329,3014,0.0039413875985728,0.0052013468085879,0.0052013468086811,21.495793528855,-6.5633651769163e-05,-6.5633651769163e-05,-6.5633651769163e-05,3258336.5540777,0.014448675577256
27019200,0.99333133325507,0.014946054111193,0.0043052031395346,0.0053204254857937,0.0053204254858648,-0.00094752943279586,0.0009475291594817,8.7210179377119e-10,-1.1511372297243e-09,8.2886957119179e-10,-1.1452152755183e-09,-0.0011166485138727,0.001116649436521,-0.0011166487548022,0.0011166490137442,-0.0011166487446379,0.0011166490830047,-0.0011166502721373,0.0011166477242884,-0.0010154711154088,0.0010154740751489,-0.0010154749765547,0.0010154701144984,-8.2156698347224e-11,-1.0823100069296e-09,8.055977970867e-10,-1.9475335873241e-09,-0.0012523929652813,0.0012523918261209,-0.0014347997389652,0.0014347994045616,-0.0014347999288909,0.0014347990128818,-0.0014347994419024,0.0014347994943597,-0.0014348011958885,0.0014347978956927,-0.0012729579820589,0.0012729611057785,-0.0012729621727632,0.0012729564130558,-0.0011796658504898,0.0011796669369428,-0.0011796688198651,0.0011796636856958,1.6509770384318e-09,-1.4930855523201e-09,-0.0012523923145655,0.0012523924767618,-3.4103811184331e-10,4.9949520032332e-10,-0.0014347992848557,0.0014347998301879,-0.0014347983091254,0.0014348006551146,-0.0014347997795028,0.001434799151441,-0.0014348003499487,0.0014347987520286,-0.0011796686090388,0.0011796638997732,-0.0011796635494413,0.0011796692445646,0.70228869205482,131329,3014,0.0039434350635486,0.0052038750703499,0.0052038750701938,21.714893184634,-6.3880854522925e-05,-6.3880854522925e-05,-6.3880854522925e-05,3258383.884449,0.014455884950818
27219200,0.99352515633656,0.014948804511615,0.0043059776721347,0.0053214134197037,0.0053214134197768,-0.00094767772026032,0.00094767744512477,5.3699896431496e-10,-8.19092827894e-10,7.6449523928345e-10,-1.0834352849722e-09,-0.0011168955271946,0.00111689621246,-0.0011168955716867,0.001116895985893,-0.0011168957412163,0.0011168958767731,-0.0011168970275154,0.0011168947578027,-0.0010156457209758,0.0010156480075508,-0.001015648870116,0.0010156447625294,-1.1786231043552e-10,-1.0451347802249e-09,7.5992472502073e-10,-1.9008464121085e-09,-0.0012526263184636,0.0012526251801115,-0.0014351068879934,0.001435106526174,-0.0014351070667488,0.0014351061387531,-0.0014351065870708,0.0014351066085651,-0.0014351082948255,0.0014351050619826,-0.0012732108956544,0.0012732138738384,-0.0012732149192599,0.0012732093512024,-0.0011799187487232,0.0011799197232821,-0.0011799215721664,0.0011799166159975,1.3220698912017e-09,-1.1618079975044e-09,-0.0012526256674614,0.0012526258311232,-3.6029889420434e-10,5.2161230527859e-10,-0.001435106516842,0.0014351068641062,-0.0014351055515185,0.0014351076815587,-0.0014351068237977,0.0014351063714951,-0.0014351073600718,0.0014351060024675,-0.0011799210808999,0.0011799170892071,-0.0011799167321898,0.0011799217380282,0.6819214373787,131329,3014,0.0039440552422414,0.0052048407516335,0.0052048407516499,21.739895699902,-6.3680834400781e-05,-6.3680834400781e-05,-6.3680834400781e-05,3257577.3696538,0.014458474502103
27419200,0.99371510378685,0.014951591065788,0.0043067664173905,0.0053224123241627,0.0053224123242348,-0.00094806790208538,0.00094806762098338,9.5139829819976e-10,-1.2393058424396e-09,9.0736119006201e-10,-1.2333088990538e-09,-0.0011173519854757,0.0011173529957926,-0.0011173522626727,0.00111735253676,-0.0011173522476011,0.0011173526112276,-0.0011173538658816,0.0011173511604868,-0.0010160660357634,0.0010160691908649,-0.001016070156742,0.0010160649720415,2.0948859746269e-11,-1.1928041666331e-09,7.9676095096218e-10,-1.9451193577977e-09,-0.001253106718917,0.0012531055732935,-0.0014356408646323,0.0014356405701183,-0.0014356410199426,0.0014356402052585,-0.0014356406105521,0.0014356406057226,-0.0014356423958263,0.001435638982721,-0.0012737062412341,0.0012737093463583,-0.0012737104946042,0.0012737045917318,-0.0011804022095041,0.0011804035815132,-0.0011804054642418,0.001180400035233,1.739376450714e-09,-1.5835488371994e-09,-0.0012531060664238,0.0012531062257834,-2.9293267704897e-10,4.4907928920068e-10,-0.0014356403866587,0.001435641014967,-0.0014356394173489,0.0014356418348337,-0.0014356409319164,0.0014356402840192,-0.0014356415655341,0.0014356398189472,-0.0011804052575307,0.0011804002349185,-0.0011803999284027,0.0011804058616233,0.70215249662844,131329,3014,0.0039456778845754,0.0052068308327435,0.005206830832736,21.891826265019,-6.246538987985e-05,-6.246538987985e-05,-6.246538987985e-05,3259735.4989978,0.014464158426764
27619200,0.99390387914645,0.014954405944825,0.0043075648442371,0.0053234205502578,0.0053234205503301,-0.0009488762613682,0.00094887597612215,8.2556599911365e-10,-1.1167446647465e-09,9.3091599947875e-10,-1.2602926116023e-09,-0.0011182672872722,0.0011182682187811,-0.0011182674761739,0.0011182678474394,-0.0011182675617495,0.0011182678212308,-0.0011182690963845,0.0011182664535796,-0.001016926533633,0.0010169294159099,-0.0010169304027862,0.0010169254414122,-3.3051334019507e-11,-1.1339770749368e-09,7.603468713046e-10,-1.9044455532174e-09,-0.0012540405342018,0.0012540393927761,-0.0014366531150442,0.0014366527555202,-0.001436653242209,0.0014366524180304,-0.0014366528158326,0.001436652831831,-0.0014366545777415,0.0014366512322436,-0.0012746775131782,0.0012746805830557,-0.0012746816885657,0.001274675902632,-0.0011813575615414,0.0011813588463476,-0.0011813606917082,0.0011813554166362,1.6212243397681e-09,-1.4651584394154e-09,-0.0012540398840504,0.0012540400429989,-3.0190639973143e-10,4.5938410713086e-10,-0.0014366526514942,0.00143665318523,-0.0014366516740296,0.0014366540141598,-0.0014366531081828,0.0014366525401285,-0.001436653736503,0.0014366520781603,-0.0011813604421448,0.0011813556576821,-0.001181355353322,0.0011813610562586,0.71253170683545,131329,3014,0.0039490385788384,0.0052106995974075,0.0052106995975532,22.281627843543,-5.9346977251656e-05,-5.9346977251656e-05,-5.9346977251656e-05,3263061.1823107,0.014475418971213
27819200,0.99408879727139,0.014957211743363,0.0043083622258092,0.0053244247587408,0.0053244247588128,-0.00094927235180842,0.00094927207779295,-4.817029610699e-11,-2.3215164098555e-10,7.9749609674755e-10,-1.1149063773755e-09,-0.0011187745296064,0.0011187748395029,-0.0011187741765186,0.0011187750109727,-0.0011187747591848,0.001118774487974,-0.0011187756586813,0.0011187737570845,-0.0010173650167176,0.001017366165024,-0.0010173670468156,0.0010173640372645,-1.1281614203994e-10,-1.0499090438744e-09,6.1579226058035e-10,-1.7563531540364e-09,-0.0012545378616249,0.0012545367238574,-0.0014372322915804,0.001437231831021,-0.0014372323677942,0.0014372315464154,-0.0014372319882147,0.001437231917406,-0.0014372336061187,0.0014372304630801,-0.001275210827972,0.0012752135488205,-0.0012752145933437,0.0012752092784586,-0.0011818824355594,0.0011818835350417,-0.0011818852890292,0.0011818803959027,7.5122097624425e-10,-5.9091326553477e-10,-0.0012545372106259,0.0012545373748157,-4.0764302134434e-10,5.6930866445227e-10,-0.0014372320793632,0.0014372320104739,-0.0014372310753641,0.0014372328658852,-0.0014372320022204,0.0014372319032621,-0.0014372325126258,0.0014372315619371,-0.0011818842748008,0.0011818814042237,-0.0011818810125425,0.0011818849588442,0.72383699534587,131329,3014,0.0039506882124256,0.0052127592254905,0.0052127592254059,22.443589347042,-5.8051285223666e-05,-5.8051285223666e-05,-5.8051285223666e-05,3262906.0117802,0.014481273392975
28019200,0.99427058356369,0.014960022259731,0.0043091627558579,0.0053254297519001,0.0053254297519725,-0.00094977776331222,0.00094977743900999,6.0207424607153e-09,-6.3511986885044e-09,1.6656292939037e-09,-2.040948088731e-09,-0.0011194032617754,0.0011194078327483,-0.0011194066201997,0.0011194042905687,-0.0011194037116735,0.0011194072569375,-0.0011194090759709,0.001119402056023,-0.0010179156889598,0.0010179291877126,-0.0010179307220211,0.0010179140472743,7.9583743345775e-10,-2.0162238464955e-09,1.4305311072723e-09,-2.6203663847917e-09,-0.0012551541890032,0.0012551530020264,-0.0014379374909583,0.0014379377953375,-0.0014379377484862,0.0014379373210782,-0.0014379374316501,0.001437937624813,-0.0014379399893478,0.0014379352274018,-0.0012758732409417,0.0012758780065954,-0.0012758797420936,0.0012758710184241,-0.0011825352695878,0.0011825386916692,-0.0011825410484001,0.0011825326023098,6.8127109554744e-09,-6.6978114175764e-09,-0.0012551535366804,0.001255153654422,4.3977113032325e-10,-3.3024631590762e-10,-0.0014379355277912,0.0014379397205958,-0.0014379347336512,0.0014379403655557,-0.0014379391687645,0.0014379358902566,-0.001437940642159,0.0014379345795846,-0.001182545081211,0.0011825285598809,-0.0011825288177922,0.0011825451435727,0.73612815167444,131329,3014,0.0039527925007382,0.0052153116630729,0.0052153116632214,22.670473467397,-5.6236212260826e-05,-5.6236212260826e-05,-5.6236212260826e-05,3262659.5541308,0.01448858960271
28219200,0.99445206877265,0.014962884804756,0.0043099799419069,0.0053264524313881,0.0053264524314615,-0.00095075141799384,0.00095075109028645,6.7433334634974e-09,-7.0771041815605e-09,1.7110868419715e-09,-2.0901291769001e-09,-0.0011205315515489,0.001120536595595,-0.0011205353599715,0.0011205326024165,-0.0011205320199435,0.0011205360001833,-0.001120537849931,0.0011205303329529,-0.0010189626003885,0.0010189773269048,-0.0010189789007161,0.0010189609049432,7.8285748485742e-10,-2.0008323544965e-09,1.4599063728362e-09,-2.6473234255501e-09,-0.0012562787185627,0.0012562775337869,-0.0014391680855551,0.0014391683764091,-0.0014391683674786,0.0014391678988523,-0.0014391680094371,0.0014391682414832,-0.0014391705648817,0.0014391658233559,-0.0012770636892913,0.0012770684947992,-0.001277070242074,0.001277061512162,-0.0011837100276055,0.0011837133802733,-0.0011837157549401,0.0011837073772479,7.5660917888541e-09,-7.4525812683462e-09,-0.0012562780683766,0.0012562781841486,4.9842809551088e-10,-3.902045049614e-10,-0.0014391659116749,0.0014391705212704,-0.0014391651540094,0.0014391711333479,-0.0014391699402258,0.0014391663045799,-0.0014391714409023,0.0014391649609513,-0.0011837204679344,0.0011837026335924,-0.0011837029205062,0.0011837205039553,0.7494920840434,131329,3014,0.0039568423566209,0.0052199699372933,0.0052199699376547,23.163567374341,-5.2291461005276e-05,-5.2291461005276e-05,-5.2291461005276e-05,3264680.0053661,0.014502153388923
28419200,0.9946279613639,0.014965718110572,0.0043107903225228,0.0053274638939876,0.005327463894062,-0.00095085881805741,0.0009508585191973,3.3307750031688e-09,-3.6362935303464e-09,1.1852090192663e-09,-1.5312811610293e-09,-0.0011207887834545,0.0011207913617209,-0.0011207904614325,0.001120789500297,-0.0011207890768665,0.0011207909448936,-0.0011207924019321,0.0011207877838301,-0.001019118685255,0.0010191265331972,-0.0010191277139381,0.0010191173930852,4.25846824395e-10,-1.6219928912122e-09,9.7919955914538e-10,-2.1482273608738e-09,-0.0012564807648659,0.0012564795979793,-0.0014394733512647,0.0014394732682798,-0.0014394734986739,0.0014394729383119,-0.0014394732204432,0.0014394732008197,-0.0014394752544017,0.0014394712965251,-0.0012773189147115,0.0012773224859302,-0.0012773239608887,0.0012773170074003,-0.0011839677081928,0.0011839701372988,-0.0011839721764062,0.0011839654303751,4.1807428714104e-09,-4.0443289164101e-09,-0.0012564801119778,0.0012564802510086,7.1273757900326e-11,6.3436093541475e-11,-0.0014394721952303,0.0014394744005065,-0.0014394713300854,0.0014394751235703,-0.0014394740952438,0.0014394723159971,-0.0014394751099989,0.0014394714579849,-0.001183973915336,0.001183963641121,-0.0011839636001047,0.0011839742702591,0.7640264731637,131329,3014,0.0039572959704337,0.0052208050735005,0.0052208050737919,23.176381917446,-5.2188944660432e-05,-5.2188944660432e-05,-5.2188944660432e-05,3260358.1959555,0.014504311498074
28619200,0.99479876911322,0.014968488972043,0.0043115833975502,0.00532845278721,0.0053284527872825,-0.00095101339781358,0.00095101311293739,2.1478920035501e-09,-2.4397080500643e-09,1.0092859539187e-09,-1.3398848640254e-09,-0.0011211036323573,0.0011211053661702,-0.0011211045720797,0.0011211042448961,-0.0011211038546677,0.0011211050218443,-0.0011211063442586,0.001121102698011,-0.0010193252852104,0.0010193308871636,-0.0010193319258987,0.0010193241397308,3.8510723085983e-10,-1.5812436381584e-09,8.2385739088032e-10,-1.9932650706148e-09,-0.0012567348793957,0.0012567337128005,-0.0014398349148655,0.0014398347574492,-0.0014398350016979,0.0014398344829288,-0.0014398348077356,0.0014398346645108,-0.0014398367023279,0.0014398329090681,-0.0012776344781615,0.001277637666145,-0.0012776390999884,0.0012776325802847,-0.0011842877282437,0.0011842900661739,-0.0011842920095497,0.0011842855414161,2.9894325180651e-09,-2.8490647213226e-09,-0.0012567342244334,0.0012567343678479,-3.7075779948608e-11,1.7599408923668e-10,-0.0014398341026963,0.0014398355440293,-0.0014398332081497,0.0014398362946395,-0.0014398353067934,0.0014398341579541,-0.0014398362091313,0.0014398334168628,-0.0011842926732506,0.0011842848420432,-0.0011842847179245,0.0011842930937046,0.76896223086828,131329,3014,0.0039579462158819,0.0052218557064,0.0052218557065776,23.222772127785,-5.1817822977716e-05,-5.1817822977716e-05,-5.1817822977716e-05,3255603.4034411,0.014507106769958
28819200,0.99497106158731,0.014971206111068,0.0043123583706824,0.0053294238701567,0.0053294238702289,-0.00095230278570382,0.0009523024832055,4.054997383084e-09,-4.3632318833492e-09,1.2492955382318e-09,-1.5982715157846e-09,-0.0011225902816454,0.0011225933646119,-0.001122592423558,0.0011225910395733,-0.0011225905656615,0.0011225929559568,-0.0011225944641702,0.0011225892206491,-0.0010207020149013,0.0010207114704949,-0.0010207126956564,0.0010207006743461,4.6867090444672e-10,-1.6684246775103e-09,1.0420613498909e-09,-2.2140445745973e-09,-0.0012582087841683,0.0012582076148511,-0.0014414375043368,0.0014414374489965,-0.0014414376315724,0.0014414371222176,-0.0014414373435949,0.0014414373929505,-0.0014414394963917,0.0014414353860108,-0.0012791913718351,0.0012791952111627,-0.0012791967211818,0.0012791894198736,-0.0011858336994893,0.0011858363407626,-0.0011858384250179,0.0011858313487971,4.8880191982511e-09,-4.7614278467065e-09,-0.0012582081351313,0.0012582082640309,1.9690482366339e-10,-7.3031821575041e-11,-0.0014414360587408,0.001441438864037,-0.0014414352247037,0.0014414395520583,-0.0014414384727634,0.001441436260673,-0.0014414396440339,0.0014414352483951,-0.0011858408983521,0.001185828845165,-0.0011858289133858,0.0011858411476918,0.74978589208483,131329,3014,0.0039633092035259,0.0052279610787001,0.0052279610789959,23.910637533175,-4.6314899734597e-05,-4.6314899734597e-05,-4.6314899734597e-05,3258458.3394713,0.01452494048998
29019200,0.99513431184998,0.014973631487084,0.0043130442954564,0.0053302935957777,0.0053302935958499,-0.00095174742908654,0.00095174715982418,1.9828119833667e-09,-2.2568577352218e-09,9.6947575182832e-10,-1.2817531683794e-09,-0.001122157345528,0.0011221589358712,-0.0011221581585301,0.0011221579433838,-0.0011221575265914,0.0011221586331774,-0.0011221599078124,0.0011221564209507,-0.0010201563403782,0.0010201616773482,-0.0010201626610019,0.0010201552450416,4.6089060335677e-10,-1.6613929439316e-09,7.730214107178e-10,-1.9463614138744e-09,-0.001257713774699,0.0012577126051847,-0.0014410266728947,0.0014410265242466,-0.0014410267188877,0.0014410262954332,-0.0014410266176567,0.0014410263948018,-0.0014410284818749,0.0014410246697203,-0.0012787172908472,0.0012787203854657,-0.0012787218717074,0.0012787153398263,-0.0011853800085366,0.0011853825771601,-0.0011853844983249,0.0011853778427676,2.8212334464901e-09,-2.6877826758489e-09,-0.0012577131203976,0.0012577132592882,-1.1423001329268e-11,1.4186748701624e-10,-0.0014410259279648,0.0014410272489969,-0.0014410250396078,0.0014410279866927,-0.001441027000581,0.0014410259989664,-0.0014410279304088,0.0014410252411289,-0.0011853849504941,0.0011853773979037,-0.0011853772763174,0.00118538532704,0.71130446105397,131329,3014,0.0039610100415017,0.0052259075518706,0.0052259075514625,23.567619695273,-4.9059042437812e-05,-4.9059042437812e-05,-4.9059042437812e-05,3250949.4532483,0.014518443259666
29219200,0.99529613622637,0.014975975313679,0.0043137054315353,0.0053311349410342,0.0053311349411095,-0.00095255533080844,0.00095255504566372,2.6237313127212e-09,-2.9154206656646e-09,1.0602454776696e-09,-1.3910492799288e-09,-0.001123055878073,0.001123057933918,-0.0011230571055703,0.0011230565250672,-0.00112305609749,0.001123057592281,-0.0011230589496612,0.0011230549057949,-0.001021010915218,0.0010210175461444,-0.0010210186175873,0.001021009733999,4.6891731685574e-10,-1.6715407168506e-09,8.2094282064362e-10,-1.9959143534444e-09,-0.0012586308650623,0.0012586296929635,-0.0014420088354382,0.001442008696566,-0.0014420088829147,0.0014420084562549,-0.0014420087480223,0.0014420085795261,-0.0014420106836958,0.0014420067881844,-0.001279660542716,0.0012796637827281,-0.00127966527972,0.0012796585783989,-0.001186311239219,0.0011863138560016,-0.0011863157996824,0.001186309032631,3.4674440362001e-09,-3.3360810810718e-09,-0.0012586302116277,0.001258630346411,7.4959347249278e-11,5.3410785248938e-11,-0.0014420078417622,0.0014420096626232,-0.0014420069880943,0.0014420103708353,-0.001442009354535,0.001442007967352,-0.00144201037455,0.0014420071102027,-0.0011863169090631,0.0011863079019729,-0.0011863078647535,0.0011863172406576,0.69517198031489,131329,3014,0.0039643682747094,0.0052297068873244,0.0052297068873468,23.974507927849,-4.5803936577208e-05,-4.5803936577208e-05,-4.5803936577208e-05,3255575.8428614,0.014529560060201
29419200,0.99545712058394,0.014978138051229,0.0043143088183512,0.0053319146164013,0.0053319146164763,-0.00095349778024285,0.00095349749278842,2.7716376294318e-09,-3.0653275510239e-09,1.1268484974637e-09,-1.460339837591e-09,-0.001124075756727,0.001124077944094,-0.0011240770734625,0.001124076446063,-0.0011240760135545,0.0011240775650567,-0.0011240789694057,0.0011240747748278,-0.0010219929157194,0.0010219998018746,-0.0010220009214509,0.0010219916864385,4.0917582078106e-10,-1.605786703278e-09,8.18741819987e-10,-1.9881644958259e-09,-0.0012597039393635,0.0012597027725829,-0.001443141680209,0.0014431414927848,-0.0014431417176069,0.0014431412639408,-0.0014431415447634,0.001443141426683,-0.0014431434820314,0.001443139632622,-0.0012807450425219,0.0012807483440102,-0.0012807497929895,0.0012807431257488,-0.0011873787618965,0.0011873812856335,-0.0011873832217645,0.0011873765681758,3.6205333717201e-09,-3.4914577110694e-09,-0.0012597032895143,0.0012597034224082,9.6520184580498e-11,2.9493801072858e-11,-0.0014431406135544,0.0014431425330452,-0.0014431397672883,0.0014431432331255,-0.0014431422123061,0.0014431407520967,-0.0014431432535366,0.0014431398748963,-0.0011873845534248,0.001187375218204,-0.0011873751959627,0.0011873848668618,0.65090116953946,131329,3014,0.0039682838430296,0.0052341530670447,0.0052341530669934,24.457356752139,-4.1941145982885e-05,-4.1941145982885e-05,-4.1941145982885e-05,3262212.8969322,0.014542554424836
29619200,0.99561763415447,0.014980260646593,0.0043148997098875,0.005332680468315,0.0053326804683905,-0.00095456485816401,0.00095456456981805,9.2607191040353e-10,-1.2207383378111e-09,1.1275452871478e-09,-1.4621551672221e-09,-0.0011251589524672,0.0011251599987675,-0.0011251591273182,0.0011251596434229,-0.0011251592857397,0.001125159543486,-0.0011251609501317,0.0011251580452364,-0.0010230948555224,0.0010230978986216,-0.0010230990189576,0.0010230936229019,2.7219792081621e-10,-1.4584868827048e-09,6.4389423937233e-10,-1.8043330119056e-09,-0.0012608978777264,0.0012608967199242,-0.0014443604163266,0.0014443601005593,-0.0014443604104036,0.0014443599147363,-0.0014443602616138,0.0014443600529361,-0.0014443620071999,0.00144435845331,-0.0012819263776996,0.0012819292079109,-0.0012819305615203,0.0012819245763605,-0.0011885272962692,0.0011885294483875,-0.0011885312550972,0.0011885252269721,1.7858354380709e-09,-1.6499408566747e-09,-0.0012608972289201,0.0012608973687516,-6.0319157849956e-11,1.9470465872986e-10,-0.0014443599038289,0.0014443605864154,-0.0014443590266207,0.0014443613183512,-0.0014443603652411,0.001444359943641,-0.0014443612249357,0.0014443592474353,-0.0011885309315172,0.0011885255372552,-0.0011885254042204,0.0011885313568292,0.64191650724424,131329,3014,0.0039727133083132,0.0052391011340791,0.0052391011341188,24.998141733884,-3.761486612893e-05,-3.761486612893e-05,-3.761486612893e-05,3272677.6592039,0.014557086497216
29819200,0.99577836840456,0.01498252413804,0.0043155357159747,0.0053334942109945,0.0053334942110706,-0.00095581418001589,0.00095581388314081,2.8264987757555e-09,-3.1299196119573e-09,1.2666342813686e-09,-1.6115185912721e-09,-0.0011264125089094,0.0011264148000666,-0.0011264138412007,0.0011264132865679,-0.0011264128361691,0.0011264143501895,-0.0011264158609289,0.0011264114905542,-0.001024387217313,0.0010243942290593,-0.001024395454965,0.0010243858832669,2.6069163202609e-10,-1.444595748926e-09,8.0387883044922e-10,-1.9621562735727e-09,-0.0012622923891786,0.0012622912337363,-0.0014457725590977,0.0014457722403867,-0.0014457725568451,0.0014457720508327,-0.0014457722937975,0.0014457723030491,-0.001445774245273,0.0014457704951301,-0.0012833145405537,0.0012833179952404,-0.001283319319953,0.0012833127282734,-0.0011898680966843,0.0011898704161056,-0.0011898723187518,0.0011898659199824,3.6912073550314e-09,-3.562803558444e-09,-0.0012622917454762,0.0012622918774689,1.0028642881844e-10,2.511682311006e-11,-0.0014457714160604,0.001445773356882,-0.0014457705470849,0.0014457740807715,-0.001445773033545,0.0014457715568421,-0.0014457741042409,0.0014457706485057,-0.0011898739044057,0.0011898643173173,-0.0011898643019639,0.0011898742159797,0.67837952908949,131329,3014,0.0039778988277003,0.0052448805811694,0.005244880581226,25.635031405901,-3.2519748752788e-05,-3.2519748752788e-05,-3.2519748752788e-05,3284334.7678916,0.01457407281941
30019200,0.99593576484791,0.014984777710092,0.0043161698517188,0.0053343039291487,0.0053343039292249,-0.00095641001599003,0.00095640971762614,3.4926621710975e-09,-3.7968555628159e-09,1.2843690712889e-09,-1.6302233633541e-09,-0.0011270538474071,0.001127056542399,-0.001127055574357,0.0011270546345065,-0.0011270541439582,0.0011270561238311,-0.0011270576477235,0.0011270527843317,-0.0010250180573794,0.0010250264514677,-0.0010250276900863,0.0010250167066999,3.3314439392807e-10,-1.5219464297651e-09,8.472680233068e-10,-2.0097446410354e-09,-0.0012629968214646,0.001262995661414,-0.0014465223302088,0.0014465220431014,-0.0014465223165063,0.0014465218669007,-0.0014465220725675,0.0014465220991434,-0.0014465240944565,0.0014465202185009,-0.0012840269370156,0.0012840305480419,-0.0012840319294178,0.0012840250744241,-0.0011905485433875,0.0011905510948534,-0.0011905530301863,0.0011905463351156,4.3617503048752e-09,-4.2368875504054e-09,-0.0012629961772037,0.0012629963057356,1.4914286022917e-10,-2.7384690004753e-11,-0.0014465209880898,0.0014465233594323,-0.0014465201103731,0.0014465240922506,-0.0014465230055767,0.0014465211588589,-0.0014465241511828,0.0014465201751739,-0.0011905551920126,0.0011905441564797,-0.0011905441833185,0.0011905554672229,0.68873329497244,131329,3014,0.0039803739653307,0.0052477994817757,0.0052477994818956,25.91454374405,-3.02836500476e-05,-3.02836500476e-05,-3.02836500476e-05,3288339.4992238,0.014582506988192
30219200,0.99608798241271,0.014986854127942,0.0043167498729855,0.0053350521274403,0.0053350521275166,-0.00095663095656445,0.00095663066193804,3.2939249292368e-09,-3.5945802861867e-09,1.21114258669e-09,-1.5527106455497e-09,-0.0011273246989323,0.0011273272171194,-0.0011273262955129,0.0011273254398482,-0.001127324950388,0.0011273268440856,-0.0011273283137926,0.0011273236448719,-0.0010252629936166,0.0010252710111497,-0.0010252721964426,0.0010252616972689,4.2105835491808e-10,-1.61887538095e-09,8.172339269418e-10,-1.9878082073998e-09,-0.001263298085961,0.0012632969178433,-0.0014468718714555,0.0014468716257485,-0.0014468718468486,0.0014468714631158,-0.0014468716817852,0.0014468716162144,-0.0014468736796815,0.001446869757134,-0.0012843365723244,0.0012843400468825,-0.0012843415014781,0.0012843346422576,-0.001190836917641,0.0011908396410806,-0.0011908415798875,0.0011908347302531,4.1703161512336e-09,-4.044219698629e-09,-0.0012632974370409,0.0012632975668179,1.2522689466903e-10,-2.216463729731e-12,-0.0014468706199089,0.0014468728525519,-0.0014468697308929,0.0014468735967526,-0.0014468725144508,0.0014468707754142,-0.0014468736380605,0.0014468698135012,-0.0011908434457678,0.0011908328360012,-0.0011908328420145,0.0011908437385329,0.66008544674114,131329,3014,0.0039812931760168,0.0052490474519942,0.0052490474521018,25.990858830328,-2.9673129357374e-05,-2.9673129357374e-05,-2.9673129357374e-05,3288958.7037204,0.014585972438849
30419200,0.99623278443853,0.01498871135477,0.0043172639560589,0.0053357236993175,0.0053357236993939,-0.00095635869153991,0.00095635840499042,4.9935452189448e-09,-5.2849490187293e-09,1.3745101618934e-09,-1.7075157752122e-09,-0.0011270393848925,0.0011270430070264,-0.0011270419693165,0.0011270402448168,-0.0011270396140432,0.0011270426560079,-0.001127044219424,0.0011270382200847,-0.0010249829150245,0.0010249945817431,-0.0010249958480231,0.0010249815272674,8.4494988760421e-10,-2.071261365729e-09,8.7574548345713e-10,-2.0705379295142e-09,-0.001263060512555,0.0012630593195525,-0.0014466440090838,0.0014466439490907,-0.0014466439092271,0.0014466438784846,-0.0014466439988513,0.0014466437909441,-0.0014466461595311,0.0014466417594177,-0.0012840752083724,0.0012840789603973,-0.0012840806970383,0.001284072956,-0.0011905565227973,0.0011905604495013,-0.0011905624739971,0.0011905542515079,5.8655699802752e-09,-5.7533947093292e-09,-0.0012630598556028,0.0012630599761225,1.9070144981926e-10,-8.4083342223377e-11,-0.0014466423406016,0.0014466456016233,-0.0014466413692681,0.0014466464254336,-0.0014466452301056,0.0014466425429801,-0.0014466465279091,0.0014466414154122,-0.0011905655933783,0.001190551179724,-0.0011905512170425,0.0011905658019356,0.62526766924244,131329,3014,0.0039801617178179,0.0052480631830715,0.0052480631822847,25.786803585742,-3.1305571314065e-05,-3.1305571314065e-05,-3.1305571314065e-05,3288565.409797,0.014582825536957
30619200,0.99636955754503,0.01499058867119,0.0043177895023224,0.005336399584393,0.005336399584475,-0.00095587936890203,0.00095587910019516,1.0145648093003e-09,-1.2903650131169e-09,7.2427120395306e-10,-1.0362830927334e-09,-0.0011264785567312,0.00112647943468,-0.0011264788195017,0.0011264789920502,-0.0011264786569666,0.0011264792158583,-0.0011264803281963,0.0011264777094712,-0.0010244887537728,0.0010244920775151,-0.0010244929055242,0.001024487819537,4.7553588812192e-10,-1.6793171022211e-09,6.7350645762082e-10,-1.8488424794073e-09,-0.0012625861765045,0.00126258500275,-0.0014461350199709,0.0014461348977391,-0.0014461350848542,0.0014461346511072,-0.0014461350552149,0.0014461346700945,-0.0014461367780531,0.0014461330825108,-0.0012835580670422,0.001283560682278,-0.0012835622000069,0.0012835561108792,-0.0011900116068148,0.001190014000346,-0.0011900158602999,0.001190009509989,1.8956285876714e-09,-1.7644184608742e-09,-0.0012625855215971,0.0012625856576084,-1.017265470297e-11,1.3857919329489e-10,-0.001446134528561,0.0014461353668826,-0.001446133728065,0.0014461360223938,-0.0014461351150139,0.0014461345999904,-0.0014461359681815,0.0014461339105022,-0.0011900154162102,0.0011900099262062,-0.0011900098270283,0.0011900158011442,0.66318501382723,131329,3014,0.0039781671893518,0.0052460987919496,0.0052460987918443,25.453737911554,-3.3970096707568e-05,-3.3970096707568e-05,-3.3970096707568e-05,3289092.710984,0.014576811912038
30819200,0.99650633089422,0.014992559894858,0.0043183453058215,0.005337107294477,0.0053371072945591,-0.00095711692019804,0.00095711664476153,2.2279917334701e-09,-2.5272934564785e-09,9.7580403144489e-10,-1.3495083418583e-09,-0.0011277471689619,0.0011277489370203,-0.0011277481446811,0.0011277477840782,-0.0011277473303418,0.0011277486548965,-0.0011277499835878,0.0011277461666435,-0.0010257878353215,0.001025794093193,-0.0010257951400558,0.001025786682879,4.8767611475799e-10,-1.7341023620323e-09,7.3298628319682e-10,-1.9169990360296e-09,-0.0012639363736889,0.0012639351965781,-0.0014475209406972,0.001447520743658,-0.0014475209117167,0.0014475205885795,-0.0014475208625647,0.0014475206187086,-0.0014475227727855,0.0014475188575915,-0.0012849343086326,0.0012849374228993,-0.0012849389008786,0.0012849322161945,-0.0011913377889767,0.0011913404199048,-0.0011913423085027,0.0011913354113019,3.079929398271e-09,-2.9453810996292e-09,-0.001263935716252,0.0012639358477072,1.9578850114863e-11,8.9748524067725e-11,-0.001447520060364,0.001447521605741,-0.001447519153915,0.0014475223581607,-0.0014475213178617,0.001447520160948,-0.0014475223366318,0.0014475193031284,-0.0011913430616158,0.0011913348959519,-0.0011913348262781,0.0011913434147667,0.69236590483744,131329,3014,0.0039833059658564,0.0052516941143302,0.0052516941024281,26.087399956237,-2.8900800350103e-05,-2.8900800350103e-05,-2.8900800350103e-05,3297418.2551929,0.014593379876509
31019200,0.99664748929674,0.014994659243443,0.0043189393385434,0.0053378599524435,0.0053378599524565,-0.00095935869863125,0.00095935839803452,4.3051469915087e-09,-4.6161400594134e-09,1.3277198800102e-09,-1.7066905062177e-09,-0.0011301073010481,0.0011301104267542,-0.0011301094124746,0.0011301081353336,-0.0011301074407548,0.0011301101646028,-0.0011301117393524,0.0011301060309716,-0.001028138870552,0.0010281494358854,-0.0010281507267294,0.0010281374679551,3.7494569412494e-10,-1.5689963158388e-09,8.5507839948091e-10,-2.0264474929547e-09,-0.0012664137044201,0.0012664125403503,-0.0014500838420976,0.0014500833823731,-0.001450083627364,0.0014500833998784,-0.0014500834067719,0.0014500836112051,-0.0014500856438906,0.0014500815244788,-0.0012874806592122,0.0012874848620501,-0.0012874862388869,0.0012874787150735,-0.0011938185729333,0.0011938218875633,-0.0011938238293864,0.0011938164311412,5.1982527954159e-09,-5.0709305330236e-09,-0.0012664130624358,0.0012664131898792,1.0029144604752e-10,1.651310956525e-11,-0.0014500822343698,0.0014500849614871,-0.0014500811233494,0.001450085922603,-0.0014500846319125,0.0014500823794776,-0.0014500859522972,0.0014500812220522,-0.0011938267517717,0.0011938134297252,-0.0011938134125718,0.0011938270544946,0.71216092901669,131329,3014,0.0039926179176019,0.0052619593139467,0.0052619593302644,27.297354339973,-1.9221165280216e-05,-1.9221165280216e-05,-1.9221165280216e-05,3309537.1165506,0.014623661709306
31219200,0.99679344374156,0.014996943054937,0.0043195887205515,0.0053386771671604,0.0053386771672247,-0.00096175962545759,0.00096175931196488,7.1910843107222e-09,-7.5146279690091e-09,1.6716744983739e-09,-2.0499102428845e-09,-0.0011326724787569,0.0011326773752328,-0.0011326761511825,0.0011326735236652,-0.0011326725022416,0.0011326772290725,-0.001132679040524,0.0011326708549551,-0.0010306625139273,0.001030679474752,-0.0010306810025855,0.0010306608737433,2.4556966128753e-10,-1.4312863825695e-09,1.0062489541592e-09,-2.1630542069606e-09,-0.0012690849877397,0.0012690838367319,-0.0014528687480517,0.0014528679773005,-0.0014528683014051,0.0014528682422367,-0.0014528678985471,0.0014528686363786,-0.0014528705606799,0.0014528661082689,-0.0012902400060881,0.0012902455735389,-0.0012902468761658,0.0012902381897407,-0.0011965150717671,0.0011965189246549,-0.0011965209668303,0.0011965127568224,8.0864996710447e-09,-7.9632300453765e-09,-0.0012690843523708,0.0012690844781687,2.0159299485474e-10,-8.453473731592e-11,-0.0014528661672623,0.001452870537539,-0.001452864787034,0.0014528717719561,-0.0014528701476203,0.0014528663756553,-0.0014528718708209,0.0014528648141057,-0.0011965268265536,0.0011965069022884,-0.0011965069562932,0.0011965270595781,0.74546454594808,131329,3014,0.0040025929001427,0.0052730274800003,0.0052730274929244,28.60344654667,-8.7724276266429e-06,-8.7724276266429e-06,-8.7724276266429e-06,3321165.2323775,0.01465624815411
31419200,0.99693803229197,0.014999091611319,0.0043201943267367,0.0053394486422466,0.0053394486423356,-0.00096290496393739,0.00096290467459779,2.3153192644681e-09,-2.6118934131844e-09,1.5179871372114e-09,-1.8651424895302e-09,-0.0011340059031316,0.0011340079797876,-0.0011340068452084,0.0011340068609779,-0.0011340063665756,0.001134007393987,-0.0011340090673714,0.0011340048628454,-0.0010319048552222,0.0010319107144374,-0.0010319120957432,0.0010319033580217,4.5520702042113e-11,-1.2158250966389e-09,8.119957066515e-10,-1.9557459931172e-09,-0.0012704216280242,0.001270420489689,-0.0014543357941697,0.0014543353208039,-0.001454335779281,0.0014543351724983,-0.0014543353799265,0.0014543355757604,-0.0014543373368805,0.0014543337425182,-0.0012916549740754,0.0012916587185833,-0.0012916598805267,0.0012916533300652,-0.0011979007519349,0.0011979027052594,-0.0011979046620519,0.0011978986327424,3.2307961701594e-09,-3.0999664555645e-09,-0.0012704209926374,0.0012704211295323,-2.0186126680627e-11,1.4545472254631e-10,-0.0014543348104042,0.0014543362961951,-0.0014543338324421,0.0014543371223608,-0.0014543360522654,0.0014543348801288,-0.0014543370639438,0.0014543340421283,-0.0011979059113497,0.0011978973813377,-0.0011978972474158,0.0011979062813602,0.71243068228819,131329,3014,0.0040073571552164,0.0052785640627054,0.0052785640721881,29.222275315326,-3.8217974773895e-06,-3.8217974773895e-06,-3.8217974773895e-06,3322221.5863888,0.014672323602066
31619200,0.99707447990786,0.015001017338728,0.0043207329702406,0.0053401421841903,0.0053401421842966,-0.00096257594016509,0.00096257564665215,2.4927490561392e-09,-2.7949981428135e-09,1.3179367910533e-09,-1.6682757879081e-09,-0.0011337619011336,0.0011337639696099,-0.001133762971781,0.0011337627199528,-0.0011337622231313,0.001133763526195,-0.0011337650727804,0.0011337608420684,-0.0010315953286058,0.0010316017652528,-0.0010316030261887,0.0010315939584616,2.4439984933997e-10,-1.4266277368732e-09,8.0659371405275e-10,-1.9604170354284e-09,-0.0012701625909591,0.0012701614405589,-0.0014541421494599,0.0014541417860704,-0.0014541421171724,0.0014541416462815,-0.0014541418446262,0.0014541419096328,-0.0014541438268337,0.0014541400539247,-0.001291416224739,0.0012914198181999,-0.001291421124652,0.0012914144238863,-0.0011976557315316,0.0011976581121525,-0.0011976600259169,0.0011976535593446,3.4047453102502e-09,-3.2707613906023e-09,-0.0012701619492021,0.0012701620867867,-1.4152854375308e-11,1.4415392207898e-10,-0.0014541411328543,0.0014541427866077,-0.0014541401469564,0.0014541436266346,-0.0014541425337555,0.0014541412048325,-0.001454143566571,0.0014541403350503,-0.001197661293728,0.0011976522881985,-0.0011976521826833,0.0011976616833672,0.68058195779434,131329,3014,0.0040059959291586,0.0052774891376584,0.0052774891471379,29.011514159076,-5.5078867273935e-06,-5.5078867273935e-06,-5.5078867273935e-06,3316524.443255,0.014668762929282
31819200,0.99720206794224,0.015002751390124,0.0043212156556205,0.0053407678671939,0.0053407678673096,-0.00096195244224454,0.00096195215515437,3.4481752179081e-09,-3.7430947430838e-09,1.2147988044657e-09,-1.5555620223245e-09,-0.0011331462673602,0.0011331488705681,-0.0011331479383519,0.0011331470208705,-0.0011331464868988,0.0011331485302828,-0.0011331499976175,0.0011331451857922,-0.0010309667913418,0.0010309752603774,-0.0010309764387784,0.0010309654989753,5.852025266203e-10,-1.789268172501e-09,8.1359389484541e-10,-1.9863277605658e-09,-0.0012695739696705,0.0012695727995182,-0.0014535698243218,0.0014535696549814,-0.0014535697713869,0.0014535695365919,-0.0014535697224779,0.0014535695773488,-0.0014535717464632,0.0014535676799661,-0.0012908204106028,0.0012908238884252,-0.0012908254384834,0.0012908183498992,-0.00119704950688,0.0011970526486882,-0.0011970545850151,0.0011970472926238,4.3585657007509e-09,-4.2275341351458e-09,-0.0012695733192485,0.0012695734545973,9.3984788240998e-12,1.175343683469e-10,-0.0014535685968466,0.0014535708658744,-0.0014535675957176,0.0014535717212572,-0.0014535705996837,0.0014535686848372,-0.0014535716803645,0.0014535677679567,-0.0011970564479919,0.0011970454443229,-0.0011970453572757,0.0011970568132289,0.65806102474243,131329,3014,0.0040034082884666,0.005275049482958,0.0052750494927868,28.629515366601,-8.5638770671947e-06,-8.5638770671947e-06,-8.5638770671947e-06,3311491.2260991,0.014661185799626
32019200,0.99732361594473,0.015004574770769,0.0043217309120297,0.0053414219293066,0.005341421929433,-0.00096191241722237,0.00096191212589069,4.9661503381043e-09,-5.2662458068643e-09,1.1643386095488e-09,-1.5094503430929e-09,-0.0011330850468299,0.0011330885202441,-0.0011330876281989,0.0011330857589923,-0.0011330851519453,0.0011330882941759,-0.0011330897312394,0.0011330838787695,-0.0010309378805151,0.0010309495681455,-0.0010309507248221,0.0010309366149024,7.7736827407673e-10,-1.9956278026133e-09,8.4456064937965e-10,-2.0293999821345e-09,-0.0012695795876159,0.0012695784049882,-0.0014535741997945,0.0014535740925289,-0.0014535740930642,0.001453574027867,-0.0014535741450304,0.0014535739615179,-0.0014535762721265,0.0014535719573114,-0.0012908208281961,0.0012908244462979,-0.0012908261323679,0.0012908186017438,-0.0011970229926249,0.001197026705413,-0.0011970286735985,0.0011970207463925,5.8883882074881e-09,-5.7562707111163e-09,-0.0012695789313777,0.0012695790658977,4.6557447554877e-11,8.1504481858732e-11,-0.0014535725349378,0.0014535757402115,-0.0014535714797523,0.0014535766499215,-0.0014535754494896,0.0014535726424173,-0.0014535766327977,0.0014535716187433,-0.0011970318203919,0.0011970175845221,-0.0011970175290224,0.0011970321748199,0.7176673170907,131329,3014,0.004003241049877,0.0052750730263394,0.0052750730361786,28.559327188731,-9.125382490154e-06,-9.125382490154e-06,-9.125382490154e-06,3312134.7949677,0.014661062274225
32219200,0.99744078500265,0.015006375069862,0.004322241070402,0.0053420669996627,0.0053420669997974,-0.00096221008701433,0.00096220980959844,3.1163697285145e-09,-3.4027330964867e-09,9.8124082541339e-10,-1.3093919007998e-09,-0.0011334690138704,0.0011334712390937,-0.0011334704569651,0.0011334696171778,-0.0011334690833059,0.0011334710498683,-0.0011334723448481,0.0011334679533563,-0.0010312799431407,0.0010312878289391,-0.0010312888446106,0.0010312788223822,6.7197511625824e-10,-1.8817218157527e-09,7.9632322752505e-10,-1.9835338661487e-09,-0.0012699576422172,0.0012699564675427,-0.0014540167945785,0.0014540166800228,-0.0014540167424297,0.001454016562481,-0.0014540167622842,0.0014540165344097,-0.0014540187652921,0.0014540146556234,-0.0012912395219101,0.0012912428816389,-0.0012912444850401,0.0012912373827313,-0.0011974243114283,0.0011974275976044,-0.0011974295393634,0.0011974221163073,4.0356007440498e-09,-3.9044550141089e-09,-0.0012699569886556,0.0012699571263789,-6.7909487176488e-12,1.3648702753264e-10,-0.0014540157058287,0.0014540177531085,-0.0014540147023811,0.001454018609667,-0.0014540174975438,0.0014540157828033,-0.0014540185571893,0.0014540148873193,-0.0011974309695807,0.0011974206834043,-0.0011974205768931,0.0011974313442765,0.73341165340226,131329,3014,0.0040044813290072,0.0052766385353101,0.0052766385463386,28.694143471159,-8.0468522307309e-06,-8.0468522307309e-06,-8.0468522307309e-06,3310281.9075858,0.014665500210412
32419200,0.99755460832241,0.01500817107717,0.0043227516389604,0.0053427097190345,0.0053427097191753,-0.0009627530443255,0.0009627527687468,2.0305345055941e-09,-2.3138816127109e-09,9.2900158331579e-10,-1.2546713517691e-09,-0.0011341303046919,0.0011341318332121,-0.0011341310851335,0.0011341308738538,-0.0011341303874938,0.0011341316307106,-0.0011341328905822,0.001134129292914,-0.0010318789616918,0.0010318846481247,-0.0010318856260323,0.0010318778771474,5.7584793235342e-10,-1.7930546784949e-09,7.6894936211746e-10,-1.9576975559338e-09,-0.0012705984210445,0.0012705972379338,-0.0014547415711451,0.0014547414198721,-0.0014547415528069,0.0014547412674288,-0.0014547415247463,0.0014547412857186,-0.0014547434648209,0.0014547394706259,-0.001291934008457,0.0012919372182882,-0.0012919387817337,0.0012919319359465,-0.0011981039786954,0.0011981069518879,-0.0011981088830366,0.0011981017885675,2.9601429373123e-09,-2.8261763588404e-09,-0.0012705977619895,0.0012705979011978,-4.1143680824087e-11,1.725117865304e-10,-0.0014547408092811,0.0014547421651008,-0.0014547398317716,0.0014547429965763,-0.0014547419307176,0.0014547408643326,-0.0014547429177166,0.0014547400401251,-0.0011981093534083,0.00119810131413,-0.0011981011864053,0.0011981097577614,0.75109667444168,131329,3014,0.0040067415388044,0.0052792922841173,0.005279292292951,28.971844063436,-5.8252474925099e-06,-5.8252474925099e-06,-5.8252474925099e-06,3309449.7944348,0.014673182493663
32619200,0.99766807071122,0.015009815418615,0.0043232136362591,0.0053433008911057,0.0053433008912501,-0.00096410700911521,0.00096410673248585,4.1149830389163e-10,-6.9596395807293e-10,9.6005011877494e-10,-1.2867951150278e-09,-0.0011356577631016,0.0011356582942436,-0.0011356575271618,0.0011356583512259,-0.0011356579343401,0.001135658002789,-0.0011356592842252,0.0011356568184988,-0.0010333213806638,0.001033323722229,-0.0010333247196432,0.001033320274598,3.266784876209e-10,-1.523857686054e-09,7.4542026626629e-10,-1.9154268195081e-09,-0.0012721367723795,0.0012721356069369,-0.0014563922858237,0.0014563920254573,-0.0014563923124601,0.0014563918263645,-0.0014563921335254,0.0014563919962465,-0.0014563939858835,0.0014563902707979,-0.0012935500431806,0.0012935531877007,-0.0012935545476165,0.0012935481476502,-0.0011996986712658,0.0011997009837325,-0.00119970286356,0.001199696509609,1.3463024871479e-09,-1.2087400921728e-09,-0.0012721361207797,0.0012721362628334,-9.102733164809e-11,2.2642978143149e-10,-0.0014563919873389,0.0014563923072168,-0.0014563910425849,0.0014563931057801,-0.0014563921043111,0.0014563920101458,-0.001456392989718,0.0014563912883042,-0.0011997020333429,0.0011996973478554,-0.0011996971825803,0.0011997024764816,0.69654115911606,131329,3014,0.0040123713026278,0.0052856648132119,0.0052856648222362,29.721617530818,1.729402465467e-07,1.729402465467e-07,1.729402465467e-07,3312851.7060629,0.014691832340474
32819200,0.99777118109483,0.015011183525143,0.0043235928135552,0.0053437953557191,0.0053437953558685,-0.00096260778989053,0.00096260752134731,4.0276781121396e-09,-4.3015844810762e-09,8.9597433551084e-10,-1.2110486968818e-09,-0.0011341669946299,0.0011341697721597,-0.0011341690445943,0.0011341675429383,-0.0011341669703815,0.0011341696759548,-0.0011341709053309,0.0011341659076938,-0.0010317748770682,0.0010317848205816,-0.0010317857628863,0.0010317738262622,6.8268630513861e-10,-1.8993381350862e-09,8.0594382497259e-10,-1.9923921822958e-09,-0.0012706288080479,0.0012706276251313,-0.0014548973693955,0.0014548972332489,-0.0014548972912557,0.0014548971395353,-0.0014548973149278,0.0014548971107794,-0.0014548993618154,0.0014548951903537,-0.0012920150885784,0.0012920185645825,-0.0012920201884953,0.0012920129371437,-0.0011981811276196,0.0011981845529327,-0.0011981864878677,0.0011981788931937,4.9400600200868e-09,-4.8121465459321e-09,-0.0012706281515081,0.0012706282858566,7.1504198831102e-12,1.1823404061945e-10,-0.001454895952855,0.0014548986350486,-0.0014548949236786,0.0014548995127839,-0.0014548983698477,0.0014548960378373,-0.0014548994762506,0.0014548951011497,-0.0011981888657621,0.0011981765620346,-0.0011981764734872,0.0011981892226134,0.64446385661526,131329,3014,0.0040061484863222,0.005279415133419,0.0052794151422082,28.866014937844,-6.6718804972455e-06,-6.6718804972455e-06,-6.6718804972455e-06,3301598.9144684,0.014672834435802
33019200,0.99786803434203,0.015012585899846,0.0043239872606799,0.005344299319505,0.0053442993196608,-0.00096212969698698,0.000962129421075,2.0472714590269e-09,-2.3314503059406e-09,8.2842492459897e-10,-1.153292764933e-09,-0.0011336179239972,0.0011336194168607,-0.001133618736093,0.001133618424943,-0.0011336179490064,0.0011336192725835,-0.0011336204669449,0.0011336169187991,-0.0010312851977822,0.0010312909622691,-0.0010312918753906,0.0010312841792694,7.103334787916e-10,-1.9322373106052e-09,7.4429088371622e-10,-1.9352803210328e-09,-0.0012701569817594,0.0012701557945453,-0.0014543873610879,0.0014543872941272,-0.0014543873302768,0.0014543871385091,-0.001454387407227,0.0014543870473318,-0.0014543893313887,0.0014543852619523,-0.0012915142972287,0.0012915173205871,-0.001291518975141,0.0012915121159617,-0.0011976625787637,0.0011976658006489,-0.0011976677011546,0.0011976603847577,2.9813018123349e-09,-2.8448563928253e-09,-0.0012701563202966,0.0012701564602424,-2.9917891381896e-11,1.6377476444042e-10,-0.0014543866100393,0.0014543880200945,-0.0014543856500927,0.0014543888349778,-0.0014543877765745,0.0014543866711336,-0.0014543887611916,0.0014543858469608,-0.0011976680695588,0.0011976600013484,-0.0011976598887905,0.0011976684778065,0.6952439170301,131329,3014,0.0040041602209431,0.0052774607008524,0.0052774607097389,28.558332422826,-9.13334061739e-06,-9.13334061739e-06,-9.13334061739e-06,3301066.7883763,0.014666847270978
33219200,0.99796157129995,0.015014014763302,0.004324392094345,0.0053448113343988,0.0053448113345586,-0.00096248576510459,0.00096248549261534,3.481356716942e-10,-6.2920508409894e-10,8.5277307110334e-10,-1.1745497658403e-09,-0.0011340125413587,0.0011340130142834,-0.0011340123123839,0.001134013064242,-0.001134012667239,0.0011340127692314,-0.0011340139751265,0.0011340116268582,-0.0010316745227208,0.0010316767266925,-0.0010316776486824,0.0010316734968345,5.5321596522059e-10,-1.7642282411632e-09,7.0959887420747e-10,-1.8909003772025e-09,-0.0012705733369821,0.0012705721597669,-0.0014548351183072,0.001454835013837,-0.0014548351471237,0.0014548348010935,-0.0014548351466191,0.0014548347924723,-0.0014548369578485,0.0014548331196153,-0.0012919518757802,0.0012919547092174,-0.0012919562438849,0.0012919498191905,-0.0011980823103667,0.0011980850126358,-0.0011980868891609,0.0011980801580775,1.2886078586203e-09,-1.1501380123673e-09,-0.0012705726791779,0.0012705728216699,-6.6627315345957e-11,2.0200681185997e-10,-0.0014548348813044,0.0014548352278436,-0.0014548339805093,0.0014548359824572,-0.0014548350087307,0.0014548349212609,-0.0014548358835518,0.0014548342101856,-0.0011980857639221,0.0011980812809071,-0.0011980811273618,0.0011980861922893,0.72923014306455,131329,3014,0.0040056403115991,0.0052791856147664,0.0052791856233736,28.726346414335,-7.7892286853221e-06,-7.7892286853221e-06,-7.7892286853221e-06,3302128.2550044,0.014671850229899
33419200,0.99805331677845,0.015015445075963,0.0043247982601937,0.0053453234078025,0.005345323407967,-0.0009633303332206,0.00096333005201873,-1.5983117552612e-09,1.309176011748e-09,9.2420185485597e-10,-1.2545464601727e-09,-0.0011349685617965,0.0011349678556299,-0.0011349671156924,0.0011349691218403,-0.0011349688174004,0.0011349674793772,-0.0011349687441081,0.0011349677173547,-0.0010325773945777,0.0010325755429071,-0.0010325765258663,0.0010325763022824,3.1527869561799e-10,-1.5087578779053e-09,6.8167852716135e-10,-1.8476026093772e-09,-0.001271513555808,0.0012715123933307,-0.0014558524009533,0.0014558522016853,-0.0014558524875475,0.0014558519291429,-0.0014558523410882,0.0014558520620112,-0.001455854048713,0.0014558504934624,-0.0012929413595064,0.0012929440562888,-0.0012929453969325,0.0012929394644321,-0.0011990567744811,0.001199058780713,-0.0011990605998227,0.0011990546525585,-6.4698319446046e-10,7.8829126553706e-10,-0.0012715129044035,0.0012715130489601,-1.0766696217174e-10,2.4761254198916e-10,-0.0014558527356,0.0014558518432551,-0.0014558518887559,0.0014558525447544,-0.001455851648386,0.0014558527469747,-0.001455852412424,0.0014558521437428,-0.0011990578619603,0.0011990573935273,-0.0011990572234922,0.0011990583300714,0.74278857867619,131329,3014,0.0040091518877154,0.0052830805115899,0.0052830805204539,29.176708630548,-4.1863309556177e-06,-4.1863309556177e-06,-4.1863309556177e-06,3304253.7766818,0.014683320749165
33619200,0.9981422048459,0.015016830890055,0.0043251916237781,0.0053458196330539,0.0053458196332233,-0.00096380922423895,0.0009638089416699,-9.8108384529726e-10,6.9082184183752e-10,1.066235019605e-09,-1.3990909036744e-09,-0.0011355707586177,0.0011355705233512,-0.0011355696859422,0.0011355714169549,-0.0011355710654531,0.0011355700964081,-0.0011355714583375,0.0011355698693012,-0.0010331003378051,0.0010330998023066,-0.0010331008787649,0.0010330991596198,2.5640269546991e-10,-1.4442276854459e-09,7.0201639148498e-10,-1.8637860577448e-09,-0.0012720776792736,0.0012720765212348,-0.0014565007767073,0.0014565005040385,-0.0014565008255221,0.0014565002742617,-0.0014565006315629,0.0014565004599925,-0.0014565024018219,0.0014564988256533,-0.0012935531302277,0.0012935560712774,-0.0012935573514758,0.0012935512728789,-0.0011996659441665,0.001199667993477,-0.0011996698059464,0.0011996637939158,-2.9380678205154e-11,1.669744103405e-10,-0.0012720770310488,0.0012720771732373,-9.6390927176281e-11,2.319145336996e-10,-0.0014565008705723,0.0014565003890321,-0.0014564999802306,0.0014565011340512,-0.0014565001884703,0.0014565008919953,-0.0014565010150705,0.0014565002291794,-0.0011996677802059,0.0011996658492586,-0.0011996656846141,0.0011996682262109,0.7430322691951,131329,3014,0.0040111462106861,0.0052854165418028,0.0052854165497152,29.431369616878,-2.149043064973e-06,-2.149043064973e-06,-2.149043064973e-06,3303287.5782766,0.014690088701277
33819200,0.99822869411558,0.015018183611429,0.0043255757111215,0.0053463039500669,0.0053463039502404,-0.00096443776070115,0.00096443746708236,2.7019774958834e-09,-3.0034788801936e-09,1.2780890603448e-09,-1.6239635361758e-09,-0.0011363232768818,0.0011363255488358,-0.0011363245762011,0.0011363240702703,-0.001136323613829,0.0011363250906496,-0.0011363266093088,0.0011363222607535,-0.0010337766795438,0.0010337835177066,-0.0010337847517063,0.0010337753402628,2.6890417216442e-10,-1.4547100821644e-09,7.6565771800857e-10,-1.925079997389e-09,-0.001272808691402,0.0012728075359628,-0.0014573143857339,0.0014573140522294,-0.0014573143569619,0.0014573138884614,-0.0014573141287302,0.0014573141079725,-0.0014573160601657,0.001457312323211,-0.0012943357015058,0.0012943390866484,-0.0012943403912766,0.0012943338540808,-0.0012004427618072,0.0012004451249679,-0.0012004469809188,0.001200440573427,3.6447424296795e-09,-3.5091623365582e-09,-0.0012728080457347,0.0012728081854344,-4.3048789653732e-11,1.7604592488843e-10,-0.0014573132429408,0.0014573151682271,-0.0014573122756539,0.0014573159902644,-0.0014573149334316,0.0014573132978782,-0.0014573159103503,0.0014573124840027,-0.0012004485381733,0.0012004390417486,-0.0012004389165702,0.0012004489467823,0.74517939942985,131329,3014,0.0040137621051509,0.005288443962018,0.0052884439699906,29.775162834928,6.0130267942717e-07,6.0130267942717e-07,6.0130267942717e-07,3303465.349655,0.014698890389716
34019200,0.99831316569598,0.015019463033695,0.0043259373593936,0.0053467628370622,0.0053467628372393,-0.00096520622157136,0.00096520592558222,7.8059629608368e-10,-1.0843696297816e-09,1.3281425439217e-09,-1.676710417883e-09,-0.0011372245544661,0.0011372255794152,-0.0011372245762142,0.0011372253782783,-0.001137224959479,0.0011372250529327,-0.0011372266071589,0.0011372235705153,-0.0010346028100792,0.0010346056728408,-0.0010346069439138,0.0010346014333649,1.4043051979179e-10,-1.314767800555e-09,7.4811855376147e-10,-1.8972986240782e-09,-0.0012737011845189,0.0012737000391645,-0.0014582910046621,0.0014582906104535,-0.0014582910027466,0.0014582904294613,-0.0014582906976021,0.0014582907256222,-0.0014582925709032,0.0014582889890366,-0.0012952810266383,0.0012952843582209,-0.0012952855640232,0.0012952792816519,-0.0012013822921805,0.0012013843029735,-0.0012013861425033,0.0012013801436748,1.749309724024e-09,-1.6116307961972e-09,-0.0012737005428692,0.0012737006845079,-7.4507507817368e-11,2.1007027220326e-10,-0.0014582905002998,0.0014582910928637,-0.0014582895484899,0.0014582918999783,-0.0014582908785369,0.0014582905343801,-0.001458291795127,0.0014582897800929,-0.0012013859249227,0.0012013803720766,-0.0012013802233812,0.0012013863600798,0.72426718167111,131329,3014,0.0040169592362521,0.0052921404010381,0.0052921404087779,30.203956782651,4.0316542612045e-06,4.0316542612045e-06,4.0316542612045e-06,3304534.4692437,0.014709639728826
34219200,0.99839418278271,0.015020655178403,0.0043262729336365,0.0053471911222934,0.0053471911224735,-0.0009654436495776,0.00096544335760609,1.4257170229707e-09,-1.7244379205464e-09,1.3310473295354e-09,-1.6743629539199e-09,-0.0011375464832345,0.0011375479420927,-0.0011375469352047,0.001137547311215,-0.0011375468791558,0.0011375474244069,-0.0011375489748253,0.0011375454953381,-0.0010348658716139,0.0010348700710357,-0.0010348713357331,0.0010348644990914,1.6505574840122e-10,-1.3407162850929e-09,7.5638237168251e-10,-1.9065089279952e-09,-0.0012740133651373,0.0012740122185998,-0.0014586593857738,0.0014586590038087,-0.001458659379345,0.0014586588274323,-0.00145865908795,0.001458659113309,-0.0014586609764319,0.0014586573630507,-0.0012956170199459,0.0012956203934461,-0.0012956216176181,0.0012956152607199,-0.0012017187904548,0.0012017208808228,-0.0012017227360074,0.0012017166379315,2.3900528015863e-09,-2.2547546748512e-09,-0.0012740127233705,0.0012740128638458,-7.1112615528998e-11,2.0396092025154e-10,-0.0014586586575183,0.001458659711176,-0.0014586576974789,0.0014586605241898,-0.0014586594952452,0.0014586586945965,-0.0014586604254081,0.0014586579303247,-0.0012017231462755,0.0012017162510453,-0.001201716102868,0.0012017235693711,0.70594539856811,131329,3014,0.0040179493506303,0.0052934326414033,0.0052934326486958,30.330275264874,5.0422021189956e-06,5.0422021189956e-06,5.0422021189956e-06,3303978.2314673,0.014713268603487
34419200,0.99847275450353,0.015021816596293,0.0043266001642443,0.0053476082159324,0.0053476082161159,-0.00096605657491733,0.00096605627827889,2.8309279586823e-09,-3.135236239832e-09,1.3260928525383e-09,-1.6749466714113e-09,-0.0011382185188899,0.0011382208779497,-0.0011382198772959,0.0011382193399292,-0.0011382188864225,0.0011382203889902,-0.0011382219423197,0.0011382174977811,-0.0010355139713071,0.0010355209754213,-0.0010355222465346,0.0010355125961282,1.3785754526531e-10,-1.3126013133353e-09,7.7605644801144e-10,-1.9256380040668e-09,-0.0012747218864986,0.0012747207405922,-0.0014594076977218,0.0014594072839329,-0.0014594076767984,0.0014594071187573,-0.0014594073506582,0.0014594074353788,-0.0014594092808916,0.0014594056438824,-0.0012963473709713,0.0012963508615947,-0.0012963520742381,0.0012963456325099,-0.0012024354929036,0.0012024375840534,-0.0012024394461765,0.0012024333295257,3.8023204597788e-09,-3.6650713598211e-09,-0.0012747212447046,0.0012747213858577,-5.8856353096461e-11,1.9405320695479e-10,-0.0014594064978778,0.00145940846033,-0.0014594055202975,0.0014594092930289,-0.0014594082354526,0.0014594065414379,-0.0014594091995956,0.0014594057392851,-0.0012024412474713,0.0012024315316276,-0.0012024313947835,0.0012024416732005,0.70868168181487,131329,3014,0.00402049678903,0.0052963677775259,0.0052963677847944,30.662612995924,7.7009039673887e-06,7.7009039673887e-06,7.7009039673887e-06,3307226.6394,0.014721811020698
34619200,0.99855360496521,0.015023064027641,0.0043269536401089,0.0053480551936729,0.0053480551938591,-0.00096862496366718,0.00096862466584625,5.288335869881e-09,-5.5945381367884e-09,1.3975190064007e-09,-1.7490517707866e-09,-0.001140899502929,0.0011409034985722,-0.0011409024488496,0.0011409003733978,-0.0011408998753858,0.0011409030048213,-0.0011409046071302,0.0011408984377889,-0.0010381986981913,0.0010382105593339,-0.001038211879667,0.0010381972776272,-2.4183522021118e-10,-9.0210287091696e-10,8.3234604597547e-10,-1.9546362696298e-09,-0.0012775238272054,0.0012775227089361,-0.0014622851849506,0.0014622845213875,-0.0014622851512551,0.0014622843739578,-0.0014622845368272,0.0014622849829741,-0.0014622865360452,0.0014622831174419,-0.0012992210829828,0.0012992250794657,-0.0012992260085522,0.0012992196433896,-0.0012052522355769,0.0012052536826191,-0.0012052555621229,0.0012052500862091,6.2691794039902e-09,-6.1312640550918e-09,-0.0012775231988777,0.0012775233405731,-4.6095255027482e-11,1.8114350513144e-10,-0.0014622830705951,0.0014622866156104,-0.0014622820579714,0.0014622874833983,-0.0014622863827902,0.0014622831236902,-0.0014622873993907,0.0014622822706195,-0.0012052601358987,0.0012052455032293,-0.0012052453657231,0.0012052605520153,0.73613946069251,131329,3014,0.0040311647181558,0.0053079773574074,0.005307977364339,32.086581538665,1.909265230932e-05,1.909265230932e-05,1.909265230932e-05,3321761.2984914,0.014756200549044
34819200,0.99863665110929,0.015024356536309,0.0043273196933648,0.0053485184213773,0.0053485184215666,-0.00097130191841744,0.00097130161034929,4.4647169848726e-09,-4.7801664669898e-09,1.6084274748506e-09,-1.9711539968926e-09,-0.0011437473561835,0.001143750944717,-0.001143749761434,0.0011437483602623,-0.0011437478923719,0.0011437502863086,-0.0011437520439226,0.0011437462994182,-0.0010410083528863,0.0010410183179743,-0.0010410197891964,0.0010410067737906,-3.8792149616531e-10,-7.4002816243806e-10,8.4058680501316e-10,-1.9485687949446e-09,-0.0012804469215755,0.0012804458176105,-0.0014653269658567,0.0014653262369972,-0.0014653269572351,0.0014653260726515,-0.0014653262417172,0.001465326782126,-0.0014653282171318,0.001465324932524,-0.0013022346698749,0.001302238723421,-0.0013022395540068,0.0013022333647764,-0.001208210924754,0.0012082120247575,-0.0012082138953187,0.0012082087986002,5.4674837424776e-09,-5.3283292661984e-09,-0.0012804462997276,0.0012804464426331,-7.2317636687017e-11,2.094565059534e-10,-0.0014653251091759,0.001465328078097,-0.0014653240985943,0.0014653289438476,-0.0014653278614184,0.0014653251447182,-0.001465328839177,0.0014653243304396,-0.0012082177815193,0.0012082048955932,-0.0012082047459798,0.0012082182181081,0.74236297403594,131329,3014,0.0040422864875084,0.0053200878617771,0.0053200878684251,33.575191882898,3.1001535063186e-05,3.1001535063186e-05,3.1001535063186e-05,3334011.2938194,0.014792070602768
35019200,0.99871930327255,0.015025601254065,0.0043276701372964,0.0053489655582884,0.0053489655584803,-0.00097310154941322,0.00097310123325257,2.1156380607389e-09,-2.439383400541e-09,1.7099611675954e-09,-2.0819600409028e-09,-0.0011457131103788,0.0011457152223694,-0.0011457139760278,0.001145714176874,-0.0011457137550151,0.0011457144549956,-0.0011457162919036,0.0011457120815779,-0.001042910404908,0.0010429156073877,-0.0010429171623362,0.001042908748033,-2.6448380005664e-10,-8.7136834572899e-10,8.1601444829714e-10,-1.9309011199162e-09,-0.0012824486883835,0.0012824475771159,-0.0014674421752028,0.0014674415474276,-0.0014674421929421,0.0014674413605208,-0.0014674415740264,0.0014674419699177,-0.0014674434962048,0.001467440168324,-0.0013043122232751,0.0013043160225776,-0.0013043169364014,0.0013043108160172,-0.0012102507190647,0.0012102519587731,-0.0012102538132451,0.0012102485984623,3.1352733074938e-09,-2.9931164873459e-09,-0.0012824480616276,0.0012824482070065,-1.0521555679579e-10,2.4614173583305e-10,-0.0014674411428429,0.0014674425657136,-0.0014674401477094,0.0014674434166384,-0.0014674423684794,0.001467441156769,-0.0014674432850558,0.0014674404009646,-0.0012102552943241,0.0012102470918864,-0.0012102469232441,0.0012102557633468,0.7213673411936,131329,3014,0.0040497662352061,0.0053283801529021,0.0053283801594622,34.584158976169,3.9073271809355e-05,3.9073271809355e-05,3.9073271809355e-05,3340589.4487297,0.014816495875965
35219200,0.9988001677539,0.0150267822552,0.0043280009863869,0.00534939063431,0.0053493906345036,-0.00097446059959027,0.00097446029306377,2.5146302755653e-09,-2.8281988701423e-09,1.5725474211381e-09,-1.9328754075713e-09,-0.0011471891938725,0.0011471914950224,-0.0011471903355862,0.0011471901738072,-0.0011471897376909,0.0011471908290934,-0.0011471925601485,0.0011471881711919,-0.0010443471465608,0.0010443532979816,-0.0010443547462108,0.001044345596523,-1.7295661481551e-10,-9.7136086784593e-10,8.1795291136243e-10,-1.9403891117177e-09,-0.0012839745523052,0.0012839734330928,-0.0014690505486445,0.0014690499724817,-0.0014690505605314,0.001469049784287,-0.0014690500006687,0.0014690503364388,-0.0014690519361434,0.0014690485301517,-0.001305890572324,0.0013058943395787,-0.0013058953206963,0.0013058890940346,-0.0012117942129151,0.0012117956486398,-0.0012117975163136,0.0012117920769651,3.5221354381212e-09,-3.3818881924607e-09,-0.0012839739219613,0.0012839740663907,-1.0541755030149e-10,2.439626601082e-10,-0.0014690493892874,0.0014690511139944,-0.0014690483886599,0.0014690519701505,-0.0014690509173233,0.0014690494048909,-0.0014690518405009,0.001469048644013,-0.0012117993169645,0.0012117902622007,-0.0012117900939802,0.0012117997784847,0.70214463255696,131329,3014,0.0040554146094637,0.0053347009506254,0.0053347009568104,35.345372625986,4.5162981007884e-05,4.5162981007884e-05,4.5162981007884e-05,3346174.9330373,0.014835059807461
35419200,0.99887831613788,0.015027885706549,0.0043283084640278,0.005349788621163,0.0053497886213585,-0.00097551157678041,0.00097551127883424,4.1140807776857e-09,-4.4183052362785e-09,1.3572105440613e-09,-1.7058358529445e-09,-0.0011483135578738,0.001148316753666,-0.0011483157344344,0.0011483143975034,-0.0011483139290747,0.0011483162613216,-0.0011483178372747,0.0011483125175581,-0.001045456493193,0.0010454659882154,-0.0010454672779891,0.0010454550927128,-3.2817322623587e-11,-1.1266360354469e-09,8.2413474624783e-10,-1.9602417279165e-09,-0.0012851640156713,0.0012851628825918,-0.0014702963265878,0.0014702958186312,-0.001470296321349,0.0014702956465505,-0.0014702958500255,0.0014702961074867,-0.0014702978202804,0.0014702942673032,-0.0013071122589123,0.0013071160137828,-0.0013071171034743,0.0013071106632274,-0.001212980453901,0.0012129822277569,-0.0012129841085424,0.001212978287567,5.11721824326e-09,-4.978084601109e-09,-0.0012851633790617,0.0012851635220985,-9.0451336626696e-11,2.2859429636587e-10,-0.001470294681835,0.0014702974442795,-0.0014702936662548,0.0014702983158972,-0.0014702972381031,0.0014702947056999,-0.0014702981967798,0.0014702939087649,-0.0012129873278585,0.0012129750625164,-0.0012129749139324,0.0012129877790058,0.68162530670627,131329,3014,0.0040597817142652,0.0053396284056022,0.0053396284116649,35.930394158863,4.9843153270906e-05,4.9843153270906e-05,4.9843153270906e-05,3351423.5660416,0.0148494941576
35619200,0.99895455304417,0.01502891847393,0.0043285943819596,0.0053501620458867,0.0053501620460837,-0.00097697405657966,0.0009769737691261,6.1343752252242e-09,-6.4297818622542e-09,1.161410470825e-09,-1.4992167839564e-09,-0.0011498218566073,0.001149826208008,-0.0011498253091503,0.0011498225758985,-0.0011498220563677,0.0011498258879634,-0.0011498273196483,0.0011498207888765,-0.0010469891423362,0.0010470028191848,-0.0010470039663423,0.0010469878922018,1.9525043878091e-11,-1.1901325530505e-09,8.3722396617435e-10,-1.9838008662992e-09,-0.0012867828045792,0.0012867816618696,-0.0014719571003339,0.0014719565979134,-0.0014719570721039,0.0014719564573649,-0.0014719566311757,0.0014719568903621,-0.0014719586475474,0.0014719549945006,-0.0013087615799128,0.0013087654376178,-0.0013087665699329,0.0013087599229604,-0.001214575712325,0.001214577698304,-0.0012145796222222,0.0012145735371903,7.1452792820344e-09,-7.0048170278246e-09,-0.0012867821625734,0.0012867823066185,-7.216573232759e-11,2.1049074785802e-10,-0.001471954824769,0.0014719588588746,-0.001471953781307,0.0014719597573036,-0.001471958641977,0.0014719548606241,-0.0014719596521762,0.0014719540135664,-0.0012145847262402,0.0012145684077612,-0.0012145682551538,0.001214585166981,0.65730119660879,131329,3014,0.0040658555221429,0.0053463353666736,0.0053463353724144,36.738699827826,5.6309598622611e-05,5.6309598622611e-05,5.6309598622611e-05,3360451.1134061,0.014869271896791
35819200,0.99902936003833,0.015030000431006,0.0043288968753699,0.0053505517777183,0.0053505517779174,-0.00097877340066166,0.00097877311720466,6.5914402776711e-09,-6.8826972347063e-09,1.0589866604491e-09,-1.3915409760843e-09,-0.001151637247903,0.0011516417745086,-0.0011516409410693,0.0011516379019055,-0.0011516373491894,0.0011516415538753,-0.0011516429130707,0.0011516361540301,-0.0010488694874837,0.0010488841807195,-0.001048885253746,0.0010488683091028,6.6046266673169e-11,-1.2426932098181e-09,8.3837576330805e-10,-1.9903508146348e-09,-0.0012887524998905,0.0012887513513717,-0.0014739533123879,0.0014739528121669,-0.0014739532646389,0.0014739527065044,-0.0014739528564158,0.0014739531059403,-0.0014739548966814,0.0014739511709003,-0.0013107575207401,0.0013107614373343,-0.0013107625997378,0.0013107558152309,-0.0012164979814234,0.001216500142882,-0.001216502089291,0.0012164958146506,7.6204119359403e-09,-7.4801555271479e-09,-0.0012887518551143,0.0012887519988029,-6.9994897792154e-11,2.0821848827399e-10,-0.0014739509313655,0.0014739551861419,-0.0014739498595449,0.0014739561128478,-0.0014739549679861,0.0014739509677155,-0.0014739560089105,0.0014739500904966,-0.0012165075728999,0.0012164902899521,-0.0012164901409791,0.0012165080137336,0.69619442563659,131329,3014,0.0040733259786275,0.0053544968872919,0.0053544968928471,37.724527868019,6.4196222944152e-05,6.4196222944152e-05,6.4196222944152e-05,3373039.4515355,0.014893418940931
36019200,0.99909979546868,0.01503108413386,0.0043292021581511,0.0053509409877537,0.0053509409879548,-0.0009792666217342,0.00097926634386978,6.3099568417381e-09,-6.5949802112345e-09,9.2256961580799e-10,-1.2473211037259e-09,-0.0011521809199121,0.0011521851844944,-0.0011521844409156,0.0011521814840668,-0.0011521809123674,0.0011521850731897,-0.0011521863327789,0.0011521798169485,-0.0010494050322443,0.0010494192710163,-0.0010494202428361,0.0010494039523361,3.7198297115443e-10,-1.5744142166455e-09,8.0717454708719e-10,-1.9820701343112e-09,-0.0012893457161001,0.0012893445439729,-0.0014745922565246,0.0014745919171208,-0.0014745921854376,0.0014745918407217,-0.0014745920000607,0.0014745920151053,-0.0014745940385392,0.0014745900767668,-0.0013113733666277,0.0013113770447623,-0.0013113784666993,0.0013113714534618,-0.0012170797638096,0.0012170825809252,-0.0012170845481809,0.0012170775989732,7.3396788950832e-09,-7.2008560307911e-09,-0.0012893450598928,0.0012893452026734,-7.4536453021348e-11,2.1181386964344e-10,-0.0014745900463926,0.0014745941225476,-0.0014745889585985,0.0014745950651088,-0.0014745939067431,0.0014745900804744,-0.0014745949583623,0.0014745891916758,-0.0012170894230244,0.0012170726714263,-0.0012170725287276,0.0012170898643197,0.73586530136136,131329,3014,0.0040753764128035,0.0053569540289995,0.0053569540342158,37.994482486767,6.6355859894137e-05,6.6355859894137e-05,6.6355859894137e-05,3374633.547455,0.014900488432271
36219200,0.99916469337633,0.015032048341641,0.0043294723111565,0.0053512880151408,0.0053512880153436,-0.00097901814066057,0.00097901787015245,4.6847687847353e-09,-4.962910505579e-09,7.4676476655486e-10,-1.0626679119306e-09,-0.0011520189381284,0.0011520220554931,-0.0011520214243762,0.0011520193903464,-0.0011520188515354,0.0011520220235413,-0.0011520231562664,0.0011520178835391,-0.0010491846095683,0.0010491956551192,-0.0010491965019228,0.0010491836577587,7.0425145156963e-10,-1.9278288346304e-09,7.6426886803349e-10,-1.9572644961383e-09,-0.0012891604419356,0.0012891592517386,-0.0014744700115145,0.0014744698999464,-0.0014744699592974,0.0014744698057638,-0.0014744700226524,0.0014744697300894,-0.0014744719978122,0.0014744678541589,-0.0013112226864967,0.001311225929882,-0.0013112276120647,0.0013112205392671,-0.001216921743783,0.0012169251182661,-0.0012169270808048,0.0012169195792304,5.7184522883256e-09,-5.5800229316591e-09,-0.0012891597766998,0.0012891599193736,-7.8107017148947e-11,2.1516267478092e-10,-0.0014744684311925,0.0014744714753907,-0.0014744673817705,0.0014744723793162,-0.0014744712623094,0.0014744684630848,-0.0014744722709688,0.0014744676166771,-0.0012169300247846,0.0012169165853322,-0.0012169164376705,0.001216930467169,0.71361274491904,131329,3014,0.0040743503951819,0.005356184587309,0.0053561845923285,37.86725470297,6.5338037623764e-05,6.5338037623764e-05,6.5338037623764e-05,3368399.1203506,0.014897888008139
36419200,0.9992219605161,0.015032887004067,0.004329706906528,0.0053515900486676,0.0053515900488715,-0.00097727424437014,0.00097727400767437,2.9461900410048e-09,-3.1916321955037e-09,8.3514477778266e-11,-3.6031611826639e-10,-0.0011502691582075,0.0011502707546302,-0.0011502705442529,0.0011502691894801,-0.0011502686905788,0.0011502711071602,-0.0011502717511224,0.0011502682110236,-0.0010474060806825,0.0010474140121124,-0.0010474143723864,0.0010474056262631,7.4993972106431e-10,-1.9737876231393e-09,7.4747765917171e-10,-1.9402325693646e-09,-0.0012873941604614,0.0012873929701963,-0.0014727054343785,0.001472705411985,-0.0014727054411751,0.0014727052563597,-0.0014727055455074,0.0014727051414897,-0.0014727074394101,0.0014727033487637,-0.0013094457370967,0.0013094487132584,-0.001309450413936,0.0013094435532631,-0.0012151549928993,0.0012151582661041,-0.0012151602117863,0.0012151528355051,3.9624069323058e-09,-3.825805620735e-09,-0.0012873934958738,0.0012873936370472,-4.5371792658173e-11,1.7987093394879e-10,-0.0014727044255337,0.0014727064143694,-0.0014727034700632,0.0014727072239698,-0.0014727061806804,0.0014727044796214,-0.0014727071419628,0.0014727036824497,-0.0012151614327477,0.0012151515697188,-0.0012151514383119,0.0012151618468624,0.70434247424904,131329,3014,0.0040671125652562,0.0053488649245007,0.0053488649292364,36.901101699415,5.7608813595323e-05,5.7608813595323e-05,5.7608813595323e-05,3353787.8809377,0.01487568468945
36619200,0.99927390655242,0.015033602430833,0.0043299053882711,0.0053518485211784,0.0053518485213831,-0.00097636481390475,0.00097636459938798,1.0126059636123e-09,-1.2357612423423e-09,-4.0098193318895e-10,1.5125949968494e-10,-0.0011493475381705,0.0011493476150018,-0.0011493477136436,0.0011493472605842,-0.0011493468217109,0.0011493482185906,-0.0011493485111735,0.0011493466938075,-0.0010464880117176,0.0010464922866235,-0.0010464922877028,0.0010464879072601,5.2522379221244e-10,-1.7327427414795e-09,7.4980387131248e-10,-1.9273420902111e-09,-0.0012864866389277,0.0012864854636311,-0.0014717940821551,0.0014717939995893,-0.0014717941630468,0.0014717937680863,-0.0014717941204171,0.0014717938004021,-0.0014717959332758,0.0014717920908722,-0.0013085368177636,0.0013085397201248,-0.001308541247118,0.0013085347974054,-0.001214242099565,0.001214244701307,-0.0012142466225158,0.0012142399505848,2.0179255510537e-09,-1.8823187939823e-09,-0.0012864859826592,0.0012864861221093,-1.8784068806651e-11,1.5200605676048e-10,-0.0014717936320448,0.0014717944420614,-0.0014717927735068,0.0014717951553173,-0.0014717941923258,0.0014717937021219,-0.0014717950937717,0.0014717929660456,-0.001214246203498,0.001214240335228,-0.001214240222912,0.0012142465976171,0.6667555443574,131329,3014,0.0040633380350738,0.0053451040429955,0.0053451040476182,36.395433779487,5.3563470235896e-05,5.3563470235896e-05,5.3563470235896e-05,3345932.3290415,0.014864219771596
36819200,0.9993224729297,0.015034252169519,0.0043300850116861,0.005352083578814,0.0053520835790194,-0.0009764503784027,0.00097645010450882,4.3386482706853e-09,-4.620381072618e-09,7.0431189010816e-10,-1.0225812959316e-09,-0.0011493934788697,0.0011493963177632,-0.0011493957191115,0.0011493938988132,-0.0011493933458859,0.0011493963318986,-0.0011493974398481,0.0011493924029912,-0.0010465784465159,0.0010465890163984,-0.0010465898310772,0.0010465775225928,1.4254180427238e-09,-2.6996608872388e-09,6.6575614029073e-10,-1.902093495185e-09,-0.0012866012565195,0.0012866000224868,-0.0014718913153936,0.0014718915878508,-0.0014718911901791,0.0014718915629767,-0.0014718918001843,0.0014718909360608,-0.0014718937471943,0.001471889092872,-0.0013086399366902,0.00130864255061,-0.0013086447521286,0.0013086372231153,-0.0012143198899602,0.0012143248060016,-0.0012143267397403,0.0012143177048573,5.370445141058e-09,-5.2325972286288e-09,-0.0012866005697649,0.0012866007115727,-6.1390185983723e-11,1.9790148842184e-10,-0.0014718900238285,0.0014718928709659,-0.0014718889657212,0.001471893783818,-0.0014718926474392,0.0014718900665777,-0.0014718936866842,0.0014718891869095,-0.0012143286783237,0.0012143157379784,-0.0012143156081107,0.001214329112788,0.64958126979302,131329,3014,0.0040636914081721,0.0053455792728423,0.0053455792777163,36.42963647838,5.3837091827038e-05,5.3837091827038e-05,5.3837091827038e-05,3348330.9180086,0.014865540981755
37019200,0.99936847975542,0.015034911140674,0.0043302692001884,0.0053523209701397,0.0053523209703458,-0.00097700424710326,0.00097700398775366,2.303904383979e-09,-2.5713107911321e-09,4.347375726244e-10,-7.3642317007177e-10,-0.0011499043292302,0.0011499057497497,-0.0011499053197421,0.0011499045803733,-0.0011499041197089,0.0011499058420938,-0.0011499067517529,0.0011499033749779,-0.0010471530894522,0.0010471594936268,-0.0010471601114442,0.001047152363568,7.3436763476362e-10,-1.9609794970033e-09,7.096366006942e-10,-1.9047349438561e-09,-0.0012871974119861,0.0012871962198312,-0.0014724695538145,0.0014724695158634,-0.0014724695489559,0.0014724693689173,-0.0014724696720148,0.0014724692331431,-0.0014724715295225,0.0014724674805947,-0.0013092223288869,0.0013092251902206,-0.0013092268896486,0.0013092201502893,-0.0012148690832753,0.0012148723012398,-0.0012148742137637,0.0012148669308683,3.3344680814066e-09,-3.1969537321403e-09,-0.0012871967465103,0.0012871968876011,-4.068571128533e-11,1.7642638000108e-10,-0.0014724687227141,0.0014724703392074,-0.0014724677841882,0.0014724711321449,-0.0014724701027596,0.0014724687780804,-0.0014724710520745,0.001472467991539,-0.0012148748657458,0.0012148662462518,-0.0012148661247866,0.0012148752825218,0.68962109470462,131329,3014,0.0040659880924173,0.0053480504070684,0.0053480504118686,36.716519739971,5.6132157919764e-05,5.6132157919764e-05,5.6132157919764e-05,3355270.9051487,0.014872885270059
37219200,0.99941314696693,0.015035596832717,0.0043304626607151,0.0053525670858975,0.0053525670861044,-0.00097842158770667,0.0009784213330188,6.2445913437856e-10,-8.871603929472e-10,3.7526792382252e-10,-6.7210160899249e-10,-0.0011513789144265,0.0011513792772855,-0.0011513788817752,0.0011513791310456,-0.0011513787582895,0.0011513793171479,-0.0011513801823786,0.0011513780578401,-0.0010486371047982,0.0010486399987767,-0.001048640570334,0.0010486364294424,-8.5512674078031e-13,-1.1729188826369e-09,7.6454191224411e-10,-1.9138405787231e-09,-0.0012887116938804,0.001288710547522,-0.0014740291421105,0.0014740287580335,-0.001474029250767,0.0014740284962533,-0.0014740288497937,0.0014740288890919,-0.001474030635984,0.0014740272086909,-0.0013107704345007,0.0013107736412709,-0.0013107747870872,0.0013107688115826,-0.0012163826265778,0.001216384105023,-0.0012163859985727,0.0012163805101174,1.6558094338643e-09,-1.5194108226894e-09,-0.0012887110517035,0.0012887111919193,-2.9822962340737e-11,1.6407264892849e-10,-0.0014740286457533,0.0014740292474494,-0.0014740278078798,0.0014740299397883,-0.0014740290040141,0.0014740287080944,-0.001474029869462,0.0014740280082478,-0.0012163857730198,0.0012163806963973,-0.0012163805788127,0.0012163861779627,0.73362850421577,131329,3014,0.0040718743096541,0.0053543246620436,0.0053543246666911,37.496885360843,6.2375082886748e-05,6.2375082886748e-05,6.2375082886748e-05,3364525.0093743,0.014891595875331
37419200,0.999455627888,0.015036201554237,0.0043306313054958,0.005352785124267,0.0053527851244746,-0.0009792047076522,0.00097920442518446,1.6580425674377e-09,-1.9478882102934e-09,9.2344262052064e-10,-1.2526758680239e-09,-0.0011522753944208,0.0011522767404125,-0.0011522759963256,0.0011522759595731,-0.0011522755440319,0.001152276471841,-0.0011522777409008,0.0011522744397195,-0.0010494719783121,0.001049476764896,-0.0010494777408818,0.0010494708991838,8.0863637758173e-11,-1.2558256191798e-09,7.5332857463108e-10,-1.9035863877349e-09,-0.0012895871300749,0.0012895859824404,-0.0014749855865205,0.0014749851780464,-0.0014749856158763,0.0014749849905963,-0.0014749852757874,0.0014749853211488,-0.0014749871271978,0.0014749835807631,-0.0013116927792467,0.0013116961160611,-0.0013116973038734,0.0013116910872049,-0.0012172890228104,0.0012172908863391,-0.0012172927591637,0.0012172869018102,2.7075645361737e-09,-2.5710967927579e-09,-0.0012895864869614,0.0012895866276999,-5.5249888624416e-11,1.9007825721031e-10,-0.0014749847680923,0.001474985987211,-0.0014749838433847,0.0014749867663857,-0.0014749857593862,0.0014749848138994,-0.0014749866765997,0.001474984060599,-0.0012172934983739,0.0012172861309984,-0.0012172860042896,0.0012172939255342,0.68665853493759,131329,3014,0.004075131093623,0.0053579505798891,0.0053579505843777,37.943001283173,6.5944010265383e-05,6.5944010265383e-05,6.5944010265383e-05,3365958.6258485,0.014902264883875
37619200,0.99949498106683,0.015036741091204,0.0043307809452075,0.005352980072894,0.0053529800731021,-0.00097916210045038,0.00097916178908745,2.9423236968837e-09,-3.2602619449414e-09,1.4709606373681e-09,-1.8333171238321e-09,-0.001152242673785,0.0011522451438198,-0.0011522440550955,0.001152243583849,-0.0011522431079296,0.0011522445878003,-0.0011522462592885,0.0011522416014496,-0.0010494348222776,0.0010494420104742,-0.0010494433919298,0.0010494333307538,4.7104361140246e-10,-1.6657360239704e-09,7.147509764857e-10,-1.8818251232224e-09,-0.0012895746654266,0.0012895735009794,-0.0014749876484644,0.0014749873797362,-0.0014749875665062,0.0014749872963094,-0.00147498750834,0.001474987341578,-0.0014749894317067,0.0014749855371806,-0.0013116795639693,0.0013116828148333,-0.0013116842809838,0.0013116775797391,-0.0012172644728815,0.0012172673772892,-0.0012172692265145,0.0012172623325238,3.9983425027929e-09,-3.8602589427391e-09,-0.0012895740129525,0.0012895741552009,-8.9603663993101e-11,2.2690055925543e-10,-0.0014749865103597,0.0014749885048099,-0.0014749854740055,0.0014749893950793,-0.0014749882980992,0.0014749865333655,-0.0014749892786923,0.0014749857148754,-0.0012172708590512,0.0012172606881254,-0.0012172605449993,0.0012172713146546,0.6641558108348,131329,3014,0.0040749548646934,0.0053578986331972,0.0053578986368527,37.916699752667,6.5733598021338e-05,6.5733598021338e-05,6.5733598021338e-05,3365653.966654,0.014901980443765
37819200,0.99953040485962,0.015037206935608,0.0043309093545925,0.0053531487904034,0.0053531487906119,-0.00097813800101142,0.00097813767606182,3.8642248734944e-09,-4.1957206622903e-09,1.7431326289065e-09,-2.1213584465144e-09,-0.0011511514576831,0.00115115461916,-0.0011511533640535,0.0011511525343521,-0.0011511519963573,0.0011511539571461,-0.0011511558216709,0.0011511502971026,-0.0010483751736941,0.0010483841802922,-0.0010483857617297,0.0010483734823971,8.8912029401337e-10,-2.1211246381424e-09,6.6390698598333e-10,-1.8641556179948e-09,-0.001288521350458,0.0012885201527938,-0.0014738996096569,0.0014738994916714,-0.0014738994349111,0.0014738995052513,-0.0014738996765406,0.0014738992484283,-0.0014739016487632,0.0014738973916319,-0.0013105923395948,0.0013105954215691,-0.0013105972116297,0.0013105900318689,-0.0012161702290845,0.0012161741817585,-0.0012161760460185,0.001216168078408,4.9394376096304e-09,-4.7998140351524e-09,-0.0012885206804486,0.001288520824585,-1.1385860010969e-10,2.5332980268371e-10,-0.0014738982959857,0.0014739007932253,-0.001473897171206,0.0014739017731668,-0.0014739006014731,0.0014738983056006,-0.001473901636843,0.0014738974289294,-0.0012161781388503,0.0012161659752166,-0.0012161658136243,0.0012161786088163,0.6401645397588,131329,3014,0.0040707006534847,0.0053535346507838,0.0053535346545092,37.335572846707,6.1084582773661e-05,6.1084582773661e-05,6.1084582773661e-05,3360135.5027198,0.014888802263247
38019200,0.99956161710765,0.015037636406702,0.0043310287013368,0.005353303852578,0.0053533038527868,-0.00097633029825221,0.00097632998714269,3.5805214502628e-09,-3.898076297239e-09,1.4750588678171e-09,-1.8367071785918e-09,-0.0011492028205378,0.0011492056097958,-0.0011492045262403,0.0011492037257612,-0.0011492031704258,0.0011492051380355,-0.0011492068041878,0.0011492016695218,-0.0010464998047222,0.0010465084591462,-0.0010465098413678,0.0010464983124945,9.7682840610436e-10,-2.2133058623634e-09,6.5354512084692e-10,-1.857373948138e-09,-0.0012866311572185,0.0012866299555402,-0.0014719270446902,0.0014719269699674,-0.0014719268601451,0.0014719269950996,-0.0014719271653724,0.001471926674164,-0.0014719291364684,0.0014719248170475,-0.0013086412592126,0.0013086442795284,-0.0013086461279486,0.001308638885564,-0.0012142144546296,0.0012142185996422,-0.001214220457504,0.0012142123024742,4.6526474391674e-09,-4.5144581928716e-09,-0.0012866304857281,0.0012866306287469,-1.0444716297557e-10,2.4274514636123e-10,-0.0014719258488333,0.0014719281538638,-0.0014719247261242,0.0014719291325156,-0.0014719279563787,0.0014719258651598,-0.0014719290034309,0.0014719249762613,-0.0012142221924994,0.001214210561905,-0.0012142104108905,0.001214222653,0.66570161943511,131329,3014,0.004063190144179,0.0053457038440356,0.0053457038476237,36.306881511644,5.2855052093153e-05,5.2855052093153e-05,5.2855052093153e-05,3350820.7654531,0.014865280521715
38219200,0.99959008781641,0.015038031742092,0.0043311387954436,0.0053534464732196,0.0053534464734287,-0.00097556899664386,0.00097556869825169,3.5114091461844e-09,-3.8179344455764e-09,1.2441087297441e-09,-1.5927778592591e-09,-0.0011483736915293,0.0011483762342631,-0.0011483752880583,0.0011483744592443,-0.001148373821171,0.0011483759842125,-0.0011483774849477,0.001148372485018,-0.0010457220265426,0.0010457309042894,-0.0010457321259922,0.0010457207073788,7.932495272942e-10,-2.0195239985678e-09,6.7227482284615e-10,-1.8668625201812e-09,-0.0012858388868894,0.0012858376951438,-0.0014710964593131,0.0014710962163798,-0.0014710962137999,0.0014710963020016,-0.0014710963932958,0.0014710961103179,-0.0014710984423234,0.0014710941741094,-0.001307832591343,0.0013078359743891,-0.001307837697473,0.001307830353971,-0.0012133941342195,0.0012133981207831,-0.0012133999908944,0.0012133919892793,4.5811918960852e-09,-4.4412369029083e-09,-0.0012858382198736,0.0012858383637577,-9.1852306122157e-11,2.2971136647543e-10,-0.0014710952293267,0.0014710974349612,-0.0014710940444106,0.0014710984745529,-0.0014710972305202,0.001471095252962,-0.0014710983565594,0.0014710942877074,-0.0012134018268068,0.0012133901369794,-0.0012133899738603,0.0012134022811591,0.6707654895333,131329,3014,0.0040600272335314,0.005342421595793,0.0053424215991363,35.867722904067,4.9341783232537e-05,4.9341783232537e-05,4.9341783232537e-05,3346166.9016746,0.014855406620334
38419200,0.99962249871998,0.015038513954494,0.0043312745227398,0.0053536197157725,0.005353619715982,-0.00098240330782117,0.00098240298774116,2.6680140069447e-09,-2.9953092358883e-09,1.7247220841007e-09,-2.0996487156142e-09,-0.0011553766016758,0.0011553789871066,-0.0011553777301244,0.0011553776801317,-0.0011553771420036,0.0011553783245957,-0.0011553801782597,0.0011553754528681,-0.0010528360979399,0.0010528427503312,-0.0010528443225491,0.0010528344225938,-5.3417845715128e-10,-5.8248929734077e-10,7.989211264772e-10,-1.89683388493e-09,-0.0012930600670562,0.001293058972659,-0.0014784383930386,0.0014784374603281,-0.0014784382788819,0.0014784374137475,-0.0014784374922554,0.0014784381946649,-0.0014784395133297,0.001478436286705,-0.0013152097980403,0.0013152141137295,-0.0013152148214785,0.001315208584205,-0.0012206249402256,0.0012206260147319,-0.0012206278404753,0.0012206228500158,3.7526402537691e-09,-3.6132700349042e-09,-0.0012930594490471,0.0012930595922367,-7.2860976882464e-11,2.1041508602238e-10,-0.0014784370454494,0.0014784387986057,-0.0014784359536865,0.0014784397464361,-0.0014784385820394,0.0014784370807445,-0.001478439641603,0.0014784361838349,-0.0012206302570929,0.0012206204146046,-0.0012206202647369,0.0012206306951374,0.71254271131455,131329,3014,0.00408840562626,0.0053723424605191,0.0053723424637997,39.66225069577,7.9698005566157e-05,7.9698005566157e-05,7.9698005566157e-05,3389876.5705198,0.014944947299974
38619200,0.99965248493471,0.015038961599418,0.0043314000924339,0.0053537807533874,0.0053537807535972,-0.00098256039226936,0.00098256007384013,1.9910566892319e-09,-2.3156431007516e-09,1.699517271561e-09,-2.0714019298282e-09,-0.0011556361524447,0.0011556381396627,-0.0011556369021275,0.0011556372112673,-0.0011556367449944,0.0011556374249184,-0.0011556392578333,0.0011556350767692,-0.0010530002792095,0.0010530054094512,-0.0010530069588675,0.0010529986242878,-3.1913090482886e-10,-8.130348065874e-10,7.6998159508897e-10,-1.882077053472e-09,-0.001293281971659,0.0012932808628325,-0.0014787410315033,0.0014787402899566,-0.0014787409749838,0.0014787401837513,-0.0014787403488723,0.001478740801813,-0.0014787422840444,0.0014787389822245,-0.001315440793323,0.0013154446857254,-0.0013154455553239,0.0013154394185765,-0.0012208515460637,0.0012208528431614,-0.0012208546599765,0.0012208494519321,3.078949894253e-09,-2.9417138873071e-09,-0.0012932813471608,0.0012932814887986,-7.216406387856e-11,2.0838358393632e-10,-0.0014787399640492,0.0014787413467048,-0.0014787389462689,0.0014787422203776,-0.0014787411291513,0.0014787399992437,-0.0014787421168789,0.0014787391738926,-0.0012208562076252,0.0012208478901767,-0.0012208477525084,0.001220856643077,0.71626667151646,131329,3014,0.0040890621143156,0.0053732607144913,0.0053732607175619,39.752504363039,8.0420034904312e-05,8.0420034904312e-05,8.0420034904312e-05,3388410.4944375,0.014947480709527
38819200,0.99968009439869,0.015039375233459,0.0043315161736422,0.0053539295298035,0.0053539295300136,-0.00098254285713987,0.00098254253844102,-2.1149640295948e-10,-1.1303793368048e-10,1.6645491391664e-09,-2.0356538630836e-09,-0.0011556836590688,0.0011556843175866,-0.0011556831047451,0.001155684693328,-0.0011556843979559,0.0011556834555232,-0.0011556852665438,0.0011556827516338,-0.0010530130367426,0.0010530133933718,-0.0010530149174472,0.0010530114055848,3.6643750451672e-11,-1.1976799607618e-09,7.3277872912523e-10,-1.8698658031096e-09,-0.0012933074964644,0.0012933063617021,-0.0014788126380363,0.0014788122709809,-0.0014788127346892,0.0014788120117466,-0.0014788123709471,0.0014788123633043,-0.001478814120194,0.0014788107298361,-0.0013154986124285,0.0013155016873384,-0.0013155028255382,0.0013154969632917,-0.0012209003283602,0.0012209018437615,-0.0012209036641625,0.0012208982182975,8.8349853425565e-10,-7.4671064356123e-10,-0.0012933068592709,0.0012933070003327,-7.1823375992224e-11,2.0760518898045e-10,-0.0014788124013323,0.0014788124964503,-0.0014788115532466,0.0014788132000531,-0.0014788122785281,0.0014788124358308,-0.0014788130955167,0.0014788117782054,-0.001220902703709,0.0012208991703416,-0.0012208990383219,0.0012209031425957,0.71845447195559,131329,3014,0.0040889934417474,0.0053733652226591,0.005373365225664,39.75586380432,8.0446910434561e-05,8.0446910434561e-05,8.0446910434561e-05,3384548.8401514,0.014947625602116
38880000,0.99968827318739,0.015039497926456,0.0043315506220539,0.005353973652096,0.0053539736523061,-0.0009825320587821,0.00098253174813962,1.0999678540606e-09,-1.4172664648941e-09,1.5415645245855e-09,-1.904204191222e-09,-0.0011556966689664,0.0011556980556507,-0.0011556969180944,0.001155697628018,-0.0011556972418012,0.0011556973610229,-0.0011556990784247,0.0011556956893657,-0.0010530113155027,0.00105301460117,-0.0010530160337093,0.0010530097785886,7.1443615786422e-11,-1.2394733249076e-09,7.249740507858e-10,-1.8684777079523e-09,-0.0012933101185673,0.0012933089775451,-0.0014788310423085,0.0014788306063863,-0.0014788310486913,0.0014788304315735,-0.0014788307128214,0.0014788307571848,-0.001478832546246,0.001478829045629,-0.0013155120924049,0.0013155153719447,-0.0013155165416292,0.0013155104122169,-0.0012209134871768,0.0012209153288716,-0.0012209171359717,0.0012209113529881,2.1817550349401e-09,-2.0449147464935e-09,-0.0012933094785111,0.0012933096198032,-7.0304379396527e-11,2.0580723611256e-10,-0.0014788303560477,0.0014788312792712,-0.001478829425148,0.001478832066385,-0.0014788310611891,0.0014788303929324,-0.0014788319640663,0.0014788296506451,-0.0012209174381698,0.0012209110638514,-0.0012209109274572,0.0012209178739124,0.71910520563141,131329,3014,0.004088950277969,0.0053733755336959,0.0053733755382795,39.755986100381,8.044788880305e-05,8.044788880305e-05,8.044788880305e-05,3383216.8748518,0.014947603549431
