time,ASR_ext,ASR_strain,ASR_strain_xx,ASR_strain_yy,ASR_strain_zz,disp_x_101,disp_x_102,disp_x_103,disp_x_104,disp_x_105,disp_x_106,disp_x_p1_neg,disp_x_p1_pos,disp_x_p2_neg,disp_x_p2_pos,disp_x_p3_neg,disp_x_p3_pos,disp_x_p4_neg,disp_x_p4_pos,disp_x_p5_neg,disp_x_p5_pos,disp_x_p6_neg,disp_x_p6_pos,disp_y_101,disp_y_102,disp_y_103,disp_y_104,disp_y_105,disp_y_106,disp_y_p1_neg,disp_y_p1_pos,disp_y_p2_neg,disp_y_p2_pos,disp_y_p3_neg,disp_y_p3_pos,disp_y_p4_neg,disp_y_p4_pos,disp_y_p5_neg,disp_y_p5_pos,disp_y_p6_neg,disp_y_p6_pos,disp_y_p7_neg,disp_y_p7_pos,disp_y_p8_neg,disp_y_p8_pos,disp_z_101,disp_z_102,disp_z_103,disp_z_104,disp_z_105,disp_z_106,disp_z_p1_neg,disp_z_p1_pos,disp_z_p2_neg,disp_z_p2_pos,disp_z_p3_neg,disp_z_p3_pos,disp_z_p4_neg,disp_z_p4_pos,disp_z_p5_neg,disp_z_p5_pos,disp_z_p6_neg,disp_z_p6_pos,humidity,ndof,nelem,strain_xx,strain_yy,strain_zz,temp,thermal_strain_xx,thermal_strain_yy,thermal_strain_zz,vonmises,vstrain
2419200,0,0,0,0,0,0,0,0,0,0,0,0,0,0,0,0,0,0,0,0,0,0,0,0,0,0,0,0,0,0,0,0,0,0,0,0,0,0,0,0,0,0,0,0,0,0,0,0,0,0,0,0,0,0,0,0,0,0,0,0,0,0,0,0,0,0,0,0,0,0,0,0,0,0,0
2919200,0.076409990039228,0.0015958589992104,0.00053195299973679,0.00053195299973679,0.00053195299973679,-0.00017250456195325,0.0001725045619545,5.7746030016069e-16,5.9407008686075e-16,-1.2222126622421e-15,2.645963285285e-15,-0.00017134114736816,0.00017134114736818,-0.00017134340389589,0.00017134340389594,-0.00017134116761762,0.00017134116761999,-0.00017134338364419,0.00017134338364662,-0.00017090282091152,0.00017090282091386,-0.00017090416467466,0.00017090416467684,1.3844503530509e-15,-2.4813087622886e-15,-2.0368915875857e-09,2.0368898252555e-09,-0.00017250456195457,0.00017250456195316,-0.0001713419698676,0.00017134050687811,-0.00017134258139665,0.00017134404438571,-0.00017134196986884,0.00017134050687687,-0.00017134258139789,0.00017134404438462,-0.00017090492892839,0.00017090097915835,-0.00017090205666329,0.00017090600642675,-0.00017444027334852,0.00017444166781237,-0.00017444027335227,0.00017444166780807,-1.0377099904896e-08,-1.0377099921529e-08,-0.00015639126151111,0.00015636479655484,-8.0820753983916e-09,-1.2351158114594e-08,-0.00015703900253927,0.00015701777624612,-0.00015704045812226,0.00015701632066307,-0.00015703900253925,0.00015701777624614,-0.0001570404581223,0.00015701632066307,-0.00016212283732998,0.00016209965158845,-0.0001621228373298,0.00016209965158816,0.83502648770561,120135,2834,0.00071850956572853,0.00071850956572853,0.00065136382046346,32.407590753507,0.00017446072602806,0.00017446072602806,0.00017446072602806,1359528.7975668,0.002090566953864
3419200,0.15583287435976,0.0031275065634713,0.0010680319491127,0.001068031949116,0.00099144266524262,-0.00030341818856587,0.00030341818856758,7.8202022746591e-16,8.1196048928205e-16,-2.872353428045e-15,4.7781334430679e-15,-0.00030491012465826,0.00030491012465729,-0.00030491316712437,0.00030491316712348,-0.00030491013447431,0.00030491013447856,-0.00030491315730837,0.0003049131573127,-0.00029463917329359,0.00029463917329765,-0.00029464223456115,0.00029464223456503,-7.6760449138616e-15,-1.5571441625642e-14,-7.2240956027079e-10,7.2237557032108e-10,-0.00030341818857848,0.00030341818855659,-0.00030491037234346,0.00030490989174193,-0.00030491291945777,0.00030491340002674,-0.00030491037234606,0.00030490989173924,-0.00030491291946035,0.00030491340002416,-0.00029463994898198,0.0002946385547016,-0.0002946414589287,0.00029464285313006,-0.00030528838861704,0.00030528891276429,-0.00030528838862453,0.00030528891275604,-7.0096396038149e-09,-7.0096396289533e-09,-0.00025196946235764,0.00025195171886642,-6.1059214404241e-09,-7.6859998877727e-09,-0.00025903127536365,0.00025901672561551,-0.0002590317989392,0.00025901620202934,-0.00025903127536367,0.00025901672561558,-0.00025903179893922,0.00025901620202933,-0.00026506259035566,0.00026504741709946,-0.00026506259035548,0.0002650474170991,0.77960726241633,120135,2834,0.0012634382856813,0.0012634382856847,0.0010493006719674,31.910929665302,0.00017048743732242,0.00017048743732242,0.00017048743732242,2205633.8209822,0.0035825830450025
3919200,0.24311398966609,0.0047207424578153,0.0016545670816247,0.0016545670816197,0.0014116082945708,-0.00044827527750596,0.00044827527750806,9.6911745295057e-16,9.9167558734446e-16,-2.342678432782e-15,4.6699161607963e-15,-0.00045686296540346,0.0004568629654032,-0.00045686495692393,0.00045686495692372,-0.00045686296431424,0.00045686296431854,-0.00045686495800922,0.0004568649580136,-0.00042374080914617,0.00042374080915033,-0.00042374258196698,0.00042374258197094,-4.0319650615291e-15,-1.135772690332e-14,2.388889331943e-10,-2.3891524526098e-10,-0.00044827527751369,0.00044827527749788,-0.00045686286335158,0.00045686303959207,-0.00045686505898419,0.00045686488272011,-0.00045686286335402,0.00045686303958956,-0.0004568650589866,0.00045686488271771,-0.00042374062755983,0.00042374110850267,-0.00042374276359951,0.00042374228258959,-0.00045135301270069,0.00045135287150037,-0.00045135301270768,0.00045135287149248,-2.8605736582263e-09,-2.8605736756584e-09,-0.00034105145230869,0.00034104323222167,-3.0339865869928e-09,-2.5846810800988e-09,-0.00035293576544696,0.00035292926189966,-0.00035293560470883,0.00035292942263008,-0.00035293576544698,0.00035292926189972,-0.00035293560470886,0.00035292942263007,-0.00036675390044424,0.00036674789848528,-0.00036675390044404,0.0003667478984849,0.74640349119053,120135,2834,0.0018660547851658,0.0018660547851607,0.0014200836914923,32.496378126263,0.0001751710250101,0.0001751710250101,0.0001751710250101,3056867.7036936,0.00516549637969
4419200,0.33867841002886,0.006445020108473,0.0023064272795921,0.0023064272795857,0.0018321655492952,-0.00061020448428119,0.0006102044842831,8.5323864002759e-16,9.2626582086205e-16,-2.0399670921703e-15,4.1477556418535e-15,-0.00062787918753718,0.00062787918753703,-0.00062788043995752,0.00062788043995744,-0.00062787916985713,0.00062787916986092,-0.00062788045763137,0.00062788045763526,-0.00056540732364621,0.00056540732364985,-0.00056540899883677,0.00056540899884032,-3.8277065956027e-15,-1.0266641669049e-14,6.9543028789239e-10,-6.9545802246917e-10,-0.00061020448428874,0.0006102044842724,-0.00062787891492265,0.00062787939650901,-0.00062788071258139,0.00062788023096744,-0.0006278789149248,0.00062787939650682,-0.00062788071258351,0.00062788023096535,-0.00056540671186012,0.00056540807598611,-0.00056540961066762,0.00056540824647336,-0.00061567953148399,0.00061567906139456,-0.00061567953149018,0.00061567906138755,-1.0999943975295e-09,-1.099994467277e-09,-0.00043032510904343,0.00043032124362345,-1.7868220117589e-09,-3.6299837431566e-10,-0.00044629942701866,0.00044629678658324,-0.00044629894246095,0.00044629727113596,-0.00044629942701868,0.00044629678658327,-0.00044629894246099,0.00044629727113594,-0.00047348529223456,0.00047348317275014,-0.00047348529223432,0.00047348317274981,0.74424082049435,120135,2834,0.0025392533834051,0.0025392533833985,0.0017915721766313,33.598107567946,0.00018398486054357,0.00018398486054357,0.00018398486054357,3682039.0002842,0.0068937487389568
4919200,0.44236278533168,0.0083145914825009,0.0030308313755598,0.0030308313755518,0.0022529287313893,-0.00079151377454537,0.00079151377454813,1.3145774876189e-15,1.3597231672729e-15,-2.8676182785829e-15,5.839586310529e-15,-0.00081915500317607,0.00081915500317594,-0.00081915596218119,0.00081915596218116,-0.00081915498095775,0.00081915498096315,-0.00081915598439052,0.00081915598439605,-0.00072263756642727,0.00072263756643264,-0.00072263942841469,0.00072263942841988,-2.6673008687305e-15,-1.1614958073118e-14,8.2575097380391e-10,-8.2577942835457e-10,-0.00079151377455332,0.00079151377453631,-0.00081915471179894,0.00081915525745755,-0.00081915625356683,0.00081915570787995,-0.00081915471180187,0.00081915525745455,-0.00081915625356974,0.00081915570787704,-0.00072263685966498,0.00072263847003396,-0.00072264013522358,0.00072263852478382,-0.0008010390887883,0.00080103851395893,-0.00080103908879716,0.00080103851394939,-6.3105177747919e-10,-6.3105181356497e-10,-0.00051878084776977,0.00051877833007181,-1.4540750709431e-09,2.5051669279233e-10,-0.00053999466409301,0.00053999338451308,-0.00053999409106776,0.00053999395753513,-0.00053999466409306,0.00053999338451312,-0.00053999409106779,0.0005399939575351,-0.00058300253992055,0.00058300142990983,-0.00058300253992037,0.00058300142990945,0.74696695512676,120135,2834,0.0032924690050976,0.0032924690050895,0.002159605630102,35.3426895691,0.0001979415165528,0.0001979415165528,0.0001979415165528,4080245.0356922,0.00878292078768
5419200,0.54333761866828,0.010093901226533,0.0037332331227951,0.0037332331227885,0.0026274349809497,-0.00096640770459673,0.00096640770459973,1.4096628181215e-15,1.4979542385263e-15,-2.184550910528e-15,5.3896588790326e-15,-0.0010046388118862,0.0010046388118867,-0.0010046394880118,0.0010046394880124,-0.0010046387864102,0.0010046387864155,-0.0010046395134796,0.001004639513485,-0.00087140100180968,0.00087140100181487,-0.00087140274603005,0.00087140274603517,-4.0834340774213e-15,-1.1928663103615e-14,1.3300074876974e-09,-1.3300376635932e-09,-0.00096640770460602,0.00096640770458728,-0.0010046383526636,0.0010046392320113,-0.0010046399472452,0.0010046390678666,-0.0010046383526662,0.0010046392320087,-0.0010046399472477,0.0010046390678641,-0.00087139981511695,0.00087140240701587,-0.00087140393276869,0.00087140134079755,-0.00098023345515592,0.00098023253624105,-0.00098023345516356,0.00098023253623264,3.5117025554889e-10,3.5117016852182e-10,-0.00059299005290814,0.00059299014627319,-9.7999706447378e-10,1.7423445172424e-09,-0.00062056751782978,0.00062056822759428,-0.00062056660744522,0.00062056913797643,-0.00062056751782983,0.0006205682275943,-0.00062056660744527,0.00062056913797639,-0.00067874398333954,0.00067874533960215,-0.00067874398333932,0.00067874533960185,0.73229095938567,120135,2834,0.0040184772503232,0.0040184772503167,0.0024683830213807,36.272427625454,0.00020537942100363,0.00020537942100363,0.00020537942100363,4292832.3243153,0.010560765738656
5919200,0.63472334218499,0.011487210385345,0.0042913152398431,0.0042913152398364,0.0029045799056654,-0.0011057478287141,0.0011057478287169,1.3161068526626e-15,1.3464882774721e-15,-2.147404986487e-15,5.1451369372454e-15,-0.0011579445145528,0.0011579445145531,-0.0011579449408706,0.001157944940871,-0.0011579444868672,0.0011579444868723,-0.0011579449685478,0.0011579449685529,-0.00098256932695456,0.00098256932695926,-0.00098257109608051,0.00098257109608519,-3.8984103180055e-15,-1.1454949978718e-14,1.5171548986328e-09,-1.5171843277165e-09,-0.001105747828723,0.0011057478287048,-0.0011579439839611,0.0011579449952543,-0.001157945471472,0.0011579444601486,-0.0011579439839636,0.0011579449952517,-0.0011579454714745,0.0011579444601461,-0.00098256795644275,0.00098257091037992,-0.00098257246663691,0.00098256951262962,-0.0011205924333448,0.0011205913830038,-0.0011205924333521,0.0011205913829957,1.2196975120764e-09,1.2196974862555e-09,-0.00064263909325376,0.00064264138221877,-3.1708183531795e-10,2.7974268906772e-09,-0.00067683482096952,0.00067683747742654,-0.00067683377860242,0.00067683851979196,-0.00067683482096955,0.00067683747742664,-0.00067683377860246,0.00067683851979193,-0.00074585763587757,0.00074586090851599,-0.00074585763587715,0.00074586090851553,0.6360792580923,120135,2834,0.004596509370835,0.0045965093708283,0.0026750477437474,36.778805323382,0.00020943044258705,0.00020943044258705,0.00020943044258705,4423229.8771859,0.011938853478097
6419200,0.7119774461155,0.012584159111927,0.0047303801148051,0.0047303801147984,0.0031233988823237,-0.0012141729110063,0.001214172911009,1.3023719781359e-15,1.3361944742937e-15,-2.1903448511742e-15,5.1310197214578e-15,-0.0012798852983764,0.0012798852983767,-0.0012798854733261,0.0012798854733265,-0.0012798852676004,0.0012798852676054,-0.0012798855040936,0.0012798855040987,-0.0010660269392908,0.0010660269392956,-0.0010660287040739,0.0010660287040786,-4.018818404327e-15,-1.1605677623633e-14,1.8475695666035e-09,-1.8475993451083e-09,-0.0012141729110152,0.0012141729109968,-0.0012798846451255,0.0012798858847791,-0.0012798861265865,0.0012798848869025,-0.001279884645128,0.0012798858847765,-0.001279886126589,0.0012798848869,-0.0010660252408187,0.0010660288380463,-0.001066030402591,0.0010660268052925,-0.0012294938638386,0.0012294925875627,-0.001229493863846,0.0012294925875546,2.1274775410585e-09,2.1274775103754e-09,-0.00067883919319559,0.00067884374949853,2.3767674047512e-10,4.0339971557699e-09,-0.00071588595650996,0.00071589053530862,-0.00071588468491312,0.00071589180690407,-0.00071588595650998,0.00071589053530868,-0.00071588468491316,0.00071589180690405,-0.00079790870230981,0.00079791409415516,-0.00079790870230957,0.00079791409415478,0.59525943091212,120135,2834,0.0050460649055333,0.0050460649055265,0.0028257739859066,36.74152907827,0.00020913223262616,0.00020913223262616,0.00020913223262616,4528027.7329908,0.013001814553255
6919200,0.78143302192296,0.013651290622584,0.0051538076675016,0.0051538076674947,0.0033436752875878,-0.0013241610544903,0.0013241610544931,1.3106658424111e-15,1.3691346444647e-15,-2.2591662781386e-15,5.296661720032e-15,-0.0013989814820666,0.0013989814820668,-0.0013989818699136,0.0013989818699141,-0.0013989814526956,0.0013989814527007,-0.0013989818992761,0.0013989818992812,-0.0011561087693993,0.0011561087694043,-0.001156110693754,0.0011561106937587,-3.8748228032937e-15,-1.1696472471696e-14,1.7919176636443e-09,-1.7919471253557e-09,-0.0013241610544992,0.0013241610544808,-0.0013989808671182,0.0013989820545196,-0.0013989824848715,0.0013989812974392,-0.0013989808671207,0.0013989820545169,-0.001398982484874,0.0013989812974366,-0.0011561071467826,0.0011561106383423,-0.0011561123164151,0.0011561088247858,-0.0013424361357002,0.0013424348977597,-0.0013424361357078,0.0013424348977511,1.0195779666411e-09,1.0195779143887e-09,-0.00071666504161298,0.00071666678222394,-7.7911741707308e-10,2.881576015737e-09,-0.00075706893954251,0.00075707118416389,-0.00075706771832853,0.00075707240537686,-0.00075706893954268,0.0007570711841639,-0.00075706771832846,0.00075707240537696,-0.00085223210571639,0.00085223511484037,-0.00085223210571617,0.0008522351148398,0.64378173705164,120135,2834,0.0055018773012754,0.0055018773012685,0.0029832652783751,38.623398984084,0.00022418719187267,0.00022418719187267,0.00022418719187267,4370771.7424151,0.014085436128691
7419200,0.84119767704225,0.01444647524702,0.0054710179836755,0.0054710179836685,0.0035044392796763,-0.0014104807838099,0.0014104807838128,1.3530174897738e-15,1.348311751178e-15,-2.478512518438e-15,5.544830609231e-15,-0.0014941167210085,0.0014941167210089,-0.0014941171932756,0.0014941171932758,-0.0014941166923524,0.001494116692358,-0.0014941172219223,0.0014941172219278,-0.0012240752414393,0.0012240752414441,-0.0012240772420657,0.0012240772420708,-3.7710024455226e-15,-1.2008943911661e-14,1.6954377250655e-09,-1.6954680520891e-09,-0.001410480783819,0.0014104807838002,-0.0014941161439135,0.0014941172634212,-0.0014941177703791,0.0014941166508412,-0.0014941161439162,0.0014941172634183,-0.0014941177703819,0.0014941166508384,-0.0012240737196947,0.0012240770225973,-0.0012240787638562,0.0012240754608814,-0.0014298522557332,0.0014298510822325,-0.0014298522557414,0.0014298510822238,6.9363603828636e-10,6.9363604989481e-10,-0.00073740507096661,0.00073740605572067,-9.9945306759337e-10,2.4620531537686e-09,-0.00078549973883131,0.00078550136898801,-0.00078549858502209,0.0007855025227959,-0.00078549973883119,0.00078550136898812,-0.00078549858502215,0.00078550252279598,-0.0008844734340902,0.00088447570451204,-0.00088447343408949,0.00088447570451153,0.55664260548471,120135,2834,0.0058594256354081,0.005859425635401,0.0030697872747796,40.761944311481,0.00024129555449185,0.00024129555449185,0.00024129555449185,4040005.0380973,0.014898714331197
7919200,0.88604798611354,0.014991537462786,0.0056863385938765,0.005686338593873,0.0036188602750366,-0.0014653992578906,0.0014653992578935,1.3972514325749e-15,1.4004866278596e-15,-2.3193409104331e-15,5.4507158373139e-15,-0.0015571874040288,0.0015571874040291,-0.0015571874843671,0.0015571874843675,-0.0015571873721542,0.0015571873721595,-0.0015571875162327,0.0015571875162381,-0.0012634635750262,0.0012634635750314,-0.0012634654642132,0.0012634654642182,-3.8775874247188e-15,-1.1906455716778e-14,2.1605478818475e-09,-2.1605776925221e-09,-0.0014653992579005,0.0014653992578818,-0.0015571866490734,0.0015571880957414,-0.0015571882393334,0.0015571867926347,-0.001557186649076,0.0015571880957387,-0.001557188239336,0.001557186792632,-0.0012634615813793,0.0012634657891069,-0.0012634674579099,0.0012634632501109,-0.0014852309338745,0.0014852294439588,-0.0014852309338824,0.0014852294439502,2.4726860953565e-09,2.4726861009899e-09,-0.00074786357490799,0.00074786908564664,2.7263287524729e-10,4.6985451750166e-09,-0.00079755572172572,0.00079756100808459,-0.00079755424129218,0.00079756248851744,-0.00079755572172573,0.00079756100808466,-0.00079755424129218,0.00079756248851746,-0.00090475589232317,0.00090476223880224,-0.00090475589232291,0.00090476223880176,0.5070717593097,120135,2834,0.0060868528967567,0.0060868528967532,0.0031134992664039,40.955967055086,0.00024284773644069,0.00024284773644069,0.00024284773644069,3907103.1996449,0.015404863087404
8419200,0.91941662021681,0.015377093422087,0.0058373398306258,0.0058373398306223,0.0037024137608394,-0.0015058040745834,0.001505804074586,1.1923165167253e-15,1.1831403264634e-15,-2.3690452743519e-15,5.3511894660115e-15,-0.00160301227496,0.0016030122749601,-0.0016030123762415,0.0016030123762416,-0.0016030122434344,0.0016030122434396,-0.0016030124077574,0.0016030124077625,-0.0012930275812962,0.0012930275813008,-0.0012930295003824,0.0012930295003874,-4.1141684326255e-15,-1.2120394493595e-14,2.2841291511392e-09,-2.2841601149433e-09,-0.0015058040745935,0.0015058040745741,-0.0016030114829016,0.001603013008848,-0.0016030131683109,0.0016030116423323,-0.0016030114829043,0.0016030130088453,-0.0016030131683135,0.0016030116423296,-0.0012930254708292,0.0012930299215943,-0.0012930316108998,0.0012930271600616,-0.001526463920651,0.0015264623489121,-0.0015264639206588,0.0015264623489036,2.382003724954e-09,2.3820037518322e-09,-0.00075348142661693,0.00075348668753413,6.4922932231706e-11,4.734587482164e-09,-0.00080555052389091,0.0008055555476554,-0.00080554896317957,0.00080555710836704,-0.00080555052389092,0.00080555554765585,-0.00080554896317954,0.00080555710836707,-0.00091739738870879,0.00091740361908035,-0.00091739738870817,0.00091740361908,0.48138031764921,120135,2834,0.0062541323803359,0.0062541323803324,0.0031370494421057,41.432112657488,0.0002466569012599,0.0002466569012599,0.0002466569012599,3705197.0075106,0.015768578556614
8919200,0.94373054105152,0.015628846179889,0.0059353906918889,0.0059353906918854,0.0037580647961143,-0.0015332720327775,0.0015332720327805,1.4373090323721e-15,1.4204271951595e-15,-2.3021061428258e-15,5.4356574738071e-15,-0.0016342878313234,0.0016342878313238,-0.0016342879091646,0.001634287909165,-0.0016342877997978,0.0016342877998032,-0.0016342879406811,0.0016342879406865,-0.0013128068555004,0.0013128068555057,-0.001312808773916,0.0013128087739208,-3.7787080924734e-15,-1.1784765615393e-14,2.3942494395096e-09,-2.3942790937407e-09,-0.0015332720327875,0.0015332720327688,-0.0016342870029757,0.001634288602038,-0.0016342887375232,0.00163428713843,-0.0016342870029782,0.0016342886020352,-0.0016342887375258,0.0016342871384274,-0.0013128046378816,0.0013128093044248,-0.0013128109915838,0.00131280632497,-0.0015544733666392,0.0015544717214059,-0.001554473366647,0.0015544717213972,2.4877565724764e-09,2.4877565948319e-09,-0.00075466471045403,0.00075467023116481,6.0642785764816e-11,4.9514410016143e-09,-0.00080961997200218,0.00080962515903741,-0.0008096183375842,0.00080962679345522,-0.00080961997200225,0.00080962515903751,-0.00080961833758424,0.00080962679345529,-0.00092322478729356,0.00092323131157943,-0.00092322478729337,0.00092323131157869,0.43063171924148,120135,2834,0.006367824756385,0.0063678247563815,0.0031421402434042,41.891138215442,0.00025032910572354,0.00025032910572354,0.00025032910572354,3491662.0968122,0.016004769901981
9419200,0.96036815463989,0.015792206368366,0.0059984334036254,0.0059984334036219,0.0037953395611185,-0.0015486137882021,0.0015486137882054,1.5728343039328e-15,1.6019510614947e-15,-2.0910537668016e-15,5.6721796599814e-15,-0.0016524415731082,0.0016524415731091,-0.0016524413415483,0.001652441341549,-0.0016524415388684,0.001652441538874,-0.0016524413757794,0.0016524413757851,-0.0013225250516315,0.0013225250516369,-0.0013225268794368,0.0013225268794423,-3.8119423713066e-15,-1.1818091286196e-14,2.6826786635785e-09,-2.6827083714169e-09,-0.0015486137882121,0.0015486137881934,-0.0016524406293864,0.0016524424346586,-0.0016524422852812,0.0016524404799784,-0.001652440629389,0.0016524424346559,-0.0016524422852839,0.0016524404799753,-0.0013225225367194,0.0013225277634591,-0.0013225293943984,0.0013225241675873,-0.0015702187692358,0.0015702169271183,-0.0015702187692435,0.0015702169271094,3.7926611690226e-09,3.7926611500111e-09,-0.00075281174424116,0.00075282055465265,1.0414000189424e-09,6.5380382932397e-09,-0.00080855448429285,0.00080856239278834,-0.00080855264319857,0.00080856423388165,-0.00080855448429272,0.0008085623927883,-0.00080855264319875,0.00080856423388195,-0.00092510083165359,0.00092511030176044,-0.00092510083165307,0.00092511030175983,0.40723906797413,120135,2834,0.0064313227552428,0.0064313227552388,0.0031345647046863,41.151541383052,0.00024441233106442,0.00024441233106442,0.00024441233106442,3370422.3119308,0.016126120782623
9919200,0.97155670872656,0.015901503265578,0.0060402953673089,0.0060402953673054,0.0038209125309637,-0.0015579219013446,0.0015579219013476,1.4161920304232e-15,1.4500733483134e-15,-2.2104618836715e-15,5.4503040851867e-15,-0.0016631270343556,0.001663127034356,-0.0016631266408415,0.001663126640842,-0.0016631269992832,0.0016631269992885,-0.001663126675905,0.0016631266759103,-0.0013286009275472,0.0013286009275521,-0.0013286027039114,0.0013286027039164,-3.9149392248234e-15,-1.1842163505769e-14,3.0298232879266e-09,-3.0298533021496e-09,-0.0015579219013546,0.0015579219013358,-0.001663125969067,0.0016631280099779,-0.0016631277061412,0.0016631256651994,-0.0016631259690696,0.0016631280099752,-0.0016631277061438,0.0016631256651966,-0.0013285980679045,0.0013286039732899,-0.0013286055636036,0.0013285996581464,-0.0015800639932993,0.0015800619182333,-0.001580063993307,0.0015800619182248,4.5052419330175e-09,4.5052419110404e-09,-0.0007491315592312,0.00074914214504303,1.3946467612745e-09,7.5967242444029e-09,-0.0008065282732459,0.00080653751877256,-0.00080652619550769,0.00080653959651024,-0.00080652827324586,0.00080653751877253,-0.00080652619550778,0.00080653959651028,-0.00092365798167592,0.00092366918096129,-0.00092365798167534,0.00092366918096067,0.40432824355073,120135,2834,0.0064698348317777,0.0064698348317742,0.0031193742843984,39.828786973149,0.00023383029578519,0.00023383029578519,0.00023383029578519,3250921.8594692,0.016188963466429
10419200,0.97907403542564,0.015979496940254,0.0060699369926457,0.0060699369926423,0.0038396229549663,-0.0015634756279587,0.0015634756279616,1.3796049128404e-15,1.4184272562563e-15,-2.251342987723e-15,5.4357162955396e-15,-0.0016691949659156,0.001669194965916,-0.0016691944642019,0.0016691944642023,-0.0016691949308778,0.0016691949308832,-0.0016691944992306,0.001669194499236,-0.0013323822850668,0.0013323822850719,-0.0013323840177887,0.0013323840177936,-3.9861723428182e-15,-1.1933088002904e-14,3.4500265966664e-09,-3.4500566261383e-09,-0.0015634756279687,0.0015634756279499,-0.0016691937607407,0.0016691960816762,-0.0016691956693879,0.0016691933484214,-0.0016691937607433,0.0016691960816735,-0.0016691956693905,0.0016691933484188,-0.0013323790137352,0.0013323857424879,-0.00133238728917,0.0013323805603458,-0.0015861468706428,0.0015861445152502,-0.0015861468706505,0.0015861445152416,5.0104502290722e-09,5.0104502023915e-09,-0.00074436425511942,0.00074437609359457,1.4780702903735e-09,8.5237990888669e-09,-0.00080390154951286,0.0008039116005671,-0.00080389919061597,0.00080391395946362,-0.00080390154951289,0.00080391160056718,-0.000803899190616,0.00080391395946363,-0.00092030850082427,0.00092032104182961,-0.00092030850082391,0.00092032104182912,0.42845224819223,120135,2834,0.0064928005502164,0.006492800550213,0.0030996550369767,38.100847290545,0.00022000677832436,0.00022000677832436,0.00022000677832436,3139966.8305869,0.016215608111179
10919200,0.98458545280725,0.016032380615033,0.0060900176253562,0.0060900176253528,0.0038523453643239,-0.0015698632877241,0.001569863287727,1.3655465187853e-15,1.4113686483625e-15,-2.276283402281e-15,5.4208932189626e-15,-0.0016756668444165,0.0016756668444168,-0.0016756667251668,0.0016756667251672,-0.0016756668136046,0.0016756668136099,-0.0016756667559696,0.001675666755975,-0.0013379006491595,0.0013379006491645,-0.0013379024958741,0.0013379024958791,-3.9739962442014e-15,-1.1930808430999e-14,3.484283681235e-09,-3.4843136651791e-09,-0.0015698632877342,0.0015698632877153,-0.0016756656585141,0.0016756679798647,-0.0016756679110803,0.0016756655896988,-0.0016756656585167,0.0016756679798619,-0.0016756679110829,0.0016756655896961,-0.001337897368113,0.0013379041723341,-0.0013379057769702,0.0013378989726777,-0.0015928780661637,0.0015928756952198,-0.0015928780661715,0.0015928756952112,3.4237309950651e-09,3.4237309603693e-09,-0.00074198213801845,0.00074198995657662,-8.7712955714338e-11,6.9841068080545e-09,-0.00080449420868602,0.00080450069720902,-0.00080449184856946,0.00080450305732509,-0.00080449420868605,0.0008045006972091,-0.00080449184856951,0.00080450305732512,-0.00091849229501972,0.00091850150306736,-0.0009184922950193,0.00091850150306691,0.39597081456719,120135,2834,0.0065192126614822,0.0065192126614788,0.0030898285864181,37.946339258553,0.00021877071406842,0.00021877071406842,0.00021877071406842,3008244.0100964,0.016259313353772
11419200,0.98860085537625,0.016070840507388,0.0061045374793292,0.0061045374793258,0.0038617655487326,-0.0015728818377743,0.0015728818377771,1.3689581792673e-15,1.4120156874194e-15,-2.3006355995146e-15,5.3662478295182e-15,-0.0016795284576505,0.0016795284576509,-0.0016795282934317,0.0016795282934321,-0.0016795284264535,0.0016795284264588,-0.0016795283246197,0.001679528324625,-0.0013391397628744,0.0013391397628794,-0.001339141597891,0.001339141597896,-3.9792902001218e-15,-1.1909714061631e-14,3.5226594075792e-09,-3.5226894622182e-09,-0.0015728818377843,0.0015728818377654,-0.0016795272563922,0.0016795296052436,-0.0016795294947009,0.0016795271458187,-0.0016795272563948,0.001679529605241,-0.0016795294947035,0.001679527145816,-0.0013391364427513,0.0013391433215085,-0.0013391449180641,0.0013391380392351,-0.0015960030004866,0.0015960006032843,-0.0015960030004944,0.0015960006032758,3.5973892896245e-09,3.5973892562864e-09,-0.00074067845644916,0.00074068672177201,4.2401927392871e-11,7.1962292309078e-09,-0.00080274210843246,0.00080274897193774,-0.00080273972048065,0.00080275135988912,-0.00080274210843244,0.00080274897193777,-0.00080273972048058,0.0008027513598891,-0.00091866161162485,0.00091867121617294,-0.00091866161162448,0.00091867121617252,0.39457194111806,120135,2834,0.0065317070107993,0.0065317070107958,0.0030844455898319,37.62869485009,0.00021622955880072,0.00021622955880072,0.00021622955880072,2979773.5647116,0.016279237603652
11919200,0.99151077426508,0.016100904209911,0.0061158355846399,0.0061158355846365,0.0038692330406348,-0.0015754659145845,0.0015754659145874,1.3507234422084e-15,1.3932515547684e-15,-2.2816361799338e-15,5.4070112901049e-15,-0.0016822119845707,0.001682211984571,-0.0016822117664589,0.0016822117664593,-0.0016822119530503,0.0016822119530556,-0.0016822117979701,0.0016822117979755,-0.0013411012824979,0.001341101282503,-0.0013411030969812,0.0013411030969861,-3.9639965496852e-15,-1.1918737912797e-14,3.5969303759062e-09,-3.5969604101373e-09,-0.0015754659145945,0.0015754659145757,-0.0016822107560159,0.0016822131562441,-0.0016822129950248,0.0016822105947656,-0.0016822107560185,0.0016822131562413,-0.0016822129950274,0.0016822105947629,-0.0013410978874969,0.0013411049110994,-0.001341106492032,0.0013410994683578,-0.0015988768310909,0.0015988743837975,-0.0015988768310986,0.001598874383789,3.8258475164372e-09,3.8258474833679e-09,-0.00073869731995402,0.00073870616284002,1.9146692887925e-10,7.4982499721324e-09,-0.00080189045710797,0.00080189776681805,-0.00080188801749395,0.00080190020643167,-0.000801890457108,0.00080189776681812,-0.00080188801749398,0.00080190020643169,-0.00091718847000873,0.00091719860718836,-0.00091718847000833,0.00091719860718786,0.42516298576731,120135,2834,0.0065423910205725,0.0065423910205691,0.0030762544050762,37.105361205739,0.00021204288964591,0.00021204288964591,0.00021204288964591,2921230.4099074,0.016292632585913
12419200,0.99365296738098,0.016124174534758,0.0061245559674361,0.0061245559674327,0.0038750625998895,-0.0015783292414664,0.0015783292414693,1.3750756394419e-15,1.4121921526168e-15,-2.3042825469264e-15,5.4441866250121e-15,-0.0016847342218464,0.0016847342218468,-0.0016847340584849,0.0016847340584854,-0.0016847341910142,0.0016847341910196,-0.0016847340893081,0.0016847340893135,-0.0013440490318665,0.0013440490318715,-0.0013440508554562,0.0013440508554611,-3.9417031130874e-15,-1.1955089398791e-14,3.617871082474e-09,-3.6179011145106e-09,-0.0015783292414765,0.0015783292414576,-0.0016847329910994,0.0016847354017657,-0.001684735289243,0.0016847328785458,-0.001684732991102,0.001684735401763,-0.0016847352892456,0.0016847328785431,-0.0013440456198898,0.001344052685839,-0.0013440542674827,0.0013440472014617,-0.0016020037256217,0.0016020012656176,-0.0016020037256295,0.001602001265609,3.601815506589e-09,3.6018154802448e-09,-0.00073641134305842,0.00073641961959588,-4.5244844367238e-11,7.2972593801229e-09,-0.0008020261320543,0.0008020329096162,-0.00080202368157742,0.00080203536009267,-0.00080202613205433,0.00080203290961628,-0.00080202368157743,0.00080203536009269,-0.00091486540801376,0.0009148750861453,-0.00091486540801341,0.00091487508614484,0.44663644431852,120135,2834,0.0065542198235073,0.0065542198235039,0.0030668070819559,36.802629023954,0.00020962103219163,0.00020962103219163,0.00020962103219163,2829675.7257225,0.016307080737584
12919200,0.99521141265712,0.016140054063538,0.0061305050606669,0.0061305050606635,0.003879043942208,-0.0015793521580415,0.0015793521580444,1.3736050961307e-15,1.4084863834725e-15,-2.2994591648656e-15,5.4332457827768e-15,-0.0016857292036754,0.0016857292036757,-0.0016857289497743,0.0016857289497747,-0.0016857291721626,0.0016857291721679,-0.001685728981278,0.0016857289812834,-0.0013447452075965,0.0013447452076016,-0.0013447469944067,0.0013447469944117,-3.9657023799262e-15,-1.1961689495876e-14,3.68986414872e-09,-3.6898942202663e-09,-0.0015793521580515,0.0015793521580326,-0.0016857279437776,0.001685730406242,-0.0016857302096833,0.0016857277471877,-0.0016857279437802,0.0016857304062393,-0.0016857302096859,0.0016857277471851,-0.0013447417210291,0.0013447489266152,-0.0013447504810239,0.001344743275366,-0.0016031531865593,0.0016031506773126,-0.0016031531865671,0.001603150677304,3.9775207039709e-09,3.9775206797382e-09,-0.00073327123308349,0.00073328046803943,2.4884877628188e-10,7.7430692180753e-09,-0.00080040167254326,0.00080040921768785,-0.00080039917022525,0.00080041172000547,-0.0008004016725433,0.00080040921768795,-0.00080039917022526,0.0008004117200055,-0.00091203179086386,0.00091204231564146,-0.0009120317908635,0.000912042315641,0.41875849256559,120135,2834,0.00655843782525,0.0065584378252466,0.003053806122893,36.137237244046,0.00020429789795237,0.00020429789795237,0.00020429789795237,2762570.012176,0.016302445129383
13419200,0.99632174217541,0.016151111449049,0.0061346381143006,0.0061346381142972,0.0038818352204513,-0.0015775210457546,0.0015775210457576,1.4078393444156e-15,1.4453676097175e-15,-2.2927534873665e-15,5.45230402409e-15,-0.001684553242787,0.0016845532427873,-0.001684552814059,0.0016845528140594,-0.001684553209907,0.0016845532099123,-0.00168455284693,0.0016845528469354,-0.0013416228588823,0.0013416228588875,-0.0013416245944598,0.0013416245944648,-3.9457029908938e-15,-1.1952738827217e-14,3.8636850816848e-09,-3.8637150965346e-09,-0.0015775210457647,0.0015775210457458,-0.0016845519150529,0.0016845545006682,-0.0016845541418042,0.001684551556158,-0.0016845519150555,0.0016845545006655,-0.0016845541418069,0.0016845515561553,-0.0013416191944053,0.0013416267380014,-0.0013416282589866,0.0013416207153185,-0.001601363484998,0.0016013608573601,-0.0016013634850058,0.0016013608573516,4.6976627292982e-09,4.6976627026585e-09,-0.00072984506408101,0.00072985612747859,7.7720779609636e-10,8.6332185152686e-09,-0.00079592268662724,0.0007959317266916,-0.00079592006147023,0.00079593435184811,-0.00079592268662726,0.00079593172669165,-0.00079592006147022,0.00079593435184812,-0.00090972644984395,0.0009097386155757,-0.00090972644984374,0.00090973861557531,0.40900439415344,120135,2834,0.0065508643662484,0.006550864366245,0.003039586331116,34.796810893171,0.00019357448714537,0.00019357448714537,0.00019357448714537,2768973.2786884,0.016272597397196
13919200,0.99713932958151,0.016159083186137,0.0061376177544158,0.0061376177544124,0.0038838476773088,-0.0015766107808797,0.0015766107808826,1.379016695516e-15,1.4153097044365e-15,-2.3038707947992e-15,5.4351280782151e-15,-0.0016838324774155,0.0016838324774158,-0.0016838321384146,0.001683832138415,-0.0016838324456958,0.0016838324457011,-0.0016838321701252,0.0016838321701305,-0.0013401973588437,0.0013401973588489,-0.0013401991278488,0.0013401991278538,-3.9692316838731e-15,-1.1970767113782e-14,3.9575038798178e-09,-3.9575339555947e-09,-0.0015766107808898,0.0015766107808709,-0.0016838311269981,0.001683833768834,-0.0016838334888431,0.0016838308469762,-0.0016838311270007,0.0016838337688312,-0.0016838334888457,0.0016838308469735,-0.001340193609122,0.0013402013389721,-0.0013402028776202,0.0013401951476984,-0.0016005952897175,0.0016005926016051,-0.0016005952897253,0.0016005926015965,4.3383144118887e-09,4.3383143860617e-09,-0.00072720488506894,0.00072721502763482,3.3882632324465e-10,8.371984866372e-09,-0.00079328305816548,0.00079329124567747,-0.00079328037605765,0.00079329392778492,-0.00079328305816549,0.00079329124567755,-0.00079328037605765,0.00079329392778494,-0.00090748558648084,0.00090749705038403,-0.00090748558648053,0.00090749705038361,0.40047476240274,120135,2834,0.0065470950543751,0.0065470950543717,0.0030286277164712,33.82970591184,0.00018583764729472,0.00018583764729472,0.00018583764729472,2755118.492301,0.016253799873678
14419200,0.99774228967656,0.016164692412565,0.006139715156603,0.0061397151565996,0.0038852620993626,-0.0015750467468312,0.0015750467468341,1.3691934661971e-15,1.4035453579469e-15,-2.3025767166854e-15,5.4324811002549e-15,-0.0016824066948139,0.0016824066948143,-0.0016824063015911,0.0016824063015915,-0.0016824066628247,0.00168240666283,-0.0016824063335712,0.0016824063335766,-0.0013382396239478,0.0013382396239528,-0.0013382413753621,0.0013382413753671,-3.9674670318997e-15,-1.1964493178608e-14,4.0650141931248e-09,-4.0650442913233e-09,-0.0015750467468413,0.0015750467468223,-0.0016824053065559,0.0016824080215329,-0.0016824076898602,0.0016824049748522,-0.0016824053065585,0.0016824080215302,-0.0016824076898628,0.0016824049748495,-0.0013382357673311,0.0013382437073426,-0.0013382452320287,0.0013382372919454,-0.0015991267085728,0.0015991239482858,-0.0015991267085806,0.0015991239482772,4.5702943433612e-09,4.5702943187046e-09,-0.0007241340937304,0.00072414482205475,4.5915605173199e-10,8.7111741996207e-09,-0.00079028394690151,0.00079029257451195,-0.00079028119137794,0.00079029533003513,-0.00079028394690153,0.00079029257451202,-0.00079028119137798,0.00079029533003515,-0.0009047432728891,0.00090475529847959,-0.00090474327288875,0.0009047552984791,0.38210045494667,120135,2834,0.0065406188164838,0.0065406188164804,0.0030158829696433,32.643707712027,0.00017634966169622,0.00017634966169622,0.00017634966169622,2744393.6215849,0.016227685850452
14919200,0.99817478336033,0.016168872564816,0.0061412745069182,0.0061412745069148,0.0038863235509833,-0.0015714590830113,0.0015714590830142,1.3770167566127e-15,1.4182507910589e-15,-2.3162233586134e-15,5.4620096099439e-15,-0.0016790740853557,0.001679074085356,-0.0016790734750607,0.0016790734750611,-0.0016790740517855,0.0016790740517908,-0.0016790735086217,0.0016790735086271,-0.0013340878540625,0.0013340878540676,-0.0013340895365605,0.0013340895365655,-3.9646435887422e-15,-1.2006552210829e-14,4.3216406272685e-09,-4.3216707526658e-09,-0.0015714590830214,0.0015714590830024,-0.0016790725999248,0.0016790754945008,-0.0016790749605027,0.0016790720658956,-0.0016790725999274,0.001679075494498,-0.0016790749605053,0.0016790720658929,-0.0013340837368284,0.0013340921766521,-0.0013340936538446,0.001334085213949,-0.0015956061968533,0.0015956032626126,-0.0015956061968612,0.001595603262604,5.4851036126744e-09,5.4851035820566e-09,-0.00071947710823592,0.00071949015010065,1.0955530774272e-09,9.8784951918116e-09,-0.00078524026620084,0.00078525074866542,-0.00078523733096863,0.00078525368389729,-0.00078524026620087,0.0007852507486655,-0.00078523733096865,0.0007852536838973,-0.00090059693466777,0.00090061106532419,-0.00090059693466746,0.00090061106532375,0.39678962402156,120135,2834,0.0065257694954017,0.0065257694953983,0.0029965474616805,30.581053799706,0.00015984843039765,0.00015984843039765,0.00015984843039765,2753646.2480839,0.016177856548022
15419200,0.99846948081923,0.016172367908476,0.0061425720704541,0.0061425720704507,0.0038872237675715,-0.0015658275761334,0.0015658275761363,1.3690758227322e-15,1.4038982883416e-15,-2.3066354162243e-15,5.4401867472056e-15,-0.0016732111994658,0.0016732111994661,-0.0016732102485415,0.001673210248542,-0.0016732111638257,0.001673211163831,-0.0016732102841726,0.0016732102841779,-0.0013285521496467,0.0013285521496518,-0.0013285537086128,0.0013285537086178,-4.0139950222662e-15,-1.2023421065901e-14,4.8310033800359e-09,-4.8310336155149e-09,-0.0015658275761435,0.0015658275761244,-0.0016732095286091,0.0016732127742762,-0.0016732119194094,0.0016732086737111,-0.0016732095286117,0.0016732127742735,-0.001673211919412,0.0016732086737084,-0.0013285475207112,0.0013285569543375,-0.0013285583375983,0.0013285489039,-0.0015901465108439,0.0015901432330977,-0.0015901465108517,0.0015901432330891,6.9610309483374e-09,6.9610309247835e-09,-0.00071096766071696,0.00071098442968926,2.0317935833158e-09,1.185884430349e-08,-0.00077809128558123,0.00077810464622677,-0.00077808799857227,0.00077810793323536,-0.00077809128558126,0.00077810464622685,-0.00077808799857229,0.00077810793323538,-0.00089206097654563,0.00089207856785518,-0.00089206097654528,0.00089207856785471,0.48651353790675,120135,2834,0.0065024438461055,0.0065024438461021,0.0029612320701234,27.073626276933,0.00013178901021546,0.00013178901021546,0.00013178901021546,2726441.0702867,0.016094571243107
15919200,0.9986959173538,0.01617565953152,0.006143790133839,0.0061437901338357,0.0038880792638456,-0.0015648158605269,0.0015648158605298,1.3620172148384e-15,1.3989572628159e-15,-2.309870611509e-15,5.4158933717045e-15,-0.0016711424900266,0.0016711424900269,-0.0016711419845911,0.0016711419845915,-0.0016711424590799,0.0016711424590852,-0.0016711420155287,0.001671142015534,-0.0013288707800383,0.0013288707800434,-0.0013288724644838,0.0013288724644888,-4.0201713041733e-15,-1.2020159331905e-14,4.8728561080562e-09,-4.8728863232817e-09,-0.001564815860537,0.001564815860518,-0.0016711408395737,0.0016711440877757,-0.0016711436350551,0.001671140386822,-0.0016711408395763,0.001671144087773,-0.0016711436350577,0.0016711403868193,-0.001328866136598,0.001328875661869,-0.0013288771079741,0.0013288675826309,-0.001589330739195,0.0015893274421602,-0.0015893307392028,0.0015893274421516,5.1547028392456e-09,5.1547028110439e-09,-0.00070442620918107,0.00070443838924752,2.4221990966604e-10,1.0111753188369e-08,-0.0007758997350059,0.00077590901349787,-0.00077589644191407,0.00077591230658926,-0.00077589973500591,0.00077590901349793,-0.00077589644191414,0.00077591230658932,-0.00088449879788453,0.00088451259540543,-0.00088449879788413,0.00088451259540498,0.59571470761932,120135,2834,0.006498215392475,0.0064982153924716,0.0029341119265929,25.355433654263,0.00011804346923411,0.00011804346923411,0.00011804346923411,2604579.6062609,0.016058433369549
16419200,0.99887964366776,0.016177910315318,0.0061446260687003,0.0061446260686969,0.0038886581779211,-0.0015650107239028,0.0015650107239057,1.3993101932106e-15,1.4250152902905e-15,-2.3181644757842e-15,5.4547157151204e-15,-0.0016705704652168,0.0016705704652171,-0.0016705701488048,0.0016705701488053,-0.0016705704358152,0.0016705704358205,-0.0016705701781973,0.0016705701782027,-0.0013299099618279,0.0013299099618332,-0.0013299116967985,0.0013299116968036,-3.9895251815678e-15,-1.2029256710237e-14,4.7437252129463e-09,-4.7437554180098e-09,-0.0015650107239129,0.0015650107238939,-0.001670568869275,0.0016705720227651,-0.0016705717447578,0.0016705685912365,-0.0016705688692776,0.0016705720227623,-0.0016705717447604,0.0016705685912338,-0.0013299054538087,0.0013299147294928,-0.0013299162048677,0.0013299069291115,-0.0015896016682628,0.0015895984605412,-0.0015896016682708,0.0015895984605327,4.3337138565658e-09,4.3337138239881e-09,-0.00069862872233589,0.00069863884145621,-4.278776042579e-10,9.1654563436479e-09,-0.00077410469045998,0.00077411222725578,-0.00077410149196581,0.00077411542574958,-0.00077410469046,0.00077411222725586,-0.00077410149196584,0.00077411542574962,-0.00087813447442783,0.00087814645459294,-0.00087813447442757,0.00087814645459253,0.50210013400473,120135,2834,0.0064989827749291,0.0064989827749257,0.0029100949922672,24.412882052494,0.00011050305641995,0.00011050305641995,0.00011050305641995,2471588.4192582,0.016035600096846
16919200,0.99903233135896,0.016180344219713,0.0061455191976248,0.0061455191976214,0.0038893058244666,-0.0015621281603344,0.0015621281603373,1.3768402914154e-15,1.421015412484e-15,-2.2716364854176e-15,5.4784796950294e-15,-0.0016695421409302,0.0016695421409305,-0.0016695418806904,0.0016695418806908,-0.0016695421117535,0.0016695421117588,-0.0016695419098579,0.0016695419098634,-0.0013238448145792,0.0013238448145842,-0.0013238465994638,0.0013238465994687,-3.9839371169852e-15,-1.1987493624857e-14,4.5927545165663e-09,-4.5927847067692e-09,-0.0015621281603445,0.0015621281603255,-0.0016695405977024,0.0016695436490277,-0.0016695434239291,0.0016695403725728,-0.001669540597705,0.001669543649025,-0.0016695434239317,0.0016695403725701,-0.0013238404574813,0.001323849437599,-0.0013238509566119,0.0013238419764221,-0.0015866328089238,0.0015866297018577,-0.0015866328089314,0.0015866297018491,4.0487005420284e-09,4.0487005087727e-09,-0.00069732895584845,0.00069733836014239,-5.5490427330719e-10,8.7290439781542e-09,-0.00076787303391428,0.00076788013489847,-0.00076786993950759,0.00076788322930487,-0.00076787303391433,0.0007678801348986,-0.00076786993950768,0.00076788322930492,-0.00087958974700603,0.00087960102252986,-0.0008795897470055,0.00087960102252926,0.65164127745866,120135,2834,0.0064870897788182,0.0064870897788148,0.0029046632393578,23.780330844905,0.00010544264675924,0.00010544264675924,0.00010544264675924,2551868.801892,0.016005899909206
17419200,0.99915211374829,0.0161820633046,0.0061461549618436,0.0061461549618402,0.0038897533809166,-0.0015616943875707,0.0015616943875736,1.3508999074057e-15,1.4151332392392e-15,-2.2848713752185e-15,5.421599079752e-15,-0.0016675535626321,0.0016675535626324,-0.001667553040394,0.0016675530403945,-0.0016675535312462,0.0016675535312515,-0.0016675530717709,0.0016675530717763,-0.0013254882851827,0.0013254882851876,-0.0013254899439972,0.0013254899440022,-4.0175831479456e-15,-1.196085094153e-14,4.6608349019044e-09,-4.6608650213079e-09,-0.0015616943875808,0.0015616943875618,-0.0016675519792827,0.0016675550888463,-0.0016675546237545,0.0016675515141599,-0.0016675519792853,0.0016675550888436,-0.0016675546237571,0.0016675515141572,-0.0013254838467276,0.001325492955301,-0.0013254943825022,0.001325485273857,-0.0015866233574252,0.0015866202010183,-0.0015866233574329,0.0015866202010097,5.1486456720735e-09,5.1486456344689e-09,-0.00068963489587444,0.00068964711492434,4.4539304999474e-10,9.8883936998629e-09,-0.00076614842367046,0.0007661577970427,-0.0007661452717393,0.00076616094897341,-0.00076614842367046,0.00076615779704277,-0.00076614527173933,0.00076616094897339,-0.00087004701000859,0.00087006067229622,-0.00087004701000821,0.00087006067229584,0.58772740813402,120135,2834,0.006485240384073,0.0064852403840696,0.00287278140431,21.984444689585,9.1075557516683e-05,9.1075557516683e-05,9.1075557516683e-05,2386270.8411027,0.015969767809668
17919200,0.99924362843751,0.016183162592691,0.006146561436644,0.0061465614366406,0.0038900397194067,-0.0015558564280682,0.0015558564280711,1.3561938633261e-15,1.4166037825504e-15,-2.3087529985925e-15,5.4342457522284e-15,-0.0016631786778319,0.0016631786778322,-0.0016631779692625,0.0016631779692629,-0.0016631786450518,0.0016631786450571,-0.0016631780020335,0.0016631780020389,-0.0013169887690821,0.0013169887690871,-0.0013169903875906,0.0013169903875957,-4.0271710903346e-15,-1.202995429922e-14,4.8618699545909e-09,-4.8619002018082e-09,-0.0015558564280783,0.0015558564280593,-0.0016631770175595,0.0016631802684864,-0.001663179629546,0.0016631763785878,-0.0016631770175621,0.0016631802684837,-0.0016631796295486,0.0016631763785852,-0.0013169841263041,0.0013169936263671,-0.0013169950304184,0.0013169855302833,-0.0015807481567764,0.0015807448636032,-0.0015807481567842,0.0015807448635946,5.8782559962688e-09,5.8782559494628e-09,-0.00068354192934678,0.00068355601059551,9.5530994441857e-10,1.0816387412965e-08,-0.00075660086284284,0.00075661178361761,-0.00075659756957942,0.0007566150768807,-0.0007566008628429,0.00075661178361772,-0.00075659756957944,0.00075661507688072,-0.00086632321408485,0.00086633855822316,-0.00086632321408447,0.00086633855822276,0.4915601615792,120135,2834,0.0064610985429828,0.0064610985429793,0.0028474614386167,19.504841113099,7.1238728904794e-05,7.1238728904794e-05,7.1238728904794e-05,2435815.5214028,0.01589498113448
18419200,0.99931637269309,0.0161840766912,0.0061468987189089,0.0061468987189055,0.0038902792533854,-0.0015505653716725,0.0015505653716754,1.3667229534343e-15,1.438073714894e-15,-2.3264583400594e-15,5.4607155318301e-15,-0.0016592841976042,0.0016592841976045,-0.0016592835773996,0.0016592835774001,-0.0016592841657947,0.0016592841658,-0.0016592836092,0.0016592836092054,-0.0013093364753527,0.0013093364753579,-0.0013093381619578,0.0013093381619629,-3.9799960609111e-15,-1.2030375299686e-14,4.9626144230697e-09,-4.962644642609e-09,-0.0015505653716825,0.0015505653716635,-0.0016592825116108,0.0016592858238551,-0.0016592852634041,0.0016592819511287,-0.0016592825116134,0.0016592858238523,-0.0016592852634067,0.001659281951126,-0.0013093317404692,0.0013093414403532,-0.0013093428968912,0.0013093331969351,-0.0015755250115812,0.0015755216530388,-0.0015755250115892,0.0015755216530303,5.5046420755759e-09,5.5046420143768e-09,-0.00068021096766456,0.00068022407364608,4.9463694707602e-10,1.0548007121661e-08,-0.0007488087789743,0.00074881889982337,-0.00074880542372566,0.00074882225507164,-0.00074880877897434,0.00074881889982343,-0.00074880542372569,0.00074882225507165,-0.00086496461193492,0.00086497921662708,-0.00086496461193461,0.00086497921662672,0.51421839069127,120135,2834,0.0064392327657668,0.0064392327657634,0.0028335761163702,17.481196705713,5.5049573645701e-05,5.5049573645701e-05,5.5049573645701e-05,2533444.9056147,0.015836439491537
18919200,0.99937985380456,0.016184988272789,0.0061472350269708,0.0061472350269674,0.0038905182188504,-0.0015504039804535,0.0015504039804564,1.3642524406715e-15,1.4294857419565e-15,-2.3062824858296e-15,5.434716326088e-15,-0.0016585498496117,0.001658549849612,-0.0016585495854022,0.0016585495854027,-0.00165854982088,0.0016585498208853,-0.0016585496141248,0.0016585496141302,-0.0013099648689292,0.0013099648689342,-0.0013099666640755,0.0013099666640805,-3.9739962442014e-15,-1.1975704635278e-14,4.767226144571e-09,-4.7672562735859e-09,-0.0015504039804636,0.0015504039804446,-0.0016585482512994,0.0016585514166663,-0.0016585511837256,0.0016585480183277,-0.001658548251302,0.0016585514166635,-0.0016585511837282,0.001658548018325,-0.0013099603428574,0.0013099696659165,-0.0013099711901972,0.0013099618670661,-0.0015756603287443,0.0015756571061004,-0.0015756603287521,0.0015756571060919,4.0815266755104e-09,4.0815266188399e-09,-0.00067829524402427,0.00067830471564002,-6.9311063970308e-10,8.9391495832404e-09,-0.00074852598913928,0.00074853305398217,-0.00074852277943797,0.00074853626368312,-0.00074852598913931,0.00074853305398222,-0.00074852277943801,0.00074853626368313,-0.00086224436129624,0.00086225581566529,-0.0008622443612959,0.00086225581566488,0.5877987766322,120135,2834,0.0064385513249361,0.0064385513249327,0.0028256204425674,16.875569504479,5.0204556035835e-05,5.0204556035835e-05,5.0204556035835e-05,2491350.420488,0.015826978946272
19419200,0.99943972313431,0.016185949396668,0.0061475887887523,0.0061475887887489,0.0038907718191664,-0.0015531331651783,0.0015531331651812,1.3333710311361e-15,1.4095451746566e-15,-2.316046893416e-15,5.4120699590954e-15,-0.0016603864910064,0.0016603864910067,-0.0016603865377729,0.0016603865377733,-0.001660386464219,0.0016603864642243,-0.0016603865645512,0.0016603865645566,-0.001313986353104,0.0013139863531091,-0.0013139882427967,0.0013139882428017,-3.9674082101672e-15,-1.1962833417732e-14,4.3635004796369e-09,-4.3635305867755e-09,-0.0015531331651884,0.0015531331651694,-0.0016603850416902,0.0016603879270707,-0.0016603879871002,0.0016603851016886,-0.0016603850416928,0.001660387927068,-0.0016603879871028,0.0016603851016859,-0.0013139822336661,0.0013139907698945,-0.0013139923622844,0.001313983825984,-0.0015784832411109,0.0015784802916749,-0.0015784832411188,0.0015784802916663,2.7617197334309e-09,2.7617196669775e-09,-0.000677780071418,0.00067778620306546,-1.5828662913338e-09,7.2212755515072e-09,-0.00075121132549435,0.00075121573482228,-0.00075120839495281,0.00075121866536351,-0.00075121132549442,0.00075121573482239,-0.00075120839495285,0.00075121866536352,-0.00086068116645396,0.0008606895593714,-0.0008606811664536,0.00086068955937098,0.65664642788028,120135,2834,0.0064498203959431,0.0064498203959398,0.0028235141552631,17.545231305865,5.5561850446921e-05,5.5561850446921e-05,5.5561850446921e-05,2395813.0338681,0.015847742444152
19919200,0.99949745262809,0.016186852410895,0.006147920840761,0.0061479208407576,0.0038910107293767,-0.0015563297683057,0.0015563297683086,1.321018467322e-15,1.4029571406224e-15,-2.301341460304e-15,5.3683654118864e-15,-0.0016631363823379,0.0016631363823382,-0.0016631365391115,0.0016631365391119,-0.0016631363555704,0.0016631363555756,-0.00166313656587,0.0016631365658753,-0.001317719995188,0.001317719995193,-0.0013177219214402,0.0013177219214451,-3.9874664209321e-15,-1.1929479542368e-14,3.9614385388266e-09,-3.9614686170148e-09,-0.0015563297683157,0.0015563297682968,-0.0016631350672947,0.0016631376843697,-0.0016631378541658,0.0016631352370598,-0.0016631350672973,0.001663137684367,-0.0016631378541684,0.0016631352370571,-0.0013177162700038,0.0013177240183992,-0.0013177256466743,0.0013177178982071,-0.0015816907781564,0.0015816880971141,-0.0015816907781642,0.0015816880971056,2.2514539343801e-09,2.2514538703356e-09,-0.00067794218074108,0.00067794703485657,-1.6879244227716e-09,6.3065653923445e-09,-0.00075358291656293,0.00075358648041212,-0.00075358025571198,0.00075358914126277,-0.00075358291656297,0.00075358648041219,-0.00075358025571202,0.00075358914126279,-0.0008604682419618,0.00086047529004628,-0.00086046824196142,0.00086047529004587,0.63949909152815,120135,2834,0.0064630318259074,0.006463031825904,0.0028242247925216,18.680888009173,6.4647104073381e-05,6.4647104073381e-05,6.4647104073381e-05,2309624.8407013,0.015875311221529
20419200,0.99954900398801,0.016187723394215,0.0061482396657953,0.0061482396657919,0.003891244062628,-0.0015558659778147,0.0015558659778176,1.3857811947475e-15,1.460131864562e-15,-2.2625779386206e-15,5.4134228589417e-15,-0.0016633476979881,0.0016633476979884,-0.0016633475618266,0.001663347561827,-0.0016633476682678,0.0016633476682731,-0.0016633475915379,0.0016633475915432,-0.001315965012746,0.001315965012751,-0.0013159668372046,0.0013159668372096,-3.9419384000172e-15,-1.1882496717551e-14,3.8679014859651e-09,-3.867931467687e-09,-0.0015558659778247,0.0015558659778059,-0.0016633463920464,0.0016633489633379,-0.0016633488677793,0.001663346296457,-0.001663346392049,0.0016633489633352,-0.0016633488677819,0.0016633462964543,-0.0013159613623213,0.0013159689207136,-0.0013159704876791,0.0013159629292152,-0.0015812399978617,0.0015812373733108,-0.0015812399978694,0.0015812373733024,3.4407125799161e-09,3.4407125153886e-09,-0.00067676243052329,0.00067677032750021,-4.423970662994e-10,7.3906007334882e-09,-0.00075106334846021,0.00075106959185815,-0.00075106073629268,0.00075107220402516,-0.00075106334846016,0.00075106959185818,-0.00075106073629272,0.00075107220402522,-0.00086040983515257,0.00086041935095009,-0.00086040983515215,0.00086041935094975,0.69004788769245,120135,2834,0.0064611212861643,0.0064611212861608,0.0028193320074964,18.601952255835,6.4015618046682e-05,6.4015618046682e-05,6.4015618046682e-05,2308675.2819369,0.015866454849203
20919200,0.99959188258564,0.016188399874161,0.0061484879124332,0.0061484879124298,0.0038914240492981,-0.0015542662722635,0.0015542662722663,1.3350180396447e-15,1.4173684650722e-15,-2.301341460304e-15,5.404540777342e-15,-0.0016615039502574,0.0016615039502577,-0.0016615035128408,0.0016615035128412,-0.0016615039180837,0.001661503918089,-0.0016615035450055,0.0016615035450108,-0.0013144955598268,0.0013144955598318,-0.0013144972718219,0.0013144972718269,-4.0031718234957e-15,-1.1969816775167e-14,4.015209623666e-09,-4.0152397771075e-09,-0.0015542662722735,0.0015542662722546,-0.0016615025764539,0.0016615052598741,-0.0016615048866554,0.0016615022032041,-0.0016615025764565,0.0016615052598714,-0.001661504886658,0.0016615022032015,-0.0013144917499356,0.0013144995916445,-0.0013145010817632,0.0013144932399824,-0.0015798273894338,0.0015798246620033,-0.0015798273894416,0.0015798246619947,4.6895681396937e-09,4.6895680738262e-09,-0.00067201266463976,0.00067202374402921,6.2451962164469e-10,8.7790255477111e-09,-0.00074786434686159,0.00074787321024584,-0.00074786162302159,0.0007478759340855,-0.00074786434686162,0.00074787321024591,-0.00074786162302163,0.00074787593408551,-0.00085551487750097,0.00085552714413401,-0.0008555148775006,0.00085552714413359,0.64466974006305,120135,2834,0.0064544834363187,0.0064544834363153,0.0027996334892091,17.278575281003,5.3428602248023e-05,5.3428602248023e-05,5.3428602248023e-05,2251535.3946251,0.015832962684347
21419200,0.9996262957106,0.016188939952108,0.0061486857031301,0.0061486857031267,0.0038915685458512,-0.0015497501698289,0.0015497501698317,1.2893135535324e-15,1.3850753339581e-15,-2.3463400856269e-15,5.4271871443346e-15,-0.001657891231091,0.0016578912310913,-0.001657890603684,0.0016578906036844,-0.0016578911975952,0.0016578911976004,-0.0016578906371708,0.0016578906371761,-0.0013082931224047,0.0013082931224097,-0.0013082947850462,0.0013082947850511,-3.9950544244179e-15,-1.2035417310178e-14,4.2667499837197e-09,-4.2667802040215e-09,-0.0015497501698389,0.0015497501698199,-0.0016578897638798,0.0016578926220008,-0.0016578920709063,0.001657889212754,-0.0016578897638824,0.0016578926219981,-0.0016578920709089,0.0016578892127514,-0.0013082890586767,0.001308297390965,-0.0013082988488242,0.0013082905164638,-0.0015753578532665,0.0015753549557011,-0.0015753578532745,0.0015753549556925,5.4632659684468e-09,5.4632658758012e-09,-0.00066714527141863,0.00066715831577628,1.128129575596e-09,9.8018460437636e-09,-0.00074077436200449,0.00074078480117814,-0.0007407714630416,0.00074078770014075,-0.00074077436200456,0.00074078480117818,-0.00074077146304158,0.00074078770014069,-0.00085212621266431,0.00085214028578724,-0.00085212621266387,0.00085214028578692,0.64095610021346,120135,2834,0.0064358044870108,0.0064358044870074,0.0027794055935906,15.233244581579,3.7065956652635e-05,3.7065956652635e-05,3.7065956652635e-05,2284532.2586027,0.015774460827804
21919200,0.99965555841532,0.016189386231065,0.0061488494093164,0.006148849409313,0.0038916874124353,-0.00154758927955,0.0015475892795529,1.3444295168364e-15,1.4443676402659e-15,-2.3203408798848e-15,5.4616566795492e-15,-0.0016558661129444,0.0016558661129447,-0.0016558656818253,0.0016558656818258,-0.0016558660815648,0.0016558660815701,-0.0016558657131958,0.0016558657132012,-0.001305742937533,0.0013057429375381,-0.0013057446718747,0.0013057446718798,-3.9725845226227e-15,-1.2020105163064e-14,4.345925445742e-09,-4.3459556229691e-09,-0.00154758927956,0.001547589279541,-0.00165586463519,0.0016558675343623,-0.0016558671595909,0.0016558642603874,-0.0016558646351926,0.0016558675343596,-0.0016558671595935,0.0016558642603847,-0.0013057388086362,0.0013057473004868,-0.0013057488008215,0.0013057403088989,-0.0015733602829471,0.0015733573364961,-0.001573360282955,0.0015733573364875,4.6861882033895e-09,4.6861881142875e-09,-0.00066385822507457,0.00066386927346663,2.9974390915433e-10,9.1113131576116e-09,-0.00073729339312741,0.00073730206917253,-0.00073729045198325,0.00073730501031635,-0.00073729339312745,0.00073730206917259,-0.0007372904519833,0.00073730501031635,-0.00084912224357915,0.00084913471413797,-0.00084912224357875,0.00084913471413759,0.62311101531201,120135,2834,0.0064268596416783,0.0064268596416749,0.0027657461208665,13.997180866985,2.717744693588e-05,2.717744693588e-05,2.717744693588e-05,2277904.5391214,0.015742414733372
22419200,0.99968394630114,0.016189838655536,0.006149015127566,0.0061490151275626,0.003891808400407,-0.0015490722914733,0.0015490722914762,1.3342533571229e-15,1.4331915111008e-15,-2.2918711613798e-15,5.4037172730878e-15,-0.0016575735910922,0.0016575735910925,-0.0016575736659149,0.0016575736659153,-0.001657573561262,0.0016575735612673,-0.0016575736957359,0.0016575736957413,-0.0013068157736242,0.0013068157736292,-0.001306817682205,0.00130681768221,-3.9679964274917e-15,-1.1911413802904e-14,2.9915724872473e-09,-2.9916025402209e-09,-0.0015490722914834,0.0015490722914645,-0.0016575725764615,0.0016575745641554,-0.0016575746805567,0.0016575726928317,-0.001657572576464,0.0016575745641527,-0.0016575746805593,0.0016575726928291,-0.0013068129814531,0.0013068188221106,-0.0013068204744259,0.0013068146336967,-0.0015748899644897,0.0015748879242376,-0.0015748899644975,0.0015748879242291,2.486310914886e-09,2.4863108295579e-09,-0.00066550216371604,0.00066550765898141,-5.221617625629e-10,5.5598586364099e-09,-0.0007381638659372,0.0007381686212831,-0.00073816183715979,0.00073817065006017,-0.00073816386593724,0.00073816862128316,-0.00073816183715984,0.00073817065006017,-0.00085109918626592,0.00085110610608885,-0.00085109918626553,0.00085110610608848,0.65096373206224,120135,2834,0.006433005768548,0.0064330057685446,0.0027725574728944,14.849245355853,3.3993962846825e-05,3.3993962846825e-05,3.3993962846825e-05,2278302.2576606,0.015761817218749
22919200,0.99971079481404,0.016190224611242,0.0061491568952039,0.0061491568952005,0.0038919108208375,-0.0015506386525218,0.0015506386525247,1.3231948714226e-15,1.4154861696339e-15,-2.2914005875202e-15,5.37565930671e-15,-0.0016588185960182,0.0016588185960185,-0.0016588185896036,0.001658818589604,-0.0016588185653803,0.0016588185653855,-0.0016588186202324,0.0016588186202378,-0.0013088229858978,0.0013088229859028,-0.0013088248622303,0.0013088248622352,-3.9731727399472e-15,-1.1904046610687e-14,2.9831146130492e-09,-2.9831446708034e-09,-0.0015506386525318,0.001550638652513,-0.0016588175780317,0.0016588195647357,-0.0016588196076012,0.0016588176208662,-0.0016588175780343,0.001658819564733,-0.0016588196076038,0.0016588176208636,-0.0013088201969397,0.0013088260192579,-0.0013088276512383,0.0013088218288483,-0.0015765465348606,0.0015765444985487,-0.0015765465348684,0.0015765444985402,2.8082659739075e-09,2.8082658908165e-09,-0.00066567888627916,0.0006656852076202,-1.9937626714594e-10,5.8670725612841e-09,-0.00073951521279935,0.00073952067862198,-0.00073951318756832,0.00073952270385268,-0.0007395152127994,0.00073952067862205,-0.00073951318756836,0.00073952270385268,-0.00085086811863861,0.0008508757149759,-0.00085086811863823,0.00085087571497551,0.58748017292924,120135,2834,0.0064394797082509,0.0064394797082476,0.002773307808484,15.356968771614,3.8055750172915e-05,3.8055750172915e-05,3.8055750172915e-05,2236989.8516611,0.015775734734897
23419200,0.99973587549116,0.016190595905368,0.0061492928610995,0.0061492928610961,0.003892010183172,-0.0015503875099583,0.0015503875099612,1.326665353637e-15,1.413015656871e-15,-2.3012826385715e-15,5.3918941048657e-15,-0.0016593673082356,0.0016593673082359,-0.0016593672603132,0.0016593672603136,-0.0016593672771914,0.0016593672771966,-0.0016593672913483,0.0016593672913536,-0.0013072710413589,0.0013072710413639,-0.0013072729114462,0.0013072729114512,-3.9677611405619e-15,-1.1919308839749e-14,3.0105177177992e-09,-3.0105477780396e-09,-0.0015503875099683,0.0015503875099494,-0.0016593662784321,0.0016593682854076,-0.0016593682901278,0.0016593662831213,-0.0016593662784346,0.0016593682854049,-0.0016593682901304,0.0016593662831186,-0.0013072682237686,0.0013072740990744,-0.0013072757290863,0.0013072698537087,-0.0015762270691217,0.001576225013744,-0.0015762270691295,0.0015762250137355,2.9775794697744e-09,2.9775793948463e-09,-0.00066696981600363,0.00066697656888735,-6.2146110945881e-11,6.0629380777813e-09,-0.00073823040131037,0.00073823624068914,-0.00073822835605567,0.00073823828594352,-0.00073823040131042,0.00073823624068923,-0.00073822835605574,0.00073823828594355,-0.00085330543680165,0.00085331341165218,-0.00085330543680126,0.00085331341165177,0.60459639632209,120135,2834,0.0064384619443113,0.0064384619443079,0.0027786483836339,15.705423580038,4.0843388640307e-05,4.0843388640307e-05,4.0843388640307e-05,2284127.0170634,0.015779084850537
23919200,0.99976059251901,0.01619102710651,0.0061494504323314,0.0061494504323281,0.0038921262418506,-0.0015533970341741,0.001553397034177,1.3457235949503e-15,1.4286622377023e-15,-2.2934593481559e-15,5.4138346110688e-15,-0.0016619852224899,0.0016619852224902,-0.0016619854087764,0.0016619854087769,-0.0016619851934121,0.0016619851934174,-0.0016619854378451,0.0016619854378505,-0.0013109066758024,0.0013109066758074,-0.0013109086195195,0.0013109086195246,-3.9407619653682e-15,-1.1907857385815e-14,2.8535352526993e-09,-2.8535652691005e-09,-0.0015533970341842,0.0015533970341653,-0.0016619842594545,0.0016619861511308,-0.0016619863718229,0.0016619844801157,-0.0016619842594571,0.0016619861511281,-0.0016619863718255,0.001661984480113,-0.0013109040231765,0.0013109095948074,-0.0013109112721953,0.0013109057004927,-0.0015793534230485,0.0015793514759459,-0.0015793534230562,0.0015793514759373,2.0135025753317e-09,2.0135025024983e-09,-0.00066937188995171,0.00066937619075777,-8.4329857168618e-10,4.9478019259436e-09,-0.00074170081964515,0.00074170462732214,-0.00074169888907895,0.00074170655788798,-0.00074170081964519,0.0007417046273222,-0.00074169888907899,0.00074170655788799,-0.00085507958625668,0.00085508541187386,-0.00085507958625631,0.00085508541187346,0.71228945632067,120135,2834,0.0064509126701667,0.0064509126701633,0.0027886292961876,17.003353503273,5.1226828026187e-05,5.1226828026187e-05,5.1226828026187e-05,2249982.4781179,0.015814521513378
24419200,0.99978416304252,0.016191418998882,0.006149593844969,0.0061495938449656,0.0038922313089469,-0.0015567086543044,0.0015567086543072,1.3326651703468e-15,1.3828989298575e-15,-2.3163998238107e-15,5.3807179757005e-15,-0.0016641808433642,0.0016641808433645,-0.0016641809266055,0.0016641809266059,-0.0016641808131777,0.0016641808131829,-0.001664180956783,0.0016641809567883,-0.001315917284858,0.001315917284863,-0.0013159191864253,0.0013159191864303,-3.9677023188295e-15,-1.1934963060512e-14,2.8015712483378e-09,-2.801601311753e-09,-0.0015567086543144,0.0015567086542955,-0.0016641798890132,0.0016641817523474,-0.0016641818809675,0.0016641800176023,-0.0016641798890159,0.0016641817523447,-0.0016641818809702,0.0016641800175997,-0.0013159146759734,0.0013159201434043,-0.0013159217953597,0.0013159163278571,-0.0015827300177979,0.0015827281034819,-0.0015827300178057,0.0015827281034734,2.4192352411646e-09,2.4192352031134e-09,-0.0006690292642633,0.00066903460112591,-4.0068711946921e-10,5.2969433215717e-09,-0.00074539016457748,0.0007453948872487,-0.00074538826284468,0.00074539678898121,-0.00074539016457752,0.00074539488724879,-0.00074538826284473,0.00074539678898124,-0.00085332017069972,0.00085332682126271,-0.0008533201706994,0.00085332682126229,0.6789410524186,120135,2834,0.0064645854354848,0.0064645854354815,0.0027872578516761,17.881009347014,5.8248074776116e-05,5.8248074776116e-05,5.8248074776116e-05,2139593.6644821,0.01584091711464
24919200,0.99980599410282,0.016191744167004,0.0061497127103869,0.0061497127103835,0.0038923187462337,-0.0015570058356963,0.0015570058356992,1.3468412078668e-15,1.3943103459525e-15,-2.3019296776285e-15,5.3735417243418e-15,-0.0016652057100491,0.0016652057100494,-0.0016652056929321,0.0016652056929325,-0.0016652056789347,0.0016652056789399,-0.0016652057240375,0.0016652057240428,-0.0013149189960307,0.0013149189960357,-0.0013149208681089,0.0013149208681138,-4.0095833923326e-15,-1.1947191202576e-14,2.836649686106e-09,-2.8366797698416e-09,-0.0015570058357064,0.0015570058356874,-0.0016652047373591,0.0016652066290466,-0.0016652066656334,0.0016652047739147,-0.0016652047373617,0.0016652066290439,-0.0016652066656359,0.0016652047739121,-0.0013149163479229,0.0013149218821843,-0.0013149235162663,0.0013149179819331,-0.0015829489975834,0.0015829470580522,-0.0015829489975912,0.0015829470580437,2.8330318741073e-09,2.8330318384102e-09,-0.00066952965070746,0.0006695360436373,-3.3972274786134e-11,5.7434820816246e-09,-0.00074416901244018,0.0007441746323027,-0.00074416708266734,0.00074417656207523,-0.0007441690124402,0.00074417463230282,-0.00074416708266738,0.00074417656207525,-0.00085499300819449,0.00085500056338603,-0.0008549930081941,0.00085500056338557,0.60789483588396,120135,2834,0.0064658286827636,0.0064658286827601,0.0027893355240319,18.351538198822,6.2012305590576e-05,6.2012305590576e-05,6.2012305590576e-05,2152429.2522809,0.015845547878871
25419200,0.99982743502098,0.016192131794932,0.006149853681379,0.0061498536813756,0.003892424432177,-0.0015590022696982,0.0015590022697011,1.3633112929523e-15,1.4110157179678e-15,-2.2792244889034e-15,5.4140698979986e-15,-0.0016680522855498,0.0016680522855501,-0.0016680525396846,0.001668052539685,-0.0016680522566665,0.0016680522566717,-0.0016680525685588,0.0016680525685641,-0.0013155631221291,0.0013155631221342,-0.0013155650906376,0.0013155650906426,-3.942703082539e-15,-1.1904928936674e-14,2.6618420757918e-09,-2.6618720939656e-09,-0.0015590022697082,0.0015590022696894,-0.0016680513880577,0.0016680531508134,-0.0016680534371877,0.0016680516744011,-0.0016680513880602,0.0016680531508106,-0.0016680534371903,0.0016680516743984,-0.0013155606590177,0.0013155658552384,-0.001315567553799,0.0013155623575065,-0.001584941055283,0.0015849392362554,-0.0015849410552908,0.0015849392362468,1.7225594588811e-09,1.7225594207568e-09,-0.00067364008881704,0.00067364365782111,-9.3829080340598e-10,4.4650287809798e-09,-0.00074537287732248,0.00074537617635301,-0.00074537107644328,0.00074537797723189,-0.00074537287732252,0.0007453761763531,-0.00074537107644331,0.00074537797723191,-0.00086018792317632,0.00086019300851044,-0.00086018792317596,0.00086019300851003,0.7372586897946,120135,2834,0.0064741197577157,0.0064741197577123,0.0028063745981853,19.918752288503,7.455001830802e-05,7.455001830802e-05,7.455001830802e-05,2200790.5194957,0.015879694930733
25919200,0.99984739090369,0.016192488337482,0.0061499837718221,0.0061499837718187,0.0038925207938415,-0.0015626285846798,0.0015626285846828,1.4020159929032e-15,1.4429559186872e-15,-2.2366375546109e-15,5.4733622043064e-15,-0.0016702085825161,0.0016702085825165,-0.0016702086503535,0.001670208650354,-0.0016702085518538,0.0016702085518591,-0.0016702086810067,0.0016702086810122,-0.0013214676095427,0.0013214676095478,-0.0013214695059002,0.0013214695059051,-3.9079982603945e-15,-1.1894150773292e-14,2.6580706862961e-09,-2.6581008670527e-09,-0.0015626285846899,0.001562628584671,-0.0016702076723731,0.0016702094427607,-0.0016702095605077,0.0016702077900891,-0.0016702076723757,0.001670209442758,-0.0016702095605103,0.0016702077900864,-0.0013214651384683,0.0013214703235684,-0.0013214719770245,0.0013214667918521,-0.0015887792880661,0.0015887774685193,-0.0015887792880737,0.0015887774685105,2.4658225355114e-09,2.4658225025505e-09,-0.00067313832270326,0.00067314378590007,-2.1692800805157e-10,5.1982978623443e-09,-0.00074982357111618,0.00074982849342468,-0.00074982176258703,0.00074983030195359,-0.0007498235711162,0.00074982849342483,-0.00074982176258708,0.00074983030195363,-0.00085764779355369,0.00085765445027447,-0.00085764779355324,0.00085765445027391,0.72914636768882,120135,2834,0.0064890884158572,0.0064890884158539,0.0028043451914672,20.733725975967,8.1069807807733e-05,8.1069807807733e-05,8.1069807807733e-05,2074852.7772178,0.015908060242798
26419200,0.99986471507393,0.016192825005286,0.0061501059302251,0.0061501059302218,0.003892613144839,-0.0015617737103513,0.0015617737103542,1.3578996935671e-15,1.4045453273985e-15,-2.3022237862907e-15,5.4136581458715e-15,-0.0016698218529621,0.0016698218529624,-0.0016698216383368,0.0016698216383372,-0.0016698218200782,0.0016698218200835,-0.0016698216712116,0.001669821671217,-0.0013196974474829,0.001319697447488,-0.0013196992477912,0.0013196992477961,-3.9841135821825e-15,-1.1962371345451e-14,2.8760676906622e-09,-2.8760978301341e-09,-0.0015617737103614,0.0015617737103425,-0.0016698208536734,0.0016698227816276,-0.0016698226376367,0.0016698207096514,-0.001669820853676,0.0016698227816248,-0.0016698226376393,0.0016698207096487,-0.0013196947500115,0.0013197003576746,-0.0013197019453126,0.0013196963375776,-0.0015878649817117,0.0015878630125649,-0.0015878649817194,0.0015878630125563,3.6421464556691e-09,3.6421464192211e-09,-0.00067147498898153,0.00067148344544877,7.1201831515275e-10,6.5854413253973e-09,-0.00074738422939223,0.0007473915919136,-0.00074738226437582,0.00074739355692971,-0.00074738422939227,0.00074739159191369,-0.00074738226437585,0.00074739355692974,-0.00085686743798781,0.0008568767377099,-0.00085686743798746,0.00085687673770945,0.7920419595447,120135,2834,0.0064855534607019,0.0064855534606985,0.0027974495570627,20.399158802677,7.8393270421416e-05,7.8393270421416e-05,7.8393270421416e-05,2069086.6665218,0.015893869444117
26919200,0.99988084371119,0.016193120497709,0.0061502133487952,0.0061502133487918,0.003892693800122,-0.0015642688399328,0.0015642688399356,1.3588996630187e-15,1.4031924275522e-15,-2.3025178949529e-15,5.3849531404368e-15,-0.0016719394841181,0.0016719394841185,-0.0016719395669378,0.0016719395669382,-0.0016719394539992,0.0016719394540045,-0.0016719395970477,0.001671939597053,-0.0013226656960136,0.0013226656960186,-0.0013226675995224,0.0013226675995273,-4.0237006081202e-15,-1.1970956216461e-14,2.8338830524231e-09,-2.8339131356085e-09,-0.0015642688399428,0.0015642688399239,-0.0016719385195582,0.001671940404014,-0.001671940531509,0.0016719386470219,-0.0016719385195608,0.0016719404040114,-0.0016719405315116,0.0016719386470192,-0.0013226630559159,0.0013226685868334,-0.0013226702396698,0.0013226647086805,-0.0015904622275504,0.0015904602918161,-0.0015904622275581,0.0015904602918076,2.4257963398065e-09,2.4257963109996e-09,-0.00067175054785703,0.00067175589854155,-4.257165434827e-10,5.3363818855181e-09,-0.00074932944162102,0.00074933415865103,-0.00074932751855012,0.00074933608172157,-0.00074932944162105,0.00074933415865111,-0.00074932751855014,0.00074933608172161,-0.00085670425988122,0.000856710946124,-0.00085670425988091,0.00085671094612358,0.74688297492095,120135,2834,0.0064958668358663,0.0064958668358629,0.00279861332693,21.286345494424,8.5490763955392e-05,8.5490763955392e-05,8.5490763955392e-05,2005761.5202701,0.015916011003745
27419200,0.99989581566715,0.016193387217712,0.0061503101323936,0.0061503101323902,0.003892766952928,-0.0015654207711449,0.0015654207711478,1.371546335495e-15,1.4116039352923e-15,-2.2921652700421e-15,5.4309517352113e-15,-0.0016738764235672,0.0016738764235675,-0.001673876528201,0.0016738765282014,-0.0016738763934948,0.0016738763935001,-0.0016738765582643,0.0016738765582697,-0.0013224466027127,0.0013224466027178,-0.0013224485178378,0.0013224485178428,-3.8896458798707e-15,-1.1880075950511e-14,2.7752051917558e-09,-2.7752352305992e-09,-0.0015654207711549,0.0015654207711361,-0.0016738754791923,0.0016738773241347,-0.0016738774725868,0.0016738756276135,-0.0016738754791949,0.001673877324132,-0.0016738774725895,0.0016738756276109,-0.0013224440210649,0.0013224494370908,-0.0013224510995356,0.001322445683438,-0.001591605589332,0.0015916036927107,-0.0015916055893398,0.0015916036927021,2.3291933340392e-09,2.3291933045375e-09,-0.00067357778636814,0.00067358289855272,-4.6197195081666e-10,5.1813962936738e-09,-0.0007490062065069,0.00074901076247941,-0.00074900432328928,0.00074901264569679,-0.00074900620650694,0.00074901076247953,-0.0007490043232893,0.00074901264569682,-0.00085969221568253,0.00085969866141927,-0.00085969221568219,0.0008596986614188,0.72588280929977,120135,2834,0.0065006533182539,0.0065006533182504,0.0028061904530212,22.250223761467,9.3201790091733e-05,9.3201790091733e-05,9.3201790091733e-05,2025428.2918943,0.01593342793386
27919200,0.99990938582565,0.016193642107238,0.00615040254622,0.0061504025462166,0.0038928370148013,-0.0015665305763874,0.0015665305763903,1.3656641622502e-15,1.4024277450303e-15,-2.3004003125848e-15,5.4197167843137e-15,-0.0016752683936895,0.0016752683936898,-0.0016752684243487,0.0016752684243491,-0.0016752683629038,0.001675268362909,-0.0016752684551253,0.0016752684551307,-0.0013230452552928,0.0013230452552979,-0.0013230471468794,0.0013230471468843,-3.9571144069888e-15,-1.1941803959064e-14,2.7796459977959e-09,-2.7796760727801e-09,-0.0015665305763974,0.0015665305763785,-0.0016752674425045,0.0016752692943564,-0.0016752693755448,0.0016752675236619,-0.0016752674425071,0.0016752692943537,-0.0016752693755474,0.0016752675236592,-0.0013230426651134,0.0013230480883672,-0.0013230497371087,0.001323044313783,-0.0015928084690044,0.0015928065680915,-0.0015928084690122,0.0015928065680829,2.6277157726704e-09,2.6277157454995e-09,-0.00067486470534232,0.00067487058057621,-1.7744943220709e-10,5.4820361846375e-09,-0.00074940167083433,0.00074940688473389,-0.00074939978099168,0.00074940877457625,-0.00074940167083436,0.00074940688473398,-0.00074939978099171,0.00074940877457627,-0.00086132902435526,0.00086133610736668,-0.00086132902435493,0.00086133610736621,0.76533978020323,120135,2834,0.0065052558064345,0.006505255806431,0.0028115284244196,22.918028502883,9.8544228023067e-05,9.8544228023067e-05,9.8544228023067e-05,2029471.2419153,0.015948200858967
28419200,0.99992152267001,0.016193888047264,0.0061504916358691,0.0061504916358657,0.0038929047755292,-0.0015681694683631,0.001568169468366,1.3707816529732e-15,1.4028394971575e-15,-2.3096941463116e-15,5.3893647703704e-15,-0.0016765251880509,0.0016765251880512,-0.0016765251825689,0.0016765251825692,-0.0016765251570266,0.0016765251570319,-0.0016765252135841,0.0016765252135894,-0.0013252382036408,0.001325238203646,-0.0013252400797392,0.0013252400797442,-3.982995969266e-15,-1.1943260830918e-14,2.8106675333854e-09,-2.8106976730088e-09,-0.0015681694683731,0.0015681694683542,-0.0016765242245314,0.0016765260985209,-0.0016765261460995,0.0016765242720789,-0.001676524224534,0.0016765260985182,-0.0016765261461021,0.0016765242720762,-0.0013252355812633,0.0013252410647426,-0.0013252427021667,0.0013252372186154,-0.0015945444041577,0.0015945424821424,-0.0015945444041655,0.0015945424821339,2.7798947034194e-09,2.7798946787728e-09,-0.00067504723709383,0.00067505349679647,-6.0172241084486e-11,5.6643512356583e-09,-0.00075091880054514,0.00075092431916197,-0.00075091688846095,0.00075092623124586,-0.00075091880054517,0.00075092431916205,-0.00075091688846098,0.00075092623124587,-0.00086099686970448,0.0008610042947342,-0.00086099686970421,0.0008610042947338,0.82558911402084,120135,2834,0.0065120282513804,0.006512028251377,0.0028123023828524,23.441034152033,0.00010272827321627,0.00010272827321627,0.00010272827321627,1986181.543227,0.015962751978784
28919200,0.99993234016927,0.016194090913613,0.0061505651901322,0.0061505651901288,0.0038929605333525,-0.0015699296079782,0.0015699296079811,1.3678405663508e-15,1.3946632763472e-15,-2.3253407271428e-15,5.4064230727804e-15,-0.0016778894444725,0.0016778894444728,-0.0016778894442231,0.0016778894442235,-0.0016778894135788,0.001677889413584,-0.0016778894751077,0.0016778894751131,-0.0013275367223295,0.0013275367223347,-0.0013275385965639,0.0013275385965688,-3.9797019522489e-15,-1.1975770407626e-14,2.8321698302593e-09,-2.8321999379566e-09,-0.0015699296079883,0.0015699296079693,-0.0016778884746245,0.0016778903623141,-0.0016778904140823,0.0016778885263616,-0.001677888474627,0.0016778903623113,-0.0016778904140849,0.0016778885263589,-0.0013275340793981,0.0013275396052476,-0.0013275412395454,0.0013275357136238,-0.001596338180784,0.0015963362446966,-0.0015963381807918,0.0015963362446881,2.7620486287756e-09,2.7620486132814e-09,-0.00067476427040838,0.0006747704826955,-9.823112435658e-11,5.6684025331779e-09,-0.00075230243474086,0.00075230789073224,-0.00075230050876312,0.00075230981670969,-0.00075230243474089,0.00075230789073235,-0.00075230050876317,0.0007523098167097,-0.00086028512833289,0.0008602925291123,-0.00086028512833257,0.00086029252911186,0.76400561131051,120135,2834,0.0065192983060644,0.006519298306061,0.0028111524255079,23.983294704913,0.0001070663576393,0.0001070663576393,0.0001070663576393,1929236.8671073,0.0159763600569
29419200,0.99994206325439,0.016194239871827,0.0061506193179981,0.0061506193179947,0.0038930012358347,-0.00157058787813,0.0015705878781329,1.3587231978213e-15,1.3836047906469e-15,-2.3071059900839e-15,5.3840119927176e-15,-0.0016794113993722,0.0016794113993725,-0.0016794114619772,0.0016794114619776,-0.0016794113689641,0.0016794113689694,-0.0016794114923763,0.0016794114923816,-0.0013267171372019,0.001326717137207,-0.0013267190396775,0.0013267190396824,-3.9775255481483e-15,-1.1934456527273e-14,2.8056698983214e-09,-2.8056999851921e-09,-0.0015705878781401,0.0015705878781211,-0.0016794104423621,0.0016794123094579,-0.0016794124189985,0.0016794105518716,-0.0016794104423646,0.0016794123094552,-0.0016794124190011,0.0016794105518689,-0.0013267145237828,0.0013267199988307,-0.0013267216531467,0.0013267161780268,-0.0015969592922212,0.0015969573746436,-0.0015969592922289,0.001596957374635,2.5022746781364e-09,2.5022746644619e-09,-0.00067654806935811,0.0006765536228538,-3.2385804661817e-10,5.3839473891213e-09,-0.00075158281333014,0.00075158773273428,-0.00075158090807927,0.00075158963798495,-0.00075158281333022,0.00075158773273442,-0.00075158090807925,0.00075158963798501,-0.00086334342338495,0.00086335025714873,-0.00086334342338463,0.0008633502571482,0.62417410960896,120135,2834,0.0065220443225899,0.0065220443225865,0.0028185435927635,24.77789544867,0.00011342316358936,0.00011342316358936,0.00011342316358936,1961439.2753756,0.015989441939022
29919200,0.99995069073204,0.016194385363472,0.0061506720064438,0.0061506720064404,0.0038930413505877,-0.0015701039824057,0.0015701039824086,1.3607231367246e-15,1.3965455717855e-15,-2.2652249165808e-15,5.4037172730878e-15,-0.0016803104171496,0.0016803104171499,-0.0016803104523208,0.0016803104523213,-0.0016803103863794,0.0016803103863846,-0.0016803104830819,0.0016803104830873,-0.0013240938678498,0.0013240938678548,-0.0013240957717753,0.0013240957717801,-3.951761629336e-15,-1.1889277415736e-14,2.8025922193067e-09,-2.8026222187691e-09,-0.0015701039824157,0.0015701039823969,-0.0016803094589791,0.0016803113256915,-0.0016803114105023,0.0016803095437589,-0.0016803094589817,0.0016803113256889,-0.0016803114105049,0.0016803095437562,-0.0013240912562365,0.0013240967246651,-0.0013240983834384,0.0013240929149382,-0.0015963975439351,0.0015963956276636,-0.0015963975439429,0.0015963956276551,2.6112564291109e-09,2.6112564081151e-09,-0.00067994114099924,0.00067994697691742,-2.1524620635593e-10,5.4890959633393e-09,-0.00074997764185709,0.00074998282918532,-0.00074997573748893,0.00074998473355323,-0.00074997764185713,0.00074998282918541,-0.00074997573748893,0.00074998473355326,-0.00086854083054678,0.00086854789621441,-0.00086854083054642,0.00086854789621387,0.68688558505508,120135,2834,0.0065200862799057,0.0065200862799022,0.0028325816258675,25.464600014013,0.00011891680011211,0.00011891680011211,0.00011891680011211,2069501.7199915,0.01599971329426
30419200,0.99995828830937,0.016194490120312,0.0061507102432722,0.0061507102432688,0.0038930696337714,-0.0015727398798978,0.0015727398799007,1.3284300056105e-15,1.3628407190927e-15,-2.2455196362106e-15,5.3537188005068e-15,-0.0016817809996591,0.0016817809996594,-0.0016817810303359,0.0016817810303364,-0.001681780968945,0.0016817809689502,-0.0016817810610411,0.0016817810610463,-0.0013286338739968,0.0013286338740019,-0.001328635767048,0.0013286357670529,-3.9876428861294e-15,-1.1852830459313e-14,2.8044840066533e-09,-2.8045140487415e-09,-0.0015727398799078,0.001572739879889,-0.0016817800406566,0.0016817819087188,-0.0016817819893495,0.0016817801212564,-0.0016817800406592,0.0016817819087161,-0.001681781989352,0.0016817801212538,-0.0013286312596942,0.0013286367317645,-0.0013286383814005,0.0013286329092586,-0.0015992921799364,0.0015992902625906,-0.001599292179944,0.001599290262582,2.6343781789727e-09,2.6343781544675e-09,-0.00068079069620536,0.0006807965846428,-1.950415415431e-10,5.5137494629878e-09,-0.00075417699996825,0.00075418221209348,-0.00075417509378137,0.00075418411828001,-0.00075417699996828,0.00075418221209354,-0.00075417509378139,0.00075418411828004,-0.0008675612192455,0.00086756833071536,-0.0008675612192452,0.00086756833071488,0.56251928746541,120135,2834,0.0065309708646063,0.006530970864603,0.0028361314802536,26.129927784619,0.00012423942227695,0.00012423942227695,0.00012423942227695,2000227.5845924,0.016025447718772
30919200,0.99996504502553,0.016194602263452,0.0061507508633972,0.0061507508633938,0.0038931005366607,-0.0015728740046723,0.0015728740046752,1.3390767391836e-15,1.3823107125331e-15,-2.2544605395427e-15,5.3285430990189e-15,-0.0016830834799518,0.0016830834799521,-0.0016830835953548,0.0016830835953552,-0.0016830834498563,0.0016830834498615,-0.0016830836254411,0.0016830836254464,-0.0013270595339147,0.0013270595339197,-0.0013270614615825,0.0013270614615873,-3.9835841865905e-15,-1.1829235591884e-14,2.7374499908545e-09,-2.7374799926263e-09,-0.0015728740046823,0.0015728740046635,-0.0016830825484291,0.0016830843681327,-0.0016830845268884,0.0016830827071539,-0.0016830825484317,0.00168308436813,-0.001683084526891,0.0016830827071512,-0.0013270569899812,0.0013270623319943,-0.0013270640055656,0.001327058663481,-0.0015991649408808,0.0015991630691715,-0.0015991649408885,0.0015991630691631,2.2890829171641e-09,2.2890828861185e-09,-0.00068484877476794,0.00068485379072502,-4.6318271528452e-10,5.1035759217579e-09,-0.00075391207607439,0.00075391658701694,-0.00075391021876912,0.00075391844432192,-0.00075391207607443,0.00075391658701703,-0.00075391021876915,0.00075391844432194,-0.00087322154605746,0.00087322788546973,-0.00087322154605712,0.00087322788546927,0.67617106509292,120135,2834,0.0065315635687555,0.006531563568752,0.0028529415636696,27.118823753291,0.00013215059002633,0.00013215059002633,0.00013215059002633,2100009.2404403,0.016043719695542
31419200,0.99997108985672,0.016194705961182,0.0061507885521994,0.0061507885521961,0.0038931288567868,-0.0015773686957882,0.001577368695791,1.3724874832142e-15,1.3736050961307e-15,-2.2641073036643e-15,5.3504247834897e-15,-0.0016859193340115,0.0016859193340119,-0.0016859195305958,0.0016859195305962,-0.0016859193045114,0.0016859193045166,-0.0016859195600869,0.0016859195600922,-0.001334236347023,0.0013342363470279,-0.0013342382908354,0.0013342382908403,-3.9862899862831e-15,-1.1842204175482e-14,2.6306933225417e-09,-2.6307233757434e-09,-0.0015773686957982,0.0015773686957793,-0.0016859184418401,0.0016859201874603,-0.0016859204227785,0.0016859186771272,-0.0016859184418426,0.0016859201874576,-0.0016859204227811,0.0016859186771246,-0.0013342339098245,0.0013342390438537,-0.0013342407280838,0.0013342355939826,-0.0016038786866876,0.0016038768874952,-0.0016038786866953,0.0016038768874867,1.9339246752578e-09,1.9339246794874e-09,-0.0006862940286145,0.00068629814272482,-7.0506120066944e-10,4.6424833208047e-09,-0.00076053397588473,0.00076053775708217,-0.00076053219217987,0.00076053954078661,-0.00076053397588476,0.00076053775708226,-0.00076053219217993,0.00076053954078669,-0.0008722152071097,0.00087222071867565,-0.00087221520710926,0.00087222071867519,0.69952705654839,120135,2834,0.0065501259623274,0.006550125962324,0.0028589876194032,28.435763290287,0.00014268610632229,0.00014268610632229,0.00014268610632229,1984752.9330477,0.016087598377021
31919200,0.99997629651834,0.016194797899492,0.006150821840406,0.0061508218404026,0.0038931542186832,-0.0015791680159051,0.001579168015908,1.3694875748593e-15,1.3737815613281e-15,-2.2724599896719e-15,5.3398956933814e-15,-0.0016875912069218,0.0016875912069221,-0.0016875912824889,0.0016875912824893,-0.0016875911762248,0.00168759117623,-0.0016875913131769,0.0016875913131822,-0.0013362177331279,0.001336217733133,-0.0013362196367017,0.0013362196367066,-4.0094069271353e-15,-1.1884438753811e-14,2.6284989123352e-09,-2.6285289753268e-09,-0.0015791680159152,0.0015791680158963,-0.0016875903066168,0.0016875920573364,-0.0016875921828051,0.0016875904320544,-0.0016875903066193,0.0016875920573337,-0.0016875921828077,0.0016875904320517,-0.0013362152912871,0.0013362204184286,-0.0013362220785923,0.001336216951379,-0.0016055556019731,0.0016055538020344,-0.0016055556019807,0.0016055538020259,2.4298062779959e-09,2.4298062844094e-09,-0.00068727122679562,0.00068727660261876,-2.2285876419089e-10,5.1324914073931e-09,-0.00076229746663871,0.00076230234015429,-0.00076229567817485,0.00076230412861785,-0.00076229746663874,0.00076230234015438,-0.00076229567817486,0.00076230412861788,-0.00087315635470641,0.00087316291766507,-0.00087315635470613,0.00087316291766462,0.71926751588325,120135,2834,0.0065575653220149,0.0065575653220115,0.002863068555415,29.268439170526,0.00014934751336421,0.00014934751336421,0.00014934751336421,1954145.7662604,0.016106864024294
32419200,0.99998057182343,0.016194880760742,0.0061508517636419,0.0061508517636385,0.0038931772334619,-0.0015794671908274,0.0015794671908303,1.3677817446184e-15,1.3721345528195e-15,-2.2749893241672e-15,5.3634832080932e-15,-0.0016878615608539,0.0016878615608542,-0.001687861433759,0.0016878614337594,-0.0016878615285973,0.0016878615286026,-0.0016878614660065,0.0016878614660118,-0.0013364743772656,0.0013364743772706,-0.0013364762111544,0.0013364762111593,-4.0031718234957e-15,-1.1904581980361e-14,2.7949905053052e-09,-2.7950205926829e-09,-0.0015794671908375,0.0015794671908186,-0.0016878605933505,0.0016878624637127,-0.0016878624012735,0.0016878605308802,-0.001687860593353,0.00168786246371,-0.0016878624012761,0.0016878605308776,-0.0013364717630068,0.0013364772131236,-0.0013364788254631,0.0013364733752744,-0.0016058582981775,0.0016058563843072,-0.0016058582981852,0.0016058563842987,3.2799861779578e-09,3.2799861844382e-09,-0.00068651251069053,0.00068652004367315,4.3891452218506e-10,6.1448821808284e-09,-0.00076208706036229,0.0007620936863621,-0.00076208515224042,0.00076209559448367,-0.00076208706036231,0.0007620936863622,-0.00076208515224043,0.00076209559448371,-0.00087244844851367,0.00087245692518027,-0.00087244844851336,0.00087245692517978,0.78912843059547,120135,2834,0.0065587978407715,0.0065587978407681,0.002859935158553,29.299074156601,0.00014959259325281,0.00014959259325281,0.00014959259325281,1930063.4293634,0.016106186044415
32919200,0.99998405497405,0.01619493985748,0.0061508731631544,0.006150873163151,0.0038931935311743,-0.0015800617545586,0.0015800617545615,1.3711345833679e-15,1.369840505254e-15,-2.2931064177612e-15,5.3871295445374e-15,-0.0016880146393046,0.0016880146393049,-0.0016880144742502,0.0016880144742506,-0.0016880146071393,0.0016880146071446,-0.0016880145064065,0.0016880145064117,-0.0013376562401697,0.0013376562401748,-0.0013376580552636,0.0013376580552684,-3.9985249066323e-15,-1.1942702598891e-14,2.9498540747156e-09,-2.9498842125548e-09,-0.0015800617545687,0.0015800617545497,-0.0016880136205993,0.001688015593909,-0.0016880154929667,0.0016880135196259,-0.0016880136206019,0.0016880155939063,-0.0016880154929693,0.0016880135196232,-0.001337653474295,0.0013376592279604,-0.0013376608211883,0.0013376550674509,-0.0016065101404718,0.0016065081234635,-0.0016065101404796,0.0016065081234549,3.457421092436e-09,3.4574211048938e-09,-0.00068467671568347,0.00068468469332351,4.6182818067749e-10,6.4774550988024e-09,-0.00076222582399813,0.00076223271818615,-0.00076222381274114,0.00076223472944285,-0.00076222582399815,0.00076223271818626,-0.00076222381274115,0.00076223472944289,-0.00087012135242923,0.00087013030678754,-0.00087012135242893,0.00087013030678705,0.69092321609739,120135,2834,0.00656124021234,0.0065612402123366,0.0028523394415935,29.174720779707,0.00014859776623765,0.00014859776623765,0.00014859776623765,1871054.062981,0.016103436543956
33419200,0.99998693328073,0.016194994730672,0.0061508929285038,0.0061508929285004,0.0038932088736673,-0.0015790160508728,0.0015790160508757,1.3982514020265e-15,1.3987807976186e-15,-2.2948122480022e-15,5.4337751783688e-15,-0.0016881888088691,0.0016881888088695,-0.001688188704872,0.0016881887048724,-0.0016881887773519,0.0016881887773572,-0.00168818873638,0.0016881887363854,-0.0013345695133669,0.001334569513372,-0.001334571363808,0.0013345713638129,-3.9761138265696e-15,-1.1967396697444e-14,3.0316100474518e-09,-3.031640174663e-09,-0.0015790160508829,0.0015790160508639,-0.0016881877683771,0.0016881897921035,-0.0016881897453752,0.0016881877216176,-0.0016881877683797,0.0016881897921008,-0.0016881897453779,0.001688187721615,-0.0013345666721596,0.0013345725878408,-0.0013345742050652,0.0013345682893121,-0.0016053950540956,0.0016053929838356,-0.0016053950541033,0.001605392983827,3.1996167235245e-09,3.1996167363462e-09,-0.0006855924016932,0.00068559972382058,1.3191328021521e-10,6.3047176208368e-09,-0.00075949262126896,0.00075949893303225,-0.00075949055918639,0.00075950099511459,-0.00075949262126899,0.00075949893303236,-0.00075949055918641,0.00075950099511463,-0.00087280339999363,0.00087281186190899,-0.00087280339999331,0.00087281186190849,0.77567308772676,120135,2834,0.0065569426997801,0.0065569426997766,0.0028561122163537,29.315980655005,0.00014972784524004,0.00014972784524004,0.00014972784524004,1935251.1688318,0.016098526401832
33919200,0.99998937894089,0.016195040564336,0.0061509094901802,0.0061509094901768,0.0038932215839793,-0.0015816788948622,0.0015816788948651,1.3700757921838e-15,1.3674876359561e-15,-2.2879301053058e-15,5.3951293001503e-15,-0.0016899638266393,0.0016899638266396,-0.0016899638813218,0.0016899638813223,-0.0016899637966112,0.0016899637966165,-0.0016899639113409,0.0016899639113462,-0.0013386178048272,0.0013386178048323,-0.0013386197004748,0.0013386197004796,-3.9880546382566e-15,-1.1929063654338e-14,2.9757749080306e-09,-2.9758050095875e-09,-0.0015816788948722,0.0015816788948533,-0.0016899628154803,0.0016899647940253,-0.0016899648924919,0.0016899629139159,-0.0016899628154829,0.0016899647940226,-0.0016899648924945,0.0016899629139132,-0.0013386150263197,0.0013386208355462,-0.001338622479032,0.0013386166697337,-0.0016082427942996,0.0016082407640884,-0.0016082427943073,0.0016082407640799,2.5542999368474e-09,2.5542999506546e-09,-0.00068591271580993,0.00068591839173079,-4.3840666743864e-10,5.6077045834687e-09,-0.00076270377248088,0.00076270867921685,-0.00076270175498809,0.00076271069670935,-0.0007627037724809,0.00076270867921695,-0.00076270175498809,0.00076271069670939,-0.0008718173983605,0.00087182445100596,-0.00087181739836019,0.00087182445100545,0.76303060755973,120135,2834,0.0065679407756908,0.0065679407756874,0.002857465642157,30.069090008192,0.00015575272006554,0.00015575272006554,0.00015575272006554,1861189.0704403,0.016122260647865
34419200,0.99999150339455,0.016195078566301,0.0061509232025381,0.0061509232025348,0.0038932321612284,-0.0015840923514678,0.0015840923514707,1.3783108347266e-15,1.3754285698366e-15,-2.2812832495391e-15,5.4067760031751e-15,-0.0016926806178588,0.0016926806178592,-0.0016926808418101,0.0016926808418105,-0.0016926805890482,0.0016926805890535,-0.0016926808706116,0.001692680870617,-0.0013405105250825,0.0013405105250877,-0.001340512480381,0.0013405124803859,-3.9758785396398e-15,-1.1925303199364e-14,2.8089751205905e-09,-2.8090052050287e-09,-0.0015840923514778,0.0015840923514589,-0.0016926796716013,0.0016926815321099,-0.0016926817880788,0.0016926799275391,-0.0016926796716039,0.0016926815321072,-0.0016926817880814,0.0016926799275364,-0.0013405079176251,0.0013405134025083,-0.0013405150878883,0.0013405096029332,-0.0016106028425585,0.0016106009257795,-0.0016106028425662,0.001610600925771,1.8472985028357e-09,1.8472985160925e-09,-0.00068856934093387,0.000688573223103,-9.6121515044321e-10,4.7376461295452e-09,-0.00076457930092273,0.00076458277228178,-0.00076457740144028,0.00076458467176393,-0.00076457930092275,0.00076458277228187,-0.00076457740144028,0.00076458467176397,-0.00087495155590425,0.00087495699978083,-0.00087495155590396,0.00087495699978033,0.72790058071019,120135,2834,0.0065779367572467,0.0065779367572433,0.0028684967894355,31.478087854919,0.00016702470283936,0.00016702470283936,0.00016702470283936,1856842.122718,0.016153781510587
34919200,0.99999337331885,0.016195113408431,0.0061509357563724,0.006150935756369,0.0038932418956899,-0.0015876210121474,0.0015876210121502,1.3587231978213e-15,1.3614289975139e-15,-2.305282516378e-15,5.3720711810306e-15,-0.0016965863450177,0.0016965863450181,-0.0016965867512251,0.0016965867512255,-0.0016965863173501,0.0016965863173553,-0.0016965867788837,0.001696586778889,-0.0013434599845258,0.0013434599845308,-0.0013434620001552,0.00134346200016,-3.9723492356929e-15,-1.1911867488493e-14,2.5413091262716e-09,-2.5413392070706e-09,-0.0015876210121574,0.0015876210121385,-0.0016965854966067,0.0016965871724049,-0.0016965875996472,0.0016965859238179,-0.0016965854966093,0.0016965871724023,-0.0016965875996498,0.0016965859238152,-0.001343457646381,0.0013434626089207,-0.0013434643383499,0.0013434593757383,-0.0016141274433716,0.0016141257070361,-0.0016141274433793,0.0016141257070276,1.0866941298096e-09,1.086694138093e-09,-0.00069327777530115,0.00069327973151648,-1.4373694113493e-09,3.7120688109782e-09,-0.0007679408571274,0.0007679428323568,-0.00076793914286977,0.00076794454661417,-0.00076794085712741,0.00076794283235691,-0.00076793914286977,0.0007679445466142,-0.00088009382142887,0.00088009747772917,-0.00088009382142861,0.00088009747772873,0.75808686568768,120135,2834,0.0065925554671909,0.0065925554671874,0.0028880372509107,33.570811306869,0.00018376649045495,0.00018376649045495,0.00018376649045495,1868021.5883147,0.016203344865081
35419200,0.99999499004802,0.016195140172366,0.0061509454270617,0.0061509454270583,0.0038932493182455,-0.0015925080938972,0.0015925080939,1.3493117206296e-15,1.3497234727567e-15,-2.2827537928503e-15,5.3232491430986e-15,-0.0017011241560282,0.0017011241560284,-0.0017011246313725,0.0017011246313728,-0.0017011241283943,0.0017011241283995,-0.0017011246589973,0.0017011246590025,-0.0013489592829768,0.0013489592829818,-0.0013489613210356,0.0013489613210404,-3.9571144069888e-15,-1.1824421630492e-14,2.2993679951057e-09,-2.2993978272395e-09,-0.0015925080939071,0.0015925080938884,-0.0017011233884495,0.0017011249027649,-0.0017011253989619,0.0017011238846159,-0.001701123388452,0.0017011249027622,-0.0017011253989646,0.0017011238846133,-0.0013489571818902,0.0013489616704707,-0.0013489634221721,0.0013489589335201,-0.0016190622236893,0.0016190606488808,-0.001619062223697,0.0016190606488723,7.6636977016487e-10,7.6636977872344e-10,-0.00069786615706764,0.00069786730988093,-1.5145655614588e-09,3.1488791881982e-09,-0.00077347548244037,0.0007734769220397,-0.00077347393008535,0.00077347847439446,-0.00077347548244044,0.00077347692203987,-0.00077347393008531,0.00077347847439452,-0.00088407583038273,0.0008840786480494,-0.0008840758303824,0.00088407864804886,0.67379056419234,120135,2834,0.006612776929281,0.0066127769292776,0.0029071019641203,35.92649938496,0.00020261199507968,0.00020261199507968,0.00020261199507968,1830715.267478,0.016263821107137
35919200,0.99999629781403,0.016195163378898,0.0061509537820709,0.0061509537820675,0.0038932558147594,-0.0015944908422605,0.0015944908422634,1.3709581181706e-15,1.3663700230396e-15,-2.2706953376985e-15,5.3682477684215e-15,-0.0017039192807597,0.00170391928076,-0.0017039195679625,0.0017039195679629,-0.0017039192510352,0.0017039192510405,-0.0017039195976778,0.0017039195976831,-0.0013497056318831,0.0013497056318882,-0.0013497076082194,0.0013497076082242,-3.9748785701882e-15,-1.1875432824892e-14,2.1965292380829e-09,-2.1965592824158e-09,-0.0015944908422705,0.0015944908422516,-0.0017039185320485,0.0017039199893045,-0.0017039203166848,0.0017039188593978,-0.0017039185320511,0.0017039199893018,-0.0017039203166874,0.0017039188593951,-0.0013497036198793,0.0013497079024039,-0.0013497096202728,0.0013497053376765,-0.0016209433982052,0.0016209418879671,-0.0016209433982128,0.0016209418879586,1.5270466786531e-09,1.5270466939776e-09,-0.00070225364635625,0.00070225674876639,-6.775848078246e-10,3.7993700458301e-09,-0.00077502528061134,0.00077502846341119,-0.00077502378683839,0.00077502995718384,-0.00077502528061135,0.00077502846341129,-0.0007750237868384,0.00077502995718388,-0.00088952316192112,0.00088952753238985,-0.00088952316192083,0.00088952753238934,0.72183945217264,120135,2834,0.0066210090071724,0.006621009007169,0.0029253016561641,37.534304883827,0.00021547443907061,0.00021547443907061,0.00021547443907061,1881699.2499668,0.016299041488508
36419200,0.99999726238096,0.016195180074747,0.006150959806894,0.0061509598068906,0.003893260460962,-0.0015952501225381,0.0015952501225409,1.3167833025857e-15,1.3096658729595e-15,-2.2918711613798e-15,5.3468366578103e-15,-0.0017040300362371,0.0017040300362374,-0.0017040298855151,0.0017040298855154,-0.0017040300027999,0.0017040300028051,-0.0017040299189432,0.0017040299189485,-0.0013514915577556,0.0013514915577605,-0.0013514933890147,0.0013514933890194,-3.9646435887422e-15,-1.18680271458e-14,2.4191657400485e-09,-2.4191956794789e-09,-0.0015952501225481,0.0015952501225293,-0.0017040291852475,0.0017040308115603,-0.0017040307365156,0.0017040291101721,-0.0017040291852501,0.0017040308115576,-0.0017040307365182,0.0017040291101694,-0.0013514893051427,0.0013514940161897,-0.0013514956416772,0.0013514909305586,-0.0016218346081217,0.0016218329427482,-0.0016218346081292,0.0016218329427396,3.3223780976863e-09,3.3223781155997e-09,-0.00070150484632772,0.00070151250888311,8.4451925845202e-10,5.8047816525126e-09,-0.00077632220103621,0.00077632918974136,-0.00077632053922546,0.00077633085155166,-0.00077632220103624,0.00077632918974148,-0.00077632053922553,0.00077633085155169,-0.00088780741939903,0.00088781574083694,-0.00088780741939864,0.00088781574083629,0.70447270805609,120135,2834,0.0066241347723548,0.0066241347723514,0.0029222168349381,37.488426462046,0.00021510741169637,0.00021510741169637,0.00021510741169637,1837568.3890172,0.01630226595541
36919200,0.99999795728297,0.01619519112979,0.0061509637968176,0.0061509637968142,0.0038932635361577,-0.0015938943084004,0.0015938943084032,1.326135958045e-15,1.3193714588135e-15,-2.3035178644046e-15,5.3563657784669e-15,-0.0017028700950203,0.0017028700950206,-0.0017028697893509,0.0017028697893513,-0.0017028700607102,0.0017028700607154,-0.001702869823652,0.0017028698236573,-0.0013497731183939,0.0013497731183989,-0.0013497749015394,0.0013497749015442,-4.0077010968943e-15,-1.1930917687772e-14,2.7095644367169e-09,-2.7095945923628e-09,-0.0015938943084104,0.0015938943083914,-0.0017028691408803,0.0017028709654006,-0.0017028707435021,0.0017028689189506,-0.0017028691408829,0.0017028709653979,-0.0017028707435047,0.0017028689189479,-0.0013497705761055,0.0013497758546862,-0.0013497774438777,0.001349772165225,-0.0016204418326571,0.0016204399721055,-0.0016204418326648,0.0016204399720969,3.984997557845e-09,3.9849975755301e-09,-0.0007000381710395,0.00070004750549833,1.2032853939609e-09,6.7570246867868e-09,-0.00077440663991513,0.00077441489776983,-0.00077440477887317,0.00077441675881153,-0.00077440663991516,0.00077441489776996,-0.00077440477887321,0.00077441675881159,-0.00088671280000543,0.00088672271707199,-0.00088671280000507,0.00088672271707143,0.64727478642577,120135,2834,0.006618525659058,0.0066185256590546,0.0029161281591676,36.862413180134,0.00021009930544107,0.00021009930544107,0.00021009930544107,1845106.405534,0.016284675542226
37419200,0.99999849356397,0.016195199758077,0.0061509669081358,0.0061509669081324,0.0038932659418091,-0.0015947896830314,0.0015947896830342,1.3669582403641e-15,1.3632524712198e-15,-2.2789303802412e-15,5.3755416632451e-15,-0.0017042238919593,0.0017042238919596,-0.0017042239632323,0.0017042239632326,-0.0017042238613734,0.0017042238613787,-0.001704223993809,0.0017042239938143,-0.0013499760375679,0.001349976037573,-0.0013499779474163,0.0013499779474212,-3.9858194124235e-15,-1.1899174631765e-14,2.7129921547926e-09,-2.7130222265664e-09,-0.0015947896830414,0.0015947896830225,-0.0017042229646396,0.0017042247708656,-0.0017042248905631,0.001704223084306,-0.0017042229646422,0.0017042247708629,-0.0017042248905657,0.0017042230843034,-0.0013499735140676,0.0013499788071344,-0.0013499804709665,0.0013499751778279,-0.0016212986332258,0.0016212967770787,-0.0016212986332335,0.0016212967770702,2.4621490431835e-09,2.4621490575364e-09,-0.00070249713552688,0.00070250258889206,-2.7293376146167e-10,5.2501241577943e-09,-0.00077514803026284,0.00077515293133187,-0.0007751461863474,0.00077515477524706,-0.00077514803026289,0.00077515293133198,-0.0007751461863474,0.00077515477524711,-0.00088975632368612,0.00088976301168018,-0.0008897563236858,0.00088976301167969,0.65462458225499,120135,2834,0.0066222472842173,0.0066222472842139,0.0029263145532305,37.672998423584,0.00021658398738867,0.00021658398738867,0.00021658398738867,1879857.9458341,0.016302587863227
37919200,0.99999888911052,0.016195205692718,0.0061509690529241,0.0061509690529207,0.0038932675868727,-0.0015951097842652,0.0015951097842681,1.4047217925958e-15,1.4003101626622e-15,-2.2652837383132e-15,5.3857178229586e-15,-0.0017042641423918,0.0017042641423922,-0.0017042640043608,0.0017042640043612,-0.0017042641100691,0.0017042641100744,-0.0017042640366744,0.0017042640366797,-0.0013507634109803,0.0013507634109854,-0.0013507652511257,0.0013507652511306,-4.0052305841314e-15,-1.1919202627461e-14,2.8430137653158e-09,-2.8430438899938e-09,-0.0015951097842752,0.0015951097842563,-0.0017042631586691,0.001704265061153,-0.0017042649880947,0.0017042630855797,-0.0017042631586717,0.0017042650611503,-0.0017042649880973,0.001704263085577,-0.0013507607497263,0.0013507662940161,-0.0013507679124295,0.0013507623680679,-0.0016216823915783,0.001621680445657,-0.001621682391586,0.0016216804456485,3.3210358919247e-09,3.3210359072503e-09,-0.00070245754742096,0.00070246518388618,4.3210401533328e-10,6.233614830185e-09,-0.00077587255358747,0.00077587926030959,-0.00077587061361157,0.0007758812002852,-0.00077587255358746,0.00077587926030968,-0.00077587061361156,0.00077588120028523,-0.00088926314298363,0.00088927173670507,-0.00088926314298343,0.00088927173670459,0.61069305856341,120135,2834,0.0066235663649837,0.0066235663649803,0.0029261578031562,37.676453602705,0.00021661162882164,0.00021661162882164,0.00021661162882164,1866799.366551,0.016305112201562
38419200,0.99999917508082,0.016195210593026,0.0061509708176537,0.0061509708176503,0.0038932689577216,-0.0015937619966024,0.0015937619966053,1.3793696259106e-15,1.3742521351877e-15,-2.2832243667099e-15,5.3774239586834e-15,-0.0017032234572339,0.0017032234572342,-0.0017032231902264,0.0017032231902268,-0.0017032234240844,0.0017032234240897,-0.0017032232233668,0.0017032232233721,-0.0013489461930979,0.001348946193103,-0.0013489479969048,0.0013489479969097,-4.0048776537367e-15,-1.1924694991842e-14,3.0597015173318e-09,-3.0597316348871e-09,-0.0015937619966124,0.0015937619965935,-0.0017032223953719,0.0017032244465953,-0.0017032242520996,0.001703222200845,-0.0017032223953745,0.0017032244465926,-0.0017032242521022,0.0017032222008424,-0.001348943314884,0.0013489492823597,-0.0013489508751685,0.0013489449076209,-0.0016202835725205,0.0016202814806915,-0.0016202835725282,0.001620281480683,3.8665068314733e-09,3.8665068471346e-09,-0.00070198707537974,0.0007019960880452,7.4911231959241e-10,6.9944668425616e-09,-0.00077430972818596,0.00077431750600973,-0.00077430763893393,0.00077431959526148,-0.00077430972818597,0.00077431750600983,-0.00077430763893394,0.00077431959526151,-0.00088923203119017,0.00088924192222898,-0.00088923203118988,0.00088924192222851,0.69725492786578,120135,2834,0.0066179970341399,0.0066179970341364,0.0029241946053298,37.198573733157,0.00021278858986525,0.00021278858986525,0.00021278858986525,1897011.0480857,0.01629179386983
38880000,0.99999937477624,0.016195214146029,0.0061509720985664,0.006150972098563,0.0038932699488992,-0.001594994333835,0.0015949943338379,1.3774873304723e-15,1.3768402914154e-15,-2.2813420712716e-15,5.3876001183969e-15,-0.0017034823714805,0.0017034823714808,-0.0017034822345186,0.001703482234519,-0.0017034823400024,0.0017034823400076,-0.0017034822659877,0.001703482265993,-0.0013517096331108,0.0013517096331159,-0.0013517114655707,0.0013517114655755,-4.0098775009948e-15,-1.1944452660317e-14,3.1467249904543e-09,-3.1467551340627e-09,-0.0015949943338451,0.0015949943338261,-0.0017034812924895,0.0017034833930383,-0.0017034833135207,0.0017034812129409,-0.0017034812924921,0.0017034833930356,-0.0017034833135234,0.0017034812129382,-0.0013517066785774,0.001351712819673,-0.001351714420154,0.0013517082789865,-0.0016216036625952,0.0016216015156394,-0.0016216036626029,0.0016216015156308,3.3675475294102e-09,3.3675475421753e-09,-0.00070075820033551,0.00070076593445743,1.8529725463798e-10,6.5861893126323e-09,-0.00077633630325706,0.00077634288144956,-0.00077633416492444,0.0007763450197819,-0.00077633630325708,0.00077634288144967,-0.00077633416492445,0.00077634501978194,-0.00088667740162552,0.00088668628917943,-0.00088667740162522,0.00088668628917895,0.72416034322609,120135,2834,0.0066230693932459,0.0066230693932425,0.0029191204572758,37.19369395726,0.00021274955165808,0.00021274955165808,0.00021274955165808,1824516.3940619,0.016296955850618
