time,ASR_ext,ASR_strain,ASR_strain_xx,ASR_strain_yy,ASR_strain_zz,disp_x_101,disp_x_102,disp_x_103,disp_x_104,disp_x_105,disp_x_106,disp_x_p1_neg,disp_x_p1_pos,disp_x_p2_neg,disp_x_p2_pos,disp_x_p3_neg,disp_x_p3_pos,disp_x_p4_neg,disp_x_p4_pos,disp_x_p5_neg,disp_x_p5_pos,disp_x_p6_neg,disp_x_p6_pos,disp_y_101,disp_y_102,disp_y_103,disp_y_104,disp_y_105,disp_y_106,disp_y_p1_neg,disp_y_p1_pos,disp_y_p2_neg,disp_y_p2_pos,disp_y_p3_neg,disp_y_p3_pos,disp_y_p4_neg,disp_y_p4_pos,disp_y_p5_neg,disp_y_p5_pos,disp_y_p6_neg,disp_y_p6_pos,disp_y_p7_neg,disp_y_p7_pos,disp_y_p8_neg,disp_y_p8_pos,disp_z_101,disp_z_102,disp_z_103,disp_z_104,disp_z_105,disp_z_106,disp_z_p1_neg,disp_z_p1_pos,disp_z_p2_neg,disp_z_p2_pos,disp_z_p3_neg,disp_z_p3_pos,disp_z_p4_neg,disp_z_p4_pos,disp_z_p5_neg,disp_z_p5_pos,disp_z_p6_neg,disp_z_p6_pos,humidity,ndof,nelem,strain_xx,strain_yy,strain_zz,temp,thermal_strain_xx,thermal_strain_yy,thermal_strain_zz,vonmises,vstrain
2419200,0,0,0,0,0,0,0,0,0,0,0,0,0,0,0,0,0,0,0,0,0,0,0,0,0,0,0,0,0,0,0,0,0,0,0,0,0,0,0,0,0,0,0,0,0,0,0,0,0,0,0,0,0,0,0,0,0,0,0,0,0,0,0,0,0,0,0,0,0,0,0,0,0,0,0
2619200,0.021290183701111,0.00043645891220638,0.00014548630406879,0.00014548630406879,0.00014548630406879,-4.1319341834707e-05,4.1319707393716e-05,1.8542869578982e-10,1.8516032849377e-10,-3.6879455152813e-10,7.3328208367135e-10,-4.1130370672226e-05,4.1130377501522e-05,-4.1130366888914e-05,4.1130370459176e-05,-4.1130015043172e-05,4.1130742790156e-05,-4.1130015602738e-05,4.1130741973899e-05,-4.0987735589973e-05,4.0988477740993e-05,-4.0987714221086e-05,4.0988458941539e-05,7.7389879074854e-10,-1.6132416688823e-09,-1.5365957521119e-09,7.4512160431191e-10,-4.1319921316275e-05,4.1319127912569e-05,-4.1130763321291e-05,4.1130018970609e-05,-4.1130036787191e-05,4.1130784503998e-05,-4.1131520617723e-05,4.1129217633552e-05,-4.1130793177355e-05,4.1129984135145e-05,-4.098997399097e-05,4.0986148212812e-05,-4.0987775397517e-05,4.0988426345005e-05,-4.1755274724332e-05,4.1757537697306e-05,-4.1757635134723e-05,4.1755188685994e-05,-2.5498546729508e-10,-2.5444420725155e-10,-3.7667315128848e-05,3.7666795642693e-05,1.00765958912e-09,-1.5747995731382e-09,-3.7923315992091e-05,3.7923664591791e-05,-3.7924170835284e-05,3.792280577892e-05,-3.7923312818725e-05,3.7923660543048e-05,-3.7924162623505e-05,3.7922800295278e-05,-3.9017253432149e-05,3.90158944165e-05,-3.9017280941557e-05,3.9015916413141e-05,0.81993057434439,125803,2834,0.0001721498204539,0.00017214982045488,0.00015693381843164,32.689971804501,2.3919774436005e-05,2.3919774436005e-05,2.3919774436005e-05,571761.47132338,0.0005013591843134
2819200,0.04323573553077,0.00088127806183964,0.00029689205183847,0.00029689203308615,0.00028749397691502,-7.872322550455e-05,7.8724128675585e-05,4.5439514512479e-10,4.4527630691594e-10,-9.6556956280677e-10,1.9839917788101e-09,-7.8564097066359e-05,7.8563949374471e-05,-7.8564087123718e-05,7.8563947665769e-05,-7.8563123396205e-05,7.856495806536e-05,-7.8563115638585e-05,7.8564958237158e-05,-7.7649228617839e-05,7.7651115342903e-05,-7.7649295530795e-05,7.7651131517326e-05,1.1928809030131e-09,-2.085224269299e-09,-2.0064995870322e-09,1.110802867525e-09,-7.8724103958253e-05,7.8723242354917e-05,-7.8564331433909e-05,7.8563522387092e-05,-7.8563338899457e-05,7.8564566998875e-05,-7.8565373303119e-05,7.8562476944184e-05,-7.8564365694896e-05,7.8563506159709e-05,-7.7652756177041e-05,7.7647658215549e-05,-7.7649747472627e-05,7.7650768956773e-05,-7.9563381978164e-05,7.9566748766001e-05,-7.9566389852913e-05,7.956332771819e-05,-2.5948247270787e-10,-2.6391797704579e-10,-6.9600037292996e-05,6.9599528716529e-05,1.4148094879525e-09,-1.9738178186471e-09,-7.0503303592226e-05,7.0503952302781e-05,-7.0504421106874e-05,7.0502817908646e-05,-7.0503319568949e-05,7.0503951491384e-05,-7.0504429026051e-05,7.0502815841451e-05,-7.2715586259642e-05,7.2713937721736e-05,-7.2715601695215e-05,7.2713905404718e-05,0.82138593437985,125803,2834,0.00032796131924533,0.00032796130285928,0.00028995756170118,32.940538404251,2.5924307234011e-05,2.5924307234011e-05,2.5924307234011e-05,956608.26908463,0.00094632803021813
3019200,0.065294254453837,0.0013236901601248,0.00045031126413803,0.00045031138552444,0.00042306751046229,-0.00011595868187987,0.00011595969229408,5.1143480111715e-10,4.96924202792e-10,-1.385929534407e-09,2.5153286667446e-09,-0.00011593819642887,0.00011593784634425,-0.00011593818569858,0.00011593783923507,-0.00011593692677128,0.00011593916247194,-0.00011593691556133,0.00011593916285257,-0.00011373884253943,0.00011374117874616,-0.00011373894133463,0.0001137411932117,1.5449703212466e-09,-2.5554007447606e-09,-2.3125335593939e-09,1.2950196437668e-09,-0.00011595970558802,0.00011595872806533,-0.00011593836596973,0.00011593756411674,-0.0001159372092707,0.0001159387571008,-0.00011593966882173,0.00011593622402999,-0.00011593850557409,0.00011593741837763,-0.0001137430893317,0.00011373709827833,-0.00011373961013327,0.00011374069998186,-0.00011726321575245,0.00011726745930441,-0.00011726701369598,0.00011726318145537,-2.5497935049028e-10,-2.6076450591158e-10,-9.9424247436093e-05,9.9423754721854e-05,1.6600941944285e-09,-2.2121609431341e-09,-0.00010114085589467,0.00010114169563562,-0.00010114213644437,0.000101140396434,-0.00010114087591577,0.000101141690355,-0.00010114214947747,0.00010114039447335,-0.00010475949489542,0.0001047576912374,-0.0001047595273694,0.00010475766543155,0.82013449000393,125803,2834,0.00048304599915223,0.00048304612300318,0.00041418254119657,32.856891920375,2.5255135362998e-05,2.5255135362998e-05,2.5255135362998e-05,1295976.4508774,0.0013812285928517
3219200,0.086691598999266,0.0017426946860878,0.00059798958605841,0.00059798975943541,0.00054671534059397,-0.00015085584467337,0.00015085682517644,5.019139748873e-10,4.7869499606411e-10,-1.6227451383823e-09,2.7042660155075e-09,-0.0001512381918337,0.0001512376902309,-0.00015123819067745,0.00015123768269763,-0.00015123679035951,0.00015123914526534,-0.00015123678640636,0.00015123914037906,-0.00014700917977772,0.00014701163796829,-0.00014700927964767,0.00014701164518892,1.7502238761561e-09,-2.7465852438611e-09,-2.3692721937664e-09,1.3672115676963e-09,-0.00015085685803825,0.00015085589610293,-0.0001512382693972,0.00015123757384373,-0.00015123707204365,0.00015123881174088,-0.00015123969940568,0.00015123609536559,-0.00015123849318351,0.00015123732981146,-0.00014701361736141,0.00014700737825819,-0.00014701000767677,0.00014701110650715,-0.00015247356381202,0.00015247825841158,-0.00015247777456276,0.0001524736030364,-2.2379348223915e-10,-2.3395274263592e-10,-0.00012564313388456,0.00012564269785917,1.7599365139417e-09,-2.2579937279165e-09,-0.00012842067969623,0.00012842162382767,-0.00012842201078211,0.00012842027770299,-0.0001284206973175,0.00012842161593473,-0.00012842202148758,0.00012842027322425,-0.0001332478963852,0.00013324609811728,-0.0001332479305591,0.00013324608417134,0.8067603238218,125803,2834,0.00062836940628076,0.00062836958177012,0.00052337896810286,32.291573860996,2.0732590887971e-05,2.0732590887971e-05,2.0732590887971e-05,1554513.1902543,0.0017817048749429
3419200,0.10552675574717,0.0020996398177808,0.00072566710851472,0.00072566728841542,0.00064830542085068,-0.00017828941995529,0.00017829032783701,4.6203488561463e-10,4.4614778432967e-10,-1.7247901948876e-09,2.7345734250413e-09,-0.00017936082974387,0.00017936021070963,-0.0001793608288848,0.00017936020755473,-0.00017935938599178,0.00017936170884005,-0.00017935938055197,0.00017936170635069,-0.00017246786590342,0.00017247028771453,-0.00017246796310562,0.00017247030521806,1.8685383331792e-09,-2.8225990563713e-09,-2.1538951845575e-09,1.1908800496815e-09,-0.00017829037773041,0.00017828945751904,-0.00017936073573264,0.00017936027615781,-0.00017935966138692,0.00017936138018387,-0.00017936222962641,0.0001793587309749,-0.0001793611479687,0.0001793598329123,-0.00017247211036497,0.00017246622589877,-0.00017246887842423,0.00017246956247365,-0.00018000425001357,0.00018000905354447,-0.00018000864827569,0.00018000419754714,-1.6424347244598e-10,-1.6169991698736e-10,-0.00014446900723105,0.00014446870568579,1.6147302806516e-09,-1.9716018584198e-09,-0.00014838617130124,0.00014838710159448,-0.00014838735989837,0.00014838589886432,-0.00014838618623149,0.00014838709924851,-0.00014838736685087,0.0001483858982217,-0.00015400287729461,0.00015400136558138,-0.00015400292258675,0.00015400133785992,0.78590062567527,125803,2834,0.00074259674782494,0.00074259692988138,0.00060177929162621,30.39282399733,5.5425919786442e-06,5.5425919786442e-06,5.5425919786442e-06,1726836.7923062,0.0020891542888296
3619200,0.12355155605479,0.0024320693206744,0.00084557902650134,0.00084557921003197,0.00074091108414112,-0.00020615159629883,0.00020615255061292,5.130920776907e-10,4.4934980842915e-10,-1.7540289040695e-09,2.7653734637316e-09,-0.0002081624396537,0.00020816189718822,-0.00020816246120217,0.00020816186725515,-0.00020816098483525,0.00020816341565999,-0.00020816099522591,0.00020816338684096,-0.00019790881146706,0.00019791136860251,-0.00019790891945089,0.00019791131245106,1.7595790387005e-09,-2.6468235802142e-09,-2.1086981417376e-09,1.2289592713649e-09,-0.00020615254480201,0.00020615169188877,-0.00020816245023446,0.0002081619655842,-0.00020816137827348,0.00020816306086118,-0.00020816385272395,0.00020816050514467,-0.00020816276917262,0.00020816160107185,-0.00019791300083991,0.00019790732787329,-0.00019790976770761,0.00019791064794054,-0.00020796863456067,0.00020797321912072,-0.00020797285823284,0.00020796874601033,-1.4455626055962e-10,-1.841276443798e-10,-0.00016337657306312,0.00016337625575552,1.6889095403313e-09,-2.0662391398337e-09,-0.00016834236600605,0.00016834334369591,-0.00016834361994597,0.00016834209146428,-0.00016834239067009,0.00016834332298093,-0.00016834363206054,0.00016834207292702,-0.00017486510596758,0.00017486348702556,-0.00017486510694086,0.00017486353636479,0.77012034755604,125803,2834,0.00085859529556891,0.00085859548243776,0.00068051451822943,29.68374944234,-1.3000446127789e-07,-1.3000446127789e-07,-1.3000446127789e-07,1925226.9811638,0.002400584679876
3819200,0.14110517736135,0.0027535390584135,0.00096222347405024,0.00096222367810338,0.00082909190625986,-0.00023371590480744,0.00023371684082232,4.9341471819552e-10,4.4606833345537e-10,-1.6404286275829e-09,2.644096000491e-09,-0.00023678722351848,0.00023678672402623,-0.00023678725587509,0.00023678670728014,-0.00023678583361213,0.00023678817527448,-0.00023678584632156,0.0002367881412995,-0.00022291745221827,0.00022291988788489,-0.00022291755345362,0.00022291985503004,1.7163078157317e-09,-2.5853502659921e-09,-2.1879902527464e-09,1.3202975596412e-09,-0.00023371684057859,0.00023371600499852,-0.0002367872763183,0.00023678671501028,-0.00023678617616335,0.00023678789036459,-0.00023678865085282,0.00023678531534342,-0.00023678750677884,0.00023678644916441,-0.00022292165851083,0.00022291585568552,-0.00022291825755515,0.00022291934401533,-0.00023572317289943,0.00023572772096486,-0.00023572723313913,0.00023572331044608,-1.5710878689345e-10,-1.7470303580247e-10,-0.00018175414693531,0.00018175382617888,1.7469477941407e-09,-2.1278929346832e-09,-0.00018765579923411,0.0001876568177967,-0.00018765709957186,0.00018765552889284,-0.00018765583372328,0.00018765680567042,-0.00018765710561944,0.00018765549634616,-0.00019537403252235,0.00019537238471476,-0.00019537406404495,0.00019537241366564,0.77140879487888,125803,2834,0.00097333985984864,0.00097334006785393,0.00075703846170915,29.234346504518,-3.7252279638549e-06,-3.7252279638549e-06,-3.7252279638549e-06,2106924.2037067,0.0027073800107252
4019200,0.16046629134331,0.0031068178438557,0.0010911210021758,0.00109112121454,0.00092457562713984,-0.00026768061279626,0.00026768146759301,4.4852328668618e-10,4.0915186073563e-10,-1.5336083513176e-09,2.4568084772463e-09,-0.0002719607995958,0.00027196029347925,-0.00027196080973421,0.00027196027912017,-0.00027195949556282,0.00027196165066114,-0.00027195949521105,0.00027196163550082,-0.00025394398844607,0.00025394623937963,-0.00025394408659321,0.00025394621157553,1.6370854808682e-09,-2.4192731505505e-09,-2.4810554338079e-09,1.6973833747602e-09,-0.00026768146791411,0.0002676807165831,-0.00027196095167296,0.00027196016661934,-0.00027195962543053,0.0002719615553759,-0.00027196223592622,0.00027195884894414,-0.00027196088279543,0.00027196022046862,-0.00025394834430244,0.00025394204675211,-0.00025394429908256,0.00025394620256608,-0.00026998516868858,0.00026998977563319,-0.00026998896930298,0.00026998558480619,-2.2337312859618e-10,-2.2740113525729e-10,-0.00020488159545406,0.00020488115689061,1.9931645576381e-09,-2.5052603381407e-09,-0.00021183972071589,0.00021184082389671,-0.00021184122411002,0.00021183932683092,-0.00021183974528029,0.00021184081838235,-0.00021184122446821,0.00021183930667469,-0.00022111352302371,0.00022111156735969,-0.00022111356906375,0.00022111157413314,0.77300335342865,125803,2834,0.0011147092476339,0.0011147094642646,0.00085333366880694,30.535392820061,6.6831425604846e-06,6.6831425604846e-06,6.6831425604846e-06,2326053.8428325,0.0030875133224883
4219200,0.18164970087008,0.0034924786061699,0.0012329715399204,0.0012329717626363,0.0010265353036132,-0.00030469605157489,0.00030469682841142,4.1047855544131e-10,3.6705434316824e-10,-1.4801085949778e-09,2.32893425976e-09,-0.00031035882113437,0.00031035829578871,-0.00031035883035523,0.00031035827893915,-0.0003103575748805,0.00031035959119878,-0.00031035757507968,0.0003103595749092,-0.00028761649089503,0.00028761860157494,-0.00028761659536798,0.00028761857146507,1.5913835776623e-09,-2.2874412565687e-09,-2.6691702260203e-09,1.9666461264248e-09,-0.00030469682866452,0.00030469616041578,-0.00031035901886773,0.00031035810937687,-0.00031035754758937,0.0003103596523646,-0.00031036024649039,0.00031035685053849,-0.00031035874743065,0.00031035837529849,-0.0002876209270245,0.0002876143173499,-0.00028761644303664,0.00028761893178439,-0.00030737989969775,0.00030738456641271,-0.00030738351091147,0.00030738054116957,-2.6149287455563e-10,-2.6386425784863e-10,-0.00022933269641829,0.00022933218366729,2.1774683764116e-09,-2.7742338761736e-09,-0.0002375908000616,0.00023759198172589,-0.00023759245282327,0.00023759033495954,-0.00023759082525765,0.0002375919780806,-0.00023759245273699,0.00023759031520122,-0.00024858622519715,0.00024858404799869,-0.00024858627115047,0.00024858404533194,0.77489565058847,125803,2834,0.0012687528970059,0.0012687531239737,0.00095513354391833,31.778499802357,1.6627998418857e-05,1.6627998418857e-05,1.6627998418857e-05,2537710.0403216,0.0034987518668205
4419200,0.20317120341518,0.0038835433239275,0.001378024754888,0.0013780249813968,0.0011274935876427,-0.00034047630410666,0.00034047713331016,5.4570397741219e-10,2.780690889155e-10,-1.5446823655876e-09,2.4750725518207e-09,-0.00034758856057833,0.00034758808769419,-0.00034758864807371,0.00034758799136657,-0.00034758725501074,0.0003475894604079,-0.00034758732501281,0.00034758934867142,-0.00031988009504993,0.00031988254358051,-0.00031988044832254,0.00031988227749198,1.5492799942802e-09,-2.1608177464416e-09,-2.4561212706917e-09,1.8270008444362e-09,-0.00034047706552841,0.00034047648209372,-0.00034758867703924,0.00034758792435524,-0.00034758732773747,0.000347589355879,-0.00034758986674076,0.00034758673693703,-0.00034758846447514,0.00034758811754963,-0.00031988447985214,0.00031987834021932,-0.00031988034029436,0.00031988258118312,-0.00034359657453341,0.00034360105025058,-0.0003435999649059,0.00034359712635471,-1.5555741036296e-10,-3.7616160568292e-10,-0.00025166521783263,0.00025166470416183,2.2240462844784e-09,-2.8205801834188e-09,-0.00026143876260159,0.00026144005592401,-0.00026144045453434,0.00026143838436576,-0.00026143887980194,0.00026143998388298,-0.0002614405348549,0.00026143827925367,-0.00027411639924822,0.00027411395009423,-0.00027411621356313,0.00027411415606096,0.77613009961901,125803,2834,0.0014176326865864,0.0014176329158194,0.0010481089425391,31.980513802832,1.8244110422653e-05,1.8244110422653e-05,1.8244110422653e-05,2703746.0798469,0.0038909324924348
4619200,0.2262377633781,0.0043021516462817,0.0015343622075515,0.0015343624107617,0.0012334270279685,-0.00038062653520767,0.00038062729474318,4.6898149720189e-10,2.945713856199e-10,-1.522671401728e-09,2.3451116065237e-09,-0.00038927598950294,0.0003892754618436,-0.00038927603846018,0.00038927539297118,-0.00038927471019199,0.00038927679630767,-0.00038927475168632,0.00038927672849252,-0.00035610574584251,0.00035610800889733,-0.00035610596810141,0.00035610782596709,1.5690700639719e-09,-2.1609053153644e-09,-2.5780762684718e-09,1.9817232931567e-09,-0.00038062724768725,0.0003806266833932,-0.00038927615740632,0.00038927531163307,-0.00038927471011773,0.00038927682078515,-0.00038927731956957,0.00038927412051618,-0.00038927584437602,0.00038927561025448,-0.00035611012865623,0.00035610377179069,-0.00035610570911029,0.00035610829012499,-0.00038430510465358,0.0003843096974683,-0.00038430859012514,0.00038430584108856,-1.9640058691697e-10,-3.2028682944251e-10,-0.00027656086974048,0.00027656036389852,2.2651049947599e-09,-2.8618641555255e-09,-0.00028809735372063,0.00028809864875664,-0.00028809907416276,0.00028809694728646,-0.00028809742809067,0.00028809860425455,-0.0002880991165831,0.00028809687802586,-0.00030265662439042,0.00030265426122875,-0.00030265653799385,0.00030265439885871,0.77694609290392,125803,2834,0.0015846679411258,0.0015846681514456,0.0011517490440524,33.010905941228,2.6487247529824e-05,2.6487247529824e-05,2.6487247529824e-05,2880642.3077444,0.0043304449510561
4819200,0.25160212907836,0.0047617660238204,0.0017073263530594,0.0017073265779634,0.0013471130927976,-0.00042570460836517,0.00042570532541977,4.3499588617427e-10,2.8545944589517e-10,-1.4869313820611e-09,2.2645980736716e-09,-0.00043603796891488,0.00043603743388012,-0.00043603801510437,0.00043603736936437,-0.00043603672906495,0.00043603872785911,-0.00043603676651872,0.00043603866327854,-0.00039672418430893,0.00039672634406151,-0.00039672438549251,0.00039672618646142,1.5517342193936e-09,-2.1048952141845e-09,-2.7219002766761e-09,2.1637131435505e-09,-0.0004257052849799,0.00042570475843489,-0.00043603817967553,0.00043603724507007,-0.00043603663385745,0.00043603886273328,-0.00043603932093375,0.00043603607733987,-0.00043603774305786,0.00043603767158456,-0.00039672864966071,0.00039672203425175,-0.00039672391964737,0.00039672687919493,-0.00043007192657291,0.00043007658807082,-0.00043007533358882,0.00043007280464746,-2.224972525747e-10,-3.1741072304088e-10,-0.00030399471876413,0.00030399418938523,2.3884224978496e-09,-3.0133897323564e-09,-0.0003176464069673,0.00031764776084011,-0.00031764821792862,0.0003176459681918,-0.00031764647196778,0.00031764772585957,-0.00031764825153939,0.00031764590922085,-0.00033425866166616,0.00033425621596493,-0.00033425860623728,0.00033425632420084,0.77793123130385,125803,2834,0.0017721692788009,0.0017721695067547,0.0012659493336583,34.498096290658,3.8384770325264e-05,3.8384770325264e-05,3.8384770325264e-05,3063639.8959822,0.0048218900590101
5019200,0.279027395881,0.005256367595719,0.0018949221158403,0.0018949223506051,0.0014665231292736,-0.00047399472737822,0.00047399543006002,4.3959971419225e-10,2.6170147568485e-10,-1.4713447760006e-09,2.2546643658895e-09,-0.0004861639973081,0.00048616345560125,-0.00048616404940556,0.00048616338125862,-0.00048616276628391,0.00048616474023684,-0.00048616281037839,0.00048616466699367,-0.0004400927580505,0.00044009491545443,-0.00044009300713826,0.00044009472987457,1.538979284151e-09,-2.0649963695103e-09,-2.7771436894904e-09,2.2392089601629e-09,-0.00047399538545773,0.00047399488520234,-0.00048616420183982,0.0004861632386872,-0.00048616261388552,0.0004861648978201,-0.00048616532864305,0.00048616208853534,-0.00048616370888667,0.000486163724939,-0.00044009727667493,0.00044009056035954,-0.00044009242390461,0.00044009553315942,-0.00047911144190314,0.00047911612442358,-0.00047911475618976,0.00047911235021577,-2.2451718532848e-10,-3.4223972156143e-10,-0.00033239138832269,0.00033239083700014,2.4594327808238e-09,-3.1084548746004e-09,-0.00034855305175037,0.0003485544510367,-0.00034855491753832,0.00034855260172153,-0.00034855312945472,0.00034855440920181,-0.00034855496278235,0.00034855253608537,-0.0003672059623611,0.00036720341643875,-0.00036720587837959,0.00036720352640818,0.77678229396148,125803,2834,0.0019729892343834,0.0019729894697499,0.0013841535399073,35.808085936226,4.8864687489812e-05,4.8864687489812e-05,4.8864687489812e-05,3232991.0298717,0.005344381091442
5219200,0.30787993901587,0.0057762464874206,0.0020934061345293,0.0020934063534899,0.0015894339994014,-0.00052421979908955,0.00052422051677242,4.6814179704533e-10,2.4142650693888e-10,-1.4693534394081e-09,2.3062087972719e-09,-0.00053833007134001,0.0005383295218225,-0.00053833013439286,0.00053832943335344,-0.00053832882204839,0.00053833082658694,-0.00053832887833382,0.000538330738907,-0.00048502491824135,0.00048502714176677,-0.00048502524925468,0.00048502691085325,1.5454415691885e-09,-2.0696699482273e-09,-2.736199946102e-09,2.1891500576633e-09,-0.00052422046037247,0.00052421996212003,-0.00053833021365496,0.00053832929083738,-0.00053832865357941,0.00053833091703105,-0.0005383313468149,0.00053832814426727,-0.00053832975605716,0.00053832974731294,-0.00048502944138981,0.00048502278591006,-0.00048502468367298,0.00048502766669509,-0.00053021595385195,0.00053022062086814,-0.00053021920706489,0.00053021676479907,-2.0629446700479e-10,-3.6758730975413e-10,-0.00036091577177446,0.00036091522256838,2.4491325268994e-09,-3.0938339375422e-09,-0.00037988411858486,0.00037988553361793,-0.00037988597541884,0.00037988368918083,-0.00037988422035251,0.00037988547958182,-0.00037988604302935,0.00037988361088275,-0.0004006670977066,0.0004006645134925,-0.00040066696120896,0.00040066463258917,0.7785640028032,125803,2834,0.0021818095315812,0.0021818097531775,0.0015028876475863,36.761265250451,5.6490122003608e-05,5.6490122003608e-05,5.6490122003608e-05,3378113.6506863,0.0058837726802473
5419200,0.33783504390978,0.0063080928765279,0.0022977601646345,0.0022977603382708,0.0017125723736226,-0.0005756408507663,0.00057564157523571,4.7265857601671e-10,2.4562841860277e-10,-1.4847104723789e-09,2.3275360737824e-09,-0.00059186766451491,0.00059186711168665,-0.0005918677312937,0.00059186702332879,-0.00059186640039131,0.00059186843139126,-0.00059186646023095,0.00059186834130338,-0.00053092497689698,0.0005309272164748,-0.00053092530341879,0.00053092698757529,1.5639714510398e-09,-2.0988628803097e-09,-2.6815315624853e-09,2.123544673916e-09,-0.00057564151135954,0.00057564100277467,-0.00059186777389346,0.0005918668934799,-0.00059186625607451,0.0005918684809486,-0.00059186892245288,0.00059186573725689,-0.00059186737193169,0.0005918672972117,-0.00053092945218914,0.00053092289269462,-0.00053092480744157,0.00053092765128681,-0.0005823765853042,0.00058238124633563,-0.0005823798950442,0.00058237735785531,-1.9467602561768e-10,-3.5241416037166e-10,-0.000389269415421,0.00038926889361367,2.4017016464942e-09,-3.0167518504263e-09,-0.00041145980999339,0.00041146120984064,-0.00041146162519755,0.00041145940593642,-0.00041145991158862,0.00041146115692884,-0.00041146169183611,0.00041145932665358,-0.00043387930143398,0.00043387678725032,-0.00043387916363352,0.00043387690320695,0.76958753906293,125803,2834,0.0023955524871122,0.002395552670202,0.0016209114763477,37.572767624365,6.2982140994918e-05,6.2982140994918e-05,6.2982140994918e-05,3508964.1809173,0.0064326485221913
5619200,0.3676299286361,0.0068115276315851,0.002492494048507,0.00249249420675,0.0018265393763281,-0.00062381589072169,0.00062381665781469,5.0727312497777e-10,2.4509424230384e-10,-1.509157103257e-09,2.442038973768e-09,-0.0006426089250891,0.00064260835489474,-0.0006426089990031,0.00064260825851671,-0.00064260761434689,0.00064260972359606,-0.00064260768263631,0.0006426096254704,-0.00057370454840993,0.00057370689143716,-0.000573704948436,0.00057370663077881,1.606167363366e-09,-2.182195103931e-09,-2.5060417115594e-09,1.8980352206385e-09,-0.00062381658946337,0.00062381604221661,-0.00064260891443828,0.0006426081748048,-0.00064260752309561,0.00064260962516878,-0.00064261010686849,0.00064260698367269,-0.00064260868511577,0.00064260840749947,-0.00057370893634933,0.00057370266257031,-0.00057370468636405,0.00057370701696536,-0.00063050608018772,0.00063051069221491,-0.00063050941990975,0.00063050658649747,-1.5765218243563e-10,-3.4545224706804e-10,-0.00041438294843325,0.00041438248146573,2.2558660422793e-09,-2.8064281712972e-09,-0.00044054632348272,0.0004405476758282,-0.00044054801913568,0.00044054598543601,-0.00044054644547151,0.00044054761581116,-0.0004405481036854,0.00044054589647452,-0.00046261651743694,0.00046261414159987,-0.00046261633691054,0.00046261424764241,0.73637638019925,125803,2834,0.0025957543551571,0.002595754527818,0.0017254567559344,37.741216754616,6.4329734036928e-05,6.4329734036928e-05,6.4329734036928e-05,3625573.0017321,0.0069409815539284
5819200,0.39488393887242,0.0072526586185958,0.0026636234559788,0.0026636235591728,0.0019254116034442,-0.00066429306977462,0.00066429390546239,5.2165207074026e-10,2.9769428470277e-10,-1.6092114212545e-09,2.6173077450744e-09,-0.00068571687501223,0.00068571627289495,-0.00068571694275209,0.0006857161877424,-0.00068571547552664,0.00068571773467042,-0.00068571553516385,0.0006857176475282,-0.00060926020347506,0.00060926265359467,-0.00060926055159955,0.00060926243250859,1.7122373276485e-09,-2.364401976693e-09,-2.1792181273805e-09,1.5019022393734e-09,-0.00066429383265002,0.00066429321268497,-0.00068571671326188,0.00068571623214667,-0.00068571555605952,0.00068571743764402,-0.00068571800079218,0.00068571494906384,-0.00068571681246022,0.00068571612953697,-0.0006092643495364,0.00060925862846316,-0.0006092607919706,0.0006092622583202,-0.00067056523644856,0.00067056981469571,-0.00067056885004913,0.00067056541905815,-1.2497711741149e-10,-2.7240676429269e-10,-0.00043344445375745,0.00043344409320905,1.933507530663e-09,-2.3656316127178e-09,-0.0004640249249846,0.0004640261145795,-0.00046402636806975,0.00046402467446396,-0.00046402503389439,0.00046402606712181,-0.00046402643873537,0.00046402459883959,-0.0004843143743597,0.00048431239733306,-0.00048431422393872,0.00048431246471715,0.71318193357777,125803,2834,0.0027639272654381,0.002763927410957,0.0018048262161769,36.556817071209,5.4854536569673e-05,5.4854536569673e-05,5.4854536569673e-05,3658583.7288479,0.0073596779813884
6019200,0.42058116656755,0.0076595582178764,0.0028215594883177,0.0028215595830661,0.0020164391464926,-0.00070308450351139,0.00070308536283568,5.6725548746953e-10,2.9060560231598e-10,-1.6732970620704e-09,2.6642476588864e-09,-0.00072702441830118,0.00072702383985115,-0.00072702451262893,0.00072702374031606,-0.00072702298329785,0.00072702534175953,-0.00072702306772833,0.00072702522997445,-0.00064324304159308,0.00064324563755262,-0.00064324341479624,0.0006432453550618,1.7553558191435e-09,-2.4393303782707e-09,-1.9737345286248e-09,1.273369054773e-09,-0.00070308528975497,0.00070308463948463,-0.00072702422033858,0.00072702388383104,-0.00072702320882939,0.00072702495462685,-0.00072702554861553,0.00072702256921194,-0.00072702449776341,0.00072702359830675,-0.00064324709372389,0.00064324174967943,-0.00064324395312533,0.00064324494371072,-0.0007089513591849,0.00070895587556403,-0.00070895517686828,0.00070895145051312,-7.2730320956835e-11,-2.6980884376032e-10,-0.00045156329105189,0.00045156297724106,1.7730086357747e-09,-2.1525137991392e-09,-0.00048670544498298,0.000486706562619,-0.00048670676247242,0.00048670525131388,-0.00048670556269529,0.00048670649988892,-0.00048670684491553,0.00048670515310764,-0.00050493840428223,0.00050493654725647,-0.00050493823424034,0.00050493672173806,0.70262235263807,125803,2834,0.0029250665930071,0.0029250667235116,0.0018802737453828,35.892004070349,4.9536032562789e-05,4.9536032562789e-05,4.9536032562789e-05,3663803.5942436,0.0077604214284126
6219200,0.44558705760546,0.0080580209606449,0.0029761655017869,0.0029761656193934,0.0021056898394646,-0.00074206194537347,0.00074206279551891,6.0219325014486e-10,2.6182074114431e-10,-1.6926217525085e-09,2.6177899036095e-09,-0.00076838119080752,0.00076838066302848,-0.00076838132091195,0.00076838054639207,-0.00076837976352032,0.0007683821611655,-0.0007683798807173,0.00076838201676701,-0.00067745307475037,0.00067745575417356,-0.0006774534930531,0.00067745539414418,1.7448666618741e-09,-2.4348310897359e-09,-1.8890178770901e-09,1.1890142428924e-09,-0.00074206272479209,0.00074206206911776,-0.00076838103436232,0.00076838073666756,-0.00076838009025716,0.00076838177033286,-0.00076838236071065,0.00076837943879738,-0.00076838135883431,0.00076838039982156,-0.00067745710915094,0.00067745194370344,-0.00067745412583772,0.0006774549609625,-0.00074782972624869,0.00074783415935578,-0.00074783363774338,0.00074782986552243,-2.4356620673279e-11,-2.8250103593433e-10,-0.00047011140777434,0.00047011111750473,1.7392506735463e-09,-2.0911717439567e-09,-0.00050971487958529,0.00050971599827997,-0.00050971616332369,0.0005097147250038,-0.00050971501156012,0.00050971591567372,-0.00050971626353265,0.00050971459656143,-0.00052620517517873,0.00052620330680806,-0.00052620497253814,0.00052620359987083,0.70746296592916,125803,2834,0.0030869513411393,0.0030869514511072,0.0019575061706005,35.771315569008,4.8570524552062e-05,4.8570524552062e-05,4.8570524552062e-05,3672763.6060069,0.0081646284140933
6419200,0.47032189939636,0.0084494338561995,0.0031283231804415,0.0031283233354642,0.0021927873402938,-0.00078095270961957,0.00078095355274921,5.666485890981e-10,2.9170917548493e-10,-1.6579228362719e-09,2.5652541130418e-09,-0.00080966020250893,0.0008096596799952,-0.00080966030835616,0.0008096595764826,-0.00080965880429515,0.00080966114414733,-0.00080965889830225,0.00080966102549042,-0.00071161150463719,0.00071161410125991,-0.0007116118632823,0.00071161379945153,1.7040937156655e-09,-2.3849898841292e-09,-1.9173629449812e-09,1.2261584502948e-09,-0.00078095348622159,0.00078095283810997,-0.00080966008580159,0.000809659747765,-0.00080965911297277,0.00080966078787815,-0.00080966137406746,0.00080965846641396,-0.0008096603544605,0.00080965945643537,-0.00071161552011642,0.00071161033136258,-0.00071161247055306,0.00071161341145196,-0.00078661098474954,0.00078661536255068,-0.00078661482290255,0.00078661115738621,-6.0407610100696e-11,-2.5006138536986e-10,-0.00048874563023446,0.00048874533725666,1.7323980294119e-09,-2.0860568259442e-09,-0.00053281123471812,0.00053281232673248,-0.00053281251620634,0.00053281105354678,-0.00053281134340926,0.00053281226364382,-0.00053281259272989,0.00053281095110375,-0.0005474675374994,0.00054746575306683,-0.00054746740168734,0.0005474659538893,0.70211760804615,125803,2834,0.0032484482857246,0.0032484484142628,0.0020350963617503,35.957260197405,5.005808157924e-05,5.005808157924e-05,5.005808157924e-05,3708649.456509,0.0085685779441961
6619200,0.49557579274438,0.0088726659076468,0.0032920446522863,0.003292044826057,0.0022885764293035,-0.00082294345370056,0.00082294426260067,5.3517132829504e-10,3.0165911440348e-10,-1.609890343161e-09,2.4304570271473e-09,-0.00085369452792873,0.0008536940437934,-0.0008536946244878,0.00085369394852272,-0.00085369319076695,0.00085369544477489,-0.00085369327378677,0.00085369533846559,-0.00074918819103401,0.00074919068870664,-0.00074918848741611,0.00074919042275378,1.6270563626332e-09,-2.2769872843063e-09,-2.0239532510749e-09,1.367089629069e-09,-0.00082294419697428,0.00082294357588678,-0.00085369452702197,0.00085369406982708,-0.0008536934730525,0.00085369518943068,-0.00085369575050301,0.00085369284222519,-0.00085369465033751,0.00085369391812497,-0.00074919224624769,0.00074918691232678,-0.00074918895108047,0.00074919024524567,-0.0008293754707628,0.00082937977278164,-0.00082937922786851,0.00082937585705267,-8.5366600270466e-11,-2.2888311945428e-10,-0.00050974883213187,0.00050974852857883,1.8236586336442e-09,-2.1923251729139e-09,-0.00055791725781997,0.00055791838229088,-0.00055791860529091,0.00055791704540986,-0.0005579173429983,0.00055791833320264,-0.00055791865916831,0.00055791696092322,-0.00057208851858283,0.00057208671121774,-0.00057208845238667,0.00057208690085024,0.74071517891942,125803,2834,0.0034227877254382,0.0034227878427456,0.0021225438161445,36.728763007081,5.6230104056646e-05,5.6230104056646e-05,5.6230104056646e-05,3733095.2203424,0.009008550917677
6819200,0.52223870345943,0.0093541435851808,0.0034776328399983,0.0034776330502942,0.0023988776948883,-0.00087028170360461,0.00087028246512919,5.5324571519375e-10,2.4332258707375e-10,-1.5193814506455e-09,2.2594887885803e-09,-0.00090257104675905,0.00090257063214605,-0.0009025711632619,0.00090257051143822,-0.00090256979233482,0.00090257194770527,-0.00090256989982775,0.00090257181651862,-0.00079230664677367,0.00079230912390975,-0.00079230702032752,0.00079230876317147,1.5225853586507e-09,-2.1170862002223e-09,-2.1816693336944e-09,1.5802719407935e-09,-0.00087028240453701,0.00087028183486159,-0.00090257119084993,0.00090257056960316,-0.00090257000950411,0.0009025718113841,-0.00090257232077873,0.00090256942547334,-0.00090257110144343,0.00090257062778833,-0.00079231081998388,0.00079230527097875,-0.00079230716912011,0.00079230896455884,-0.00087863467031918,0.00087863889285458,-0.00087863822270335,0.00087863528390984,-6.4912168554152e-11,-2.7786836766505e-10,-0.00053459164191021,0.00053459130555042,2.0275988960966e-09,-2.4340219999136e-09,-0.00058641755731372,0.00058641881436221,-0.00058641905082922,0.00058641733202277,-0.00058641765820294,0.00058641874252839,-0.00058641912694039,0.00058641722693668,-0.00060204524850936,0.00060204318902134,-0.00060204512136216,0.00060204347496884,0.79222279000978,125803,2834,0.0036192902052028,0.0036192903517632,0.0022259696578638,38.15967211413,6.7677376913039e-05,6.7677376913039e-05,6.7677376913039e-05,3780386.9311483,0.0095095907664814
7019200,0.55065254925951,0.0098286485064674,0.00366266155823,0.003662661784935,0.0025033251633024,-0.00091951107795886,0.00091951178667284,5.0583232284623e-10,2.3432549684045e-10,-1.4190786371511e-09,2.1176411426343e-09,-0.00095398295367588,0.0009539825444122,-0.00095398305707971,0.00095398243602935,-0.00095398177631766,0.00095398377889854,-0.00095398187095666,0.00095398366072711,-0.00083624184722072,0.00083624414460318,-0.0008362421923552,0.00083624382589863,1.4363990601418e-09,-1.9692405442231e-09,-2.3882793566851e-09,1.843578011233e-09,-0.00091951172895969,0.00091951121848781,-0.00095398317705195,0.00095398238569677,-0.00095398184556033,0.00095398378472228,-0.00095398423383033,0.0009539813216929,-0.0009539828623038,0.00095398267965179,-0.00083624609811348,0.00083624021598424,-0.00083624199153647,0.00083624437742434,-0.00092841678229972,0.0009284209885714,-0.00092842006781062,0.00092841757957794,-1.0383679976614e-10,-2.7342044451663e-10,-0.00055960709919773,0.00055960672958104,2.2216123524055e-09,-2.6637138040836e-09,-0.00061613469433543,0.00061613604966753,-0.00061613632997676,0.0006161344247444,-0.00061613478485382,0.00061613599016521,-0.00061613639498027,0.00061613433357661,-0.00063126009817764,0.00063125790934905,-0.00063126000726594,0.00063125813168193,0.73336568004324,125803,2834,0.0038235937934521,0.003823593965199,0.0023301269145171,39.886476066918,8.1491808535344e-05,8.1491808535344e-05,8.1491808535344e-05,3844906.2206787,0.01002738201365
7219200,0.57925651722311,0.010287399642887,0.0038424021532256,0.0038424023812518,0.0026025951084095,-0.00096622531884245,0.00096622601352313,5.4088453320173e-10,1.6212208272283e-10,-1.4017416390492e-09,2.151358249894e-09,-0.0010033359705671,0.0010033355452659,-0.0010033361032307,0.0010033354125286,-0.0010033347833298,0.001003336790509,-0.0010033349103578,0.0010033366400874,-0.00087731383228341,0.00087731616006968,-0.00087731430938819,0.00087731574130957,1.4495604921867e-09,-1.9540478850996e-09,-2.4135766587821e-09,1.8928859219322e-09,-0.0009662259544385,0.00096622547608306,-0.0010033361460406,0.0010033353629605,-0.0010033347917089,0.0010033367965114,-0.0010033372064145,0.0010033343103146,-0.0010033358090334,0.0010033356887623,-0.0008773180929884,0.00087731215305194,-0.00087731391413648,0.00087731637305975,-0.00097512811890208,0.00097513237029994,-0.0009751312525123,0.00097512881161438,-6.5195033421786e-11,-3.323288986685e-10,-0.00058232730592813,0.00058232692168384,2.305965067657e-09,-2.7580906193801e-09,-0.00064367657952605,0.00064367801101821,-0.00064367827096256,0.00064367632764919,-0.00064367670710768,0.00064367792653779,-0.00064367837542753,0.00064367620580209,-0.00065762692648468,0.00065762455134037,-0.00065762669241394,0.0006576248182001,0.70719547642883,125803,2834,0.0040174136688606,0.0040174138724234,0.0024247441522256,40.739646330277,8.8317170642219e-05,8.8317170642219e-05,8.8317170642219e-05,3908252.1217714,0.010514613268956
7419200,0.60739080068591,0.010722027548694,0.0040131560898056,0.0040131562812503,0.0026957151776381,-0.0010104658070749,0.0010104664972299,5.3605643166751e-10,1.6133448381285e-10,-1.4409505859487e-09,2.2072477302146e-09,-0.0010505676076846,0.0010505671352482,-0.0010505677355811,0.0010505670018372,-0.0010505663868273,0.0010505684143677,-0.0010505665114235,0.0010505682651532,-0.00091589350594364,0.00091589585087129,-0.00091589399128094,0.00091589543454609,1.5043995540086e-09,-1.9977975914639e-09,-2.4100232480825e-09,1.8981984657296e-09,-0.0010104664261033,0.0010104659597777,-0.0010505677122677,0.0010505669742099,-0.0010505663555169,0.0010505684034304,-0.0010505688054731,0.0010505658929792,-0.0010505674103408,0.0010505672713024,-0.0009158977794729,0.00091589181328111,-0.00091589360286647,0.0009158960321986,-0.001018893330392,0.0010188976898384,-0.0010188965409545,0.0010188940101666,-7.4247492844086e-11,-3.3310500078264e-10,-0.00060326330696661,0.00060326291630773,2.2997799395643e-09,-2.757596944565e-09,-0.0006695294619554,0.0006695308854582,-0.00066953115046682,0.00066952920166318,-0.00066952958876324,0.0006695308028331,-0.00066953125709104,0.00066952908399357,-0.00068157497358493,0.00068157259976425,-0.00068157474242116,0.00068157284400342,0.68502083886468,125803,2834,0.0042009307833311,0.0042009309524377,0.00251194106783,41.271637078451,9.2573096627605e-05,9.2573096627605e-05,9.2573096627605e-05,3970332.8490318,0.010973750036346
7619200,0.63387066393334,0.01112125558016,0.0041701692834174,0.0041701694452809,0.0027809168514616,-0.0010500589935053,0.0010500597269716,5.8393383763385e-10,1.4154205901667e-10,-1.491802980443e-09,2.3557221766281e-09,-0.0010931503283033,0.0010931498345666,-0.0010931504842882,0.0010931496907268,-0.0010931490387034,0.0010931511875403,-0.0010931491909312,0.0010931510115771,-0.000950515692702,0.00095051816012233,-0.0009505162676275,0.00095051768530518,1.5888089955934e-09,-2.127985655406e-09,-2.2971383054346e-09,1.7385446074865e-09,-0.0010500596528723,0.0010500591481166,-0.001093150320076,0.0010931497052366,-0.0010931490636649,0.0010931510629492,-0.0010931514922568,0.001093148572978,-0.0010931501818673,0.0010931498483431,-0.00095051993798627,0.0009505141144487,-0.0009505160275702,0.00095051805365595,-0.0010577360106865,0.0010577404408126,-0.0010577393250253,0.0010577364525646,-3.6030267878346e-11,-3.5574747530588e-10,-0.00062113022346367,0.00062112985096974,2.2135946116122e-09,-2.6440195236715e-09,-0.00069248587362621,0.00069248726610889,-0.0006924874911954,0.00069248565056642,-0.00069248602656421,0.00069248716940904,-0.00069248762508986,0.00069248550830541,-0.00070192458277285,0.00070192221207637,-0.00070192426696881,0.00070192249755256,0.67223853720277,125803,2834,0.0043651372512732,0.0043651374181144,0.0025863705525703,41.071035223817,9.0968281790536e-05,9.0968281790536e-05,9.0968281790536e-05,4004967.0489516,0.011381123875301
7819200,0.65887750440314,0.011493750824777,0.0043165896686202,0.0043165897849973,0.0028605713711599,-0.0010875645281688,0.00108756526988,5.7747469683852e-10,1.696198759351e-10,-1.5841766808428e-09,2.4170701428722e-09,-0.0011334846925924,0.0011334841663288,-0.0011334848409368,0.0011334840240881,-0.0011334833542459,0.0011334855668336,-0.0011334834979489,0.0011334853979378,-0.00098318856571475,0.00098319110495824,-0.00098318907956545,0.00098319065599403,1.6550304780726e-09,-2.2093957719709e-09,-2.2132321615932e-09,1.6449690384059e-09,-0.0010875651870284,0.0010875646651838,-0.0011334846318563,0.0011334841076539,-0.0011334834343874,0.001133485397798,-0.0011334858537112,0.001133482923151,-0.0011334846050355,0.0011334841400703,-0.00098319279432574,0.00098318709592056,-0.00098318904824468,0.00098319086230084,-0.0010945355836675,0.0010945400861726,-0.0010945391195594,0.0010945360185412,-4.3636298202963e-11,-3.2815058198968e-10,-0.00063761297958777,0.00063761262206703,2.111584329482e-09,-2.5305936327748e-09,-0.00071411776765591,0.00071411908904006,-0.00071411931406543,0.00071411754521134,-0.00071411790347811,0.00071411900187889,-0.0007141194327328,0.00071411741629842,-0.0007207876927456,0.00072078545574446,-0.00072078743839644,0.00072078573897522,0.66655684228497,125803,2834,0.0045206599601398,0.00452066007229,0.0026550374614389,40.972132064769,9.0177056518154e-05,9.0177056518154e-05,9.0177056518154e-05,4008705.8474585,0.011765261314731
8019200,0.68257221713943,0.011843342992653,0.0044541167489543,0.0044541168703651,0.0029351093733333,-0.0011230807211389,0.0011230814666233,5.8363368127401e-10,1.7356170722075e-10,-1.6420985715452e-09,2.4618532819545e-09,-0.0011717470272073,0.0011717464810039,-0.0011717471787333,0.0011717463348203,-0.001171745655161,0.0011717479153666,-0.0011717458022692,0.0011717477432256,-0.0010134210065013,0.0010134236007145,-0.0010134215162592,0.0010134231474543,1.7017856242056e-09,-2.2661337539895e-09,-2.1415637688905e-09,1.5648457450605e-09,-0.0011230813841591,0.0011230808514035,-0.0011717469294296,0.001171746478633,-0.0011717457823952,0.0011717477168507,-0.001171748184433,0.0011717452588729,-0.0011717469867819,0.0011717464249273,-0.0010134252162826,0.0010134196253506,-0.0010134216184532,0.0010134232442284,-0.001129397714586,0.0011294022583869,-0.0011294013883071,0.0011293981245537,-3.6641977952598e-11,-3.1809005250842e-10,-0.00065300355663424,0.00065300321415513,2.0430304604799e-09,-2.4472157433551e-09,-0.00073449389287385,0.00073449517243867,-0.00073449538595285,0.00073449367984236,-0.00073449402237524,0.00073449508684765,-0.00073449550274613,0.00073449355510514,-0.00073870548176304,0.00073870331245177,-0.00073870523776152,0.00073870360877814,0.66097842582574,125803,2834,0.0046679087240023,0.0046679088229424,0.0027191575550445,40.97714150542,9.0217132043359e-05,9.0217132043359e-05,9.0217132043359e-05,4012619.2557085,0.012128193731516
8219200,0.70507485878468,0.012172336959815,0.0045836583001563,0.0045836584285869,0.0030050202310718,-0.0011567481468841,0.0011567488912822,5.8549552286662e-10,1.7328664162381e-10,-1.6823817458631e-09,2.4916971662443e-09,-0.0012081070129985,0.0012081064490653,-0.001208107167391,0.0012081063002282,-0.001208105617758,0.0012081079062647,-0.0012081057676472,0.0012081077316545,-0.0010417979836678,0.0010418006085908,-0.001041798492615,0.0010418001516736,1.7356953805211e-09,-2.3033234681909e-09,-2.0875916798231e-09,1.5077593204068e-09,-0.0011567488106165,0.0011567482739503,-0.0012081068849802,0.0012081064908757,-0.0012081057750795,0.001208107691372,-0.0012081081628797,0.001208105246465,-0.0012081070022264,0.0012081063749328,-0.001041802171076,0.0010417966632061,-0.0010417986812287,0.0010418001728501,-0.0011624450026123,0.001162449576698,-0.0011624487641589,0.0011624453902935,-3.2800697963462e-11,-3.1053494881165e-10,-0.000667496170462,0.00066749583829584,1.9926126249253e-09,-2.3859986318727e-09,-0.00075357501661206,0.00075357626464324,-0.0007535764720174,0.00075357481031778,-0.00075357514257408,0.00075357618160415,-0.00075357658577995,0.00075357468828353,-0.00075567320963497,0.00075567109113687,-0.00075567297104293,0.00075567138932587,0.65549730910962,125803,2834,0.0048074703383379,0.0048074704343657,0.0027795393132121,41.071105510542,9.0968844084339e-05,9.0968844084339e-05,9.0968844084339e-05,4020723.5087916,0.012471905420392
8419200,0.72646633351882,0.012484223622532,0.0047064802728856,0.0047064804079626,0.0030712629416838,-0.0011887506704432,0.0011887514092601,5.7959242684921e-10,1.7545764647757e-10,-1.7156965671182e-09,2.5113394949493e-09,-0.0012427331519697,0.0012427325682056,-0.0012427333047796,0.0012427324186042,-0.0012427317395925,0.0012427340409759,-0.0012427318879426,0.0012427338681731,-0.0010687530123777,0.001068755649995,-0.0010687535120699,0.0010687551993944,1.7625717586427e-09,-2.3273399967293e-09,-2.0498633282746e-09,1.4728974874983e-09,-0.0011887513299788,0.0011887507949794,-0.0012427329992681,0.001242732648703,-0.0012427319121458,0.0012427338211505,-0.0012427342928048,0.0012427313834415,-0.0012427331571841,0.0012427324886442,-0.0010687571769914,0.001068751729128,-0.0010687537601697,0.0010687551691074,-0.0011939367975408,0.0011939414019593,-0.0011939406248466,0.0011939371780545,-3.6469577227364e-11,-2.9983846252314e-10,-0.00068124204177484,0.00068124171646577,1.9528217074682e-09,-2.3397887107457e-09,-0.00077148726846882,0.00077148848990762,-0.00077148869585057,0.00077148706404328,-0.00077148738874468,0.00077148841106048,-0.00077148880371591,0.00077148694743234,-0.00077182805278404,0.00077182598976625,-0.00077182783148681,0.00077182627027879,0.65381527918943,125803,2834,0.0049401103045202,0.0049401103981693,0.0028368125602501,41.233799728367,9.2270397826934e-05,9.2270397826934e-05,9.2270397826934e-05,4028923.2033873,0.012798564584609
8619200,0.74723577746059,0.012786492242984,0.0048255150981442,0.0048255152400298,0.0031354619048098,-0.0012205943913986,0.0012205951134322,5.8120280194747e-10,1.6672820297961e-10,-1.7327616705557e-09,2.4868139374236e-09,-0.0012771640743616,0.001277163488596,-0.0012771642309641,0.0012771633332294,-0.0012771626639116,0.0012771649574376,-0.0012771628173935,0.0012771647794144,-0.0010958151792188,0.0010958178417298,-0.0010958156885318,0.0010958173713896,1.7657061158902e-09,-2.3169001000586e-09,-2.0505168424901e-09,1.4873129163393e-09,-0.0012205950350089,0.0012205945108362,-0.0012771639326523,0.0012771635843293,-0.0012771628391987,0.0012771647597369,-0.0012771652218861,0.0012771623180553,-0.0012771640834867,0.0012771634289693,-0.0010958193682889,0.0010958139267442,-0.0010958159431939,0.0010958173818688,-0.0012253634284989,0.0012253680459707,-0.0012253673030775,0.0012253638750215,-3.3694906512531e-11,-3.0077645254466e-10,-0.00069531298238505,0.00069531265741478,1.9628651200367e-09,-2.35305347686e-09,-0.00078961491010956,0.00078961614005343,-0.00078961634496268,0.00078961470784483,-0.00078961502880056,0.00078961605952288,-0.00078961645283823,0.00078961458890226,-0.00078825588016463,0.00078825380542334,-0.00078825567157055,0.00078825411411645,0.65261451420222,125803,2834,0.0050720730163561,0.0050720731011949,0.0028954365499332,41.855025625975,9.7240205007802e-05,9.7240205007802e-05,9.7240205007802e-05,4044335.0549694,0.013125325791883
8819200,0.76681467882887,0.013060465863933,0.0049338952916028,0.0049338954461352,0.003192675126195,-0.0012491640177748,0.0012491647446639,5.8804442035249e-10,1.4911054395171e-10,-1.7379475634831e-09,2.539166692377e-09,-0.0013083783605892,0.0013083777497823,-0.0013083785226346,0.0013083775929787,-0.0013083769285027,0.0013083792423432,-0.0013083770888139,0.0013083790587573,-0.0011197915823878,0.0011197942409657,-0.0011197921328525,0.0011197937538772,1.7964988333703e-09,-2.3501916027751e-09,-2.0242991771934e-09,1.4549761314283e-09,-0.0012491646720296,0.0012491641483269,-0.0013083781687449,0.0013083778619649,-0.001308377093465,0.0013083790226538,-0.0013083794796666,0.0013083765803799,-0.0013083783584433,0.0013083776700749,-0.0011197957383054,0.0011197903211689,-0.0011197923682512,0.0011197937102374,-0.0012532144122615,0.0012532190656669,-0.0012532182551525,0.0012532147447817,-2.464381158715e-11,-3.0765494364677e-10,-0.00070721507369397,0.00070721475473808,1.9515667912168e-09,-2.3287606821329e-09,-0.00080545253067483,0.00080545375921906,-0.00080545395229967,0.00080545233844455,-0.00080545265679589,0.00080545367619655,-0.0008054540686553,0.00080545221434481,-0.00080204811219762,0.00080204602572421,-0.00080204785489856,0.00080204631742111,0.62942561276816,125803,2834,0.0051904489921717,0.0051904491120393,0.0029450403964577,41.996715357364,9.8373722858911e-05,9.8373722858911e-05,9.8373722858911e-05,4059287.5299136,0.013415515228126
9019200,0.78513581752526,0.013316914703975,0.005035238551093,0.0050352386951991,0.0032464374576831,-0.0012756810662164,0.0012756817878099,5.7819351576145e-10,1.5119705297499e-10,-1.7816818236668e-09,2.5759172253793e-09,-0.0013373774512399,0.0013373768062835,-0.0013373776114498,0.0013373766518917,-0.0013373759927112,0.0013373783247312,-0.001337376150159,0.0013373781441484,-0.0011419473893913,0.0011419500591958,-0.0011419479251543,0.0011419495865124,1.8386388357868e-09,-2.3860433190303e-09,-2.0005563087856e-09,1.4382820001303e-09,-0.001275681715564,0.0012756811976534,-0.0013373772194287,0.0013373769587266,-0.0013373761584511,0.0013373781046792,-0.0013373785571903,0.0013373756498766,-0.001337377449305,0.0013373767254853,-0.0011419515378879,0.0011419461415195,-0.0011419482075877,0.001141949494895,-0.0012791725248595,0.0012791772473881,-0.0012791764395835,0.0012791728474744,-3.1935674417887e-11,-2.9713139910442e-10,-0.00071800486200442,0.00071800454585719,1.923989968179e-09,-2.2983670455701e-09,-0.00081986273116604,0.0008198639363672,-0.00081986413316928,0.00081986253467863,-0.00081986285073097,0.00081986385977137,-0.00081986424368809,0.00081986241901755,-0.00081473603882628,0.00081473399811901,-0.00081473579961028,0.00081473426616419,0.62978086288832,125803,2834,0.0053003072850189,0.0053003074075009,0.0029900121486811,42.046671561841,9.8773372494729e-05,9.8773372494729e-05,9.8773372494729e-05,4063345.4513665,0.013683821922525
9219200,0.80206879518783,0.013551225437522,0.0051278984068032,0.0051278985480912,0.0032954284826276,-0.0012996069626777,0.0012996077249383,5.969720207969e-10,1.6792435543797e-10,-1.7778456862699e-09,2.6284537503069e-09,-0.0013636486494342,0.001363648023827,-0.001363648809587,0.0013636478694084,-0.0013636471754443,0.0013636495590636,-0.0013636473332385,0.0013636493786099,-0.0011618221468613,0.0011618248605839,-0.0011618226881844,0.0011618243873989,1.8444968271233e-09,-2.4290811876426e-09,-1.9864584122861e-09,1.3887449489274e-09,-0.0012996076515913,0.001299607099395,-0.0013636484194153,0.0013636481620082,-0.0013636473782975,0.0013636492860154,-0.0013636497720973,0.001363646837762,-0.0013636486850585,0.0013636478921643,-0.0011618263055807,0.0011618209201285,-0.0011618230374169,0.0011618242085334,-0.0013025580395898,0.0013025627511206,-0.0013025619722151,0.0013025582711991,-3.3350313341115e-11,-2.933448692509e-10,-0.00072744434191499,0.0007274440295522,1.8941409642092e-09,-2.2627049461317e-09,-0.00083263791501814,0.00083263910029942,-0.00083263929513795,0.00083263771998648,-0.0008326380333782,0.00083263902659185,-0.00083263940459541,0.0008326376073825,-0.00082592528715422,0.00082592327472127,-0.00082592504461533,0.00082592352722992,0.6230112532965,125803,2834,0.0053994184072012,0.0053994185383216,0.0030293635698654,41.896930741362,9.7575445930893e-05,9.7575445930893e-05,9.7575445930893e-05,4062674.8951173,0.013924706076388
9419200,0.81743521432199,0.013761431120124,0.0052110627215148,0.0052110628562782,0.0033393055423305,-0.0013204310978917,0.0013204318796942,6.0492691348627e-10,1.7400590623901e-10,-1.7763746576206e-09,2.6563216257859e-09,-0.0013866914177507,0.001386690802146,-0.0013866915792525,0.001386690645924,-0.0013866899356794,0.0013866923458158,-0.0013866900953608,0.0013866921641969,-0.0011790235188009,0.0011790262524566,-0.0011790240636223,0.001179025777209,1.8484880312536e-09,-2.4509471095477e-09,-1.9494255229021e-09,1.3353385178396e-09,-0.0013204318057654,0.0013204312370825,-0.0013866911788416,0.0013866909435575,-0.0013866901664491,0.0013866920356366,-0.001386692538235,0.0013866896094749,-0.0013866914817199,0.0013866906338506,-0.0011790276442761,0.001179022324973,-0.0011790244650849,0.0011790255228513,-0.001322868699793,0.0013228733918163,-0.001322872640568,0.0013228688652046,-3.3746329994428e-11,-2.8882372154533e-10,-0.00073522788195274,0.00073522757464731,1.8515139424924e-09,-2.213604981947e-09,-0.00084342663245756,0.00084342779047144,-0.00084342798178615,0.0008434264403793,-0.00084342674977907,0.00084342771920573,-0.00084342809015653,0.00084342633004335,-0.00083523935777521,0.00083523738486394,-0.00083523910966727,0.00083523762255558,0.61621359648283,125803,2834,0.0054856707044095,0.005485670839442,0.0030618222098943,41.41479985244,9.3718398819521e-05,9.3718398819521e-05,9.3718398819521e-05,4056888.6719006,0.014132574015962
9619200,0.83103763875382,0.01394536339196,0.0052838390851378,0.005283839214275,0.0033776850925472,-0.0013376208540228,0.0013376216529813,5.9826141181865e-10,1.9115781196594e-10,-1.7667735889855e-09,2.684922983387e-09,-0.0014059520003144,0.0014059513880119,-0.0014059521427199,0.0014059512157358,-0.0014059505174962,0.0014059529237453,-0.0014059506644121,0.0014059527546019,-0.0011930546755487,0.0011930574037637,-0.0011930551855951,0.0011930569611761,1.8606459418966e-09,-2.4627534090301e-09,-1.8967738725398e-09,1.2806481815992e-09,-0.0013376215733569,0.0013376209999938,-0.0014059517411179,0.0014059515516178,-0.0014059507399444,0.0014059525658026,-0.0014059530944993,0.0014059501776402,-0.0014059520858566,0.0014059511829652,-0.0011930587114149,0.0011930535024975,-0.0011930556503534,0.0011930566157363,-0.0013395640357446,0.0013395687493653,-0.0013395680136709,0.0013395641762849,-6.3952828148166e-11,-2.8893686611825e-10,-0.00074104265063544,0.0007410423245654,1.7632619657834e-09,-2.1499404403054e-09,-0.00085184729067963,0.00085184839076236,-0.00085184859856367,0.00085184708204041,-0.00085184740483441,0.00085184831971523,-0.00085184869844305,0.00085184698547115,-0.00084235392692,0.00084235204776115,-0.00084235368942782,0.00084235219024924,0.60938555806743,125803,2834,0.0055568619545481,0.0055568620918599,0.0030860856866513,40.448149858111,8.5985198864892e-05,8.5985198864892e-05,8.5985198864892e-05,4042624.2236944,0.014301616080788
9819200,0.84335280158848,0.014112826578303,0.0053499388514542,0.0053499389732426,0.0034129487536059,-0.0013537083521045,0.0013537091396686,6.1519372295993e-10,1.8605600641084e-10,-1.779448190491e-09,2.6211511975125e-09,-0.0014239179912295,0.0014239174089317,-0.0014239181331073,0.0014239172246888,-0.0014239165252911,0.0014239189384759,-0.0014239166773174,0.0014239187562022,-0.0012063271691515,0.001206329959691,-0.0012063277083688,0.0012063294558225,1.8322304508527e-09,-2.4230486388682e-09,-1.8486721534113e-09,1.2533668530324e-09,-0.0013537090471034,0.0013537084812523,-0.0014239177790038,0.001423917586749,-0.0014239167909337,0.001423918568091,-0.0014239191017197,0.0014239162390728,-0.0014239181219429,0.0014239172205204,-0.0012063311966992,0.0012063261005712,-0.001206328220378,0.0012063291301532,-0.0013552708117847,0.0013552754161229,-0.0013552748603644,0.0013552710512604,-4.6919280426797e-11,-2.8891800534149e-10,-0.00074688169021443,0.00074688137531062,1.7447432532582e-09,-2.1297789483369e-09,-0.00085998925777439,0.00085999034790897,-0.00085999054998375,0.00085998905752446,-0.00085998936512265,0.00085999027430273,-0.00085999065402674,0.00085998896091236,-0.00084943417378052,0.00084943225780877,-0.00084943392888779,0.00084943252390118,0.61214217178261,125803,2834,0.0056234839103789,0.0056234839859988,0.0031104410370039,39.873949624961,8.1391596999692e-05,8.1391596999692e-05,8.1391596999692e-05,4033778.6308835,0.014461505966052
10019200,0.8543868363553,0.014263945380645,0.0054094649446654,0.0054094650783312,0.0034450153576485,-0.0013675490508479,0.0013675498515632,6.2032575929739e-10,1.8618707746553e-10,-1.7175606658771e-09,2.6154870404898e-09,-0.0014394664307993,0.0014394658749309,-0.001439466587906,0.0014394656963803,-0.0014394649838003,0.0014394673809592,-0.0014394651503847,0.0014394671906319,-0.0012177699048241,0.0012177726647994,-0.0012177704731486,0.0012177721594182,1.7855712933168e-09,-2.3944401814962e-09,-1.8279828663799e-09,1.2107198938365e-09,-0.0013675497684189,0.0013675491900008,-0.0014394662137029,0.0014394660097117,-0.0014394652596498,0.0014394669890762,-0.0014394675187058,0.0014394646965478,-0.0014394665580774,0.0014394656480787,-0.0012177738793687,0.0012177688585008,-0.0012177709677493,0.0012177718143239,-0.0013688381896129,0.0013688427145992,-0.0013688421087726,0.0013688383704769,-4.4180906225747e-11,-2.8092087970702e-10,-0.0007516986180348,0.00075169831622921,1.7290061038629e-09,-2.0913847553234e-09,-0.00086681225077029,0.0008668133406673,-0.00086681352313445,0.0008668120679421,-0.00086681236591628,0.00086681326524796,-0.00086681363031357,0.00086681195536717,-0.00085539356052287,0.0008553916631083,-0.00085539331549826,0.00085539192800732,0.61575181235336,125803,2834,0.0056807966622187,0.0056807967780802,0.0031305400340353,39.084065398093,7.5072523184743e-05,7.5072523184743e-05,7.5072523184743e-05,4020137.9613214,0.014598209674861
10219200,0.86415951497821,0.014398939341549,0.0054625214578759,0.0054625215870896,0.0034738962965835,-0.0013791361494067,0.0013791369560451,6.2075576651391e-10,1.7941396190897e-10,-1.6616820779884e-09,2.5858766255382e-09,-0.0014525311121025,0.0014525305831111,-0.0014525312662886,0.0014525304023494,-0.0014525296969725,0.0014525320570361,-0.0014525298564279,0.0014525318720294,-0.0012272437836435,0.0012272464884949,-0.0012272443365941,0.0012272460103386,1.7605489711433e-09,-2.3676442901382e-09,-1.8023638443929e-09,1.1835266373567e-09,-0.001379136876813,0.0013791362993747,-0.0014525309009526,0.0014525307014364,-0.0014525299598462,0.0014525316535138,-0.0014525321885256,0.0014525293971945,-0.0014525312431073,0.0014525303354408,-0.0012272476904733,0.0012272427284876,-0.0012272448200697,0.0012272456522447,-0.0013802421489183,0.0013802465854701,-0.0013802459363091,0.0013802422214655,-5.0934586230424e-11,-2.8624694129361e-10,-0.00075545825835429,0.00075545794995391,1.6904293398639e-09,-2.0589720047294e-09,-0.0008722709531454,0.00087227201618253,-0.00087227220545006,0.00087227076418302,-0.00087227106877451,0.00087227194441168,-0.00087227230953318,0.00087227066363394,-0.00086018420084798,0.00086018234813851,-0.00086018394458122,0.00086018254279236,0.6200754175927,125803,2834,0.0057287738720655,0.0057287740183992,0.0031462361977855,38.044674613529,6.6757396908232e-05,6.6757396908232e-05,6.6757396908232e-05,4000903.5996184,0.014711515343388
10419200,0.8731712213717,0.014524630844004,0.0055118022800473,0.0055118024031358,0.0035010261608214,-0.0013910639047246,0.0013910646894555,6.1713241526363e-10,1.7554129503982e-10,-1.6241138349666e-09,2.4814394463165e-09,-0.0014657735543223,0.0014657730715366,-0.0014657737189276,0.0014657728910146,-0.0014657721855578,0.0014657744999533,-0.0014657723526169,0.0014657743074637,-0.0012372225112693,0.0012372251873136,-0.0012372230622164,0.00123722469757,1.6891524109063e-09,-2.2866940843586e-09,-1.8175994401215e-09,1.2126385095017e-09,-0.0013910646070166,0.0013910640384481,-0.0014657734109694,0.0014657731530549,-0.0014657724658673,0.0014657741312269,-0.00146577465253,0.0014657719060974,-0.0014657736904289,0.0014657728528423,-0.001237226409218,0.0012372214668461,-0.0012372235003135,0.0012372244363382,-0.001392068572329,0.0013920728825092,-0.00139207229994,0.0013920687645328,-4.5091987596995e-11,-2.7397230371654e-10,-0.00076012600309738,0.00076012570499038,1.7177067866798e-09,-2.0793424965848e-09,-0.00087851176970271,0.00087851285246882,-0.00087851303639244,0.00087851158792787,-0.00087851188185616,0.00087851278133481,-0.00087851313670407,0.00087851148227297,-0.000865908763411,0.00086590690411481,-0.000865908541836,0.00086590715207896,0.62506671046546,125803,2834,0.005778160024063,0.0057781601300954,0.0031657037968415,37.717701488039,6.414161190431e-05,6.414161190431e-05,6.414161190431e-05,3991881.02273,0.014831519092501
10619200,0.88159807539664,0.014639969292535,0.0055570886748901,0.0055570888013372,0.003525791816308,-0.0014025653109928,0.0014025660825212,6.0790040170707e-10,1.7396725630209e-10,-1.556157588748e-09,2.395507104667e-09,-0.0014785384639861,0.0014785380149262,-0.0014785386283923,0.0014785378437672,-0.0014785371441708,0.0014785393952197,-0.0014785373092688,0.0014785392053172,-0.0012468501942393,0.0012468528046379,-0.0012468507473351,0.0012468523158697,1.6073081665447e-09,-2.1957005079413e-09,-1.8603009619303e-09,1.2627730674658e-09,-0.0014025660008974,0.0014025654420181,-0.0014785383719963,0.0014785380348063,-0.0014785374038539,0.0014785390562483,-0.0014785395626822,0.0014785368560262,-0.0014785385660395,0.0014785378295258,-0.0012468540866198,0.001246849114447,-0.0012468510844458,0.0012468521669142,-0.0014034071113902,0.0014034112838165,-0.0014034106584069,0.0014034073332482,-4.9561879044133e-11,-2.6190732391104e-10,-0.0007648328901063,0.00076483259581602,1.7649165367411e-09,-2.1204244708841e-09,-0.00088474259693611,0.00088474370305679,-0.00088474389091699,0.00088474241127433,-0.00088474270191087,0.00088474363864964,-0.00088474398630257,0.0008847423100577,-0.00087157715619747,0.00087157527832724,-0.00087157695772063,0.00087157553067286,0.61395642779392,125803,2834,0.005825777960873,0.0058257780629878,0.0031853321029807,37.647324969188,6.3578599753507e-05,6.3578599753507e-05,6.3578599753507e-05,3988247.7988602,0.014948111201463
10819200,0.88950467252606,0.014746307366337,0.0055988941555935,0.0055988942841771,0.0035485189265664,-0.0014133654851188,0.0014133662430411,6.035681032911e-10,1.6350746931199e-10,-1.4848521764323e-09,2.312479064646e-09,-0.0014905545541191,0.0014905541435792,-0.001490554721063,0.0014905539725775,-0.0014905532840384,0.0014905554717425,-0.001490553450766,0.0014905552819414,-0.0012558637950362,0.0012558663407753,-0.0012558643523886,0.0012558658525108,1.5406998512065e-09,-2.1173756605813e-09,-1.9089467068205e-09,1.3203934877971e-09,-0.0014133661629889,0.0014133656152131,-0.0014905545138309,0.001490554105099,-0.0014905535137333,0.0014905551660611,-0.0014905556592129,0.0014905529768776,-0.0014905546257555,0.0014905539858896,-0.0012558676813491,0.0012558626597256,-0.0012558645722773,0.0012558658203626,-0.0014140085901381,0.0014140126678699,-0.0014140119848433,0.0014140088565403,-5.1546456042587e-11,-2.6156747394028e-10,-0.00076927505057661,0.00076927475333941,1.8161074941958e-09,-2.1733110201536e-09,-0.00089061897554726,0.00089062011073502,-0.0008906203030595,0.00089061878432359,-0.00089061907852664,0.0008906200474852,-0.00089062039725788,0.0008906186858656,-0.00087689230885493,0.00087689040326153,-0.00087689211617969,0.00087689064518113,0.60387279311144,125803,2834,0.0058704904416487,0.0058704905450899,0.0032038559069565,37.649664456318,6.3597315650542e-05,6.3597315650542e-05,6.3597315650542e-05,3989092.8302825,0.015057696878454
11019200,0.89698647554688,0.014845026404309,0.0056377593187792,0.0056377594483265,0.0035695076372035,-0.0014237976651564,0.0014237984075032,6.0297246842852e-10,1.5106647484642e-10,-1.4257647862174e-09,2.2326040507729e-09,-0.0015021638905614,0.0015021635168887,-0.0015021640563619,0.0015021633358599,-0.0015021626671522,0.0015021647937904,-0.0015021628354951,0.0015021646016767,-0.0012645785715639,0.0012645810800241,-0.0012645791327926,0.0012645805805124,1.487162052926e-09,-2.0441370481249e-09,-1.9612107876884e-09,1.3905954652925e-09,-0.0014237983253302,0.0014237977936835,-0.0015021639050206,0.0015021634312705,-0.0015021628577088,0.0015021645218761,-0.0015021650053395,0.0015021623355657,-0.0015021639355419,0.0015021633900502,-0.0012645824622918,0.001264577387369,-0.0012645792376409,0.0012645806746172,-0.0014242123012573,0.0014242163241529,-0.0014242155961605,0.0014242126477438,-5.7751927343779e-11,-2.7216212960435e-10,-0.00077368395983177,0.00077368364833873,1.8689232683756e-09,-2.244909491215e-09,-0.00089639064809746,0.00089639181742117,-0.00089639201908481,0.00089639044830439,-0.00089639075244072,0.00089639175086865,-0.00089639211448648,0.00089639034964709,-0.00088210966459294,0.00088210771276842,-0.00088210946718882,0.00088210794301917,0.5932124071548,125803,2834,0.0059136778181071,0.0059136779139212,0.0032222375778176,37.826039058884,6.5008312471074e-05,6.5008312471074e-05,6.5008312471074e-05,3995367.6410385,0.01516405353523
11219200,0.9040323853733,0.014937918858849,0.0056743084596459,0.0056743085908028,0.0035893018084002,-0.0014334677344305,0.0014334684715734,5.9347643099653e-10,1.5096738863814e-10,-1.3813355622056e-09,2.1965012703939e-09,-0.0015129442055691,0.0015129438443243,-0.0015129443704879,0.0015129436693426,-0.0015129430074648,0.0015129450980972,-0.0015129431736382,0.0015129449081226,-0.0012726451001577,0.0012726475505332,-0.0012726456612094,0.0012726470593049,1.4424487757095e-09,-1.9921711789532e-09,-2.014903116379e-09,1.4506720743132e-09,-0.0014334683917311,0.0014334678689461,-0.0015129442495127,0.0015129437149961,-0.0015129431680476,0.0015129448486353,-0.001512945319844,0.0015129426574618,-0.0015129442108395,0.0015129437473064,-0.0012726490013574,0.0012726438474138,-0.0012726456630967,0.0012726472398388,-0.0014336855488095,0.001433689514244,-0.0014336887162272,0.0014336859102439,-6.4762928546409e-11,-2.6237747722464e-10,-0.0007777159078308,0.00077771559910374,1.924022388082e-09,-2.2945008959458e-09,-0.00090166947618638,0.00090167067544011,-0.00090167088176118,0.00090166927197888,-0.00090166957626984,0.00090167061536801,-0.00090167097170595,0.00090166917687264,-0.00088690604480776,0.00088690405957495,-0.00088690585809679,0.00088690428546852,0.59263757116508,125803,2834,0.0059537086959618,0.0059537088089838,0.0032390479087389,37.936101179166,6.5888809433328e-05,6.5888809433328e-05,6.5888809433328e-05,4001436.4240064,0.015262415472168
11419200,0.91059775924274,0.015025079988919,0.0057085541633797,0.0057085542936733,0.0036079715318659,-0.0014421399937075,0.00144214073793,5.9317648033629e-10,1.5361513098672e-10,-1.3502231080815e-09,2.1947359909102e-09,-0.0015226367880681,0.0015226364154418,-0.0015226369176511,0.0015226362361236,-0.0015226356021369,0.0015226376681513,-0.001522635743156,0.0015226374941415,-0.001279856949059,0.0012798593690463,-0.0012798575143315,0.0012798588761737,1.4326891424478e-09,-1.9568164969346e-09,-2.0448396288088e-09,1.5038153746288e-09,-0.0014421406485045,0.0014421401477208,-0.0015226368420467,0.0015226362774779,-0.0015226356953859,0.0015226374055962,-0.0015226378800721,0.0015226352251788,-0.0015226367471464,0.0015226363608764,-0.0012798608547473,0.0012798556400772,-0.0012798574362072,0.0012798591115158,-0.0014422093784608,0.0014422133265306,-0.0014422124611755,0.0014422097380644,-8.3670201050496e-11,-2.691325027456e-10,-0.00078119011186641,0.00078118978266767,1.9519233457728e-09,-2.3437380753784e-09,-0.00090626971184464,0.00090627089814828,-0.00090627113946131,0.00090626946725537,-0.00090626979014606,0.00090627084831021,-0.00090627122785565,0.00090626940982714,-0.0008911116288992,0.000891109605433,-0.0008911114234863,0.00089110979194951,0.59626754153409,125803,2834,0.0059896071986378,0.0059896073321193,0.0032535364692711,37.863887781022,6.531110224818e-05,6.531110224818e-05,6.531110224818e-05,4002385.404577,0.015350036377771
11619200,0.91664704333483,0.01510578807339,0.0057402272392889,0.0057402273670851,0.0036253334670158,-0.0014497191631882,0.0014497199003995,5.8697264521213e-10,1.5255470779369e-10,-1.3628842264106e-09,2.1929374149143e-09,-0.0015311412191415,0.0015311408485264,-0.0015311413726775,0.0015311406800431,-0.0015311400284341,0.0015311421021117,-0.0015311401852337,0.0015311419180099,-0.0012861205650628,0.0012861229757876,-0.0012861211113116,0.0012861224937047,1.4317996077989e-09,-1.968979774599e-09,-2.0713904642135e-09,1.5260013173139e-09,-0.0014497198184262,0.001449719311036,-0.0015311412815935,0.0015311407007131,-0.0015311401448352,0.0015311418744711,-0.0015311423352954,0.0015311396547164,-0.0015311411818746,0.0015311407929273,-0.0012861244851079,0.0012861192246761,-0.0012861210041923,0.0012861227358804,-0.0014496718824354,0.0014496758503769,-0.0014496749627091,0.0014496722400205,-7.9080004182731e-11,-2.5256217904585e-10,-0.00078404205487907,0.0007840417431372,1.9829856475706e-09,-2.3553715487577e-09,-0.00091013600815873,0.00091013722492226,-0.00091013744914363,0.00091013578154672,-0.000910136092594,0.00091013717797513,-0.00091013753216674,0.0009101357073533,-0.00089464422764104,0.00089464221308669,-0.00089464404895386,0.00089464240696201,0.5987386665042,125803,2834,0.0060209790734829,0.0060209792096709,0.00326543545365,37.584120700362,6.30729656029e-05,6.30729656029e-05,6.30729656029e-05,3997511.7852089,0.015425840869955
11819200,0.9221441519533,0.015179635290049,0.0057691660474622,0.00576916617401,0.0036413030685766,-0.0014560373771826,0.0014560381177839,5.8502765251268e-10,1.528914317423e-10,-1.3849880718592e-09,2.2283415792826e-09,-0.0015382851946309,0.0015382848023749,-0.0015382853453797,0.0015382846363672,-0.0015382839840163,0.0015382860737062,-0.001538284137939,0.001538285893201,-0.0012912792894401,0.0012912817129438,-0.0012912798389844,0.001291281235034,1.4576322612762e-09,-1.99597530627e-09,-2.0803841978154e-09,1.527709676189e-09,-0.0014560380372107,0.0014560375275669,-0.0015382852326514,0.0015382846657285,-0.0015382840938086,0.001538285843696,-0.0015382863050093,0.0015382836024892,-0.0015382851474663,0.0015382847440795,-0.0012912832358872,0.0012912779409046,-0.0012912797465665,0.0012912814627818,-0.0014559049858931,0.0014559090124872,-0.0014559081007026,0.0014559053294322,-8.71627226167e-11,-2.4953435677904e-10,-0.00078614963978528,0.00078614932364767,1.9834989344709e-09,-2.3586953117733e-09,-0.00091313293576,0.00091313414815147,-0.00091313437877331,0.00091313270344099,-0.00091313301754223,0.00091313410512356,-0.00091313445914249,0.00091313263410331,-0.00089736325306265,0.00089736124951685,-0.00089736308137782,0.000897361416029,0.60218599220874,125803,2834,0.006047129952281,0.0060471300966006,0.0032742367886113,37.033412120154,5.8667296961235e-05,5.8667296961235e-05,5.8667296961235e-05,3986533.5491819,0.015487899977189
12019200,0.9271861198624,0.015249518581693,0.0057964364747524,0.0057964365991864,0.0036566455077546,-0.0014621237782948,0.0014621245095376,5.9553733844899e-10,1.4161849771093e-10,-1.4256976183282e-09,2.2319342178829e-09,-0.0015450830983343,0.0015450827037319,-0.0015450832585412,0.0015450825253907,-0.0015450818734534,0.0015450839856935,-0.0015450820375871,0.0015450837953354,-0.001296354248208,0.0012963567259209,-0.0012963548076544,0.0012963562248763,1.4901494538394e-09,-2.0261269392191e-09,-2.0806571795847e-09,1.5328685663146e-09,-0.0014621244256052,0.0014621239162377,-0.0015450831375248,0.0015450825900492,-0.0015450819976675,0.0015450837669622,-0.0015450842296945,0.0015450815007389,-0.0015450830730869,0.0015450826449486,-0.0012963582292659,0.0012963529194286,-0.0012963547400115,0.0012963564562279,-0.0014619935457087,0.0014619976475444,-0.0014619967908569,0.0014619939628673,-8.0149554222176e-11,-2.5747521307368e-10,-0.00078837111931796,0.00078837080002067,1.9885143001851e-09,-2.3723024097062e-09,-0.00091614739288443,0.00091614861503744,-0.0009161488424848,0.00091614716469025,-0.00091614747865928,0.00091614856548798,-0.00091614892609349,0.00091614708870276,-0.00090022225282953,0.00090022023931475,-0.00090022207964834,0.00090022042751419,0.61930375810696,125803,2834,0.0060723208733068,0.0060723209849372,0.0032835092495104,36.631148806992,5.5449190455938e-05,5.5449190455938e-05,5.5449190455938e-05,3974921.8634355,0.015548489518156
12219200,0.93190508493517,0.015317109093931,0.00582270968647,0.0058227098119922,0.0036716895954685,-0.001468605760983,0.0014686064885668,5.913914830432e-10,1.4806886800949e-10,-1.453603301711e-09,2.2401298774523e-09,-0.0015521739773118,0.0015521735685568,-0.0015521741336965,0.001552173393536,-0.001552172740628,0.0015521748630932,-0.0015521729006122,0.0015521746756458,-0.0013019436771833,0.0013019461691072,-0.0013019442231942,0.0013019456724076,1.5010093533711e-09,-2.0352589479986e-09,-2.0997300187774e-09,1.5555629462576e-09,-0.0014686064018779,0.0014686058937766,-0.0015521740188565,0.001552173464229,-0.0015521728660944,0.0015521746560765,-0.0015521751182621,0.0015521723693591,-0.001552173947656,0.001552173527335,-0.0013019476931479,0.001301942339267,-0.0013019441625978,0.0013019459159729,-0.0014685535515364,0.0014685576839168,-0.0014685568440694,0.0014685540062276,-8.7976561230534e-11,-2.4707948192084e-10,-0.00079114681247345,0.00079114649351635,2.0028073076207e-09,-2.388741396034e-09,-0.00091970702788762,0.00091970825170635,-0.00091970848718441,0.00091970679247808,-0.00091970710528087,0.00091970820895366,-0.00091970856332216,0.00091970672342698,-0.00090368312871678,0.00090368112142814,-0.00090368298213253,0.00090368130880809,0.63790519662996,125803,2834,0.0060991482992565,0.0060991483945256,0.0032950865479655,36.590985815193,5.5127886521541e-05,5.5127886521541e-05,5.5127886521541e-05,3963307.01427,0.015614746518424
12419200,0.93635983735398,0.015378826343175,0.0058467837940406,0.0058467839217222,0.0036852586274125,-0.0014749930790953,0.0014749938081665,6.0976936137634e-10,1.2880681621665e-10,-1.4463396220232e-09,2.2425710833457e-09,-0.0015591408399542,0.0015591404428372,-0.0015591410027193,0.001559140251358,-0.0015591396057427,0.0015591417327695,-0.0015591397750625,0.0015591415345456,-0.0013074616446684,0.0013074641698578,-0.0013074622203429,0.0013074636393686,1.5207167057956e-09,-2.0521827174979e-09,-2.1131608275693e-09,1.5702498655529e-09,-0.0014749937220824,0.0014749932147613,-0.0015591408857829,0.0015591403350478,-0.0015591397155488,0.0015591415262614,-0.0015591419932319,0.0015591392198546,-0.0015591408165252,0.0015591403912905,-0.0013074656861865,0.001307460299294,-0.0013074621283431,0.0013074639069394,-0.0014749404659062,0.0014749446543506,-0.0014749437887074,0.0014749409251449,-8.0533350510848e-11,-2.6918334304541e-10,-0.00079395939471894,0.0007939590650867,2.0224961914973e-09,-2.4215722009642e-09,-0.00092336201374327,0.00092336325848003,-0.00092336349175119,0.00092336178050671,-0.00092336210072459,0.00092336320522262,-0.00092336357767208,0.00092336170316841,-0.00090710174735025,0.00090709969084347,-0.00090710156386996,0.00090709988515376,0.61827140263103,125803,2834,0.006125581994287,0.0061255820967656,0.0033068187997859,36.717293695509,5.6138349564074e-05,5.6138349564074e-05,5.6138349564074e-05,3951964.1435509,0.015680366683846
12619200,0.9405086135659,0.015433218233043,0.0058681222799354,0.0058681224088357,0.0036969735442718,-0.0014803136469912,0.0014803143896225,5.9816350922127e-10,1.4289082737154e-10,-1.4504520668026e-09,2.2903542758373e-09,-0.0015650623428259,0.0015650619222743,-0.0015650625010655,0.0015650617446096,-0.0015650610897416,0.0015650632321276,-0.0015650612527591,0.0015650630433137,-0.0013119000336782,0.0013119025346288,-0.0013119006027872,0.0013119020358772,1.5239857330467e-09,-2.0657964771468e-09,-2.1283744376341e-09,1.5725446478809e-09,-0.0014803143096067,0.0014803137955305,-0.0015650623660681,0.0015650618104059,-0.0015650611955231,0.0015650630154733,-0.0015650634815961,0.0015650606960599,-0.0015650622963192,0.0015650618704647,-0.0013119040831431,0.0013118986559246,-0.0013119005098049,0.0013119022783637,-0.0014801515921748,0.0014801557916443,-0.0014801548675453,0.0014801519940776,-9.4112925903169e-11,-2.4851262737453e-10,-0.00079604437594297,0.00079604405493922,2.0269743628577e-09,-2.4108268251922e-09,-0.00092621621721084,0.00092621745740216,-0.00092621769364654,0.00092621598095041,-0.00092621629788856,0.00092621741561245,-0.00092621776969302,0.00092621591075247,-0.00090966809840869,0.00090966607279495,-0.00090966793905169,0.00090966622929471,0.58731727038739,125803,2834,0.0061475999436398,0.0061476000853006,0.0033155218335691,36.603627187803,5.5229017502421e-05,5.5229017502421e-05,5.5229017502421e-05,3945199.3397565,0.015733944022979
12819200,0.9443675028121,0.015484219829071,0.005888096190218,0.0058880963176685,0.0037080273211845,-0.0014851465772725,0.0014851473169035,6.0359448036766e-10,1.3827835533822e-10,-1.4721692040061e-09,2.2953960555202e-09,-0.0015704720285385,0.0015704716057517,-0.0015704721907565,0.0015704714240642,-0.001570470767306,0.0015704729240354,-0.001570470933851,0.0015704727310149,-0.0013158999481255,0.0013159024738107,-0.0013159005204272,0.0013159019637529,1.5412240205465e-09,-2.0835053698732e-09,-2.1227998117942e-09,1.5684177161838e-09,-0.0014851472348118,0.0014851467197148,-0.0015704720497899,0.0015704715073213,-0.0015704708831709,0.0015704727092295,-0.0015704731771806,0.0015704703806697,-0.0015704719953021,0.0015704715516521,-0.0013159040103969,0.0013158985819196,-0.0013159004453484,0.001315902195953,-0.0014849048493239,0.0014849090764201,-0.0014849081818055,0.0014849052651739,-9.2517273145187e-11,-2.4947842160547e-10,-0.00079795742595839,0.00079795710384088,2.0231944685165e-09,-2.4101432827403e-09,-0.00092874029481849,0.00092874153186241,-0.00092874176893714,0.00092874005748752,-0.00092874037419467,0.0009287414897681,-0.0009287418451766,0.00092873998818252,-0.00091205336847374,0.00091205134541676,-0.0009120532099171,0.00091205150695547,0.59135073435598,125803,2834,0.0061676008801029,0.006167601004845,0.0033235032130165,36.464710109492,5.4117680875935e-05,5.4117680875935e-05,5.4117680875935e-05,3945803.3158518,0.015782691536906
13019200,0.94787803654704,0.015530777793643,0.0059063124680713,0.0059063125954494,0.0037181527301227,-0.0014886997398743,0.0014887004949463,6.5357214634897e-10,9.7310905100999e-11,-1.4528334049956e-09,2.3320639755758e-09,-0.0015745429442446,0.0015745425421563,-0.0015745430984476,0.001574542298668,-0.0015745416840871,0.0015745438513181,-0.0015745418634087,0.0015745436357103,-0.0013187324574678,0.001318735109262,-0.0013187331101873,0.0013187344931762,1.6020999289469e-09,-2.115820781658e-09,-2.0698555326678e-09,1.5358914460927e-09,-0.0014887004008673,0.0014886999008413,-0.0015745429397288,0.0015745424728921,-0.0015745417446533,0.0015745435736302,-0.0015745440705954,0.0015745412657642,-0.001574542940389,0.0015745424341279,-0.0013187364876165,0.0013187311690034,-0.0013187330260633,0.0013187347017601,-0.0014883929855728,0.0014883973495022,-0.00148839643007,0.0014883933909033,-8.9877951921066e-11,-3.29994078878e-10,-0.00079896760578601,0.00079896722900861,1.9790914063072e-09,-2.4340536242995e-09,-0.00093026381917956,0.00093026505114279,-0.00093026529663432,0.00093026357362977,-0.00093026392612929,0.00093026497381321,-0.00093026540659982,0.00093026348895185,-0.00091345302450819,0.00091345089560023,-0.00091345272428363,0.00091345104556671,0.5930321019033,125803,2834,0.0061823042530997,0.0061823043913827,0.00332772857531,35.905743037501,4.964594430001e-05,4.964594430001e-05,4.964594430001e-05,3938081.5550765,0.015816862182831
13219200,0.95104875485626,0.015573012965592,0.0059228163091624,0.0059228164347017,0.0037273802217277,-0.001491484163166,0.0014914849149753,6.188115074391e-10,1.3211579924714e-10,-1.5111576716998e-09,2.359357911353e-09,-0.0015777824518785,0.0015777820096183,-0.0015777826169957,0.0015777818141529,-0.0015777811575577,0.0015777833639909,-0.0015777813304871,0.0015777831622455,-0.0013208883462317,0.0013208909228409,-0.0013208889321884,0.0013208903982119,1.5933115266618e-09,-2.1438932250501e-09,-2.0599403065593e-09,1.5032052828678e-09,-0.0014914848314161,0.0014914843104633,-0.0015777824275588,0.0015777819571211,-0.0015777812918132,0.0015777831033255,-0.0015777835849479,0.0015777807867222,-0.0015777824494693,0.0015777819190937,-0.0013208923736744,0.0013208870323978,-0.0013208889342585,0.0013208905255405,-0.0014911295664146,0.0014911338495297,-0.0014911330036508,0.001491129916926,-8.615992824012e-11,-2.5171576684434e-10,-0.00079952042051601,0.00079952010874538,1.9694813214935e-09,-2.3477855248511e-09,-0.00093125421546239,0.00093125543112264,-0.00093125565496735,0.00093125399396916,-0.00093125430222804,0.00093125538475145,-0.00093125573114224,0.00093125391503986,-0.00091434429117172,0.00091434229356731,-0.00091434411281117,0.00091434246573787,0.59512912713918,125803,2834,0.0061938257466476,0.0061938258784017,0.0033300502405679,35.183787767513,4.3870302140106e-05,4.3870302140106e-05,4.3870302140106e-05,3926468.2174706,0.015842634496404
13419200,0.95391689360347,0.015610608187915,0.0059375201821994,0.0059375203073438,0.0037355676983715,-0.0014938174454188,0.0014938181963577,6.3450608398056e-10,1.184851060084e-10,-1.5272436633427e-09,2.3669629364953e-09,-0.0015805286806256,0.0015805282432549,-0.0015805288569518,0.0015805280395575,-0.0015805273796368,0.0015805296025001,-0.0015805275621274,0.0015805293908605,-0.0013226535175901,0.0013226561452397,-0.0013226541369567,0.0013226555866581,1.6171268861778e-09,-2.1692881389629e-09,-2.0243632569456e-09,1.46241650054e-09,-0.0014938181131858,0.001493817588324,-0.0015805286396948,0.0015805282090564,-0.0015805275331034,0.0015805293328597,-0.0015805298169833,0.0015805270218944,-0.0015805287056256,0.0015805281268179,-0.0013226575499335,0.0013226522647406,-0.0013226541886752,0.0013226556820505,-0.0014934034465873,0.0014934077604919,-0.0014934069449438,0.0014934037882984,-7.9618115889008e-11,-2.6372042266917e-10,-0.00079987235160542,0.00079987203251887,1.9357279779548e-09,-2.3214537014807e-09,-0.00093200313461606,0.00093200432958054,-0.0009320045520366,0.00093200291220062,-0.00093200322447271,0.0009320042764621,-0.00093200463757239,0.00093200283225963,-0.00091498141768816,0.0009149794289639,-0.00091498122652546,0.0009149796095562,0.58608787254381,125803,2834,0.0062034799676521,0.0062034800911121,0.0033315345802169,34.453220556773,3.8025764454184e-05,3.8025764454184e-05,3.8025764454184e-05,3914332.3750256,0.015863762733969
13619200,0.95654278370782,0.015644588971988,0.0059508161738302,0.0059508162989398,0.0037429564992177,-0.0014961525585518,0.0014961533054083,6.4388869505411e-10,1.1009707008067e-10,-1.5325687332537e-09,2.3576170906515e-09,-0.0015832501285848,0.0015832497012761,-0.0015832503059571,0.0015832494815832,-0.0015832488306007,0.0015832510530907,-0.0015832490189283,0.0015832508343629,-0.0013244551079146,0.001324457773482,-0.0013244557414779,0.0013244571885726,1.6250920983166e-09,-2.168307653061e-09,-1.9953227251562e-09,1.4411440499356e-09,-0.0014961532172734,0.0014961526967327,-0.0015832500879983,0.0015832496818103,-0.0015832489884693,0.0015832507734795,-0.0015832512627753,0.0015832484798412,-0.0015832501745369,0.0015832495728063,-0.0013244591190939,0.0013244539012286,-0.0013244558181044,0.0013244572748252,-0.0014956756308562,0.0014956799629471,-0.0014956791904424,0.0014956760180127,-8.1392026534572e-11,-2.754636251871e-10,-0.00080040162544345,0.00080040129531261,1.9079554757405e-09,-2.3103291761463e-09,-0.00093288358787703,0.00093288477115113,-0.00093288499504194,0.00093288336497528,-0.00093288368174989,0.00093288471066784,-0.00093288508548626,0.00093288328086407,-0.00091577601255628,0.00091577402802697,-0.00091577580917708,0.00091577420965311,0.57890325478287,125803,2834,0.0062131424485377,0.0062131425519681,0.0033337530643119,33.908315397334,3.3666523178676e-05,3.3666523178676e-05,3.3666523178676e-05,3907474.5676612,0.01588565351456
13819200,0.9589693840931,0.01567597742709,0.0059630879263114,0.0059630880519973,0.003749801448781,-0.0014984937115388,0.0014984944556727,6.3711986995472e-10,1.1394549480805e-10,-1.5253633242563e-09,2.3443183135083e-09,-0.0015859507338945,0.0015859503103674,-0.0015859509201514,0.001585950101951,-0.0015859494407606,0.0015859516587003,-0.0015859496320539,0.0015859514399697,-0.0013263012095815,0.0013263038435486,-0.0013263018326592,0.0013263032816673,1.6043904679137e-09,-2.1578256968484e-09,-1.9897597119208e-09,1.4276808563611e-09,-0.0014984943727798,0.0014984938465966,-0.0015859506943597,0.0015859502795102,-0.0015859496176542,0.0015859513843938,-0.0015859518672169,0.0015859491013736,-0.0015859507795899,0.0015859501799781,-0.0013263052094629,0.001326300004293,-0.0013263019213296,0.0013263033625591,-0.0014979629220889,0.0014979671960422,-0.0014979664313502,0.0014979632808699,-7.906018727876e-11,-2.5527551794933e-10,-0.00080107954566346,0.00080107923377139,1.9046192175157e-09,-2.2844460477772e-09,-0.00093387278070938,0.00093387396188766,-0.00093387417678691,0.00093387256761164,-0.00093387287143332,0.00093387390843468,-0.00093387425869037,0.00093387248148944,-0.00091670919666305,0.00091670724926567,-0.0009167090269086,0.00091670743548146,0.57842617999382,125803,2834,0.0062228304566519,0.006222830564464,0.0033365871527181,33.507897448743,3.0463179589948e-05,3.0463179589948e-05,3.0463179589948e-05,3904303.2092796,0.015908221542405
14019200,0.96124917493205,0.015705465097718,0.0059746085942331,0.0059746087202614,0.0037562477832235,-0.0015011971573195,0.0015011978989337,6.0722815836129e-10,1.4278658773246e-10,-1.5140420157616e-09,2.324570755312e-09,-0.0015889864595555,0.001588986023011,-0.0015889866272994,0.0015889858410638,-0.0015889851770629,0.0015889873657568,-0.0015889853453716,0.0015889871684805,-0.0013285427718476,0.0013285453342674,-0.0013285433439373,0.001328544821524,1.5642462696443e-09,-2.114266307433e-09,-2.0049290639481e-09,1.4455814418965e-09,-0.0015011978148587,0.0015011972930225,-0.0015889864299465,0.0015889859798509,-0.0015889853488796,0.0015889871055191,-0.0015889875804409,0.0015889848391392,-0.0015889864760719,0.0015889859256034,-0.0013285467560299,0.0013285415367605,-0.0013285434261664,0.0013285449150205,-0.0015006226655106,0.0015006268486955,-0.0015006260700902,0.0015006230090737,-1.0757226143283e-10,-2.1621134921522e-10,-0.00080216946972531,0.00080216916410535,1.9008150860693e-09,-2.2715535464762e-09,-0.00093527601055394,0.00093527716137805,-0.0009352773987851,0.00093527577443494,-0.00093527607517771,0.000935277133622,-0.00093527745829399,0.00093527571728851,-0.00091806187624502,0.00091805999714295,-0.00091806177834612,0.00091806013422101,0.57821463572896,125803,2834,0.0062340181309129,0.0062340182375826,0.0033411331731919,33.391126680464,2.9529013443709e-05,2.9529013443709e-05,2.9529013443709e-05,3904915.70967,0.015935576277282
14219200,0.96338675832317,0.015732097461956,0.005985051801446,0.0059850519279093,0.0037619937326011,-0.0015035909418803,0.0015035916893617,6.4519247487159e-10,1.0630994895109e-10,-1.4564641844895e-09,2.297873175493e-09,-0.001591706101947,0.0015917057063208,-0.0015917062761602,0.0015917054920155,-0.0015917048481326,0.001591707018735,-0.0015917050323285,0.0015917068041155,-0.0013304941744211,0.0013304967868932,-0.0013304948254898,0.0013304961980109,1.5582294259842e-09,-2.0934543554315e-09,-1.9907973221806e-09,1.4403405134463e-09,-0.0015035916028467,0.0015035910907266,-0.0015917060852208,0.0015917056408327,-0.0015917049864013,0.0015917067344481,-0.0015917072157031,0.0015917044942408,-0.0015917061254953,0.0015917055861904,-0.001330498155539,0.001330492980022,-0.0013304948529239,0.0013304963395829,-0.0015029426727822,0.0015029468514658,-0.0015029460348331,0.0015029430005734,-9.0734857908445e-11,-2.6499405546645e-10,-0.00080306789873063,0.00080306757020468,1.9057598341412e-09,-2.3018619679166e-09,-0.00093648213046222,0.00093648329780816,-0.0009364835308753,0.00093648189522588,-0.00093648221287482,0.00093648324735098,-0.00093648361657531,0.0009364818281065,-0.00091917844766036,0.00091917647837595,-0.00091917826296383,0.00091917664192806,0.55856767063677,125803,2834,0.0062439239180181,0.0062439240468097,0.0033448823643926,33.234031155936,2.8272249247487e-05,2.8272249247487e-05,2.8272249247487e-05,3905117.0393734,0.015959517823634
14419200,0.96537844616731,0.015757178307376,0.0059948679340056,0.0059948680599199,0.0037674423134509,-0.0015055359743146,0.0015055367154947,6.4588278407724e-10,9.6546582979927e-11,-1.4366263590509e-09,2.2689141778764e-09,-0.0015939636666126,0.0015939632884011,-0.0015939638549877,0.0015939630800154,-0.0015939624285186,0.0015939645870985,-0.0015939626199336,0.0015939643655808,-0.0013320225348638,0.0013320251122742,-0.0013320231766417,0.0013320245348601,1.5351815569043e-09,-2.0797320624676e-09,-1.9911415863826e-09,1.4374632114102e-09,-0.0015055366352394,0.0015055361194686,-0.0015939636652838,0.0015939632054453,-0.001593962581898,0.0015939643172027,-0.0015939647907154,0.0015939620810363,-0.001593963694672,0.001593963163962,-0.001332026491383,0.0013320213244373,-0.0013320231768511,0.0013320246855655,-0.0015048307484442,0.0015048348664101,-0.0015048340362007,0.0015048310264458,-7.9723459608502e-11,-2.5687314899574e-10,-0.00080369524828653,0.00080369493573309,1.9181019246411e-09,-2.2950915198843e-09,-0.00093732619875706,0.00093732737965817,-0.00093732760050793,0.0009373259785978,-0.00093732628490651,0.00093732733211181,-0.00093732768081696,0.00093732590133148,-0.00092001112053772,0.00092000916303586,-0.00092001094346526,0.00092000933040631,0.56383593712881,125803,2834,0.0062519733525551,0.0062519734866697,0.0033475008843262,32.955996131123,2.604796904898e-05,2.604796904898e-05,2.604796904898e-05,3907575.5516087,0.015978538020024
14619200,0.96715007247962,0.015779609855756,0.0060036372757529,0.0060036374013029,0.0037723351786998,-0.0015055403199635,0.0015055411018969,6.4829188742196e-10,1.0725248092209e-10,-1.3805393845283e-09,2.3538836692344e-09,-0.0015942400203377,0.0015942396233298,-0.0015942402014569,0.0015942394263091,-0.0015942387703868,0.0015942409325323,-0.0015942389560964,0.0015942407234224,-0.001331699140137,0.0013317016914997,-0.0013316998202358,0.0013317011481595,1.5379349750834e-09,-2.0952939270523e-09,-1.9761500495709e-09,1.3929575843777e-09,-0.0015055410377551,0.0015055405116361,-0.0015942399547071,0.0015942395175119,-0.0015942388857426,0.0015942406072773,-0.0015942410851313,0.0015942383878763,-0.0015942400078146,0.0015942394525993,-0.0013317030920514,0.0013316979410199,-0.0013316998463057,0.0013317012456543,-0.0015047822193965,0.0015047863395402,-0.001504785354071,0.0015047823188984,-9.9712679185079e-11,-2.5690576638166e-10,-0.00080274770974785,0.00080274739198468,1.8853835837853e-09,-2.2524134448089e-09,-0.00093649715942971,0.00093649831724843,-0.00093649853943956,0.00093649693592015,-0.00093649725122738,0.00093649827456554,-0.0009364986214835,0.00093649686249901,-0.00091916313731037,0.00091916120181342,-0.00091916295768641,0.0009191613026277,0.56645706479785,125803,2834,0.0062519901683351,0.0062519904319442,0.0033435708721918,31.823648522732,1.6989188181859e-05,1.6989188181859e-05,1.6989188181859e-05,3894571.0292819,0.015974582493372
14819200,0.96874608006067,0.015799952601684,0.0060115754683682,0.0060115755902206,0.003776801543095,-0.001505675955426,0.0015056766999216,6.1659097209846e-10,1.2327242134744e-10,-1.4664822615618e-09,2.3008690767938e-09,-0.0015946031212168,0.0015946027189671,-0.0015946032984065,0.001594602524233,-0.00159460186364,0.0015946040355001,-0.0015946020429155,0.0015946038285907,-0.0013315519059454,0.0013315544509197,-0.0013315525072978,0.0013315539114415,1.5381003609721e-09,-2.080649594878e-09,-1.9506410698849e-09,1.397431152e-09,-0.0015056766200493,0.0015056761044042,-0.0015946031038328,0.001594602675343,-0.0015946020494499,0.0015946037575416,-0.0015946042268065,0.0015946015424103,-0.0015946031589316,0.0015946025968477,-0.001331555790605,0.0013315507028001,-0.0013315525650552,0.0013315539801287,-0.0015048853237484,0.0015048894332926,-0.0015048886416504,0.0015048856136613,-1.1258411049507e-10,-2.1920870591274e-10,-0.0008020294722033,0.00080202916324883,1.8520776106863e-09,-2.225072569417e-09,-0.00093588158147586,0.00093588270308533,-0.0009358829399527,0.00093588134590121,-0.00093588165000476,0.0009358826761391,-0.00093588300239279,0.00093588129048767,-0.00091854387217371,0.00091854202414887,-0.00091854374326646,0.00091854212615108,0.56962155906871,125803,2834,0.0062525505196916,0.0062525506625311,0.0033405929345987,30.871419402959,9.3713552236701e-06,9.3713552236701e-06,9.3713552236701e-06,3882447.7553682,0.015972697951504
15019200,0.97015539872194,0.015817850740257,0.0060185564731591,0.0060185565955363,0.0037807376715612,-0.0015048045912778,0.0015048053403026,6.3899891137483e-10,1.0667771401024e-10,-1.465971449402e-09,2.3167095134087e-09,-0.0015939319774534,0.0015939315760755,-0.0015939321627863,0.0015939313704357,-0.0015939307136101,0.0015939328979455,-0.0015939309028394,0.0015939326810901,-0.0013304518054897,0.0013304543961855,-0.001330452446267,0.0013304538260909,1.5588396816942e-09,-2.1061545404277e-09,-1.917895005322e-09,1.3568387520112e-09,-0.0015048052603216,0.0015048047401574,-0.0015939319271904,0.0015939315340017,-0.0015939308950716,0.0015939325918236,-0.0015939330687811,0.0015939303902338,-0.0015939320252061,0.0015939314214815,-0.001330455699689,0.0013304506608536,-0.0013304525429741,0.0013304538671854,-0.0015039769031314,0.001503981031402,-0.0015039802463146,0.0015039771461468,-9.8112213658165e-11,-2.3467656082157e-10,-0.00080054682774569,0.00080054651995085,1.8316741146591e-09,-2.201381645947e-09,-0.00093444995939907,0.00093445107682997,-0.00093445130225571,0.00093444973380626,-0.00093445003548883,0.00093445103950861,-0.00093445137346871,0.00093444966893762,-0.00091709561135748,0.00091709375338139,-0.00091709545955646,0.00091709387834222,0.56738227831978,125803,2834,0.0062489429371748,0.0062489430795661,0.0033344359532262,29.526255453494,-1.3899563720474e-06,-1.3899563720474e-06,-1.3899563720474e-06,3863614.8269195,0.015959114300529
15219200,0.97131342989209,0.015831910869384,0.0060240614577997,0.0060240615800069,0.0037837878315772,-0.0015010327314106,0.0015010334945355,6.5112134463105e-10,9.9277780543716e-11,-1.497295684527e-09,2.385131136881e-09,-0.001590337111991,0.0015903366889547,-0.0015903373015477,0.0015903364789698,-0.0015903358151969,0.0015903380458405,-0.0015903360086874,0.0015903378242613,-0.0013265316034313,0.0013265342384515,-0.0013265322704775,0.0013265336524656,1.6096251435273e-09,-2.1671081553071e-09,-1.8501820235084e-09,1.2766996464577e-09,-0.0015010334168325,0.0015010328874586,-0.001590337004916,0.0015903366886441,-0.0015903360194048,0.0015903376963164,-0.0015903381827647,0.0015903355087987,-0.0015903371869166,0.0015903364905916,-0.0013265354664999,0.0013265305226065,-0.0013265324517168,0.001326533579409,-0.0015001366917808,0.0015001408708293,-0.0015001400966124,0.0015001368283401,-9.1680037099529e-11,-2.3887343978627e-10,-0.00079668524203217,0.00079668493945574,1.7683427091272e-09,-2.1284529999149e-09,-0.00093048616227904,0.00093048724301475,-0.00093048746026789,0.00093048594487318,-0.0009304862431735,0.00093048720353778,-0.00093048753563617,0.00093048587752145,-0.00091309766412286,0.00091309584282094,-0.0009130974868815,0.00091309595915591,0.54391445707518,125803,2834,0.0062333302404201,0.0062333304023575,0.0033183856209232,26.884880366476,-2.2520957068194e-05,-2.2520957068194e-05,-2.2520957068194e-05,3826224.2434878,0.015911086088927
15419200,0.97236729908631,0.015846542579952,0.0060296977816443,0.0060296979032921,0.003787146895016,-0.0015004667512121,0.0015004674960851,6.2683548301804e-10,1.3024114269308e-10,-1.5313002034181e-09,2.3393146377789e-09,-0.0015898990200787,0.0015898985908066,-0.0015898991941008,0.0015898983890015,-0.0015898977291791,0.0015898999370373,-0.0015898979088331,0.0015898997291043,-0.0013258046240278,0.0013258072490639,-0.0013258052142568,0.0013258067029004,1.5873452977496e-09,-2.1327406187525e-09,-1.8629345239148e-09,1.3100131172025e-09,-0.0015004674090182,0.001500466889052,-0.0015898989485742,0.0015898986074537,-0.0015898979467424,0.0015898996236088,-0.0015899001054809,0.0015898974361101,-0.0015898990994729,0.0015898984363204,-0.0013258084909777,0.0013258035499135,-0.0013258054387089,0.0013258066604704,-0.0014996024166564,0.0014996065709099,-0.001499605904849,0.0014996027106157,-1.2202415101818e-10,-2.0756117564856e-10,-0.00079577664390759,0.00079577633686829,1.7606217614325e-09,-2.1372028318167e-09,-0.0009294988610221,0.00092949992038722,-0.00092950015989312,0.0009294986227459,-0.00092949891901501,0.00092949989753569,-0.00092950021315366,0.00092949857380047,-0.00091226586259189,0.00091226410947579,-0.00091226577936799,0.00091226420561646,0.61488003892992,125803,2834,0.0062309887735077,0.0062309888784144,0.0033146082757736,25.931875132767,-3.0144998937861e-05,-3.0144998937861e-05,-3.0144998937861e-05,3817831.6060454,0.015902490799972
15619200,0.97336095845717,0.015860633034027,0.0060351141241116,0.0060351142463642,0.0037904046635513,-0.0015011144689513,0.0015011152021308,5.6704353820914e-10,1.8090092518915e-10,-1.5361627563411e-09,2.3127135243658e-09,-0.0015906007708201,0.001590600320432,-0.0015906009243063,0.0015906001509913,-0.0015905994856937,0.001590601660365,-0.001590599639831,0.0015906014823273,-0.0013263857861499,0.0013263882933957,-0.0013263862909437,0.0013263878465552,1.5200548746611e-09,-2.0594072313184e-09,-1.9238765510754e-09,1.3787437324577e-09,-0.001501115110637,0.0015011145978242,-0.0015906007351818,0.0015906003146714,-0.0015905997060772,0.0015906013838626,-0.0015906018507452,0.0015905991976491,-0.0015906008005368,0.0015906002364887,-0.0013263896307545,0.0013263846078543,-0.0013263864674865,0.00132638785768,-0.001500287813787,0.0015002918811617,-0.0015002912197861,0.001500288242232,-1.6976859610154e-10,-1.3792090831681e-10,-0.00079581709699495,0.00079581680313695,1.7878923221131e-09,-2.1498316996577e-09,-0.00092972074354911,0.00092972179038217,-0.00092972205695004,0.00092972047796363,-0.00092972076782418,0.00092972180047696,-0.0009297220736904,0.00092972046222913,-0.0009123896385212,0.0009123879940428,-0.00091238967645163,0.0009123880142114,0.62695262325864,125803,2834,0.0062336672460317,0.0062336673232542,0.0033147870076441,25.554281928385,-3.3165744572921e-05,-3.3165744572921e-05,-3.3165744572921e-05,3799659.8306128,0.015908116663213
15819200,0.9742775439013,0.015874583440569,0.0060404426945797,0.0060404428176809,0.0037936979283088,-0.0015009738655673,0.0015009746136005,6.8782182069199e-10,5.1844048317558e-11,-1.4066441141055e-09,2.2716153530632e-09,-0.0015904872995224,0.0015904869543954,-0.0015904875115611,0.0015904867170347,-0.001590486068846,0.0015904882421832,-0.0015904862882121,0.0015904879940293,-0.0013262354558901,0.001326238103226,-0.0013262361944095,0.0013262374356588,1.5516012730579e-09,-2.0952584911966e-09,-1.9139898659011e-09,1.3535607175757e-09,-0.0015009745386197,0.0015009740210616,-0.0015904872764349,0.0015904868797474,-0.0015904862392293,0.0015904879316474,-0.001590488407628,0.0015904857391057,-0.0015904873674266,0.0015904867698837,-0.0013262393707635,0.0013262343503949,-0.001326236218461,0.0013262375460601,-0.0015001995070072,0.001500203622438,-0.0015002027985359,0.0015001997111213,-6.950115525806e-11,-2.7445882494188e-10,-0.00079518098624033,0.00079518067129232,1.858599858745e-09,-2.2353345220445e-09,-0.00092924585908297,0.00092924701228516,-0.00092924722146725,0.00092924565001672,-0.00092924595611816,0.00092924695539617,-0.00092924731491179,0.00092924556376261,-0.00091180119417769,0.00091179924167408,-0.00091180096732109,0.00091179941542506,0.66920157953039,125803,2834,0.0062330822784584,0.0062330824448756,0.0033121537110145,24.792583044375,-3.9259335644999e-05,-3.9259335644999e-05,-3.9259335644999e-05,3774156.2092457,0.015904254660346
16019200,0.97515278332345,0.015887874775071,0.006045521249022,0.006045521371666,0.0037968321543833,-0.0015019433882918,0.0015019441144694,5.2604274646107e-10,2.1247837457857e-10,-1.4973250702763e-09,2.2693344736837e-09,-0.0015914351366735,0.0015914346859306,-0.0015914352715299,0.0015914345390463,-0.0015914338780832,0.0015914359955118,-0.0015914340112237,0.0015914358422395,-0.0013272364654849,0.0013272388582547,-0.0013272369018077,0.0013272385000827,1.435685889958e-09,-1.9641357996124e-09,-2.0181766594951e-09,1.483693468229e-09,-0.0015019440215762,0.0015019435205205,-0.0015914351538162,0.0015914346223681,-0.0015914340644422,0.0015914357596007,-0.0015914362119137,0.0015914335642152,-0.0015914350957107,0.0015914346699361,-0.0013272403141111,0.0013272351632332,-0.0013272369625428,0.0013272386279746,-0.0015012221982912,0.0015012261661411,-0.0015012254233866,0.0015012227117014,-2.1560069891601e-10,-9.3715509937853e-11,-0.000795446517076,0.00079544622126871,1.8574396435803e-09,-2.2202803282082e-09,-0.00092982290235437,0.00092982396737829,-0.00092982426431846,0.00092982260653721,-0.00092982290085423,0.0009298240047048,-0.00092982425014958,0.00092982261820169,-0.00091214726681633,0.00091214567205258,-0.0009121473977686,0.00091214559162066,0.66743247752354,125803,2834,0.0062370902442873,0.0062370903255642,0.0033132745441515,24.59348328704,-4.0852133703683e-05,-4.0852133703683e-05,-4.0852133703683e-05,3748383.0950974,0.015913539518445
16219200,0.97601643593726,0.015900932846078,0.0060505135108963,0.0060505136342182,0.0037999057009633,-0.0015039678286622,0.0015039685394966,6.0919254040959e-10,1.1717030946865e-10,-1.4188856484292e-09,2.1672819050255e-09,-0.0015934439369477,0.0015934435881312,-0.001593444127622,0.001593443383741,-0.0015934427343794,0.0015934448414056,-0.0015934429283583,0.001593444625967,-0.0013292630197332,0.0013292655285839,-0.0013292636348544,0.0013292649802789,1.4294964882753e-09,-1.9540012126122e-09,-2.0560817703502e-09,1.5258148418506e-09,-0.0015039684513691,0.0015039679534238,-0.0015934440242733,0.0015934434596368,-0.0015934429057401,0.0015934446257952,-0.0015934450734742,0.0015934424105733,-0.0015934439334845,0.0015934435409083,-0.0013292669603674,0.0013292617481955,-0.0013292635337235,0.0013292652776569,-0.0015032928002519,0.0015032967856853,-0.0015032960229477,0.0015032933437303,-1.3484560605022e-10,-1.8340301122272e-10,-0.00079662596555647,0.00079662565933806,1.9572809763987e-09,-2.3332009551902e-09,-0.00093136201207286,0.00093136319108262,-0.000931363441307,0.00093136176238055,-0.00093136206268486,0.00093136317454503,-0.00093136348634876,0.0009313617167271,-0.00091346551415935,0.00091346366201062,-0.00091346547376392,0.00091346376571069,0.66426057353058,125803,2834,0.0062454646964353,0.0062454647721207,0.0033181948730103,24.944703539922,-3.804237168062e-05,-3.804237168062e-05,-3.804237168062e-05,3734336.1937314,0.015935556872459
16419200,0.97680870204764,0.015911669122462,0.0060546638240774,0.0060546639480864,0.0038023413502985,-0.0015034291692423,0.0015034299000637,6.4338784588412e-10,7.8450010582498e-11,-1.3576918172116e-09,2.1945232956432e-09,-0.0015929228632997,0.0015929225315198,-0.0015929230619011,0.0015929223151184,-0.0015929216724512,0.0015929237774691,-0.0015929218756259,0.0015929235492916,-0.0013287303198117,0.0013287328384323,-0.0013287310007334,0.0013287322403188,1.4558696564755e-09,-1.9861402720025e-09,-2.0701266952337e-09,1.5236202622722e-09,-0.0015034298233815,0.0015034293199813,-0.0015929229295007,0.0015929223731167,-0.0015929217955123,0.0015929235407339,-0.0015929239963324,0.0015929213054933,-0.0015929228481391,0.0015929224425473,-0.0013287342854765,0.0013287290222059,-0.0013287308227888,0.0013287325481564,-0.0015027299094918,0.0015027339437948,-0.0015027330216922,0.0015027302735609,-1.1496740824762e-10,-2.2426156878654e-10,-0.00079559603655924,0.00079559572063594,1.9871427314293e-09,-2.3642415462504e-09,-0.00093058643129063,0.00093058763854721,-0.00093058788010936,0.00093058618962595,-0.00093058650024372,0.00093058760984988,-0.00093058794332092,0.00093058613166643,-0.00091242135283227,0.00091241940615154,-0.00091242122183862,0.00091241950183685,0.59982143342769,125803,2834,0.0062432302259495,0.0062432303790328,0.0033139283655986,24.07375903455,-4.5009927723596e-05,-4.5009927723596e-05,-4.5009927723596e-05,3706270.9494437,0.015926685077467
16619200,0.97756134007514,0.015923764442012,0.0060592609928178,0.0060592611165359,0.0038052423326584,-0.0015039055799819,0.0015039062905968,5.9791462011878e-10,1.2642436341071e-10,-1.4211163238718e-09,2.1714158641476e-09,-0.0015934309709858,0.0015934306061265,-0.0015934311479047,0.001593430415752,-0.001593429769056,0.0015934318636686,-0.0015934299458892,0.0015934316605457,-0.0013291541625717,0.001329156640162,-0.0013291547388553,0.0013291561127375,1.4312882707729e-09,-1.9522312844782e-09,-2.1138673390081e-09,1.5870476537303e-09,-0.0015039062011567,0.0015039057060384,-0.0015934310698025,0.0015934304658908,-0.0015934299102907,0.0015934316741676,-0.0015934321216579,0.0015934294187377,-0.0015934309372154,0.0015934305894093,-0.0013291581457579,0.0013291528150468,-0.0013291545796948,0.0013291564476675,-0.0015032558713944,0.0015032598839047,-0.001503259056391,0.0015032564046024,-1.5756896634964e-10,-1.6660430982329e-10,-0.00079562911738999,0.00079562880653934,2.0024349763647e-09,-2.3836838501295e-09,-0.00093069710988878,0.00093069829564591,-0.00093069857000895,0.00093069683743201,-0.00093069714242913,0.00093069829882807,-0.00093069859627713,0.00093069681246108,-0.00091257164414012,0.00091256979284793,-0.00091257164188046,0.00091256984583337,0.70236007780843,125803,2834,0.0062452007383635,0.0062452008140186,0.0033140720639291,23.766505237506,-4.7467958099949e-05,-4.7467958099949e-05,-4.7467958099949e-05,3701363.68702,0.01593083459911
16819200,0.97828461360707,0.015935444788675,0.0060637018470815,0.006063701971357,0.0038080409702368,-0.0015048714756451,0.0015048721928121,6.2754677546501e-10,9.7348707299109e-11,-1.394637771244e-09,2.1748172453554e-09,-0.0015943412492141,0.0015943409106267,-0.0015943414435391,0.001594340694042,-0.0015943400529971,0.0015943421571195,-0.0015943402526551,0.0015943419337106,-0.0013301940171677,0.0013301965439443,-0.0013301946639427,0.0013301959645924,1.4364311337208e-09,-1.9572483456429e-09,-2.1400690130295e-09,1.6091013877189e-09,-0.0015048721077966,0.0015048716120707,-0.0015943413593706,0.0015943407448115,-0.0015943401765369,0.0015943419584417,-0.0015943424085023,0.0015943396864165,-0.0015943412141616,0.0015943408763717,-0.0013301980454197,0.0013301926670574,-0.0013301944495796,0.0013301963595057,-0.0015042745881904,0.0015042786453445,-0.0015042777735361,0.0015042751428496,-1.3977836592879e-10,-1.9943029789424e-10,-0.0007959154409039,0.00079591511950468,2.0448259730915e-09,-2.4357565783949e-09,-0.00093132406582388,0.00093132529870763,-0.00093132555968055,0.00093132380600839,-0.00093132412003623,0.00093132528080939,-0.00093132560691746,0.00093132376016997,-0.00091293238120625,0.0009129304412828,-0.00091293231748388,0.00091293052579914,0.70571910658709,125803,2834,0.0062491926878915,0.0062491927941397,0.0033152811689414,23.643658385185,-4.8450732918518e-05,-4.8450732918518e-05,-4.8450732918518e-05,3676931.5329876,0.015940176754191
17019200,0.97897549956818,0.01594638393854,0.0060678691953061,0.0060678693197902,0.0038106454234443,-0.0015055712936763,0.0015055720188889,6.3433826793075e-10,9.0679448040401e-11,-1.3765514129463e-09,2.1878982640334e-09,-0.0015949913553678,0.0015949910133579,-0.0015949915463883,0.0015949908023795,-0.0015949901615397,0.0015949922618809,-0.0015949903566133,0.0015949920404386,-0.0013309600246155,0.0013309625418383,-0.0013309606746761,0.0013309619593196,1.451359549962e-09,-1.9760740704873e-09,-2.1674025087133e-09,1.6293664802409e-09,-0.0015055719384002,0.0015055714394863,-0.0015949914587497,0.0015949908339836,-0.0015949902576576,0.0015949920679092,-0.0015949925207923,0.0015949897687841,-0.0015949913060419,0.0015949909745245,-0.0013309640867837,0.0013309586388028,-0.0013309604248694,0.0013309623652234,-0.001505007090782,0.0015050111818676,-0.0015050102297915,0.0015050075638204,-1.4160741551404e-10,-2.0344328656489e-10,-0.00079597042124724,0.0007959700978083,2.0685545699344e-09,-2.4583649972968e-09,-0.00093171546517698,0.00093171670640153,-0.00093171697236999,0.00093171519991878,-0.00093171551614711,0.00093171669403953,-0.00093171701752668,0.00093171515906655,-0.00091304967263132,0.00091304771061566,-0.00091304960044161,0.00091304777270254,0.6924630512263,125803,2834,0.0062520830363006,0.006252083171312,0.0033155288100705,23.416495435919,-5.026803651265e-05,-5.026803651265e-05,-5.026803651265e-05,3652982.3594814,0.015946303743352
17219200,0.97962801612436,0.015956438782795,0.0060717088440391,0.0060717089684482,0.0038130209703081,-0.0015057869617544,0.0015057876921926,6.2512965330643e-10,1.0295781247421e-10,-1.3993696089837e-09,2.220954791885e-09,-0.0015951762354794,0.0015951758741899,-0.0015951764223452,0.0015951756681632,-0.001595175022948,0.0015951771408551,-0.001595175213495,0.0015951769255281,-0.0013312212429042,0.0013312237608981,-0.0013312218816391,0.0013312231994131,1.4594409456691e-09,-1.9869962072056e-09,-2.1804973658897e-09,1.6391145808181e-09,-0.0015057876114888,0.0015057871104493,-0.001595176328182,0.0015951757018339,-0.0015951751211199,0.0015951769424864,-0.001595177396497,0.0015951746301012,-0.0015951761750186,0.001595175843349,-0.0013312253205349,0.00133121984028,-0.0013312216422576,0.0013312235927688,-0.0015052365522741,0.0015052406696389,-0.0015052397098099,0.0015052370369665,-1.557586455638e-10,-1.8806143520519e-10,-0.00079564985672194,0.0007956495345062,2.0737593403367e-09,-2.4609099325654e-09,-0.00093166785099912,0.00093166908898517,-0.00093166936213405,0.00093166757850299,-0.00093166789516501,0.00093166908405273,-0.00093166939896084,0.00093166754550637,-0.00091277171628102,0.00091276978000906,-0.00091277167018759,0.00091276981383657,0.67476320774888,125803,2834,0.0062529702251245,0.0062529703656542,0.0033142125765448,22.993507001061,-5.3651943991512e-05,-5.3651943991512e-05,-5.3651943991512e-05,3631505.6605606,0.015946771125716
17419200,0.98025090912572,0.015965626345637,0.0060752304510498,0.0060752305753486,0.0038151653192386,-0.0015062288335482,0.0015062295578246,6.4356268436646e-10,8.5270332049888e-11,-1.4189955381309e-09,2.2150239548916e-09,-0.0015956094093436,0.0015956090565699,-0.0015956096068194,0.0015956088369773,-0.0015956081929663,0.0015956103265113,-0.0015956083949936,0.0015956100979,-0.0013316711340406,0.0013316737026705,-0.0013316717948709,0.0013316731009924,1.4834043821908e-09,-2.0105920857651e-09,-2.1797636460965e-09,1.641691820916e-09,-0.0015062294745058,0.001506228972592,-0.0015956095085048,0.0015956088948486,-0.0015956082993788,0.0015956101347034,-0.0015956105917835,0.0015956078048663,-0.0015956093706066,0.0015956090190915,-0.0013316752411424,0.0013316697496859,-0.0013316715585531,0.0013316735032282,-0.0015056784689377,0.0015056826342851,-0.0015056817101567,0.0015056789843036,-1.4298911546501e-10,-2.0301335308142e-10,-0.00079558918013962,0.00079558885438138,2.081416380333e-09,-2.4767035882207e-09,-0.0009318345895417,0.00093183583947315,-0.00093183610753857,0.00093183432263837,-0.00093183463973707,0.00093183582641545,-0.0009318361519114,0.00093183428137597,-0.00091276250970809,0.00091276054075872,-0.00091276244343075,0.00091276060792213,0.64748127649892,125803,2834,0.0062547946768808,0.0062547947920494,0.0033139737819811,22.736882828901,-5.5704937368792e-05,-5.5704937368792e-05,-5.5704937368792e-05,3618298.6583447,0.015950237170421
17619200,0.98075900256609,0.015972831602044,0.0060780020968571,0.0060780022212534,0.0038168272839335,-0.0015013605897795,0.0015013613732546,6.7789244343941e-10,6.246326590775e-11,-1.4050045597222e-09,2.3971902617183e-09,-0.0015907714662216,0.0015907710740997,-0.0015907716722185,0.0015907708507862,-0.0015907701911871,0.0015907724078874,-0.0015907704036642,0.0015907721735336,-0.0013268622916226,0.0013268649036117,-0.0013268630518145,0.0013268642890995,1.576144730331e-09,-2.1365876872197e-09,-2.0993973965882e-09,1.5089975973155e-09,-0.0015013613137378,0.0015013607846813,-0.0015907714314186,0.0015907709376436,-0.0015907702837861,0.0015907721073216,-0.0015907725849062,0.0015907697826832,-0.001590771429222,0.0015907709267811,-0.001326866385599,0.0013268609655205,-0.0013268629037263,0.0013268645038334,-0.0015007590834135,0.0015007633630248,-0.0015007622564522,0.0015007592339105,-1.2532746415886e-10,-2.2918989061205e-10,-0.00079101899578169,0.00079101867819007,2.0072401026136e-09,-2.369238788419e-09,-0.00092716936559109,0.00092717058177364,-0.00092717082433671,0.00092716912040405,-0.00092716943907408,0.00092717055712144,-0.00092717088925254,0.00092716906650788,-0.00090797703242764,0.00090797506919986,-0.00090797687053459,0.00090797508775268,0.62390559412416,125803,2834,0.006234641891996,0.0062346421718828,0.0032949796407581,19.88639022811,-7.8508878175119e-05,-7.8508878175119e-05,-7.8508878175119e-05,3573917.2984065,0.015889992748122
17819200,0.98123401453587,0.015979336186683,0.0060805069146621,0.0060805070380007,0.0038183222340199,-0.0015006361428455,0.0015006368714569,6.8389932787439e-10,6.5060702263735e-11,-1.5346809174926e-09,2.2956188294205e-09,-0.0015900637072505,0.0015900633280678,-0.0015900639304832,0.0015900630895442,-0.0015900624256057,0.0015900646657532,-0.0015900626515736,0.0015900644135764,-0.0013261137618553,0.0013261164928568,-0.0013261144797485,0.0013261158303834,1.5906878063441e-09,-2.1375731537185e-09,-2.065991065767e-09,1.515991442309e-09,-0.0015006367853755,0.001500636265747,-0.001590063737649,0.0015900632611663,-0.0015900626147652,0.0015900644297969,-0.0015900649008504,0.0015900620996039,-0.0015900637566205,0.0015900632304978,-0.0013261178920389,0.0013261125421342,-0.0013261144522967,0.00132611606938,-0.0015000247768259,0.0015000290722085,-0.0015000283334469,0.001500025280168,-1.1111869743132e-10,-2.1257134891474e-10,-0.000790179489008,0.00079017917845354,1.9858952438039e-09,-2.3686882117626e-09,-0.00092632155389017,0.00092632275835069,-0.00092632300157481,0.00092632131214911,-0.00092632161408759,0.00092632273216072,-0.0009263230584987,0.00092632125649928,-0.00090713866662574,0.00090713674486159,-0.00090713858925012,0.00090713689585709,0.6034192422738,125803,2834,0.0062316423682197,0.0062316424442812,0.0032914918996227,19.211255139784,-8.3909958881731e-05,-8.3909958881731e-05,-8.3909958881731e-05,3566636.6773899,0.015880354415419
18019200,0.98169626258422,0.01598565886516,0.0060829398192467,0.0060829399430533,0.0038197791028598,-0.0015011243883581,0.001501125123982,6.4034799022022e-10,1.047326634302e-10,-1.5139193219216e-09,2.3090739008479e-09,-0.0015905988165163,0.0015905984116259,-0.0015905990133307,0.0015905982014957,-0.0015905975382587,0.0015905997433262,-0.0015905977365001,0.0015905995197318,-0.0013265320016479,0.0013265346367001,-0.0013265326375376,0.0013265340506772,1.5544123990623e-09,-2.0987560834461e-09,-2.0947657649138e-09,1.5425372024664e-09,-0.0015011250406586,0.0015011245235534,-0.001590598842465,0.0015905983289185,-0.0015905977024106,0.0015905995152006,-0.0015905999823378,0.0015905971889109,-0.0015905988200966,0.0015905983381084,-0.0013265360933178,0.0013265307172915,-0.001326532587185,0.0013265342839812,-0.0015004971465255,0.0015005013875347,-0.0015005005608324,0.0015004975960349,-1.612584537137e-10,-1.6962500377845e-10,-0.00079044230634625,0.0007904419929725,1.9837668182707e-09,-2.3666055350285e-09,-0.00092660341820144,0.00092660459508034,-0.00092660486703952,0.0009266031478444,-0.00092660345333077,0.00092660459814769,-0.00092660489384379,0.0009266031192035,-0.00090745228080337,0.00090745044032852,-0.00090745227558798,0.0009074504764605,0.60266014559916,125803,2834,0.006233663363887,0.0062336634710842,0.0032925849647268,19.169510930026,-8.4243912559789e-05,-8.4243912559789e-05,-8.4243912559789e-05,3574287.3160246,0.015885570884396
18219200,0.98210749830021,0.015991391932275,0.0060851412569932,0.0060851413809911,0.0038211092942909,-0.0014987257737405,0.0014987265560612,7.3189122740186e-10,1.6154077739308e-11,-1.4065410438425e-09,2.3863187296008e-09,-0.0015882553563189,0.0015882550013121,-0.0015882555849301,0.0015882547338128,-0.0015882540862132,0.0015882563225832,-0.001588254329,0.0015882560550353,-0.0013241149823027,0.0013241177180701,-0.0013241158155608,0.0013241170075948,1.6065609934291e-09,-2.1605657368812e-09,-2.0369278368831e-09,1.4538307879325e-09,-0.0014987264927954,0.0014987259654086,-0.0015882553191551,0.0015882548844664,-0.0015882541933446,0.0015882559928857,-0.0015882564815748,0.0015882536912391,-0.0015882553738073,0.0015882548034622,-0.0013241190723486,0.0013241137760421,-0.0013241157148722,0.0013241172110267,-0.0014980654732253,0.0014980697974295,-0.0014980687618295,0.0014980656429277,-1.0290755089443e-10,-2.7710431044765e-10,-0.0007882160589861,0.00078821572245448,1.9649004111191e-09,-2.355379212746e-09,-0.00092426323379906,0.00092426444651511,-0.00092426467595279,0.00092426300278201,-0.00092426332924256,0.00092426439624468,-0.00092426476370198,0.00092426292476044,-0.00090513063864222,0.00090512862994238,-0.00090513041125975,0.00090512869110196,0.61339063423829,125803,2834,0.0062237353746105,0.0062237356400662,0.0032833281547886,17.685423864905,-9.6116609080757e-05,-9.6116609080757e-05,-9.6116609080757e-05,3560177.2539539,0.015855995223345
18419200,0.98247899268604,0.015996609057249,0.0060871409218906,0.0060871410451478,0.0038223270902109,-0.0014967205860512,0.0014967213307913,7.4088433455097e-10,9.0697661013419e-12,-1.4883305325239e-09,2.3190616687285e-09,-0.0015862773858361,0.0015862770405574,-0.0015862776067793,0.001586276743346,-0.0015862761185566,0.0015862783635852,-0.0015862763603841,0.0015862780833099,-0.0013221094053398,0.0013221122450738,-0.001322110227722,0.0013221114453727,1.6292982457041e-09,-2.1491663303587e-09,-1.976853716294e-09,1.4438544209113e-09,-0.001496721235041,0.0014967207303417,-0.0015862773884433,0.0015862769947977,-0.0015862762653402,0.0015862780480504,-0.0015862785452979,0.0015862757791623,-0.0015862774716282,0.0015862768779054,-0.0013221134563277,0.001322108291706,-0.0013221101738284,0.0013221116386673,-0.0014960442129988,0.0014960485533914,-0.0014960477723437,0.0014960446034493,-1.0276908980648e-10,-2.8639730634712e-10,-0.00078635889659656,0.00078635854241493,1.9144582473518e-09,-2.3482087134818e-09,-0.00092231344511917,0.00092231461898965,-0.00092231486850203,0.00092231319683157,-0.00092231352842253,0.00092231456518659,-0.00092231495870634,0.00092231313257732,-0.00090319866080287,0.00090319664697037,-0.00090319842267009,0.00090319678298017,0.6173871673006,125803,2834,0.0062154354276784,0.0062154355279981,0.0032756065270565,16.426633615486,-0.00010618693107611,-0.00010618693107611,-0.00010618693107611,3545576.8415544,0.015831287254153
18619200,0.98283243884231,0.016001526078374,0.0060890254581611,0.0060890255815524,0.0038234750386607,-0.001496265896844,0.0014962666239754,7.1419171916852e-10,2.5966404038298e-11,-1.4958588135989e-09,2.2720942534331e-09,-0.0015858411402245,0.001585840800831,-0.0015858413840433,0.001585840534826,-0.0015858398787605,0.0015858421119577,-0.0015858401301756,0.0015858418361318,-0.0013216380701857,0.0013216408340388,-0.0013216388495166,0.0013216401110637,1.5822159089783e-09,-2.1278662813151e-09,-1.9974060489244e-09,1.4451238151028e-09,-0.0014962665421036,0.0014962660222886,-0.0015858411660228,0.0015858407317257,-0.001585840082398,0.0015858418462213,-0.0015858423191773,0.0015858395665066,-0.0015858412254987,0.0015858406535298,-0.0013216421296548,0.0013216369295883,-0.0013216388286368,0.0013216403256736,-0.0014955827200234,0.0014955869704247,-0.0014955862394988,0.001495583166366,-1.012068780983e-10,-2.3092729280031e-10,-0.00078586572228424,0.00078586540822536,1.9319119701893e-09,-2.3180955779551e-09,-0.00092180867335096,0.00092180985748537,-0.00092181008749488,0.00092180844438456,-0.00092180874644601,0.00092180981877316,-0.00092181015571626,0.00092180837379695,-0.00090269907559617,0.00090269716596986,-0.00090269895740292,0.00090269731183339,0.61178946886943,125803,2834,0.0062135532284651,0.0062135533185201,0.003273556764334,15.967471378741,-0.00010986022897007,-0.00010986022897007,-0.00010986022897007,3541783.7956378,0.015825380817628
18819200,0.98317498898125,0.016006606410265,0.0060909601978912,0.0060909603215261,0.003824685890848,-0.0014963655689851,0.0014963662996906,6.8986745443458e-10,4.5389930074676e-11,-1.4555197555176e-09,2.2572763357574e-09,-0.0015859629143464,0.0015859625732118,-0.0015859631449714,0.0015859623260838,-0.0015859616713313,0.0015859638684784,-0.0015859619067009,0.0015859636090623,-0.0013217122958096,0.0013217149792207,-0.0013217130414505,0.0013217143018697,1.5359919814405e-09,-2.0785373466868e-09,-2.0222462461122e-09,1.4695565774634e-09,-0.0014963662209423,0.0014963657054867,-0.0015859629500422,0.0015859624735538,-0.0015859618536481,0.0015859636088195,-0.0015859640747918,0.0015859613450734,-0.001585962961819,0.0015859624467198,-0.0013217163302766,0.001321711107625,-0.001321712973504,0.0013217145437428,-0.001495685190891,0.0014956893564865,-0.0014956885530705,0.0014956855911412,-1.2744482015891e-10,-2.0268886584722e-10,-0.00078587019256193,0.00078586988181075,1.9431041462025e-09,-2.320825564737e-09,-0.00092181735768084,0.00092181853127039,-0.00092181877703338,0.00092181711260666,-0.00092181741496306,0.00092181851137732,-0.00092181882794398,0.00092181706100603,-0.00090272798963329,0.00090272612215571,-0.0009027279155319,0.00090272620649173,0.64923264782542,125803,2834,0.0062139659155526,0.0062139660349229,0.0032735755751346,15.791176761679,-0.00011127058590657,-0.00011127058590657,-0.00011127058590657,3543371.1323799,0.015826238239803
19019200,0.98351900653609,0.016012027868202,0.0060930142312525,0.0060930143549754,0.0038259992819745,-0.0014976385499548,0.0014976392722846,7.9507619967375e-10,-4.4510488411603e-11,-1.3694756249891e-09,2.1505640164514e-09,-0.0015872188294052,0.001587218574284,-0.0015872190044545,0.0015872182026864,-0.0015872176776048,0.0015872198005111,-0.0015872178960421,0.0015872194969886,-0.0013229969763185,0.0013229998741297,-0.0013229978281866,0.0013229988899315,1.587124051332e-09,-2.0136748510834e-09,-1.9737155123222e-09,1.5309297721353e-09,-0.0014976391334141,0.0014976386936093,-0.0015872189384204,0.0015872185063191,-0.0015872176880649,0.0015872194757357,-0.0015872199988027,0.0015872172900172,-0.0015872189200552,0.0015872184556575,-0.0013230009572397,0.0013229958818503,-0.0013229975718799,0.0013229992697473,-0.001496981764041,0.0014969860495301,-0.0014969852831091,0.0014969823198735,-1.2143036538489e-10,-3.8253481232407e-10,-0.00078682371244978,0.00078682326624859,1.9197502468227e-09,-2.4811046473532e-09,-0.00092291817190032,0.00092291932663219,-0.0009229196480887,0.00092291785754377,-0.00092291824962872,0.00092291925816935,-0.00092291976168099,0.00092291782343243,-0.00090375255957434,0.00090375034989554,-0.00090375218352533,0.00090375049599211,0.68719397985988,125803,2834,0.006219233377821,0.0062192333876239,0.0032775452936756,16.171967775938,-0.0001082242577925,-0.0001082242577925,-0.0001082242577925,3544291.9607618,0.01584097351358
19219200,0.98388515944185,0.016017973659711,0.0060952627556425,0.0060952628797429,0.0038274480243254,-0.0015008427635192,0.0015008434558999,7.6301209379841e-10,-4.7393992793112e-11,-1.3302574104316e-09,2.0521882798803e-09,-0.0015903746548101,0.0015903744480255,-0.0015903749140531,0.0015903741306696,-0.0015903735269376,0.0015903756296762,-0.0015903738024008,0.001590375313479,-0.0013262226116673,0.001326225370425,-0.0013262234839955,0.0013262244843728,1.4801210821993e-09,-1.9776587279436e-09,-2.080354994931e-09,1.5755065696444e-09,-0.0015008433624323,0.0015008428792373,-0.0015903748272054,0.0015903742681775,-0.0015903736428684,0.0015903754219593,-0.0015903758859746,0.0015903731678178,-0.0015903747301109,0.0015903743349972,-0.0013262266819919,0.0013262214181159,-0.0013262231616891,0.0013262249924332,-0.0015002230765361,0.0015002271984462,-0.0015002264063151,0.0015002236557119,-8.000661825295e-11,-3.0076259323276e-10,-0.00078936612719773,0.00078936577305636,2.0389734979927e-09,-2.4821544318262e-09,-0.00092578990659046,0.00092579117187801,-0.00092579141218407,0.00092578967029477,-0.0009257899988811,0.00092579110801205,-0.00092579150995548,0.00092578958295111,-0.00090644576305856,0.00090644363053138,-0.00090644553087045,0.00090644385593869,0.70678359704775,125803,2834,0.0062324925326322,0.0062324925786038,0.0032881274083207,17.485000932166,-9.7719992542671e-05,-9.7719992542671e-05,-9.7719992542671e-05,3551467.7422953,0.015878664992767
19419200,0.98426015084047,0.016023931553186,0.0060975227223189,0.0060975228467754,0.0038288859840917,-0.0015029553376862,0.0015029560595804,6.7718141921954e-10,3.7108865996675e-11,-1.2949819441317e-09,2.1240648294539e-09,-0.0015924420028888,0.0015924417317237,-0.0015924422264599,0.0015924414878333,-0.0015924408583068,0.0015924429326757,-0.0015924410859532,0.0015924426779163,-0.0013283825150904,0.001328385058171,-0.001328383271352,0.0013283843863362,1.3843927553398e-09,-1.8998370100334e-09,-2.1601791905058e-09,1.6274336305491e-09,-0.0015029559831987,0.0015029554935734,-0.0015924421498767,0.001592441492615,-0.0015924409505182,0.0015924427214108,-0.0015924431657329,0.0015924404750429,-0.0015924419541311,0.0015924416766345,-0.0013283865613255,0.0013283811730407,-0.001328382910552,0.0013283848901558,-0.0015023510764075,0.001502355034413,-0.0015023540332884,0.0015023515129986,-1.5611166721139e-10,-1.93926708231e-10,-0.00079088912484588,0.00079088880029207,2.0791915097424e-09,-2.467621371815e-09,-0.00092764538335671,0.00092764662725605,-0.00092764689904709,0.0009276451120467,-0.00092764543054628,0.00092764662001514,-0.0009276469400866,0.00092764507661072,-0.00090805751712127,0.00090805556777068,-0.00090805745772373,0.00090805559155082,0.6926516874891,125803,2834,0.0062412320773606,0.0062412322416962,0.0032944735869238,18.22191683282,-9.1824665337436e-05,-9.1824665337436e-05,-9.1824665337436e-05,3547868.0136335,0.015902871851512
19619200,0.98463189259494,0.016029690324829,0.0060997131749058,0.0060997132991707,0.0038302638507526,-0.0015040347091309,0.0015040354331188,6.5810849500193e-10,5.780496150987e-11,-1.3000047625704e-09,2.1358980481337e-09,-0.0015934947877212,0.0015934945003811,-0.0015934949925211,0.0015934942601135,-0.0015934936396249,0.0015934957028467,-0.0015934938515776,0.0015934954613914,-0.0013294938204346,0.0013294963391157,-0.0013294945382037,0.001329495696021,1.379773084997e-09,-1.8850192317749e-09,-2.1741355117046e-09,1.6495467502419e-09,-0.0015040353515646,0.001504034868559,-0.001593494934113,0.0015934942666047,-0.0015934937120301,0.0015934954904095,-0.0015934959382404,0.0015934932439654,-0.0015934947199266,0.0015934944631968,-0.0013294978529646,0.0013294924487225,-0.0013294941709249,0.0013294962019081,-0.0015034355517953,0.001503439521105,-0.0015034385069281,0.0015034360308012,-1.8874746508108e-10,-1.7721982482071e-10,-0.00079153182503091,0.00079153148822163,2.0779235440128e-09,-2.4812649881746e-09,-0.00092852955642499,0.00092853078328887,-0.00092853107896122,0.00092852926092746,-0.00092852958856194,0.00092853078880998,-0.00092853110557131,0.00092852924423495,-0.00090875688993317,0.00090875497208782,-0.00090875686600174,0.00090875493682406,0.67639367147194,125803,2834,0.006245695527653,0.006245695688617,0.0032971578957521,18.455997462747,-8.9952020298021e-05,-8.9952020298021e-05,-8.9952020298021e-05,3540868.7912736,0.015914669753541
19819200,0.9849972633981,0.016035185781861,0.0061018092187459,0.006101809342833,0.0038315672202824,-0.001504803810898,0.0015048045281769,6.359641820249e-10,7.5868641559196e-11,-1.3365389579464e-09,2.145587697651e-09,-0.0015942533267069,0.0015942530229136,-0.0015942535481233,0.0015942528070303,-0.0015942521571652,0.0015942542392887,-0.0015942523771624,0.0015942540045672,-0.0013302703932303,0.0013302728799235,-0.0013302710812999,0.0013302722980696,1.3752133378236e-09,-1.9051754533695e-09,-2.188635085818e-09,1.6442994539311e-09,-0.0015048044573464,0.001504803957981,-0.0015942534670034,0.0015942527896266,-0.0015942522779848,0.0015942540560791,-0.0015942544902889,0.0015942517807997,-0.0015942532611064,0.0015942529896598,-0.0013302744502424,0.001330269004565,-0.0013302707627908,0.0013302727828997,-0.0015042035288973,0.0015042074890928,-0.0015042065065329,0.0015042040202194,-1.9328822091845e-10,-1.3116751459894e-10,-0.00079193676078947,0.00079193645405362,2.0920845806382e-09,-2.4586615667818e-09,-0.00092911558286954,0.00092911681797021,-0.00092911709956374,0.00092911530034349,-0.0009291156063707,0.00092911683654847,-0.00092911710781907,0.00092911528126064,-0.00090921643912802,0.00090921460458547,-0.00090921650154717,0.0009092145587891,0.65787306371756,125803,2834,0.0062488754422545,0.0062488755998786,0.0032988515866812,18.558096651049,-8.9135226791605e-05,-8.9135226791605e-05,-8.9135226791605e-05,3535955.541222,0.015922852787784
20019200,0.98535058296145,0.016040696565969,0.0061039039868124,0.0061039041108113,0.0038328884683453,-0.0015050247187499,0.0015050254479079,7.0790966890437e-10,1.0705618127185e-11,-1.3140166986918e-09,2.1637596604512e-09,-0.001594477898023,0.0015944776294659,-0.0015944781452526,0.0015944773695197,-0.0015944767336036,0.0015944788442545,-0.0015944769842015,0.0015944785675546,-0.0013304865680647,0.0013304891963681,-0.001330487373426,0.0013304884689596,1.4403741886749e-09,-1.9676613780219e-09,-2.1602577069378e-09,1.6126800429412e-09,-0.0015050253794206,0.0015050248775459,-0.0015944780195212,0.001594477399826,-0.0015944768303344,0.0015944786279873,-0.0015944790786859,0.0015944763380866,-0.0015944778730932,0.0015944775297123,-0.0013304906806156,0.0013304852617974,-0.0013304870389296,0.0013304889568947,-0.0015044265070097,0.0015044305800186,-0.0015044295576669,0.0015044268923978,-1.4902350451804e-10,-2.125329230298e-10,-0.00079190857486467,0.00079190824327183,2.0788480383069e-09,-2.4741883287412e-09,-0.00092918798394252,0.00092918924183214,-0.00092918950293525,0.00092918772454851,-0.00092918804549818,0.00092918922571486,-0.0009291895523413,0.00092918766977123,-0.00090923159527539,0.00090922960907341,-0.00090923151238015,0.00090922964818353,0.68048787614268,125803,2834,0.0062497873808869,0.0062497875675682,0.0032987415069988,18.401319265117,-9.0389445879061e-05,-9.0389445879061e-05,-9.0389445879061e-05,3531388.467522,0.015924594369343
20219200,0.98569462267158,0.016046219467489,0.006105998094083,0.0061059982178572,0.0038342231555485,-0.0015054787377461,0.0015054794550398,7.2690553918181e-10,-3.060606559394e-12,-1.3695481853607e-09,2.159524933878e-09,-0.0015949135603091,0.0015949132846113,-0.0015949137861125,0.0015949129943705,-0.0015949123852626,0.0015949145210448,-0.0015949126259682,0.001594914238836,-0.0013309618095182,0.0013309645175567,-0.0013309626239681,0.0013309637202162,1.4891664569869e-09,-1.9885522849302e-09,-2.1262872031241e-09,1.6139742540106e-09,-0.001505479360089,0.0015054788771332,-0.0015949136915066,0.0015949131127063,-0.0015949124737026,0.0015949142871033,-0.0015949147562761,0.0015949120094596,-0.0015949135705366,0.0015949132090523,-0.001330965902373,0.0013309605317802,-0.0013309622953543,0.00133096418735,-0.0015048924545292,0.0015048966074072,-0.0015048957040488,0.0015048929591555,-1.4635048559749e-10,-2.3396944512935e-10,-0.00079205695018138,0.00079205659821835,2.0507341366673e-09,-2.4813546032383e-09,-0.0009294853304869,0.00092948655584967,-0.00092948684155036,0.00092948504679897,-0.0009294853794682,0.00092948653606906,-0.00092948689813995,0.00092948501490372,-0.00090942706001359,0.00090942504525782,-0.0009094269278379,0.00090942511099865,0.69909042995066,125803,2834,0.0062516633643249,0.0062516634561333,0.0032993677266404,18.35244216855,-9.0780462651601e-05,-9.0780462651601e-05,-9.0780462651601e-05,3523864.9543027,0.015929043083818
20419200,0.98603621226256,0.016051711112857,0.006108080354829,0.0061080804787419,0.0038355502792864,-0.0015065657719114,0.0015065664934857,7.7087860407015e-10,-3.1934240077945e-11,-1.3677107771981e-09,2.1583672610088e-09,-0.0015959686993702,0.0015959684317258,-0.0015959689028691,0.0015959681053214,-0.0015959675358386,0.0015959696694325,-0.0015959677653436,0.0015959693749958,-0.0013320779507653,0.0013320807594663,-0.0013320787946873,0.0013320798550613,1.5478521626495e-09,-2.0143990960963e-09,-2.1004156208898e-09,1.6195666366414e-09,-0.0015065663789404,0.0015065659153914,-0.0015959688296157,0.0015959682940866,-0.0015959675661433,0.0015959694085343,-0.0015959699032929,0.0015959671355006,-0.0015959687330402,0.0015959683491379,-0.0013320820580011,0.0013320767183439,-0.0013320784516548,0.0013320803246072,-0.0015059955242085,0.001505999781821,-0.0015059988932711,0.0015059960389945,-1.4514497495081e-10,-2.9333610178344e-10,-0.0007927278472764,0.00079272745159247,2.0203004297565e-09,-2.5116104835357e-09,-0.00093037176020908,0.00093037295673802,-0.00093037327200834,0.00093037144843271,-0.00093037180917771,0.00093037292702536,-0.00093037334576039,0.00093037143000276,-0.00091016956532479,0.00091016745535456,-0.00091016934647951,0.0009101675400871,0.69998783277413,125803,2834,0.006256158665371,0.0062561587251166,0.003302168671912,18.6158672433,-8.8673062053603e-05,-8.8673062053603e-05,-8.8673062053603e-05,3517871.3569471,0.015941023988845
20619200,0.98636498777981,0.016056441531307,0.0061098927786824,0.0061098929028078,0.003836655849817,-0.0015066384813096,0.0015066392221788,7.1384025237617e-10,2.064232609699e-11,-1.3935299858508e-09,2.2547304640614e-09,-0.0015960268649669,0.0015960265417878,-0.001596027083189,0.0015960262737447,-0.0015960256508474,0.0015960278097531,-0.0015960258792237,0.0015960275439045,-0.001332177092571,0.0013321797886739,-0.001332177858477,0.0013321790472529,1.5304708422252e-09,-2.047377721475e-09,-2.1129148278151e-09,1.5758811946796e-09,-0.0015066391395285,0.0015066386400222,-0.0015960269323662,0.0015960263930654,-0.0015960257387287,0.0015960275595607,-0.0015960280350158,0.0015960252525034,-0.001596026862188,0.0015960264318434,-0.00133218119274,0.0013321758159109,-0.0013321776167749,0.0013321794149122,-0.0015060539995739,0.0015060582276593,-0.0015060572453089,0.0015060543827538,-1.8337621905913e-10,-2.0857745730774e-10,-0.00079251387798378,0.00079251352581274,2.0138846347013e-09,-2.440955615192e-09,-0.00093033550658073,0.00093033669567835,-0.00093033699406481,0.00093033520970169,-0.00093033554382348,0.00093033669550918,-0.00093033702519713,0.00093033518545875,-0.00090996452115892,0.00090996259922969,-0.00090996445723503,0.00090996255969979,0.6309950826942,125803,2834,0.0062564555714401,0.00625645572869,0.0033012905668782,18.385445025238,-9.0516439798095e-05,-9.0516439798095e-05,-9.0516439798095e-05,3505772.8646797,0.015940736722968
20819200,0.98667275562939,0.01606121437483,0.0061117074812646,0.0061117076052395,0.003837799288326,-0.0015057040039983,0.0015057047537158,7.4168474098145e-10,-2.1958877406663e-12,-1.4248751048672e-09,2.3003238993309e-09,-0.0015951282227663,0.0015951278984982,-0.0015951284626837,0.0015951276159495,-0.0015951269804073,0.0015951291979227,-0.0015951272309492,0.0015951289137277,-0.0013312081974816,0.0013312109678287,-0.0013312090356581,0.0013312101895347,1.5711227898066e-09,-2.1034581245262e-09,-2.0699421248668e-09,1.5188201788692e-09,-0.0015057046750986,0.0015057041649801,-0.0015951282573408,0.0015951277725474,-0.0015951271015684,0.0015951289129786,-0.0015951293927376,0.0015951266094158,-0.001595128251974,0.0015951277525822,-0.0013312123171482,0.0013312069868131,-0.0013312088523807,0.0013312104991749,-0.0015051098903391,0.0015051141603637,-0.0015051132136166,0.0015051102096687,-1.5472735914776e-10,-2.2106237890195e-10,-0.00079156579101261,0.00079156545136019,1.9855911818906e-09,-2.393578074933e-09,-0.00092934337005845,0.00092934455653233,-0.00092934483063974,0.000929343096186,-0.00092934342165467,0.00092934454235273,-0.00092934487957079,0.00092934305817872,-0.00090902112129832,0.00090901919309312,-0.00090902101536049,0.00090901920043428,0.67643099869355,125803,2834,0.0062525869941975,0.0062525871644507,0.0032973508586744,17.704819048137,-9.5961447614903e-05,-9.5961447614903e-05,-9.5961447614903e-05,3501270.7346035,0.015928872853968
21019200,0.98695611956663,0.01606546696688,0.0061133287611027,0.0061133288849106,0.0038388093208663,-0.0015042505698694,0.0015042513179539,7.2506178780126e-10,1.9321066166456e-11,-1.4856187696605e-09,2.3357940359191e-09,-0.0015936720207813,0.001593671662901,-0.0015936722549467,0.0015936713935885,-0.0015936707464099,0.0015936729959381,-0.0015936709883366,0.0015936727219681,-0.0013297880221473,0.0013297907990693,-0.0013297888249652,0.0013297900532152,1.5996142698233e-09,-2.1394653995648e-09,-2.0260760863802e-09,1.4717845873716e-09,-0.0015042512363327,0.0015042507203394,-0.0015936720239914,0.0015936715843085,-0.0015936709065354,0.0015936727028053,-0.0015936731842463,0.0015936704055789,-0.0015936720710608,0.0015936715159222,-0.0013297921175559,0.0013297868467199,-0.0013297887428288,0.0013297902718702,-0.0015036460409229,0.0015036503302879,-0.0015036494676245,0.0015036463680305,-1.6879839432624e-10,-1.8704135086806e-10,-0.00079011630366977,0.00079011597731773,1.9354748676706e-09,-2.3300423373299e-09,-0.00092791298727201,0.00092791412811371,-0.00092791440860424,0.00092791270684237,-0.00092791302175066,0.00092791412943618,-0.00092791444080975,0.00092791268448121,-0.00090751647854068,0.00090751464618565,-0.00090751643142151,0.00090751463533896,0.65602047297214,125803,2834,0.0062465689352749,0.0062465690775754,0.0032913302742972,16.7489867962,-0.0001036081056304,-0.0001036081056304,-0.0001036081056304,3483222.9686725,0.015910528639693
21219200,0.98720335677069,0.016069201218318,0.0061147505583925,0.0061147506821641,0.0038396999777611,-0.0015010300178348,0.0015010307889893,7.0749494316219e-10,4.915185526809e-11,-1.5237222498018e-09,2.4306598814209e-09,-0.0015904662701544,0.001590465859578,-0.0015904664849816,0.0015904656094546,-0.0015904649538817,0.0015904672403943,-0.0015904651739036,0.0015904669858188,-0.0013266057807556,0.0013266085546018,-0.0013266065501359,0.0013266078499565,1.6338902552448e-09,-2.180911686074e-09,-1.9614848599418e-09,1.395813328065e-09,-0.0015010307080757,0.0015010301857682,-0.0015904662011578,0.0015904658278755,-0.0015904651273975,0.001590466896711,-0.0015904673874718,0.0015904646263496,-0.0015904663182672,0.0015904656900845,-0.0013266098270337,0.0013266046548683,-0.0013266065796779,0.0013266079245838,-0.0015004039302671,0.0015004082297188,-0.0015004073517613,0.0015004041140017,-1.9813550269405e-10,-1.5752300072163e-10,-0.00078719596826745,0.0007871956465253,1.8566490375508e-09,-2.2402230448184e-09,-0.00092486984157396,0.00092487091193286,-0.00092487120840742,0.00092486954495193,-0.00092486985840699,0.00092487093437984,-0.00092487122237616,0.00092486954687839,-0.00090446113758996,0.00090445940808174,-0.00090446112645274,0.00090445932397073,0.65967491031054,125803,2834,0.0062332379256129,0.0062332381054727,0.0032791900074999,14.936368466703,-0.00011810905226637,-0.00011810905226637,-0.00011810905226637,3457272.095266,0.015871108520383
21419200,0.98742887556638,0.016072631860126,0.0061160543270202,0.0061160544506461,0.0038405230824602,-0.0014991018150912,0.0014991025658529,7.3280616056893e-10,2.4431141292463e-11,-1.563137882446e-09,2.3895924318856e-09,-0.0015885366734114,0.0015885362868233,-0.0015885369117103,0.0015885360145851,-0.0015885353563746,0.0015885376632555,-0.0015885356012821,0.0015885373857748,-0.0013247065566541,0.0013247094088925,-0.001324707357503,0.0013247086519199,1.6546539643984e-09,-2.2024515960803e-09,-1.9109501323279e-09,1.3536860734097e-09,-0.001499102479619,0.0014991019557928,-0.0015885366189544,0.0015885362870954,-0.0015885355810266,0.0015885373288288,-0.0015885378187942,0.0015885350693113,-0.0015885367826977,0.0015885361010139,-0.0013247105996556,0.0013247055168673,-0.0013247074555184,0.0013247087131243,-0.0014984715645865,0.0014984758829159,-0.0014984751637389,0.0014984718587509,-1.7106568544883e-10,-1.7111813163501e-10,-0.00078543353109135,0.00078543321460211,1.8211926575516e-09,-2.2083553611254e-09,-0.00092303372947473,0.0009230347936181,-0.0009230350716969,0.00092303345196899,-0.00092303375610139,0.000923034800625,-0.0009230350969258,0.00092303343577653,-0.00090262732597302,0.0009026256012066,-0.00090262730944485,0.00090262559709984,0.66373848365694,125803,2834,0.0062252561086326,0.0062252562211951,0.0032718637425075,13.800658626447,-0.00012719473098842,-0.00012719473098842,-0.00012719473098842,3440410.4179631,0.015847448192487
21619200,0.98764297193176,0.016075918694127,0.0061173015300993,0.0061173016537949,0.0038413155102323,-0.001498355531003,0.0014983562698545,7.4498817371091e-10,4.1003350905187e-12,-1.5458097594553e-09,2.3442757535143e-09,-0.0015877862325388,0.0015877858756541,-0.0015877864891895,0.0015877855937156,-0.0015877849336497,0.0015877872284861,-0.0015877851968854,0.0015877869370746,-0.0013239770919502,0.0013239799509881,-0.0013239779184371,0.0013239791697372,1.6367237765062e-09,-2.1870976594006e-09,-1.901163048833e-09,1.3433813488977e-09,-0.0014983561868481,0.001498355661683,-0.001587786199757,0.0015877858628476,-0.0015877851766914,0.0015877869074065,-0.0015877873906173,0.0015877846580359,-0.0015877863609676,0.0015877856799359,-0.0013239811240149,0.0013239760732437,-0.0013239780041733,0.0013239792605682,-0.0014977254597787,0.0014977297432472,-0.0014977290575337,0.0014977257876196,-1.5519813143321e-10,-1.7710653322286e-10,-0.00078470736936678,0.0007847070589468,1.8204792507611e-09,-2.2024804800631e-09,-0.0009223004357186,0.00092230151117016,-0.00092230177440785,0.00092230017297302,-0.00092230047087347,0.00092230150945442,-0.00092230180585686,0.00092230014198644,-0.00090187878024836,0.00090187705070923,-0.00090187875779703,0.00090187707806382,0.66921247835771,125803,2834,0.0062221663259329,0.0062221664244613,0.0032688465755088,13.269489658488,-0.00013144408273209,-0.00013144408273209,-0.00013144408273209,3432259.1646595,0.015838105368237
21819200,0.98785791805164,0.016079170113769,0.0061185365170429,0.0061185366408487,0.0038420969558775,-0.0014992988846955,0.0014992996064569,7.5464785596719e-10,-1.8128173667326e-11,-1.495768336657e-09,2.2613654513083e-09,-0.0015887221590555,0.0015887218496344,-0.0015887224315229,0.0015887215559728,-0.0015887209028962,0.0015887231539691,-0.0015887211822566,0.0015887228481661,-0.0013249147703147,0.0013249176137791,-0.0013249156192904,0.0013249168006686,1.589947483784e-09,-2.1334375870746e-09,-1.9280957456004e-09,1.3782447866928e-09,-0.0014992995250776,0.0014992990058048,-0.001588722178456,0.0015887217947598,-0.001588721140161,0.001588722864166,-0.0015887233374007,0.0015887206214463,-0.0015887222886195,0.0015887216613386,-0.0013249188008312,0.0013249137365176,-0.001324915623402,0.001324916988937,-0.0014986751337742,0.0014986793544826,-0.001498678669152,0.0014986755293116,-1.4522282837465e-10,-1.8841917977634e-10,-0.00078544269775705,0.00078544238445655,1.8541286864392e-09,-2.2424314619079e-09,-0.00092312585403106,0.00092312696138449,-0.00092312721718627,0.00092312559957488,-0.00092312589790769,0.00092312695104801,-0.00092312725463002,0.00092312555416527,-0.00090266823009828,0.0009026664585842,-0.00090266819684594,0.00090266651401349,0.65989248151528,125803,2834,0.0062260698824831,0.0062260699646039,0.0032719073235184,13.593336318031,-0.00012885330945575,-0.00012885330945575,-0.00012885330945575,3436020.9255586,0.015849145892457
22019200,0.98807551983965,0.016082407869487,0.0061197683275705,0.0061197684515284,0.0038428710903882,-0.0015005042081412,0.0015005049308028,6.9368427930378e-10,3.3455592660491e-11,-1.456336445686e-09,2.2391643983588e-09,-0.0015899363006599,0.0015899359731769,-0.0015899365521283,0.0015899357277996,-0.0015899350613177,0.0015899372628314,-0.0015899353118466,0.001589936996139,-0.0013260928543896,0.0013260955339572,-0.0013260936206194,0.0013260948486538,1.4973155190975e-09,-2.044503038814e-09,-1.9862342032235e-09,1.4309695034485e-09,-0.0015005048553703,0.0015005043390343,-0.001589936342621,0.0015899358673888,-0.0015899352901416,0.0015899369998377,-0.0015899374524328,0.0015899347742101,-0.0015899363583846,0.0015899358447043,-0.0013260968514299,0.0013260917161412,-0.0013260935628026,0.0013260950817573,-0.0014998788956974,0.0014998829524414,-0.001499882179887,0.0014998792706604,-1.9176455002616e-10,-1.1089054613464e-10,-0.00078640910772552,0.00078640881818533,1.9009333259572e-09,-2.2534855182444e-09,-0.00092418546106297,0.00092418656390693,-0.00092418684169955,0.0009241851819684,-0.00092418546914309,0.0009241865934367,-0.00092418683955133,0.00092418517461324,-0.0009037016628594,0.00090370000442808,-0.00090370175538452,0.00090369995322438,0.64982771755894,125803,2834,0.0062310579929189,0.0062310581075542,0.0032759283696169,14.052803821422,-0.00012517756942863,-0.00012517756942863,-0.00012517756942863,3444094.546027,0.015863365748056
22219200,0.98829665834378,0.016085671530122,0.0061210111239253,0.0061210112479522,0.0038436491582442,-0.0015018386695042,0.0015018393903007,7.0633319641746e-10,1.8204904029149e-11,-1.3891481072436e-09,2.1856863253713e-09,-0.0015912900059893,0.0015912897116994,-0.0015912902433325,0.0015912894472055,-0.0015912888125478,0.0015912909592604,-0.0015912890543535,0.0015912906875821,-0.0013273830830041,0.0013273857531619,-0.0013273838596321,0.0013273850223855,1.4625033665849e-09,-1.9813754570799e-09,-2.017504354844e-09,1.4859916529236e-09,-0.0015018393063972,0.0015018388102475,-0.0015912900877081,0.0015912895697117,-0.0015912889783752,0.0015912906973054,-0.0015912911548364,0.0015912884903153,-0.0015912900389349,0.0015912895996905,-0.0013273870696548,0.0013273819151535,-0.0013273836890868,0.0013273853505937,-0.0015012116466952,0.0015012156667405,-0.0015012148271863,0.001501212043984,-2.0520629912162e-10,-1.4102399025508e-10,-0.00078749581263542,0.00078749549067707,1.9283436199132e-09,-2.3207819975073e-09,-0.0009253523843619,0.00092535349765996,-0.00092535380044183,0.00092535208246555,-0.00092535239288148,0.00092535352438976,-0.00092535380317655,0.00092535208273394,-0.00090486977065477,0.00090486803442245,-0.00090486982054544,0.00090486796185594,0.64497826387514,125803,2834,0.0062365808674075,0.0062365809848887,0.0032804487748509,14.582251555465,-0.00012094198755628,-0.00012094198755628,-0.00012094198755628,3454862.4342477,0.015879179467409
22419200,0.9885177878881,0.0160890776238,0.006122303481843,0.0061223036058982,0.0038444705360584,-0.0015027028532559,0.0015027035784479,6.9554894051614e-10,2.3236600078994e-11,-1.3480980753527e-09,2.1690437159681e-09,-0.0015921780800733,0.001592177794328,-0.0015921783280769,0.0015921775534707,-0.0015921768986285,0.0015921790345413,-0.0015921771445315,0.0015921787708169,-0.001328205600786,0.0013282081964635,-0.0013282063998354,0.0013282075124696,1.4134748587839e-09,-1.9502328544844e-09,-2.064010739938e-09,1.5140396854228e-09,-0.0015027035075012,0.0015027030038257,-0.0015921781770934,0.001592177599757,-0.0015921770673372,0.0015921787880522,-0.0015921792281162,0.001592176575856,-0.0015921780761899,0.0015921777012033,-0.0013282096193723,0.001328204374835,-0.0013282061691974,0.0013282078945328,-0.0015020748140287,0.0015020787420751,-0.0015020778309143,0.001502075164575,-1.9871739150461e-10,-1.06579298605e-10,-0.00078817466158732,0.00078817437148956,1.9821875911805e-09,-2.3266352417875e-09,-0.00092607949875759,0.00092608063910709,-0.0009260809288494,0.00092607920641081,-0.00092607949924453,0.00092608067768551,-0.00092608092350436,0.00092607921339059,-0.00090561345757733,0.00090561174378965,-0.00090561355230625,0.0009056116732631,0.67139743087745,125803,2834,0.0062401573101702,0.0062401574747335,0.0032832731950299,14.871117806894,-0.00011863105754485,-0.00011863105754485,-0.00011863105754485,3462357.297118,0.015889315532875
22619200,0.98873668594281,0.016092488298429,0.0061235966667264,0.0061235967907107,0.0038452948409918,-0.0015033069944331,0.0015033077135839,7.1056231163266e-10,6.9863832766689e-12,-1.3333182085734e-09,2.1428862782951e-09,-0.0015927823803818,0.0015927821142392,-0.0015927826238091,0.0015927818493328,-0.0015927812175508,0.0015927833328496,-0.0015927814648684,0.0015927830578368,-0.0013288060414369,0.0013288086763505,-0.0013288068471033,0.0013288079358805,1.4148578073593e-09,-1.9303226819434e-09,-2.0753379331426e-09,1.5451355211649e-09,-0.0015033076331965,0.0015033071423699,-0.00159278250083,0.0015927819163329,-0.0015927813559723,0.0015927830889781,-0.0015927835368668,0.0015927808766476,-0.0015927823802752,0.0015927820235557,-0.0013288100586374,0.0013288048179817,-0.0013288065645311,0.0013288083668451,-0.0015026822442941,0.0015026862041918,-0.0015026852887064,0.0015026826490724,-2.0727586216967e-10,-1.3614122639075e-10,-0.00078857861700395,0.00078857829702045,1.9894390465965e-09,-2.3749813735283e-09,-0.00092657737450927,0.00092657852212378,-0.00092657882774498,0.00092657706881841,-0.00092657738055795,0.00092657855274941,-0.0009265788289179,0.00092657707268418,-0.00090606067484874,0.00090605890147932,-0.0009060607284555,0.00090605882304132,0.67880651520522,125803,2834,0.0062426561957861,0.0062426563353954,0.0032849578120148,15.008134934228,-0.00011753492052618,-0.00011753492052618,-0.00011753492052618,3461396.6455457,0.015896104832946
22819200,0.9889525759019,0.016095842209477,0.006124868838911,0.0061248689628716,0.0038461044076944,-0.0015038060005301,0.00150380671688,7.2044078314625e-10,-4.5428511013701e-12,-1.3319803195038e-09,2.1345747679708e-09,-0.0015932760094364,0.001593275752867,-0.0015932762610609,0.0015932754809428,-0.0015932748490766,0.0015932769673301,-0.0015932751050696,0.0015932766845731,-0.0013293087639428,0.0013293114168825,-0.001329309588297,0.0013293106573132,1.418024183864e-09,-1.9345738672108e-09,-2.0917516466257e-09,1.5609689484039e-09,-0.0015038066374015,0.0015038061455931,-0.001593276140696,0.0015932755468273,-0.0015932749862321,0.0015932767318211,-0.0015932771790284,0.0015932745043344,-0.0015932760120935,0.0015932756616486,-0.001329312806863,0.0013293075329342,-0.0013293092831557,0.001329311116606,-0.0015031843320415,0.0015031883122336,-0.0015031873949945,0.001503184760296,-2.0250926526106e-10,-1.4165008515772e-10,-0.00078887762084384,0.00078887729982639,2.0082628325244e-09,-2.3959767102253e-09,-0.00092697846980144,0.00092697963357923,-0.00092697993611737,0.00092697816744039,-0.00092697847953356,0.00092697966053428,-0.00092697994035017,0.00092697816581073,-0.00090639708895522,0.00090639529353647,-0.00090639713645409,0.00090639522733995,0.67692182251687,125803,2834,0.0062447196005786,0.0062447197361317,0.0032862069939235,15.090195039214,-0.00011687843968629,-0.00011687843968629,-0.00011687843968629,3458219.8600992,0.015901567106989
23019200,0.98916460457797,0.016098906216054,0.0061260387537607,0.0061260388777121,0.0038468285845811,-0.0015041573616191,0.0015041580817674,7.2300940579424e-10,-3.9203874113262e-12,-1.3409158240008e-09,2.1507141795699e-09,-0.0015936282958984,0.0015936280328416,-0.0015936285465425,0.0015936277600775,-0.001593627127354,0.001593629257026,-0.0015936273826705,0.0015936289745881,-0.0013296568042473,0.0013296594695197,-0.0013296576354116,0.0013296587075537,1.4267463812304e-09,-1.9440791278711e-09,-2.1041494679936e-09,1.5723293868503e-09,-0.0015041580017791,0.0015041575093995,-0.0015936284241119,0.0015936278275113,-0.0015936272600018,0.0015936290187337,-0.0015936294677047,0.0015936267794627,-0.0015936282929571,0.001593627945691,-0.0013296608702068,0.0013296555641125,-0.0013296573250936,0.0013296591712816,-0.001503530159451,0.0015035341629795,-0.0015035332357681,0.0015035305902604,-2.0767597585484e-10,-1.3755012852623e-10,-0.00078905060224062,0.00078905028034574,2.0193456439833e-09,-2.4073313392913e-09,-0.00092724286069126,0.00092724402702115,-0.00092724433444665,0.0009272425531699,-0.00092724286674434,0.00092724405732014,-0.00092724433618629,0.0009272425568946,-0.00090659784975164,0.00090659605280354,-0.00090659790430178,0.00090659597862705,0.63260382794135,125803,2834,0.0062461719892828,0.0062461721293949,0.0032869318481043,15.10806499411,-0.00011673548004712,-0.00011673548004712,-0.00011673548004712,3454967.9332596,0.015905255249646
23219200,0.98937261195586,0.01610204743493,0.0061272328791189,0.0061272330030513,0.0038475815527598,-0.0015044100411883,0.0015044107605035,7.2124841782651e-10,-4.6038381794332e-12,-1.3585818197286e-09,2.1665032634595e-09,-0.0015939161929239,0.0015939159253483,-0.0015939164613033,0.0015939156600028,-0.0015939150106172,0.0015939171570307,-0.0015939152781791,0.00159391686971,-0.0013298550018041,0.001329857676219,-0.0013298558342612,0.0013298569211962,1.4349679149505e-09,-1.9675264194114e-09,-2.1201357779146e-09,1.5733736958592e-09,-0.0015044106890374,0.0015044101846782,-0.0015939163146135,0.0015939157154238,-0.0015939151666825,0.0015939169345699,-0.0015939173776875,0.0015939146650082,-0.0015939161937833,0.0015939158270297,-0.0013298591019342,0.0013298537567894,-0.0013298555378185,0.0013298573800384,-0.0015037793458468,0.0015037833759509,-0.0015037824400042,0.0015037797608164,-2.0728527918385e-10,-1.2479769086915e-10,-0.00078921829120888,0.00078921797999921,2.0332159171549e-09,-2.4077626316808e-09,-0.00092739232444062,0.00092739350722813,-0.000927393802898,0.00092739202913029,-0.00092739233464561,0.00092739353932103,-0.00092739379970444,0.00092739202103805,-0.00090681436182348,0.00090681258054036,-0.00090681444323283,0.00090681250666501,0.65900390328172,125803,2834,0.0062472179271198,0.006247218076006,0.0032876291993564,15.109150821266,-0.00011672679342987,-0.00011672679342987,-0.00011672679342987,3460664.5395724,0.015908088416371
23419200,0.98957595657965,0.016105085622753,0.006128388993462,0.0061283891173664,0.0038483075119243,-0.0015045879973115,0.0015045887209427,7.3197272197108e-10,-9.427621874976e-12,-1.3776731689715e-09,2.1890242597527e-09,-0.0015941072268337,0.0015941069497272,-0.0015941074855695,0.0015941066734714,-0.0015941060330632,0.0015941081977304,-0.0015941062955394,0.0015941079093194,-0.0013300145016112,0.001330017209165,-0.0013300153438672,0.0013300164351838,1.4626678659125e-09,-1.988476460078e-09,-2.1169623567095e-09,1.577447282186e-09,-0.0015045886426191,0.0015045881426976,-0.0015941073409086,0.0015941067582616,-0.0015941061751972,0.0015941079599826,-0.0015941084127246,0.0015941056846335,-0.0015941072314113,0.0015941068548503,-0.0013300186146,0.0013300132578383,-0.0013300150505311,0.0013300168834431,-0.0015039558711615,0.0015039599527982,-0.0015039590259676,0.0015039563007197,-2.1045609488499e-10,-1.3260225435686e-10,-0.00078927827148201,0.00078927795088418,2.0297350965486e-09,-2.4163640631851e-09,-0.0009274902098736,0.00092749138221702,-0.00092749168986294,0.00092748990221754,-0.00092749021453617,0.00092749141483845,-0.00092749168849444,0.00092748990535781,-0.00090690234866126,0.00090690055575871,-0.00090690241363249,0.00090690047421724,0.65256752126103,125803,2834,0.0062479535027144,0.0062479536413235,0.0032878817219315,15.055195586747,-0.00011715843530602,-0.00011715843530602,-0.00011715843530602,3459435.2805879,0.015909839763393
23619200,0.98978788018917,0.016108325710369,0.0061296191449553,0.0061296192688503,0.0038490872965634,-0.0015067419977712,0.0015067427160094,6.8511896796817e-10,6.1428339465219e-11,-1.4410493510491e-09,2.1841414725655e-09,-0.0015962722729513,0.0015962719370431,-0.0015962724484433,0.0015962716735847,-0.001596271069965,0.0015962732212315,-0.0015962712600696,0.0015962729833785,-0.0013321113222705,0.0013321139965024,-0.001332112059273,0.0013321132794793,1.445574705038e-09,-1.9193984914173e-09,-2.1383178248325e-09,1.6610584503928e-09,-0.0015067425945827,0.0015067421361545,-0.0015962724180632,0.0015962717969319,-0.0015962711632779,0.0015962729726146,-0.0015962734388876,0.0015962707367986,-0.001596272231937,0.0015962719712587,-0.0013321154133018,0.0013321100249153,-0.0013321117629334,0.0013321137466279,-0.00150612469735,0.0015061287438052,-0.0015061279414332,0.001506125351056,-2.8300583825906e-10,-7.8763884817385e-11,-0.0007910666766622,0.00079106633202917,2.0288197627982e-09,-2.4554536325017e-09,-0.00092939402611066,0.00092939511963144,-0.00092939551732204,0.00092939362675651,-0.00092939395895898,0.00092939520024723,-0.00092939547711534,0.00092939372873639,-0.00090882492909252,0.00090882321132822,-0.00090882509533025,0.00090882305862077,0.66669415409534,125803,2834,0.0062568681407475,0.0062568681756598,0.0032953207130041,16.005769738202,-0.00010955384209439,-0.00010955384209439,-0.00010955384209439,3474098.1205291,0.015935510991918
23819200,0.99001231464827,0.016111943591861,0.0061309873518063,0.0061309874759556,0.0038499687640987,-0.0015095107557734,0.0015095114673035,7.3581754322032e-10,-1.2912058427831e-11,-1.3843363924146e-09,2.1510648626215e-09,-0.0015990452268979,0.0015990449645717,-0.0015990454888248,0.0015990446788385,-0.0015990440431996,0.0015990462032892,-0.0015990443103518,0.001599045908944,-0.001334830311904,0.001334833038628,-0.0013348311637449,0.0013348322367812,1.4468250973099e-09,-1.9625984050216e-09,-2.1832502603494e-09,1.6591539961865e-09,-0.0015095113805776,0.0015095108889219,-0.001599045392087,0.0015990447519203,-0.0015990441755851,0.0015990459986051,-0.0015990464472313,0.0015990436909892,-0.0015990452196814,0.0015990449127796,-0.0013348344882012,0.0013348290159892,-0.0013348307882796,0.0013348327858326,-0.0015089122036404,0.001508916302044,-0.0015089153972971,0.0015089127693073,-2.1731231019772e-10,-1.2506558018532e-10,-0.00079334333650661,0.00079334301162762,2.0984990480684e-09,-2.4960172695778e-09,-0.00093186154600643,0.00093186275501112,-0.00093186307458475,0.0009318612257908,-0.00093186154217523,0.00093186279081135,-0.00093186306935197,0.00093186123708533,-0.00091126134221089,0.00091125950714109,-0.00091126142797551,0.00091125944593398,0.70079570795009,125803,2834,0.0062683260679968,0.0062683261639339,0.0033047929174754,17.238516935036,-9.9691864519713e-05,-9.9691864519713e-05,-9.9691864519713e-05,3489695.1390193,0.015968417253464
24019200,0.99023329358816,0.016115546440551,0.0061323500117077,0.0061323501359447,0.0038508462928983,-0.0015101131897131,0.0015101139374114,7.2641386243749e-10,-2.4378925828786e-13,-1.3676696909827e-09,2.2565507948634e-09,-0.0015996345148569,0.0015996342164969,-0.0015996347786578,0.0015996339582298,-0.0015996332980419,0.0015996354922917,-0.0015996335596556,0.0015996352125265,-0.0013354546681256,0.0013354573480442,-0.0013354555376761,0.0013354566122489,1.4475995505333e-09,-1.9914100710379e-09,-2.1912826009254e-09,1.6277054371059e-09,-0.0015101138710759,0.0015101133610837,-0.0015996346171836,0.0015996339820033,-0.0015996334254593,0.0015996352458031,-0.0015996356921993,0.0015996329317014,-0.0015996344618637,0.0015996341375561,-0.0013354588606108,0.0013354533463527,-0.0013354551757919,0.0013354570957142,-0.0015095182831693,0.0015095223622793,-0.001509521289782,0.0015095186166729,-2.2736364544377e-10,-9.8868994531848e-11,-0.0007936572751514,0.00079365697082496,2.1075903596752e-09,-2.4616833260371e-09,-0.00093234958163009,0.00093235079136442,-0.00093235110212763,0.00093234926806183,-0.00093234957687071,0.00093235084040551,-0.00093235108782615,0.00093234928507678,-0.0009116155318077,0.0009116137447134,-0.00091161563620649,0.00091161360562126,0.70866617242124,125803,2834,0.006270815918604,0.0062708161357087,0.0033061088461952,17.342794539194,-9.885764368645e-05,-9.885764368645e-05,-9.885764368645e-05,3481466.2019758,0.015974815179049
24219200,0.99045044031257,0.01611893548071,0.00613363681198,0.006133636935993,0.0038516617327373,-0.001510641198371,0.0015106419338226,7.100590384779e-10,2.0260076186227e-11,-1.4398835260172e-09,2.2722506529493e-09,-0.001600138527441,0.0016001382000654,-0.0016001387780804,0.001600137937587,-0.0016001372840191,0.0016001394935738,-0.0016001375362685,0.0016001392213529,-0.0013360081434215,0.0013360108556922,-0.001336008948403,0.0013360101343853,1.4705607215559e-09,-2.0031039802515e-09,-2.1663471476909e-09,1.6190219004482e-09,-0.0015106418556513,0.0015106413506821,-0.0016001386249421,0.0016001380178135,-0.0016001374358963,0.0016001392524608,-0.0016001397051247,0.0016001369364286,-0.0016001384935652,0.0016001381372045,-0.0013360123139871,0.0013360068509137,-0.0013360086658068,0.0013360105747491,-0.001510053479486,0.0015100576075813,-0.0015100566485766,0.0015100539377128,-2.5791008542018e-10,-8.3781234570205e-11,-0.00079389907944512,0.00079389875958795,2.0751731648641e-09,-2.457566685874e-09,-0.00093276324366451,0.00093276442015648,-0.00093276475329107,0.00093276290726182,-0.00093276322250238,0.00093276447762736,-0.00093276472291938,0.00093276293772136,-0.00091189943087855,0.00091189769876955,-0.00091189958800068,0.00091189752362424,0.68010473607542,125803,2834,0.0062729974832963,0.0062729976365464,0.0033071251790851,17.418067692053,-9.8255458463578e-05,-9.8255458463578e-05,-9.8255458463578e-05,3471750.2868204,0.015980281964426
24419200,0.99066377423607,0.016122262099765,0.0061348998190886,0.0061348999430573,0.0038524623376194,-0.0015111136587687,0.0015111143943532,7.3376175402327e-10,1.9559578350661e-12,-1.4559668596824e-09,2.2762054498977e-09,-0.001600612021111,0.0016006116998143,-0.0016006122768765,0.0016006114239942,-0.0016006107735172,0.0016006130041094,-0.0016006110320488,0.0016006127187696,-0.0013364685469125,0.0013364713153592,-0.0013364693836542,0.0013364705478814,1.5154192255711e-09,-2.0483294165826e-09,-2.1450856934668e-09,1.5996722182441e-09,-0.0015111143124119,0.0015111138059398,-0.0016006121085684,0.0016006115397212,-0.001600610925179,0.0016006127553699,-0.0016006132168192,0.0016006104286125,-0.0016006120187602,0.0016006116172955,-0.0013364727383957,0.0013364672859197,-0.0013364691268004,0.0013364709634538,-0.0015105292523663,0.0015105334497928,-0.0015105325266101,0.0015105297006555,-2.4318317551846e-10,-9.9814240596406e-11,-0.00079414638848354,0.0007941460666839,2.051316246592e-09,-2.4392946429464e-09,-0.00093310935167069,0.00093311051590116,-0.00093311084694427,0.00093310902009474,-0.00093310933456592,0.00093311056910086,-0.00093311082495538,0.00093310904828153,-0.00091220110390133,0.00091219935676623,-0.00091220123223577,0.00091219921762888,0.67934993919216,125803,2834,0.0062749505627865,0.0062749506975925,0.0033081605003736,17.49168701281,-9.7666503897518e-05,-9.7666503897518e-05,-9.7666503897518e-05,3468813.6979981,0.015985303012061
24619200,0.990872454775,0.016125670163425,0.0061361885838745,0.0061361887078474,0.0038532928717027,-0.001511451683304,0.0015114524247144,7.4677969503999e-10,-7.9517348446647e-12,-1.4673230115245e-09,2.3027409263748e-09,-0.0016009506602857,0.0016009503356444,-0.0016009509243424,0.001600950055041,-0.0016009494002032,0.0016009516517088,-0.0016009496663135,0.0016009513587235,-0.0013367982858929,0.0013368010902383,-0.0013367991432869,0.0013368003009838,1.5418970347511e-09,-2.0812682459479e-09,-2.1235141923671e-09,1.5703499131491e-09,-0.0015114523458489,0.0015114518331135,-0.0016009507263187,0.0016009501887644,-0.0016009495615886,0.0016009513898676,-0.0016009518553741,0.0016009490582043,-0.0016009506735788,0.0016009502277994,-0.0013368024842974,0.0013367970573963,-0.0013367989189843,0.0013368006795567,-0.0015108749825404,0.0015108792170573,-0.0015108782934557,0.0015108753819449,-2.3842032187543e-10,-1.0608300500172e-10,-0.00079428538733326,0.00079428506625565,2.0271935506267e-09,-2.4136100960319e-09,-0.00093332963750544,0.00093333079159354,-0.00093333111672624,0.00093332931250556,-0.00093332962581901,0.00093333084201745,-0.00093333109780478,0.00093332933386187,-0.000912388105808,0.00091238636370473,-0.00091238822175757,0.00091238622852549,0.70944813077311,125803,2834,0.0062763475136561,0.0062763476602848,0.0033087447067025,17.497793713685,-9.7617650290523e-05,-9.7617650290523e-05,-9.7617650290523e-05,3465413.3075834,0.015988735548814
24819200,0.99107645172224,0.016128760153385,0.0061373650220206,0.0061373651459673,0.0038540299853973,-0.0015117910273352,0.0015117917712429,7.4836705784126e-10,-5.5071332314483e-12,-1.4878375732893e-09,2.3222465872549e-09,-0.00160127112194,0.0016012707852667,-0.001601271380159,0.0016012705025624,-0.001601269849317,0.0016012721165812,-0.0016012701114889,0.001601271825893,-0.0013371595581301,0.0013371623794135,-0.001337160416067,0.0013371615896973,1.5607600792627e-09,-2.0990326814098e-09,-2.0975773921184e-09,1.546450976771e-09,-0.0015117916889278,0.0015117911768009,-0.0016012711717548,0.0016012706616288,-0.0016012700166019,0.001601271839295,-0.0016012723097095,0.0016012695170496,-0.0016012711454735,0.0016012706737021,-0.0013371637435339,0.0013371583529199,-0.0013371602296171,0.0013371619286624,-0.0015112160951013,0.0015112203481597,-0.0015112194551398,0.0015112164921777,-2.4436474759492e-10,-1.0002898062448e-10,-0.00079437820008828,0.00079437787892823,2.000014650644e-09,-2.3870918849686e-09,-0.00093356835338522,0.00093356948231611,-0.00093356981438602,0.00093356802123603,-0.00093356833440599,0.00093356953765813,-0.00093356979178583,0.00093356805277749,-0.00091250832357,0.00091250661198988,-0.00091250844882172,0.00091250646524873,0.66112595505458,125803,2834,0.0062777487197741,0.0062777488585503,0.0033091400873339,17.493842943035,-9.7649256455718e-05,-9.7649256455718e-05,-9.7649256455718e-05,3456401.1375199,0.015991985669038
25019200,0.99128740545504,0.016131917878125,0.0061385680512455,0.0061385681751841,0.0038547816516954,-0.0015138364282653,0.0015138371629383,7.4654341278766e-10,-4.565838163837e-12,-1.487269179124e-09,2.2905487391318e-09,-0.0016033329516156,0.0016033326255553,-0.0016033332130209,0.001603332342437,-0.0016033316893085,0.001603333944031,-0.0016033319541234,0.0016033336515662,-0.0013391369477924,0.0013391397675139,-0.0013391377956672,0.0013391389751783,1.5415854526814e-09,-2.0766102401358e-09,-2.1036926496203e-09,1.5591658701779e-09,-0.0015138370785041,0.0015138365693298,-0.0016033330227356,0.0016033324954385,-0.0016033318655575,0.0016033336825645,-0.0016033341481515,0.001603331364333,-0.0016033329781822,0.0016033325259038,-0.0013391411336722,0.0013391357478929,-0.0013391376027525,0.0013391393428936,-0.001513270332246,0.0015132745544768,-0.0015132736954977,0.0015132707807188,-2.490828569378e-10,-9.1239719748015e-11,-0.00079603799277744,0.00079603767266451,2.0060966662912e-09,-2.3957270215075e-09,-0.00093534625730214,0.00093534738768229,-0.0009353477226722,0.00093534592250013,-0.000935346233368,0.0009353474465114,-0.00093534769447902,0.00093534595552603,-0.00091430795920855,0.00091430625935785,-0.00091430810966973,0.00091430611781848,0.65362908399966,125803,2834,0.0062862130837762,0.0062862132008011,0.003316045490251,18.391718172107,-9.0466254623144e-05,-9.0466254623144e-05,-9.0466254623144e-05,3470918.2390976,0.016016201801496
25219200,0.99151629849312,0.016135460670001,0.0061399140891936,0.0061399142131931,0.0038556323676144,-0.0015175038411954,0.0015175045510405,7.2687896640535e-10,2.6528712507219e-12,-1.4866050340014e-09,2.2152353491983e-09,-0.0016070250047538,0.0016070246984345,-0.0016070252742291,0.0016070244250111,-0.0016070237653176,0.0016070259941951,-0.0016070240333065,0.0016070257027294,-0.0013427017811244,0.001342704557959,-0.0013427026108522,0.0013427037770322,1.4890562088255e-09,-2.0205609496485e-09,-2.1388108174214e-09,1.6052959553362e-09,-0.0015175044620919,0.0015175039583487,-0.0016070251305258,0.0016070245447559,-0.0016070239664588,0.0016070257788516,-0.0016070262276952,0.0016070234625899,-0.0016070250274994,0.001607024643995,-0.0013427059646985,0.0013427005418593,-0.0013427023609279,0.0013427042185855,-0.0015169549029397,0.0015169590416133,-0.0015169582462197,0.0015169554764695,-2.5231562966687e-10,-5.792878184489e-11,-0.00079910440682702,0.00079910410336133,2.0479453618349e-09,-2.423081822748e-09,-0.00093860298595028,0.00093860413575381,-0.00093860447177753,0.00093860265051946,-0.00093860294949407,0.00093860420534813,-0.00093860443109988,0.00093860269062408,-0.00091759768535767,0.00091759600865612,-0.00091759789008817,0.00091759589112141,0.67455041397214,125803,2834,0.0063013905243276,0.0063013905825903,0.0033287997358898,20.100468146508,-7.6796254827938e-05,-7.6796254827938e-05,-7.6796254827938e-05,3498561.9843896,0.016060003457342
25419200,0.99175216150541,0.016139417016656,0.0061414086221059,0.0061414087463344,0.0038565996482157,-0.0015197005607201,0.0015197013077113,7.7970074203048e-10,-4.8658324109834e-11,-1.3633023644015e-09,2.248284962673e-09,-0.0016092374481309,0.0016092371784955,-0.0016092377227875,0.0016092368790986,-0.0016092362408233,0.0016092384444873,-0.0016092365202716,0.0016092381350323,-0.0013448464918286,0.0013448492784929,-0.001344847414457,0.0013448484376716,1.5007720231507e-09,-2.0325306028383e-09,-2.1426181352197e-09,1.5895119832206e-09,-0.0015197012361276,0.0015197007303737,-0.0016092375433098,0.0016092369691413,-0.001609236353848,0.0016092381758634,-0.0016092386395052,0.0016092358666173,-0.0016092374441764,0.0016092370526235,-0.0013448506887738,0.0013448452508931,-0.0013448470739949,0.0013448489079494,-0.0015191659806583,0.0015191701411185,-0.0015191690967603,0.0015191662866518,-2.3446700941842e-10,-1.2846754246359e-10,-0.00080083063141401,0.00080083030009461,2.0508424550825e-09,-2.442969453882e-09,-0.00094051276845023,0.00094051393825351,-0.0009405142649023,0.00094051244089935,-0.00094051276317866,0.00094051398468864,-0.00094051425503911,0.00094051246104428,-0.00091947340255874,0.00091947160962643,-0.00091947347810149,0.00091947145237083,0.72789747861424,125803,2834,0.0063104796607976,0.0063104798635011,0.0033359851823019,21.026193793261,-6.9390449653915e-05,-6.9390449653915e-05,-6.9390449653915e-05,3509314.3768612,0.01608577634199
25619200,0.99198035987445,0.016143268031585,0.0061428639935423,0.006142864117574,0.0038575399204689,-0.0015199755496669,0.0015199763023443,7.7372055242705e-10,-4.4351833023122e-11,-1.3983137175934e-09,2.2939881352371e-09,-0.0016094869247612,0.0016094866410501,-0.0016094872223578,0.0016094863523863,-0.001609485684433,0.0016094879385418,-0.0016094859801345,0.0016094876268936,-0.0013451589674776,0.0013451617643402,-0.0013451599314203,0.0013451609430611,1.4884022515682e-09,-2.0428204498611e-09,-2.1067445428475e-09,1.5326277822071e-09,-0.0015199762387312,0.0015199757196556,-0.0016094869925221,0.0016094864397009,-0.0016094858626364,0.0016094876456689,-0.001609488098293,0.0016094853591708,-0.0016094869278645,0.0016094865035061,-0.0013451631507988,0.0013451577740602,-0.0013451596459683,0.0013451613511885,-0.0015194499135179,0.0015194540169837,-0.0015194530117635,0.0015194501805691,-2.2333708837535e-10,-9.6047531931476e-11,-0.00080079000937025,0.0008007897116015,2.0441374197495e-09,-2.3893460500962e-09,-0.00094067568491509,0.00094067685884792,-0.00094067716091875,0.00094067538093992,-0.00094067568356467,0.00094067690661433,-0.00094067714787158,0.00094067539314511,-0.00091946898605648,0.00091946725057597,-0.00091946908999495,0.00091946711027647,0.73244076156147,125803,2834,0.0063116128386919,0.0063116130585469,0.0033358305677543,20.943822604102,-7.0049419167187e-05,-7.0049419167187e-05,-7.0049419167187e-05,3494056.3996906,0.016087923809732
25819200,0.99219128212085,0.016146732371634,0.0061441762748542,0.0061441763986958,0.003858379698084,-0.0015187356319266,0.0015187363754081,7.7179507554317e-10,-6.9020799697241e-11,-1.4814169340237e-09,2.3566387564801e-09,-0.0016082189562826,0.0016082186948059,-0.0016082194072104,0.0016082184349739,-0.0016082176336281,0.001608220021574,-0.0016082180540656,0.0016082196589528,-0.0013439772676467,0.0013439800953999,-0.0013439783619302,0.0013439793542217,1.4387243182538e-09,-2.1147547404543e-09,-2.062356867447e-09,1.3750208794678e-09,-0.0015187363783917,0.0015187357772512,-0.0016082189798966,0.0016082184540686,-0.0016082180763225,0.0016082197575677,-0.0016082201483654,0.0016082174368212,-0.0016082190234668,0.0016082184467176,-0.0013439815102745,0.0013439762052083,-0.0013439782693274,0.001343979675449,-0.0015182098119227,0.0015182137884114,-0.001518212903944,0.0015182100196656,-1.3584368314628e-10,-2.2494593864422e-11,-0.00079944110333982,0.00079944092760166,2.0947573889416e-09,-2.2763658230297e-09,-0.00093944706184599,0.00093944836786691,-0.00093944851386941,0.0009394469105739,-0.00093944713013937,0.00093944837891138,-0.00093944851306844,0.00093944679750377,-0.00091808287892838,0.00091808126308053,-0.00091808308719617,0.00091808127193947,0.71386865002278,125803,2834,0.0063064764240189,0.0063064767306536,0.0033302354780062,20.110583490842,-7.6715332073265e-05,-7.6715332073265e-05,-7.6715332073265e-05,3468171.0185978,0.01607180173929
26019200,0.99239178895737,0.016149895311179,0.0061453778247579,0.006145377948359,0.0038591395380626,-0.001518294362658,0.0015182950974395,7.6913965701732e-10,-3.6245955181538e-11,-1.5102640509405e-09,2.3163491850636e-09,-0.0016077582740489,0.0016077579595036,-0.0016077585705796,0.0016077576637927,-0.0016077569934581,0.0016077592918225,-0.0016077572882469,0.0016077589754274,-0.0013435612689018,0.0013435641405418,-0.0013435621782855,0.0013435633193787,1.5482902847358e-09,-2.0991520970191e-09,-1.9947875795282e-09,1.4308971209869e-09,-0.0015182950226729,0.0015182945017789,-0.0016077583027039,0.0016077578577841,-0.0016077572434692,0.0016077589864623,-0.0016077594473375,0.0016077567263342,-0.0016077583511265,0.001607757799077,-0.0013435653863914,0.0013435602030877,-0.0013435620940151,0.0013435635853779,-0.0015177745886641,0.0015177787491523,-0.0015177779612171,0.0015177749441819,-2.3856803745657e-10,-7.7962055342136e-11,-0.0007988461972665,0.00079884589341542,1.9238689660207e-09,-2.2871612673291e-09,-0.00093894326321396,0.00093894435338895,-0.00093894466619302,0.00093894295266033,-0.00093894324865762,0.00093894441025999,-0.00093894464106403,0.00093894297371501,-0.0009175000615667,0.00091749844501068,-0.00091750021759012,0.00091749830610787,0.6868883937558,125803,2834,0.0063046467814191,0.0063046469143772,0.0033277711387251,19.71697129535,-7.9864229637199e-05,-7.9864229637199e-05,-7.9864229637199e-05,3453993.0329122,0.016065579974247
26219200,0.99258612597081,0.016153144606646,0.006146605437778,0.0061466055614408,0.0038599336074273,-0.0015184163353241,0.0015184170698857,7.7010365980299e-10,-3.3632268204351e-11,-1.5189489068006e-09,2.3191488403007e-09,-0.0016078825732004,0.0016078822571177,-0.0016078828722249,0.0016078819608037,-0.0016078812868675,0.0016078835944587,-0.0016078815847626,0.0016078832777714,-0.0013436686227785,0.0013436715076568,-0.0013436695420711,0.0013436706759716,1.5486136019175e-09,-2.1010364333964e-09,-1.9689668412123e-09,1.4057811840851e-09,-0.0015184169933642,0.0015184164715355,-0.0016078825962744,0.001607882166939,-0.0016078815556625,0.0016078832802776,-0.0016078837401299,0.0016078810364742,-0.0016078826614785,0.0016078820925188,-0.0013436727213782,0.0013436675880961,-0.001343669484062,0.0013436709141407,-0.0015179048015833,0.0015179089473027,-0.0015179081979408,0.0015179051658926,-2.3949114848899e-10,-6.622894172188e-11,-0.00079880147941608,0.0007988011854129,1.902564516767e-09,-2.2568113592985e-09,-0.00093894947937797,0.0009389505539754,-0.00093895086472603,0.00093894917089324,-0.00093894946071248,0.00093895061469078,-0.00093895083477638,0.00093894919534283,-0.00091750323137404,0.00091750164854441,-0.00091750340561662,0.00091750151591866,0.7252511004105,125803,2834,0.0063051496983327,0.0063051498216728,0.0033275907939792,19.629362898437,-8.0565096812501e-05,-8.0565096812501e-05,-8.0565096812501e-05,3450755.9703723,0.016066418625507
26419200,0.99277891440531,0.01615646116718,0.0061478557780032,0.0061478559017382,0.0038607494874381,-0.0015193328271181,0.0015193335550326,7.7540904902111e-10,-4.3658288269262e-11,-1.5073382487924e-09,2.2930476442038e-09,-0.0016087718465255,0.0016087715488459,-0.0016087721557889,0.0016087712445199,-0.0016087705707705,0.0016087728724059,-0.0016087708799053,0.0016087725472874,-0.0013446047478941,0.0013446076381803,-0.0013446056905271,0.0013446067887282,1.5395583490786e-09,-2.0927398146409e-09,-1.9631545555025e-09,1.4009867098214e-09,-0.0015193334795111,0.0015193329576397,-0.0016087718822342,0.0016087714516068,-0.0016087708482416,0.0016087725629925,-0.0016087730197091,0.0016087703269393,-0.0016087719463722,0.0016087713783116,-0.001344608837558,0.0013446037238218,-0.0013446056208382,0.0013446070450413,-0.0015188383183493,0.0015188424484917,-0.0015188417245783,0.0015188387117351,-2.3466679037171e-10,-6.5619237877326e-11,-0.000799390001802,0.00079938971150265,1.8987855376184e-09,-2.2497296143257e-09,-0.00093970638955846,0.00093970746724693,-0.00093970777150124,0.00093970608737305,-0.00093970637465084,0.00093970752383921,-0.00093970774445588,0.00093970610518332,-0.00091815935754504,0.00091815777795389,-0.00091815953029644,0.00091815766001051,0.74503105785776,125803,2834,0.0063089393211392,0.0063089394347971,0.0033300478816302,19.918317809048,-7.8253457527618e-05,-7.8253457527618e-05,-7.8253457527618e-05,3445966.9599917,0.016076617359248
26619200,0.99297658665842,0.016159830194256,0.0061491273092291,0.0061491274330512,0.0038615754519758,-0.0015213579978255,0.0015213587296353,7.5338855496738e-10,1.0440736925007e-12,-1.4697666074037e-09,2.2540297604086e-09,-0.0016107578331672,0.0016107574928745,-0.0016107580091822,0.0016107571831955,-0.0016107566112071,0.0016107588008866,-0.001610756805872,0.0016107585326379,-0.0013466487320469,0.001346651564093,-0.0013466494995524,0.0013466507069171,1.5617586408161e-09,-2.0162345492551e-09,-1.9720768456671e-09,1.5035344985164e-09,-0.0015213585989778,0.001521358143558,-0.0016107578921907,0.0016107574471054,-0.0016107567014032,0.0016107584698453,-0.0016107589720496,0.0016107562821724,-0.0016107578762191,0.0016107574226073,-0.0013466527291135,0.0013466476219728,-0.0013466493400599,0.0013466509853297,-0.0015208856114178,0.0015208897918066,-0.0015208890026385,0.0015208860575084,-3.3787056808875e-10,-8.7026989238158e-11,-0.00080090301654475,0.00080090263183394,1.8179005822215e-09,-2.2989724370823e-09,-0.00094148645916677,0.00094148738642383,-0.00094148783317141,0.00094148601714327,-0.00094148636613669,0.00094148749499739,-0.00094148776877826,0.00094148615481605,-0.00091979304294647,0.00091979147911093,-0.00091979321846423,0.00091979117049707,0.73848802136063,125803,2834,0.0063173163339065,0.0063173163649663,0.0033363518913094,20.756900342604,-7.1544797259169e-05,-7.1544797259169e-05,-7.1544797259169e-05,3446254.3959624,0.01610004825121
26819200,0.99317768271069,0.016163172184078,0.0061503919375352,0.0061503920615196,0.0038623881850237,-0.0015231791470833,0.0015231798759849,7.4823003073323e-10,-2.0769642031105e-11,-1.4191541686966e-09,2.2333831969117e-09,-0.0016125562634275,0.0016125559791784,-0.0016125565493064,0.0016125556996472,-0.0016125550362495,0.001612557257592,-0.0016125553216538,0.0016125569546957,-0.0013484706605505,0.0013484734272408,-0.0013484715513412,0.0013484726334444,1.4971484305549e-09,-2.0455484497929e-09,-2.0300797679142e-09,1.4711728952036e-09,-0.0015231798048024,0.0015231792885451,-0.0016125563299576,0.0016125558274165,-0.0016125552474124,0.0016125569863626,-0.0016125574378662,0.0016125547362394,-0.0016125563164864,0.0016125558334532,-0.001348474745464,0.0013484695245525,-0.001348471379607,0.0013484729655727,-0.0015227170282299,0.0015227211128946,-0.0015227202698363,0.0015227173870182,-2.7480562536253e-10,-3.0015494076671e-11,-0.00080223599415408,0.0008022357064837,1.90761256047e-09,-2.2542778643743e-09,-0.00094307214954159,0.00094307320114403,-0.00094307353386019,0.00094307181721291,-0.00094307210506264,0.00094307328809838,-0.00094307347698812,0.0009430718636955,-0.0009212413215018,0.00092123981287525,-0.00092124156770095,0.00092123959715435,0.72122275503538,125803,2834,0.0063248488580008,0.0063248490032741,0.0033419076312885,21.495057729735,-6.5639538162121e-05,-6.5639538162121e-05,-6.5639538162121e-05,3447260.8056428,0.016121003201945
27019200,0.9933756577833,0.0161663701873,0.0061516054267576,0.0061516055507257,0.0038631592098165,-0.0015239451865705,0.0015239459257782,7.7782009707113e-10,-5.0429679937306e-11,-1.4052712623393e-09,2.2565725787861e-09,-0.0016133193773598,0.0016133191068211,-0.0016133196749313,0.0016133188076122,-0.0016133181493382,0.0016133203909989,-0.0016133184469455,0.0016133200725193,-0.0013492283740076,0.00134923119024,-0.0013492293285574,0.0013492303410088,1.4857216837518e-09,-2.0282256352204e-09,-2.0059302234446e-09,1.4468678589007e-09,-0.0015239458542292,0.0015239453426438,-0.0016133194358328,0.0016133189452611,-0.0016133183614727,0.0016133200791704,-0.0016133205330426,0.0016133178625294,-0.0016133194277561,0.0016133189461988,-0.0013492324544226,0.0013492272891088,-0.0013492291303781,0.0013492306774512,-0.0015234828164186,0.0015234868553601,-0.0015234859695464,0.0015234830955594,-2.5799677564295e-10,-6.0294286315647e-11,-0.00080267913778409,0.00080267884011999,1.9283918200437e-09,-2.2810386069374e-09,-0.00094367657282556,0.00094367764915388,-0.00094367797436384,0.00094367624712695,-0.000943676543842,0.00094367772098175,-0.00094367793685458,0.00094367628589554,-0.00092175862377679,0.00092175703636014,-0.00092175879979104,0.00092175684094928,0.70228868507665,125803,2834,0.0063280154563952,0.0063280156310814,0.0033437608648833,21.714650069309,-6.3882799445529e-05,-6.3882799445529e-05,-6.3882799445529e-05,3444456.8634471,0.016129322671303
27219200,0.99356820677869,0.016169384606021,0.0061527523335787,0.0061527524574626,0.0038638798149801,-0.0015242842353308,0.0015242849724181,7.9003831181306e-10,-6.1855102486725e-11,-1.4207182069752e-09,2.2595606716784e-09,-0.0016136701781826,0.0016136699142509,-0.0016136704890546,0.0016136696063061,-0.0016136689422548,0.0016136712032924,-0.0016136692534244,0.0016136708753834,-0.001349540579252,0.0013495434301923,-0.0013495415641031,0.001349542560657,1.4841485713387e-09,-2.0302525945409e-09,-1.9901314005949e-09,1.4291054021712e-09,-0.0015242849013211,0.0015242843874854,-0.0016136702379861,0.0016136697569263,-0.0016136691790088,0.0016136708846534,-0.0016136713359305,0.0016136686753166,-0.0016136702415427,0.0016136697473598,-0.0013495446661426,0.0013495395298131,-0.0013495413833102,0.0013495428948151,-0.0015238180561556,0.0015238220865128,-0.0015238212410512,0.0015238183663375,-2.4754161959927e-10,-6.2319461947921e-11,-0.00080279544390238,0.00080279515106373,1.9353705341153e-09,-2.2823535147348e-09,-0.00094387890395444,0.000943879991901,-0.00094388030738525,0.00094387858752064,-0.00094387888059339,0.00094388005737191,-0.00094388027458943,0.00094387861833384,-0.00092193509855495,0.00092193350124609,-0.00092193527263349,0.00092193333531223,0.68192143046988,125803,2834,0.0063294160358484,0.0063294162033622,0.0033442518817155,21.739860215738,-6.3681118274094e-05,-6.3681118274094e-05,-6.3681118274094e-05,3442742.2717786,0.016132668226541
27419200,0.99375690352505,0.016172432432967,0.006153908359251,0.0061539084830838,0.0038646155906321,-0.0015248403890605,0.0015248411165124,7.7589516358241e-10,-4.859649293991e-11,-1.434742943235e-09,2.2388805670884e-09,-0.0016142502699512,0.0016142499980861,-0.0016142505689841,0.001614249697937,-0.0016142490384482,0.0016142512843749,-0.001614249337073,0.001614250964225,-0.0013500458218491,0.001350048655199,-0.0013500467613631,0.0013500478012491,1.4949919453164e-09,-2.0355454468946e-09,-2.0029274008087e-09,1.4510015994119e-09,-0.0015248410401366,0.0015248405294151,-0.0016142503394129,0.0016142498529385,-0.0016142492672982,0.0016142509900295,-0.0016142514430081,0.0016142487638373,-0.0016142503371783,0.0016142498476106,-0.0013500499087465,0.001350044745509,-0.0013500465859785,0.0013500481383947,-0.0015243758524595,0.0015243799125735,-0.0015243790978223,0.0015243762100532,-2.6760822182737e-10,-4.3296927043893e-11,-0.00080314820824455,0.00080314791254585,1.9151142576145e-09,-2.270844375423e-09,-0.00094427171867677,0.0009442727778798,-0.00094427311119416,0.00094427138592667,-0.00094427167817213,0.00094427285860152,-0.00094427306285356,0.00094427143271434,-0.00092236781347146,0.00092236626658082,-0.00092236803014276,0.00092236607208389,0.70215248980008,125803,2834,0.0063317163116615,0.0063317164438663,0.0033457228508965,21.891681142459,-6.2466550860325e-05,-6.2466550860325e-05,-6.2466550860325e-05,3446831.6566861,0.016138837453304
27619200,0.99394443248521,0.016175508568295,0.0061550736024637,0.0061550737263216,0.00386536123951,-0.0015258936026383,0.0015258943277422,7.8102133674604e-10,-5.2520783232006e-11,-1.433702384788e-09,2.2304410575567e-09,-0.0016153102843201,0.0016153100161238,-0.001615310577276,0.0016153097063856,-0.0016153090583147,0.0016153112962711,-0.0016153093540502,0.0016153109744713,-0.0013510650906617,0.0013510679367883,-0.0013510660231715,0.0013510670685083,1.497048934418e-09,-2.0276434305278e-09,-2.0100351641427e-09,1.4680531744097e-09,-0.0015258942464605,0.0015258937419218,-0.0016153103638415,0.0016153098729208,-0.0016153092717982,0.0016153110026451,-0.00161531146019,0.0016153087751337,-0.0016153103504575,0.0016153098723181,-0.0013510691797132,0.0013510640093828,-0.0013510658319428,0.0013510674261335,-0.00152543720539,0.0015254412817127,-0.0015254404688011,0.0015254375962571,-2.7736025039816e-10,-5.06349738716e-11,-0.00080390603769482,0.00080390572851086,1.9165017120026e-09,-2.2914786944273e-09,-0.0009451348140403,0.00094513586932093,-0.00094513621543908,0.000945134469311,-0.00094513477006291,0.00094513595101027,-0.00094513616530504,0.00094513452173367,-0.00092321949534496,0.00092321793881069,-0.0009232197113549,0.00092321772847854,0.71253170004404,125803,2834,0.0063360729318091,0.0063360730516657,0.0033488803636853,22.281252478889,-5.9349980168886e-05,-5.9349980168886e-05,-5.9349980168886e-05,3450179.5385884,0.016150900340644
27819200,0.9941281311576,0.016178572251594,0.0061562327429928,0.0061562328668898,0.0038661066417115,-0.0015265128010319,0.0015265135377411,7.8819985497665e-10,-5.757017856468e-11,-1.418416918925e-09,2.2560279031903e-09,-0.0016159317729267,0.0016159315011019,-0.0016159320664712,0.0016159311936307,-0.0016159305436532,0.0016159327871093,-0.0016159308387875,0.0016159324658031,-0.0013516673447317,0.0013516701888137,-0.0013516682914417,0.0013516693201239,1.5004826455204e-09,-2.0355320473614e-09,-2.0157872217797e-09,1.4653652435094e-09,-0.0015265134611179,0.0015265129534503,-0.0016159318385401,0.0016159313473456,-0.0016159307445317,0.0016159324803955,-0.0016159329397576,0.0016159302488655,-0.0016159318261924,0.0016159313469263,-0.001351671446215,0.0013516662566254,-0.0013516680862545,0.0013516696715226,-0.0015260620537844,0.0015260661317612,-0.0015260652527282,0.0015260623633022,-2.7988332250013e-10,-5.2058934370584e-11,-0.00080427015633419,0.00080426984734579,1.9240540401279e-09,-2.2941675786735e-09,-0.00094560798640912,0.00094560904404887,-0.00094560939115081,0.00094560764024647,-0.00094560794267679,0.00094560912867292,-0.00094560934028088,0.00094560769508305,-0.00092365270127218,0.00092365113985142,-0.00092365291073494,0.0009236509047924,0.72383698859919,125803,2834,0.0063386328321824,0.0063386329888206,0.0033504022681603,22.443417692502,-5.8052658459982e-05,-5.8052658459982e-05,-5.8052658459982e-05,3448098.391229,0.016157650016199
28019200,0.99430871734904,0.016181638312032,0.0061573911716624,0.0061573912955192,0.0038668558448506,-0.0015272677135284,0.0015272684449185,7.8901840744102e-10,-5.6610613466971e-11,-1.4347752582478e-09,2.2494198414738e-09,-0.0016166784033172,0.0016166781291868,-0.0016166786889725,0.0016166778132053,-0.0016166771728898,0.0016166794176193,-0.0016166774637444,0.001616679096445,-0.0013524147386921,0.0013524176028127,-0.0013524156798441,0.0013524167179644,1.5092356108292e-09,-2.0335754356382e-09,-2.0173072210232e-09,1.4798008904221e-09,-0.0015272683599243,0.0015272678592497,-0.0016166784784282,0.0016166779888999,-0.0016166773675247,0.0016166791120457,-0.0016166795761311,0.0016166768797564,-0.0016166784616811,0.0016166779889531,-0.0013524188412596,0.0013524136502856,-0.001352415469754,0.001352417078709,-0.0015268273573008,0.0015268314606211,-0.0015268306187251,0.0015268277301358,-2.9028192779024e-10,-5.1596034011872e-11,-0.00080473976243573,0.00080473944392738,1.9213230011162e-09,-2.3071074760606e-09,-0.00094621067286473,0.0009462117203343,-0.00094621208154471,0.00094621031270598,-0.00094621062098331,0.00094621180803402,-0.00094621202734999,0.00094621037824658,-0.00092419746191113,0.00092419589958757,-0.00092419767588923,0.00092419565942264,0.73612814492058,125803,2834,0.0063417539379821,0.0063417540634649,0.0033523639736857,22.670250572694,-5.623799541845e-05,-5.623799541845e-05,-5.623799541845e-05,3444881.7835664,0.016165987335274
28219200,0.99448900098309,0.016184758262381,0.0061585683409026,0.0061585684647743,0.0038676214567045,-0.0015285608836033,0.0015285616116122,7.9940987916516e-10,-6.8090772755985e-11,-1.4380028984103e-09,2.2403974847477e-09,-0.0016179537823024,0.0016179535209058,-0.0016179540861637,0.0016179532015503,-0.0016179525515193,0.0016179548076846,-0.0016179528575735,0.0016179544756378,-0.0013537033650319,0.0013537062503006,-0.0013537043346207,0.0013537053475686,1.5005330424514e-09,-2.0323262784e-09,-2.0300019168828e-09,1.4873647854459e-09,-0.0015285615299534,0.0015285610247832,-0.0016179538696277,0.0016179533669479,-0.0016179527650512,0.0016179545111512,-0.0016179549690266,0.0016179522687319,-0.0016179538454351,0.0016179533790259,-0.0013537074972938,0.0013537022831304,-0.0013537041096608,0.0013537057348177,-0.0015281360422802,0.0015281401345837,-0.0015281393036085,0.0015281364317575,-2.784444538831e-10,-5.0001118206043e-11,-0.00080565903199411,0.00080565872269236,1.9493542003761e-09,-2.3242783219653e-09,-0.00094731152006679,0.00094731259392714,-0.00094731294282697,0.00094731117235698,-0.00094731147462186,0.00094731267734122,-0.00094731289177507,0.00094731122692047,-0.00092521728862657,0.00092521570809282,-0.00092521750544997,0.00092521549805855,0.74949207704255,125803,2834,0.0063471020932584,0.0063471022162534,0.0033561969700836,23.163089692395,-5.2295282460836e-05,-5.2295282460836e-05,-5.2295282460836e-05,3443665.1901972,0.016180752878519
28419200,0.99466373295532,0.016187843808338,0.0061597311542558,0.0061597312781548,0.0038683813759271,-0.0015289231070723,0.0015289238485686,8.1775413076087e-10,-8.7126103945566e-11,-1.4243344791476e-09,2.2760707708944e-09,-0.001618295099781,0.0016182948443136,-0.0016182954227931,0.0016182945206069,-0.001618293858715,0.0016182961412307,-0.0016182941819333,0.0016182957975956,-0.0013540870119351,0.001354089919229,-0.0013540880403319,0.0013540889967986,1.5068546209198e-09,-2.0539207580771e-09,-2.0276934478638e-09,1.4650750517753e-09,-0.0015289237775626,0.0015289232620298,-0.0016182951672911,0.0016182946744614,-0.0016182940800485,0.001618295823729,-0.0016182962801786,0.0016182935766585,-0.0016182951610558,0.0016182946739058,-0.0013540911678427,0.001354085943962,-0.0013540878054503,0.0013540893734752,-0.0015285066906251,0.0015285107861521,-0.0015285098946867,0.0015285069847233,-2.6155857170207e-10,-5.7670777167933e-11,-0.00080574526323802,0.00080574496391347,1.9660322378956e-09,-2.3208243509413e-09,-0.00094756280099173,0.00094756389878215,-0.00094756422800995,0.00094756247177952,-0.0009475627700469,0.00094756397333741,-0.00094756418798936,0.0009475625117901,-0.00092535429552391,0.00092535268856449,-0.00092535448138063,0.0009253524891879,0.76402646628057,125803,2834,0.0063485969143578,0.0063485970878535,0.0033565676851233,23.176346092387,-5.2189231260901e-05,-5.2189231260901e-05,-5.2189231260901e-05,3433559.0696787,0.016184168850212
28619200,0.99483341287572,0.016190860892392,0.0061608677220911,0.0061608678459299,0.0038691253243713,-0.0015293519257091,0.0015293526574137,7.909162192877e-10,-6.1953913468118e-11,-1.4517280470576e-09,2.2668743267218e-09,-0.0016186904877724,0.0016186902128115,-0.0016186907962323,0.0016186899041548,-0.0016186892419887,0.0016186915125045,-0.0016186895491797,0.0016186911825972,-0.0013545497296708,0.0013545526029264,-0.0013545506924994,0.0013545517261115,1.5192051811481e-09,-2.0652259016377e-09,-2.042389797046e-09,1.4847629968773e-09,-0.0015293525828336,0.0015293520671281,-0.0016186905581659,0.0016186900616257,-0.0016186894623202,0.0016186912232039,-0.0016186916801022,0.0016186889530102,-0.0016186905498533,0.001618690060197,-0.0013545538806506,0.0013545486236578,-0.0013545504840018,0.001354552089811,-0.0015289478159688,0.0015289519503574,-0.0015289510989271,0.0015289481775043,-2.9225069134203e-10,-2.4656794957722e-11,-0.00080587426997638,0.00080587397042888,1.9429456563421e-09,-2.3027885862828e-09,-0.00094787591987218,0.00094787698287668,-0.00094787733357625,0.00094787557127023,-0.00094787586685298,0.00094787707878556,-0.00094787726917438,0.0009478756296278,-0.00092553642834184,0.000925534904702,-0.00092553668775329,0.00092553465578547,0.76896222407805,125803,2834,0.0063503668843813,0.0063503670225055,0.0033571173382924,23.222726516781,-5.1818187865748e-05,-5.1818187865748e-05,-5.1818187865748e-05,3422105.8729354,0.016188325875886
28819200,0.99500456090363,0.016193824378243,0.0061619865933882,0.0061619867172334,0.0038698510676213,-0.0015310366321703,0.001531037343746,8.4933650382341e-10,-1.2461762966401e-10,-1.4723267418404e-09,2.2175459773749e-09,-0.0016203389444142,0.001620338728432,-0.0016203393034193,0.0016203383678374,-0.0016203377054516,0.0016203400159197,-0.0016203380668601,0.0016203396357609,-0.0013562467695867,0.0013562497818343,-0.0013562478584454,0.0013562487678322,1.511559715653e-09,-2.0535680093358e-09,-2.0228940766314e-09,1.4771114173815e-09,-0.0015310372629026,0.0015310367505849,-0.0016203390603221,0.0016203385700371,-0.0016203379786627,0.0016203397220616,-0.0016203401738377,0.0016203374663822,-0.0016203390588413,0.0016203385630938,-0.0013562509597751,0.0013562457540645,-0.0013562476132977,0.0013562492049028,-0.0015306491327689,0.0015306532514938,-0.0015306525260683,0.0015306496231626,-2.3078791897732e-10,-7.6741092377011e-11,-0.00080708984455394,0.00080708954511176,1.998385371581e-09,-2.3649881626036e-09,-0.00094933968968376,0.00094934083082175,-0.00094934114210812,0.00094933938053249,-0.00094933967520441,0.00094934088328503,-0.00094934111929178,0.00094933939525921,-0.00092686852824284,0.00092686685508954,-0.00092686868810937,0.00092686676567504,0.74978588509394,125803,2834,0.0063573341376323,0.0063573342152586,0.0033621854778422,23.909983145673,-4.6320134834618e-05,-4.6320134834618e-05,-4.6320134834618e-05,3420412.6322805,0.01620763799786
29019200,0.99516673531927,0.016196479315799,0.0061629941599973,0.0061629942839601,0.0038704908718412,-0.0015306564745669,0.0015306572487279,6.8039500745839e-10,8.0591398929259e-11,-1.417178555462e-09,2.3614698601873e-09,-0.0016199537365482,0.0016199533186401,-0.0016199538450285,0.001619953056146,-0.0016199524954198,0.0016199546346446,-0.0016199526291835,0.0016199544311458,-0.0013558823319701,0.0013558849929819,-0.0013558829699645,0.0013558843130262,1.5523119938753e-09,-2.0103480148249e-09,-2.092538818536e-09,1.6011209667432e-09,-0.0015306571340821,0.0015306566745142,-0.0016199537519185,0.0016199532341103,-0.0016199524660256,0.0016199543020967,-0.0016199548145462,0.0016199520514386,-0.0016199536522697,0.0016199532767453,-0.0013558863576522,0.0013558810227217,-0.0013558827582818,0.0013558846086517,-0.0015302597671702,0.0015302640272092,-0.0015302629486478,0.001530260114444,-5.1108423569267e-10,3.9015976735751e-11,-0.00080653814028602,0.00080653773219152,1.7998440637015e-09,-2.2931172434792e-09,-0.00094890235745891,0.00094890317747924,-0.00094890373039066,0.00094890180475431,-0.00094890217678512,0.00094890337752828,-0.00094890356865937,0.00094890203771826,-0.00092633436579177,0.00092633308013091,-0.00092633479803397,0.00092633237922459,0.71130445405826,125803,2834,0.0063557569817795,0.0063557571580365,0.0033599023248329,23.567912349232,-4.9056701206145e-05,-4.9056701206145e-05,-4.9056701206145e-05,3408274.8318061,0.016202113207001
29219200,0.99532748632456,0.016199048297352,0.0061639706030002,0.0061639707268084,0.0038711069675437,-0.0015316765214493,0.0015316772384485,8.5530771758339e-10,-1.2214230645991e-10,-1.4869719487335e-09,2.2384696188779e-09,-0.001620987891251,0.0016209876604343,-0.0016209882389031,0.0016209872999265,-0.0016209866436824,0.0016209889655657,-0.0016209869938908,0.0016209885902876,-0.0013568475614702,0.0013568505944753,-0.001356848642426,0.0013568495622233,1.5298396610955e-09,-2.0644145232076e-09,-2.0123094657028e-09,1.4757729127057e-09,-0.0015316771498859,0.0015316766425758,-0.0016209879976232,0.0016209875199742,-0.0016209869081862,0.0016209886580614,-0.0016209891169868,0.0016209864055776,-0.0016209880048813,0.0016209875036616,-0.0013568517548539,0.0013568465556742,-0.0013568484003131,0.0013568499715815,-0.0015312804225179,0.001531284558645,-0.0015312838241975,0.0015312808745351,-2.4488873047524e-10,-6.9938718126052e-11,-0.00080728858363307,0.00080728828241057,1.9839250079969e-09,-2.3568523260283e-09,-0.00094972987639569,0.00094973098899047,-0.00094973131900729,0.00094972954780655,-0.00094972984424555,0.00094973105508898,-0.00094973128386622,0.00094972958376628,-0.00092718967451927,0.00092718802052725,-0.00092718984722975,0.00092718790375873,0.69517197354277,125803,2834,0.0063599764330038,0.0063599765002854,0.0033630282762051,23.974136686078,-4.5806906511373e-05,-4.5806906511373e-05,-4.5806906511373e-05,3414717.8597531,0.016213865386754
29419200,0.99548740137916,0.016201429987399,0.0061648817969771,0.0061648819209186,0.0038716662695031,-0.0015328243680009,0.0015328250993063,7.4265659864481e-10,-7.9387338888938e-12,-1.4570700219228e-09,2.2635119716748e-09,-0.0016221702499505,0.0016221699388937,-0.0016221705153286,0.0016221696583341,-0.0016221690057353,0.0016221712394909,-0.0016221692723158,0.0016221709478281,-0.0013579181173499,0.0013579209016289,-0.0013579189715181,0.0013579201145446,1.5133944746612e-09,-2.048217968894e-09,-2.0956207000063e-09,1.5505821057296e-09,-0.0015328250173673,0.0015328245097218,-0.0016221703296022,0.0016221697915533,-0.0016221691836064,0.0016221709792266,-0.0016221714394329,0.001622168684048,-0.0016221702723683,0.0016221698383389,-0.0013579222700343,0.0013579169134497,-0.0013579187532834,0.0013579204930577,-0.0015324196492463,0.0015324238074996,-0.0015324229364459,0.0015324200801309,-3.7018788513813e-10,4.761041803441e-11,-0.00080817666458088,0.00080817636111102,1.9308041793386e-09,-2.299880109495e-09,-0.00095067453241054,0.00095067553255444,-0.00095067594054188,0.00095067412411391,-0.00095067442319217,0.0009506756781368,-0.00095067582528072,0.00095067424368597,-0.00092818601754975,0.00092818464541381,-0.00092818642224738,0.00092818424735052,0.65090116316024,125803,2834,0.0063647256328249,0.006364725756369,0.003366724248021,24.45687985475,-4.1944961161999e-05,-4.1944961161999e-05,-4.1944961161999e-05,3425416.4324467,0.016227273836854
29619200,0.9956468477352,0.016203769258654,0.0061657778154819,0.0061657779394443,0.0038722135037275,-0.0015340272418208,0.0015340279718993,8.3021056546063e-10,-9.8222068677342e-11,-1.4400587815457e-09,2.2493396227479e-09,-0.0016234423685273,0.0016234421237953,-0.0016234426896384,0.0016234417820822,-0.0016234411345824,0.0016234434147325,-0.0016234414595165,0.0016234430619471,-0.0013589897295263,0.0013589926786465,-0.0013589907584036,0.001358991709607,1.5098243406087e-09,-2.0409245308657e-09,-2.0606564635853e-09,1.5183753142205e-09,-0.0015340278895259,0.0015340273844718,-0.0016234424709378,0.0016234419537714,-0.0016234413421831,0.0016234431137276,-0.0016234435744284,0.0016234408477713,-0.001623442432069,0.0016234419792202,-0.0013589939222382,0.0013589886429905,-0.0013589904715363,0.001358992149046,-0.001533611156414,0.0015336152869501,-0.0015336144268452,0.0015336115547468,-2.9213456522072e-10,-4.1526517893383e-11,-0.00080918750131447,0.00080918718848296,1.9849213090956e-09,-2.364409073435e-09,-0.00095165015184211,0.00095165123789311,-0.00095165159910848,0.00095164979068858,-0.00095165009661474,0.00095165132930349,-0.00095165154008138,0.00095164985565461,-0.00092932666359945,0.00092932507561641,-0.00092932689510714,0.00092932483637456,0.64191650125334,125803,2834,0.0063697045584448,0.0063697046830118,0.0033709250798189,24.997604042533,-3.7619167659738e-05,-3.7619167659738e-05,-3.7619167659738e-05,3444889.3552664,0.016241661464261
29819200,0.99580651198234,0.016206253377044,0.0061667239831566,0.0061667241071312,0.0038728052867561,-0.0015354197203606,0.0015354204486627,8.1885315265709e-10,-8.792074884618e-11,-1.4301786210837e-09,2.2365052353591e-09,-0.0016249072353122,0.0016249069885664,-0.0016249075469721,0.0016249066530526,-0.001624906009358,0.0016249082714178,-0.0016249063251905,0.0016249079271568,-0.001360241726035,0.0013602446436452,-0.001360242730176,0.00136024369991,1.4995395369788e-09,-2.0271022812861e-09,-2.0807511286519e-09,1.5420194632904e-09,-0.0015354203653271,0.0015354198632096,-0.0016249073477716,0.0016249068107034,-0.0016249062019607,0.0016249079822768,-0.0016249084422716,0.0016249057106157,-0.0016249072857383,0.0016249068585386,-0.001360245917722,0.0013602406059098,-0.0013602424254712,0.0013602441602442,-0.0015350008371858,0.0015350049631329,-0.0015350040907978,0.0015350012623913,-3.1033439531141e-10,-2.6005955859429e-11,-0.00081038027221069,0.00081037995719861,1.9892451137177e-09,-2.3718090664273e-09,-0.00095279888749597,0.00095279996384461,-0.0009528003388615,0.00095279851259088,-0.00095279882014878,0.00095280006658308,-0.00095280026785043,0.00095279859062491,-0.00093066379956426,0.00093066224285617,-0.00093066406626844,0.00093066196641243,0.67837952333086,125803,2834,0.0063754685756479,0.0063754686986347,0.0033758814154384,25.63439848462,-3.2524812123041e-05,-3.2524812123041e-05,-3.2524812123041e-05,3466065.5646858,0.016258412770625
30019200,0.99596286326314,0.016208724181612,0.006167664076632,0.00616766420062,0.0038733959043596,-0.0015361688778913,0.0015361696174859,8.2125542309291e-10,-8.8930845341367e-11,-1.409105953898e-09,2.259141491837e-09,-0.0016256988651222,0.0016256986152696,-0.0016256991736013,0.0016256982803388,-0.0016256976388287,0.0016256998979265,-0.0016256979523409,0.001625699555903,-0.0013609091950774,0.0013609121020302,-0.0013609102049085,0.0013609111651265,1.503104724006e-09,-2.0335133504786e-09,-2.0838858076309e-09,1.5374832074544e-09,-0.0015361695390387,0.0015361690345648,-0.0016256989624906,0.0016256984286308,-0.0016256978124181,0.0016256995953545,-0.0016257000587544,0.0016256973223883,-0.0016256989029547,0.0016256984712506,-0.0013609133868843,0.0013609080657032,-0.001360909892199,0.0013609116177134,-0.0015357488849198,0.00153575301944,-0.001535752082624,0.0015357492416664,-3.2039006121164e-10,-2.6358967604574e-11,-0.00081094918271404,0.00081094886330655,1.9835320517607e-09,-2.3668205043171e-09,-0.00095338433976983,0.00095338540939044,-0.00095338578898684,0.00095338395984698,-0.00095338427183521,0.00095338551540545,-0.00095338571547825,0.00095338404094734,-0.00093132540675969,0.00093132385903667,-0.00093132567312418,0.00093132354298657,0.68873328929264,125803,2834,0.0063785684397507,0.0063785686014199,0.0033782489005538,25.914246043167,-3.0286031654661e-05,-3.0286031654661e-05,-3.0286031654661e-05,3472854.8130593,0.016267119332998
30219200,0.99611407144896,0.016211007360073,0.0061685364491036,0.0061685365730305,0.003873934337939,-0.0015365209717756,0.0015365217086168,8.2187811848176e-10,-8.9414771616575e-11,-1.4303193913126e-09,2.2643255872311e-09,-0.0016260831390316,0.0016260828855001,-0.0016260834545907,0.0016260825529168,-0.0016260819030647,0.0016260841793568,-0.0016260822212503,0.0016260838345289,-0.0013611988418768,0.0013612017644169,-0.0013611998601295,0.0013612008214175,1.5093485119684e-09,-2.0446210336025e-09,-2.0711839181341e-09,1.5226581332289e-09,-0.001536521629493,0.00153652112194,-0.0016260832320203,0.0016260827092503,-0.001626082099603,0.0016260838767423,-0.0016260843377556,0.0016260816045719,-0.0016260831886808,0.0016260827405268,-0.0013612030359285,0.0013611977316909,-0.0013611995686655,0.0013612012534925,-0.0015360975604316,0.0015361016929664,-0.0015361007925013,0.0015360979215305,-3.1825699086479e-10,-1.3732179461932e-11,-0.00081115911694056,0.00081115880770282,1.9774664944067e-09,-2.3494819856798e-09,-0.00095361611262927,0.00095361717673576,-0.00095361755264339,0.00095361573645697,-0.00095361604100861,0.00095361728673189,-0.00095361747557172,0.0009536158193425,-0.00093160162352515,0.00093160009693962,-0.00093160190410495,0.00093159979318349,0.6600854411018,125803,2834,0.0063800245654319,0.0063800247122417,0.003379125194684,25.990771354799,-2.9673829161605e-05,-2.9673829161605e-05,-2.9673829161605e-05,3473777.9337221,0.016270969657224
30419200,0.99625791513722,0.016213057122171,0.0061693237233597,0.0061693238472612,0.0038744095515496,-0.0015362657111732,0.0015362664518851,8.2317046341327e-10,-8.7404773373582e-11,-1.4469906234885e-09,2.2883211239487e-09,-0.0016258835273899,0.001625883263063,-0.0016258838413577,0.0016258829290424,-0.0016258822785041,0.0016258845694092,-0.0016258825958609,0.0016258842245117,-0.0013608566221834,0.0013608595635424,-0.0013608576403456,0.0013608586155255,1.5264521157592e-09,-2.0631012770163e-09,-2.0487845398201e-09,1.4983411453903e-09,-0.0015362663722798,0.0015362658627326,-0.0016258836019075,0.0016258831049422,-0.0016258824823583,0.0016258842532431,-0.0016258847181442,0.0016258819856615,-0.001625883585668,0.0016258831067593,-0.0013608608065507,0.0013608555370806,-0.0013608573847652,0.0013608590088609,-0.001535831276236,0.0015358354298311,-0.0015358345431023,0.0015358316185435,-3.2598488898381e-10,-8.769605329871e-12,-0.00081089737442748,0.00081089706379886,1.9516039553976e-09,-2.3253015063971e-09,-0.00095328090922036,0.00095328195302734,-0.00095328233318041,0.00095328052885516,-0.00095328083386653,0.00095328206673114,-0.00095328225227894,0.00095328061587788,-0.00093138476643546,0.00093138326554871,-0.00093138505496618,0.00093138294708531,0.62526766348521,125803,2834,0.0063789687377695,0.0063789688864703,0.0033780360843926,25.786993592905,-3.1304051256756e-05,-3.1304051256756e-05,-3.1304051256756e-05,3476313.9267121,0.016267716080821
30619200,0.99639378368157,0.016215119484071,0.0061701106019528,0.0061701107258275,0.0038748981562911,-0.0015357022251924,0.0015357029675857,8.3536750597847e-10,-9.6649707064851e-11,-1.4642282298327e-09,2.303947679274e-09,-0.0016253978695519,0.0016253976039225,-0.0016253981894587,0.0016253972620705,-0.0016253966101116,0.0016253989203912,-0.0016253969338548,0.0016253985689484,-0.0013601760531854,0.0013601790270275,-0.0013601770849184,0.0013601780656714,1.5479319085074e-09,-2.0875731099292e-09,-2.0205371539331e-09,1.4680800773673e-09,-0.0015357028877511,0.0015357023752364,-0.0016253979295435,0.0016253974640318,-0.0016253968277111,0.001625398591026,-0.0016253990600979,0.001625396327642,-0.0016253979472822,0.0016253974302172,-0.0013601802330209,0.001360175003247,-0.001360176869121,0.0013601784245898,-0.0015352612400467,0.0015352654171166,-0.0015352645588283,0.0015352615671244,-3.2110350923098e-10,-1.3180548078598e-11,-0.00081044151743497,0.00081044120757128,1.9252495647359e-09,-2.2989766417544e-09,-0.00095265044629114,0.00095265147630438,-0.0009526518526303,0.00095265006971713,-0.00095265037313072,0.00095265158705186,-0.00095265177402798,0.00095265015448073,-0.00093097354455273,0.00093097206116567,-0.00093097382877193,0.00093097174461137,0.66318500799402,125803,2834,0.006376639278251,0.0063766394233475,0.0033761346543969,25.454064242111,-3.3967486063112e-05,-3.3967486063112e-05,-3.3967486063112e-05,3483544.0337858,0.016261047230227
30819200,0.99652964485382,0.016217278298996,0.0061709306936941,0.0061709308175499,0.0038754167877521,-0.001537100490214,0.0015371012028863,8.035924996831e-10,-6.9441981653951e-11,-1.5188007587382e-09,2.2480302312195e-09,-0.0016268289968981,0.0016268287274709,-0.0016268293143364,0.0016268283936378,-0.0016268277360122,0.0016268300421701,-0.0016268280568601,0.0016268296968609,-0.0013614816332161,0.0013614846000758,-0.0013614826234673,0.0013614836496299,1.5191310141785e-09,-2.0489942955136e-09,-2.0292116316003e-09,1.497190786386e-09,-0.0015371011104619,0.0015371006056552,-0.0016268291001202,0.0016268286063341,-0.001626827999236,0.0016268297535341,-0.0016268302103478,0.0016268274958343,-0.0016268290884995,0.0016268286071776,-0.0013614858001864,0.0013614805814034,-0.0013614824213433,0.0013614840364962,-0.0015366762982374,0.0015366804420497,-0.0015366797504929,0.0015366768597372,-3.4081966251903e-10,3.4214687853007e-11,-0.00081163072633572,0.00081163042861857,1.9334632481683e-09,-2.3041526253283e-09,-0.00095385390120226,0.00095385492109952,-0.00095385531056756,0.00095385351265502,-0.00095385380465247,0.00095385504825028,-0.00095385521117485,0.00095385361298411,-0.00093228760105216,0.00093228617457297,-0.00093228796880973,0.00093228589296683,0.69236589904928,125803,2834,0.0063824261953265,0.0063824262428848,0.0033810793367543,26.086812238855,-2.8905502089156e-05,-2.8905502089156e-05,-2.8905502089156e-05,3495160.3148681,0.016277834390007
31019200,0.99666985681801,0.016219573634901,0.0061718007942839,0.0061718009182908,0.0038759719223266,-0.0015396962606459,0.0015396969835858,8.2712997604112e-10,-7.3917046590848e-11,-1.4512788428981e-09,2.2182033898797e-09,-0.0016294339225129,0.001629433648838,-0.0016294341300451,0.0016294332587004,-0.0016294327208453,0.0016294349264988,-0.0016294329617959,0.0016294346033583,-0.0013640083019145,0.0013640112952866,-0.001364009207505,0.001364010258928,1.5454403198591e-09,-1.9724194588958e-09,-2.0249585676377e-09,1.5857011396539e-09,-0.001539696841755,0.0015396964052822,-0.0016294340522994,0.0016294335634813,-0.001629432782217,0.0016294345800474,-0.0016294350903877,0.0016294323819104,-0.0016294339695322,0.0016294335812146,-0.0013640123837898,0.0013640072139422,-0.0013640088871767,0.0013640107152582,-0.0015392955991169,0.0015392998163857,-0.0015392990269395,0.0015392961974339,-4.1819104288807e-10,-5.6847458202115e-11,-0.00081379423818335,0.00081379381449984,1.8799947878339e-09,-2.4157459546625e-09,-0.00095617489723146,0.00095617582257295,-0.00095617633624601,0.00095617438708083,-0.00095617476460883,0.00095617595835391,-0.00095617623604204,0.00095617456385632,-0.00093462235246708,0.00093462081065546,-0.00093462261393687,0.0009346203708662,0.7121609229935,125803,2834,0.0063931669812415,0.006393166986963,0.0033900799594285,27.296168840666,-1.9230649274674e-05,-1.9230649274674e-05,-1.9230649274674e-05,3508682.8826103,0.016308814674335
31219200,0.99681483159731,0.016222064346697,0.0061727419859443,0.0061727421100743,0.0038765802506785,-0.0015425301235975,0.001542530840875,8.4139203134512e-10,-1.1682225516029e-10,-1.3834491452841e-09,2.1698119930272e-09,-0.0016322645418349,0.0016322643381952,-0.0016322648638025,0.0016322639851273,-0.0016322633568077,0.0016322655832196,-0.0016322636820203,0.0016322652225561,-0.0013667890822838,0.001366792010331,-0.0013667901124097,0.0013667910075191,1.4902920588359e-09,-2.0059503432165e-09,-2.0998263490882e-09,1.5750399876536e-09,-0.0015425307539447,0.0015425302599589,-0.0016322646936812,0.0016322641342844,-0.0016322635243232,0.0016322653159263,-0.0016322657769055,0.0016322630394614,-0.0016322646035433,0.0016322642062467,-0.0013667932823177,0.0013667879479277,-0.0013667897255736,0.0013667915401625,-0.001542151083959,0.0015421552044445,-0.0015421543143142,0.0015421515188738,-3.3472900749779e-10,-1.5818318173003e-11,-0.0008161096512416,0.00081610932783919,1.9867221102092e-09,-2.3863688944911e-09,-0.00095871739891193,0.00095871845805888,-0.00095871885514281,0.00095871700383358,-0.00095871731563241,0.00095871857603565,-0.00095871876797929,0.00095871709671568,-0.00093711434796306,0.00093711281491803,-0.00093711464711738,0.00093711249698417,0.7454645388308,125803,2834,0.0064048915200688,0.0064048916222422,0.0033997163529375,28.602135903274,-8.7829127738081e-06,-8.7829127738081e-06,-8.7829127738081e-06,3519562.0579241,0.016342442557009
31419200,0.99695845483759,0.016224414897317,0.0061736347105461,0.0061736348346983,0.0038771453520729,-0.0015440538462176,0.0015440545809174,8.6252186137272e-10,-1.395770374879e-10,-1.3656484924348e-09,2.214265496062e-09,-0.0016337664580446,0.001633766267036,-0.0016337668142399,0.001633765910208,-0.0016337652564774,0.0016337675257353,-0.0016337656129013,0.0016337671483301,-0.0013683164882876,0.0013683194418339,-0.0013683176168595,0.0013683184218968,1.4596765620595e-09,-1.9998280545274e-09,-2.0995482220271e-09,1.5447506461193e-09,-0.0015440545099328,0.0015440540019535,-0.0016337665947814,0.0016337660257636,-0.0016337654580119,0.0016337672246389,-0.0016337676739538,0.001633764963191,-0.0016337665058537,0.0016337661099252,-0.0013683207180801,0.0013683153860713,-0.0013683172084335,0.0013683189623542,-0.0015436838225215,0.0015436878725583,-0.0015436869186375,0.001543684161298,-3.0387416164488e-10,-1.6606989403167e-11,-0.00081720839709464,0.00081720809810428,2.0339704644772e-09,-2.3896505166727e-09,-0.00096006503451754,0.0009600661464398,-0.00096006650647642,0.00096006467352421,-0.00096006497439313,0.00096006624937951,-0.00096006643749358,0.00096006474271488,-0.00093831274437735,0.00093831117276421,-0.00093831300838295,0.00093831088754188,0.7124306751999,125803,2834,0.0064111923722423,0.0064111925473971,0.0034042987634038,29.221616136931,-3.8270709045535e-06,-3.8270709045535e-06,-3.8270709045535e-06,3513939.7339546,0.016359910266017
31619200,0.9970939975562,0.016226528133153,0.0061744408866513,0.0061744410107258,0.0038776462357757,-0.0015438752121571,0.0015438759628257,8.3703341902714e-10,-1.0445408652877e-10,-1.3623958582711e-09,2.2608674437574e-09,-0.0016335949509492,0.0016335947103865,-0.0016335952516994,0.0016335943719441,-0.0016335937436943,0.0016335959808516,-0.0016335940494396,0.0016335956383456,-0.0013681264318222,0.0013681293282836,-0.0013681274520406,0.0013681283717013,1.5072559750116e-09,-2.0318576540476e-09,-2.0896857788308e-09,1.5433479143064e-09,-0.0015438758861984,0.0015438753856112,-0.0016335950428188,0.001633594506863,-0.00163359387397,0.001633595666942,-0.0016335961376292,0.0016335933955645,-0.0016335949751921,0.0016335945529739,-0.0013681306243054,0.0013681252878926,-0.0013681270928144,0.0013681288367413,-0.0015434999215936,0.0015435040549385,-0.001543503017014,0.0015435001599166,-3.6574482074885e-10,-2.0570226593698e-12,-0.00081688654744895,0.00081688621721629,1.9595269037154e-09,-2.3521855068134e-09,-0.00095982481961708,0.00095982584041004,-0.00095982625568951,0.00095982440298852,-0.00095982472247305,0.00095982597581558,-0.0009598261559814,0.00095982451947621,-0.00093802439023237,0.00093802291707389,-0.00093802470821842,0.00093802247759313,0.68058195076275,125803,2834,0.0064104502268727,0.0064104504269684,0.003402969189834,29.011683746447,-5.5065300284204e-06,-5.5065300284204e-06,-5.5065300284204e-06,3503890.3039263,0.016357051188617
31819200,0.99722074054347,0.016228435100695,0.0061751704050078,0.0061751705289604,0.0038780941667265,-0.001543288174493,0.0015432889157385,8.5987893646521e-10,-1.2341075423911e-10,-1.4370572918273e-09,2.28159625333e-09,-0.001633036042678,0.0016330358036209,-0.0016330363722656,0.0016330354433512,-0.0016330348014634,0.0016330371041406,-0.0016330351360346,0.0016330367378766,-0.0013674960070698,0.0013674990109361,-0.0013674970819265,0.0013674979952349,1.5279442251763e-09,-2.0580002677141e-09,-2.0342512536973e-09,1.4903075403592e-09,-0.0015432888333213,0.0015432883284395,-0.0016330361277147,0.0016330356400586,-0.0016330350056781,0.001633036769996,-0.0016330372389082,0.0016330345156046,-0.0016330361155335,0.0016330356332163,-0.001367500202431,0.0013674949636557,-0.0013674967971085,0.0013674984135273,-0.0015429061125867,0.00154291025942,-0.0015429093695375,0.0015429064374223,-3.3882997333593e-10,-8.160854926778e-12,-0.00081628488677025,0.00081628456826176,1.9441777153064e-09,-2.3288710452398e-09,-0.00095919202748547,0.00095919305740684,-0.00095919345076507,0.00095919163415684,-0.00095919194402697,0.00095919317715779,-0.00095919336336938,0.00095919173099793,-0.00093744457837588,0.00093744309354276,-0.000937444878345,0.00093744273989797,0.65806101764101,125803,2834,0.0064080200699017,0.0064080202177088,0.0034004704167826,28.629890034055,-8.5608797275629e-06,-8.5608797275629e-06,-8.5608797275629e-06,3498482.1147228,0.016349571283892
32019200,0.99734148116764,0.016230428147891,0.006175926086096,0.0061759262100239,0.0038785758517711,-0.0015432791093161,0.0015432798402013,8.4750455790574e-10,-1.0942224999008e-10,-1.4818118019019e-09,2.2774678278624e-09,-0.0016330653632408,0.0016330651112317,-0.0016330656919229,0.0016330647570358,-0.0016330641081116,0.0016330664252282,-0.0016330644404898,0.0016330660622102,-0.0013674149859892,0.0013674180012469,-0.0013674160355151,0.0013674169954438,1.5458529531946e-09,-2.0777943803702e-09,-2.0174722362353e-09,1.477418714343e-09,-0.0015432797533921,0.0015432792463747,-0.0016330654462144,0.0016330649776701,-0.0016330643417044,0.0016330661042913,-0.0016330665721686,0.0016330638440453,-0.0016330654585969,0.0016330649490769,-0.0013674191762669,0.00136741395919,-0.0013674158062138,0.0013674173795676,-0.0015429013042081,0.0015429054775664,-0.0015429046823359,0.0015429017035753,-3.4917772751596e-10,1.8847904091821e-11,-0.00081624259373092,0.00081624228431559,1.9178028530422e-09,-2.2973486141301e-09,-0.00095908255067653,0.00095908355431264,-0.00095908395330724,0.00095908215211529,-0.000959082453327,0.00095908368507783,-0.00095908385332144,0.00095908225895763,-0.00093746038682591,0.00093745896315399,-0.00093746073508711,0.00093745861586247,0.71766731015505,125803,2834,0.0064079831746154,0.0064079832784418,0.0034002935088478,28.559413140006,-9.1246948799512e-06,-9.1246948799512e-06,-9.1246948799512e-06,3502305.7532521,0.016349315526104
32219200,0.99745787026313,0.016232393699181,0.006176670077054,0.0061766702010239,0.0038790534211029,-0.0015437577878574,0.0015437585212058,8.6499710534396e-10,-1.2625902346174e-10,-1.4859739526334e-09,2.2892556808692e-09,-0.0016335330625996,0.001633532820692,-0.0016335334067006,0.0016335324528189,-0.001633531800698,0.0016335341381208,-0.0016335321495095,0.0016335337617767,-0.0013678911104878,0.0013678941658556,-0.0013678922024752,0.001367893129621,1.5495781745681e-09,-2.0857576006865e-09,-2.000939927079e-09,1.4559981699061e-09,-0.0015437584369108,0.0015437579266874,-0.0016335331405401,0.0016335326874743,-0.0016335320505055,0.0016335338018463,-0.0016335342697472,0.0016335315489473,-0.0016335331703642,0.0016335326407774,-0.0013678953062687,0.0013678901193322,-0.0013678919823345,0.0013678935098925,-0.0015433929732776,0.001543397148728,-0.0015433963661074,0.0015433933699114,-3.3703822951198e-10,8.3934132634569e-12,-0.00081652619809846,0.00081652589009575,1.9166770419534e-09,-2.2931975925127e-09,-0.00095946369520693,0.00095946470986,-0.00095946509691789,0.00095946330822684,-0.00095946360910414,0.00095946483010694,-0.00095946500628687,0.00095946340269,-0.00093779444828385,0.0009377930060282,-0.00093779477490326,0.00093779268203908,0.73341164654385,125803,2834,0.0064099617638457,0.0064099618765357,0.0034014798041834,28.694018474002,-8.047852207987e-06,-8.047852207987e-06,-8.047852207987e-06,3496400.7121307,0.016354544051486
32419200,0.99757093473042,0.016234352153217,0.0061774100043965,0.0061774101283936,0.0038795320204274,-0.0015445341243636,0.0015445348606473,8.6102467569895e-10,-1.2185795302906e-10,-1.4751382501273e-09,2.2902201585227e-09,-0.0016342869937968,0.0016342867474408,-0.001634287330732,0.0016342863865357,-0.0016342857361637,0.0016342880633152,-0.0016342860769242,0.0016342876930632,-0.0013686784492638,0.0013686814843836,-0.0013686795268396,0.0013686804619295,1.5488427893277e-09,-2.0843549276047e-09,-2.0038457820185e-09,1.4584359248755e-09,-0.0015445347770637,0.0015445342674719,-0.0016342870672456,0.0016342866111406,-0.0016342859735005,0.0016342877278698,-0.0016342881965711,0.0016342854747373,-0.0016342870932718,0.00163428656873,-0.0013686826403601,0.0013686774458353,-0.0013686793027598,0.0013686808375006,-0.0015441830634042,0.0015441872324564,-0.0015441864209964,0.0015441834213436,-3.4936504604534e-10,1.8044667277213e-11,-0.00081704165647204,0.00081704134760204,1.9098279009454e-09,-2.2861188908614e-09,-0.00096012571711358,0.00096012671658662,-0.00096012711356389,0.00096012532012264,-0.00096012562154916,0.00096012684705237,-0.00096012701439468,0.00096012542580645,-0.00093837075954931,0.0009383693435322,-0.0009383711051863,0.00093836898487451,0.75109666749051,125803,2834,0.0064131712815584,0.00641317140456,0.0034036323419902,28.971571467918,-5.8274282566571e-06,-5.8274282566571e-06,-5.8274282566571e-06,3490263.6828239,0.016363257228621
32619200,0.99768363761644,0.016236154126969,0.0061780956713579,0.0061780957953663,0.0038799626602444,-0.0015462481627189,0.0015462488950187,8.1673020192355e-10,-6.1068059353882e-11,-1.468898614685e-09,2.2576313349712e-09,-0.001635967040023,0.0016359667356525,-0.0016359672481146,0.0016359663789489,-0.0016359658184371,0.0016359680444829,-0.0016359660483646,0.0016359677380572,-0.0013704044423207,0.0013704073979503,-0.0013704053238321,0.0013704064082591,1.5694977538621e-09,-2.0168681291807e-09,-2.0159069616906e-09,1.5566621119381e-09,-0.0015462487613384,0.0015462483111252,-0.0016359671324902,0.0016359666606269,-0.0016359658978662,0.0016359677015189,-0.0016359682081109,0.0016359654844023,-0.0016359670828692,0.0016359666630023,-0.0013704085393656,0.0013704033424081,-0.0013704050467693,0.0013704067901077,-0.0015459114529874,0.0015459156746911,-0.0015459148400934,0.0015459119097167,-4.6151695667161e-10,2.5029128700828e-11,-0.00081833684429102,0.0008183364537957,1.8342581049203e-09,-2.3254134448148e-09,-0.00096165499282705,0.00096165584439031,-0.00096165637877281,0.00096165445831916,-0.00096165481202414,0.00096165603051411,-0.00096165623184295,0.00096165468356834,-0.00093976976339938,0.00093976841237447,-0.00093977016322032,0.00093976785625247,0.69654115237084,125803,2834,0.0064202600932679,0.0064202601236146,0.0034090296426661,29.720883504622,1.6706803697784e-07,1.6706803697784e-07,1.6706803697784e-07,3488522.0978347,0.016383154699807
32819200,0.99778606636846,0.016237661674307,0.0061786738327609,0.0061786739568478,0.0038803138846978,-0.0015447212587464,0.00154472203003,8.6042426286468e-10,-1.1234957715048e-10,-1.4295613234123e-09,2.3672910109434e-09,-0.0016344674256591,0.001634467157406,-0.0016344677466814,0.0016344668056617,-0.0016344661570891,0.0016344684923833,-0.0016344664838987,0.0016344681356375,-0.0013688668707303,0.0013688698804571,-0.0013688679778666,0.0013688688638718,1.553884903824e-09,-2.0946120604604e-09,-1.9889856606447e-09,1.4280924225546e-09,-0.001544721952256,0.0015447214401606,-0.0016344674484389,0.0016344670095812,-0.0016344663559894,0.0016344681014622,-0.0016344685777872,0.0016344658710933,-0.0016344674881436,0.0016344669550236,-0.0013688710396836,0.0013688658636511,-0.0013688677363037,0.001368869182246,-0.0015443601937951,0.0015443643502502,-0.0015443633854299,0.0015443603478849,-3.7509004976001e-10,2.9927259625114e-11,-0.00081690059672931,0.00081690028768026,1.8869319881903e-09,-2.2511555976903e-09,-0.00096018466088938,0.00096018562714917,-0.00096018603928345,0.0009601842457564,-0.00096018455508077,0.00096018577282068,-0.00096018593137,0.00096018437167785,-0.00093829078932752,0.00093828939732917,-0.00093829112696693,0.00093828895899248,0.64446384944506,125803,2834,0.0064139399653717,0.0064139401795613,0.0034030623953754,28.866798772209,-6.665609822329e-06,-6.665609822329e-06,-6.665609822329e-06,3475240.5481518,0.016364242381585
33019200,0.99788227660158,0.016239197852826,0.0061792578625821,0.006179257986556,0.0038806820036882,-0.0015441740404594,0.001544174770434,8.5947552643617e-10,-1.1613038700227e-10,-1.5150236097746e-09,2.2962175613062e-09,-0.001633969026787,0.0016339687672264,-0.0016339693576197,0.0016339684033129,-0.0016339677559221,0.0016339701002277,-0.0016339680914009,0.0016339697312243,-0.0013682410133792,0.0013682440754249,-0.0013682420771699,0.0013682430364537,1.569928707638e-09,-2.0983435585991e-09,-1.9605862603942e-09,1.4282502832431e-09,-0.001544174676307,0.001544174170994,-0.0016339690898168,0.0016339686698337,-0.0016339680146972,0.0016339697546404,-0.001633970227968,0.0016339675194062,-0.0016339691502729,0.0016339685918652,-0.0013682451718927,0.0013682400496737,-0.0013682419002451,0.0013682433551013,-0.0015438100490966,0.0015438142298675,-0.0015438134988321,0.0015438104340622,-3.7050164148777e-10,4.2062914947998e-11,-0.00081643946554689,0.0008164391583009,1.858829176359e-09,-2.2393473694778e-09,-0.00095958137948956,0.0009595823253081,-0.00095958274190511,0.00095958096207776,-0.00095958126167996,0.00095958247192152,-0.00095958262571223,0.00095958109064065,-0.0009378638480148,0.00093786250330554,-0.00093786423407002,0.00093786212082918,0.69524390994963,125803,2834,0.0064116771201052,0.006411677195347,0.0034011405787117,28.558666393457,-9.1306688523421e-06,-9.1306688523421e-06,-9.1306688523421e-06,3480315.5283632,0.016357687446719
33219200,0.99797518983982,0.016240758256675,0.006179848491133,0.0061798486151609,0.0038810611503815,-0.001544639803684,0.0015446405376229,8.7308916531355e-10,-1.2745891045307e-10,-1.4932289234696e-09,2.2893527748442e-09,-0.001634440434534,0.0016344401892297,-0.0016344407727879,0.0016344398192065,-0.0016344391728535,0.0016344415119961,-0.00163443951569,0.0016344411364995,-0.001368679098126,0.0013686821699549,-0.001368680182478,0.0013686811179056,1.5561541367946e-09,-2.0852466099524e-09,-1.963568861827e-09,1.4288111327198e-09,-0.0015446404469005,0.0015446399416834,-0.0016344405033622,0.0016344400744194,-0.0016344394269054,0.0016344411611148,-0.0016344416329363,0.0016344389325957,-0.0016344405536952,0.001634440006419,-0.0013686832672801,0.0013686781472962,-0.0013686799920667,0.001368681461609,-0.001544285643808,0.001544289798612,-0.0015442890420404,0.0015442860056354,-3.6671753179652e-10,3.4580173275914e-11,-0.00081677951941492,0.00081677921001258,1.8699247677713e-09,-2.2516213770336e-09,-0.00095995114151853,0.00095995209823475,-0.00095995251192665,0.00095995072685729,-0.00095995102842475,0.0009599522415414,-0.00095995239915155,0.00095995085111145,-0.00093825933515989,0.00093825797464947,-0.00093825971590922,0.00093825759343881,0.72923013606537,125803,2834,0.0064136038035238,0.0064136039012245,0.0034025571248719,28.726202018329,-7.7903838533692e-06,-7.7903838533692e-06,-7.7903838533692e-06,3481192.3558884,0.016363043720755
33419200,0.99806632191344,0.016242318810969,0.0061804383997295,0.006180438523787,0.0038814418874529,-0.0015457098774622,0.0015457106055127,8.7655291579247e-10,-1.3776986234292e-10,-1.4720665763177e-09,2.2611061879345e-09,-0.0016354909009065,0.0016354906763886,-0.0016354912496003,0.0016354902996165,-0.0016354896534669,0.0016354919814206,-0.0016354900075391,0.0016354915982809,-0.001369752568617,0.0013697556336169,-0.0013697536783677,0.0013697545679829,1.5311247801302e-09,-2.059798622772e-09,-1.9814751283076e-09,1.4470445192097e-09,-0.001545710516701,0.0015457100127599,-0.0016354909926501,0.001635490537981,-0.0016354899085213,0.0016354916398217,-0.0016354921058382,0.0016354894139175,-0.0016354910160456,0.0016354904983159,-0.0013697567408786,0.0013697516036108,-0.0013697534410711,0.0013697549607895,-0.001545368488346,0.0015453726133734,-0.0015453718523839,0.0015453688904143,-3.6391426885466e-10,3.6111683077576e-11,-0.00081758415081466,0.00081758384367079,1.895352250628e-09,-2.2734404795541e-09,-0.00096089699992847,0.00096089797728236,-0.000960898386581,0.00096089658964643,-0.00096089689080406,0.00096089811730211,-0.00096089827604485,0.00096089670798642,-0.0009391328403893,0.00093913146380669,-0.00093913321965026,0.00093913109157159,0.74278857152742,125803,2834,0.0064180294158987,0.0064180295119701,0.0034059103012905,29.176269267383,-4.189845860939e-06,-4.189845860939e-06,-4.189845860939e-06,3479601.5961797,0.016375449204752
33619200,0.99815461645578,0.016243831231551,0.0061810103278954,0.0061810104519814,0.0038818104516744,-0.0015464094561624,0.0015464101941821,8.7184109573533e-10,-1.3350447376526e-10,-1.4296425619305e-09,2.2637390332676e-09,-0.0016361657734603,0.00163616554757,-0.0016361661084447,0.0016361651793027,-0.0016361645411662,0.0016361668407549,-0.0016361648812657,0.0016361664678139,-0.0013704744147772,0.001370477435513,-0.0013704755079348,0.0013704763892935,1.5196315742985e-09,-2.0451600290173e-09,-2.0044687796806e-09,1.4672003831641e-09,-0.0015464101089322,0.001546409607437,-0.0016361658623591,0.0016361653866814,-0.0016361647556952,0.0016361664977007,-0.001636166966044,0.0016361642692811,-0.0016361658596726,0.0016361653707925,-0.0013704785862959,0.0013704734098596,-0.001370475228141,0.0013704768007501,-0.0015460750067931,0.001546079117108,-0.001546078256454,0.0015460753292486,-3.8389253234085e-10,4.0821844303031e-11,-0.0008180382951389,0.0008180379798868,1.8995277283255e-09,-2.2824327812986e-09,-0.00096150590746523,0.00096150687370322,-0.00096150729893776,0.00096150548063284,-0.0009615057887549,0.00096150702530897,-0.00096150717908087,0.00096150561328236,-0.00093963341240534,0.00093963204991986,-0.00093963380560313,0.00093963161357879,0.74303226204172,125803,2834,0.0064209210940878,0.0064209212305438,0.003407808089114,29.431103126196,-2.1511749904352e-06,-2.1511749904352e-06,-2.1511749904352e-06,3473318.2877456,0.0163832576888
33819200,0.99824052776073,0.016245307515561,0.0061815685395377,0.006181568663608,0.0038821703124157,-0.0015472731779971,0.0015472739073747,8.6532889991374e-10,-1.2877250420604e-10,-1.4268223832027e-09,2.234176969486e-09,-0.0016370045105627,0.0016370042886047,-0.001637004831966,0.0016370039150837,-0.0016370032916008,0.0016370055699618,-0.0016370036219244,0.0016370052015722,-0.0013713543826282,0.0013713573948806,-0.0013713554552055,0.0013713563438806,1.5108159745502e-09,-2.020419997263e-09,-2.019263321206e-09,1.4992759084075e-09,-0.0015472738131473,0.0015472733228969,-0.0016370046221339,0.0016370041283495,-0.0016370034864013,0.0016370052376497,-0.0016370057085203,0.0016370030123466,-0.0016370045912117,0.0016370041362654,-0.0013713585458515,0.00137135335626,-0.0013713551445877,0.0013713567912304,-0.0015469467785962,0.0015469508893244,-0.0015469500499776,0.0015469471757763,-4.0273454669681e-10,4.5807150534759e-11,-0.00081863440681284,0.0008186340787577,1.902274090597e-09,-2.3048537961681e-09,-0.00096226069883172,0.00096226165345604,-0.00096226209957881,0.00096226025151379,-0.00096226056692403,0.00096226181254877,-0.00096226197190035,0.00096226040009446,-0.00094029084892017,0.00094028949138405,-0.00094029125757193,0.00094028903353873,0.74517939222243,125803,2834,0.0064244919000264,0.0064244920047381,0.0034102963040132,29.774819255563,5.9855404450767e-07,5.9855404450767e-07,5.9855404450767e-07,3469034.7180656,0.016393046666225
34019200,0.99832443439613,0.016246706509102,0.0061820989803371,0.0061820991044178,0.0038825084243473,-0.0015482974654968,0.0015482981928185,8.6098495691234e-10,-1.2589694469946e-10,-1.4134327013071e-09,2.2176715727734e-09,-0.0016380054090339,0.0016380051907065,-0.001638005724098,0.0016380048189869,-0.0016380042008425,0.0016380064625781,-0.0016380045249338,0.0016380060981215,-0.0013723897882099,0.0013723927828383,-0.0013723908497182,0.001372391736964,1.4980735357053e-09,-2.0017406950733e-09,-2.0411351312902e-09,1.5263611307446e-09,-0.0015482980965698,0.0015482976108309,-0.0016380055350589,0.0016380050182923,-0.0016380043795163,0.0016380061399434,-0.0016380066098618,0.001638003911034,-0.0016380054764931,0.0016380050530751,-0.0013723939574228,0.0013723887351053,-0.0013723905066008,0.0013723922165737,-0.0015479776482338,0.0015479817481765,-0.0015479808900755,0.0015479780649968,-4.1597766082483e-10,5.3493126262888e-11,-0.00081936539091249,0.0008193650582607,1.9154325107193e-09,-2.3243848749823e-09,-0.00096316181533053,0.00096316276892271,-0.00096316322735317,0.0009631613563936,-0.00096316167512259,0.00096316293604987,-0.00096316309232111,0.00096316151500279,-0.00094109314272325,0.00094109179047488,-0.0009410935708537,0.00094109131102226,0.7242671745302,125803,2834,0.006428727013592,0.0064287271150199,0.0034133456485449,30.203527219437,4.0282177554924e-06,4.0282177554924e-06,4.0282177554924e-06,3466359.6040865,0.01640475656778
34219200,0.99840491086099,0.016248012321211,0.0061825953074246,0.0061825954315168,0.0038828215822693,-0.0015486916859973,0.001548692419447,8.8478838314577e-10,-1.5421920906196e-10,-1.4006879951785e-09,2.2308424122368e-09,-0.0016383974372156,0.0016383972421679,-0.0016383977941489,0.0016383968674076,-0.0016383962224692,0.0016383985167986,-0.0016383965818877,0.001638398129823,-0.0013727763038086,0.001372779328845,-0.0013727774462909,0.0013727782552009,1.4858451128635e-09,-2.0154295040625e-09,-2.0464022633577e-09,1.504601299316e-09,-0.0015486923384156,0.0015486918360615,-0.0016383975599758,0.0016383970376534,-0.00163839644022,0.0016383981899444,-0.0016383986479743,0.001638395951408,-0.0016383975129401,0.0016383970737001,-0.0013727805150081,0.0013727752759486,-0.0013727770854731,0.001372778748404,-0.0015483691190896,0.0015483731876707,-0.0015483722954123,0.0015483694612069,-3.8102288478964e-10,4.9980090554306e-11,-0.0008195837129554,0.00081958340583482,1.9557432560937e-09,-2.3266504831601e-09,-0.00096347281681556,0.00096347382274745,-0.00096347424131752,0.00096347239710098,-0.00096347270071519,0.00096347397549484,-0.00096347412156741,0.00096347252424311,-0.00094136030915676,0.00094135892011151,-0.00094136071156781,0.00094135849372611,0.70594539154847,125803,2834,0.0064303558880492,0.0064303560307146,0.0034142603947759,30.330132338014,5.0410587041096e-06,5.0410587041096e-06,5.0410587041096e-06,3464007.7791508,0.016408998195984
34419200,0.99848295740368,0.016249284053583,0.006183078409795,0.0061830785338701,0.0038831271099178,-0.0015494572810564,0.001549458003442,8.8240760264168e-10,-1.5348589864057e-10,-1.4186058473298e-09,2.2096909141652e-09,-0.0016391716516122,0.001639171458706,-0.00163917200405,0.0016391710763957,-0.0016391704394809,0.0016391727289527,-0.0016391707970602,0.0016391723406253,-0.0013735073232609,0.0013735103621222,-0.0013735084529966,0.0013735092768959,1.4868822334743e-09,-2.006034464284e-09,-2.0556758948646e-09,1.5268195838605e-09,-0.0015494579154195,0.001549457419538,-0.0016391717932338,0.0016391712631602,-0.0016391706563873,0.0016391724152062,-0.0016391728745919,0.0016391701713085,-0.001639171733187,0.0016391713076214,-0.0013735115383576,0.0013735062892367,-0.0013735080841708,0.0013735097951221,-0.0015491357903607,0.0015491398784573,-0.0015491390360442,0.0015491362275259,-3.9224885105398e-10,5.4025034807565e-11,-0.00082016451155659,0.00082016419532979,1.95850358549e-09,-2.3453461780636e-09,-0.00096411336989787,0.00096411437119491,-0.00096411480230498,0.00096411293840531,-0.00096411324606113,0.00096411452699047,-0.00096411467765395,0.00096411307299672,-0.00094201673500901,0.00094201534952854,-0.00094201715382052,0.00094201492195819,0.70868167492422,125803,2834,0.0064335226198314,0.0064335227241033,0.0034166792403098,30.662285940016,7.6982875201255e-06,7.6982875201255e-06,7.6982875201255e-06,3468466.9667858,0.016417894317957
34619200,0.9985632628156,0.016250646519143,0.0061835941905424,0.0061835943146351,0.0038834580139651,-0.00155237616914,0.0015523768825764,8.8989461938905e-10,-1.6217109084332e-10,-1.398141850138e-09,2.1625011290161e-09,-0.0016420908987777,0.0016420907287228,-0.0016420912562687,0.0016420903419863,-0.0016420897096874,0.0016420919761367,-0.001642090071343,0.0016420915822939,-0.001376361425634,0.0013763644633008,-0.0013763625581851,0.0013763633619299,1.4549965859119e-09,-1.9664601291089e-09,-2.0999060136284e-09,1.5812379766182e-09,-0.0015523767922924,0.0015523763030951,-0.0016420910824584,0.0016420905013787,-0.0016420899144578,0.0016420916881681,-0.0016420921415005,0.0016420894335961,-0.0016420909668546,0.0016420906024536,-0.0013763656763763,0.0013763603644707,-0.0013763621224687,0.0013763639673271,-0.0015520723295398,0.0015520763830016,-0.0015520755324101,0.0015520728267348,-3.9230932971439e-10,5.1313281267421e-11,-0.00082261316832949,0.00082261284748551,2.0095852115788e-09,-2.4051542252068e-09,-0.00096673287719121,0.00096673390966016,-0.00096673434571201,0.00096673244143282,-0.00096673275162439,0.00096673406619107,-0.00096673421997478,0.00096673257641766,-0.00094465147328104,0.00094465004773487,-0.0009446519017705,0.00094464963444553,0.73613945338053,125803,2834,0.0064455995575413,0.00644559964778,0.0034268655312582,32.085189706069,1.9081517648553e-05,1.9081517648553e-05,1.9081517648553e-05,3488124.1779836,0.016452799986084
34819200,0.99864574884787,0.016252057798488,0.0061841285591269,0.0061841286832529,0.003883800556108,-0.0015554764625702,0.0015554771793568,8.8681637813309e-10,-1.6427372443283e-10,-1.3574467677566e-09,2.1494896300967e-09,-0.0016451795044268,0.0016451793426471,-0.0016451798539525,0.0016451789572043,-0.0016451783342587,0.001645180572665,-0.0016451786885838,0.0016451801830365,-0.0013794213626004,0.0013794243609107,-0.0013794224906602,0.001379423266385,1.4318859965716e-09,-1.9371831692796e-09,-2.1512043222131e-09,1.634093844665e-09,-0.0015554770899945,0.0015554766058043,-0.0016451797079315,0.0016451790799933,-0.0016451784984322,0.0016451802949995,-0.0016451807477602,0.0016451780265803,-0.001645179538501,0.0016451792328285,-0.0013794256298673,0.0013794202331595,-0.0013794219676347,0.0013794239361535,-0.0015551863624782,0.0015551904050044,-0.0015551894608489,0.0015551868471254,-4.0729490869137e-10,5.196609329505e-11,-0.00082515075035671,0.0008251504202451,2.0484833605465e-09,-2.4521134305517e-09,-0.00096953523745927,0.0009695362858029,-0.00096953673581472,0.00096953478792639,-0.00096953510660787,0.00096953644904135,-0.00096953660440911,0.00096953493173755,-0.00094737523958339,0.00094737379408229,-0.00094737567167231,0.00094737333578481,0.74236296613063,125803,2834,0.0064584250799793,0.0064584251913048,0.00343742680584,33.573679416308,3.0989435330466e-05,3.0989435330466e-05,3.0989435330466e-05,3502914.0908417,0.01648961102528
35019200,0.99872784583132,0.016253419657284,0.0061846460114512,0.006184646135583,0.0038841275102502,-0.0015576419266654,0.0015576426612613,8.7051840614259e-10,-1.4052325569923e-10,-1.3268761772554e-09,2.1838889679264e-09,-0.0016473345658009,0.0016473343750757,-0.0016473348657869,0.0016473339908698,-0.0016473334003511,0.0016473356052728,-0.0016473337152007,0.0016473352428297,-0.0013815637021302,0.0013815666577092,-0.001381564779606,0.0013815655898496,1.4440822483374e-09,-1.9260237274097e-09,-2.17743434122e-09,1.6743467345367e-09,-0.0015576425641351,0.0015576420948328,-0.0016473347546876,0.001647334116397,-0.0016473334796442,0.0016473353059316,-0.0016473357766096,0.0016473330366737,-0.0016473345533087,0.0016473342848467,-0.0013815679548374,0.0013815625105337,-0.0013815642178385,0.0013815662649594,-0.0015573576509804,0.0015573617422407,-0.0015573606863131,0.0015573580951134,-4.6126621894798e-10,5.3040756464828e-11,-0.00082684779202853,0.0008268474261131,2.0348353125346e-09,-2.4786102041909e-09,-0.00097147641189351,0.00097147741609185,-0.00097147791778143,0.00097147590854813,-0.00097147625430593,0.00097147759866764,-0.00097147776916629,0.00097147609366227,-0.00094921799803195,0.000949216566362,-0.0009492184435487,0.00094921598936485,0.72136733337828,125803,2834,0.0064673814994135,0.0064673816462065,0.0034444948609214,34.583103178128,3.9064825425028e-05,3.9064825425028e-05,3.9064825425028e-05,3509144.2057307,0.016515006277968
35219200,0.99880816842398,0.016254714155696,0.0061851392851341,0.006185139409226,0.0038844354613358,-0.0015592823164215,0.0015592830464351,8.9957805039041e-10,-1.7311592554495e-10,-1.3528664208007e-09,2.1890833560061e-09,-0.0016489807273463,0.0016489805612462,-0.0016489810810186,0.0016489801684743,-0.0016489795447774,0.0016489818024336,-0.0016489799052749,0.0016489814086759,-0.0013831601593351,0.0013831631822448,-0.001383161318592,0.0013831620722511,1.4495637562929e-09,-1.9607715489746e-09,-2.1757374406772e-09,1.649218429101e-09,-0.0015592829612626,0.0015592824723979,-0.0016489809202978,0.0016489802894284,-0.0016489796923227,0.0016489815121708,-0.0016489819703767,0.0016489792189315,-0.0016489807495109,0.0016489804409517,-0.0013831644700841,0.0013831590116423,-0.0013831607690671,0.001383162752341,-0.0015589995229777,0.0015590036167734,-0.0015590026064947,0.0015589999618047,-4.1557701322294e-10,4.9555649167758e-11,-0.00082812215108624,0.00082812181675245,2.0715586869714e-09,-2.4764445814172e-09,-0.00097291717010858,0.00097291823073488,-0.00097291868522416,0.00097291671502643,-0.00097291703972336,0.00097291839514814,-0.00097291855256788,0.00097291685984226,-0.00095062561294802,0.00095062414914811,-0.00095062604073315,0.00095062366162809,0.70214462503367,125803,2834,0.0064741661457953,0.0064741662921143,0.0034498025900303,35.344578968697,4.5156631749577e-05,4.5156631749577e-05,4.5156631749577e-05,3515898.7144697,0.016534196432625
35419200,0.99888579397592,0.01625592609086,0.0061856024958386,0.0061856026199068,0.0038847209751142,-0.0015605427284675,0.001560543459448,8.9085740538836e-10,-1.6182390286144e-10,-1.3826733758069e-09,2.2118293723074e-09,-0.0016502619192847,0.0016502617319133,-0.0016502622664414,0.0016502613492769,-0.0016502607206445,0.0016502629913041,-0.0016502610721124,0.0016502626050539,-0.0013843603280586,0.0013843633474437,-0.0013843614548914,0.0013843622645683,1.4766827918249e-09,-1.9924098338365e-09,-2.1736282255906e-09,1.6439238196602e-09,-0.0015605433738053,0.0015605428807893,-0.0016502620949862,0.0016502614810706,-0.0016502608727946,0.0016502627060763,-0.0016502631676747,0.0016502603939021,-0.0016502619464339,0.0016502616119202,-0.0013843646468754,0.00138435917065,-0.0013843609459793,0.0013843629064218,-0.0015602581493629,0.0015602622858065,-0.001560261287197,0.001560258570973,-4.3028285400366e-10,6.9257272061408e-11,-0.00082910316836431,0.00082910283711578,2.0532883587552e-09,-2.4555028146205e-09,-0.00097399568797579,0.00097399672505044,-0.00097399718931946,0.00097399522329751,-0.00097399554431242,0.00097399690270594,-0.00097399704385009,0.00097399538193282,-0.00095172685379889,0.0009517254475509,-0.000951727320335,0.00095172492106022,0.68162529952913,125803,2834,0.006479379604329,0.0064793797421128,0.0034538873701478,35.929784276937,4.9838274215495e-05,4.9838274215495e-05,4.9838274215495e-05,3523863.8221699,0.016548948680559
35619200,0.99896152010405,0.016257063183472,0.0061860386777604,0.0061860388018162,0.0038849857038958,-0.0015622081596855,0.001562208876747,9.0215167794432e-10,-1.7608862243699e-10,-1.431104763026e-09,2.2024064176428e-09,-0.001651961357389,0.001651961174216,-0.0016519617217352,0.0016519607832935,-0.0016519601457563,0.0016519624479303,-0.0016519605113412,0.0016519620473972,-0.0013859358104912,0.0013859388778037,-0.0013859369492938,0.00138593776479,1.4950035462561e-09,-2.0136742464257e-09,-2.1592830990669e-09,1.633933383203e-09,-0.001562208786156,0.0015622082907668,-0.0016519615418143,0.0016519609445548,-0.0016519603391662,0.0016519621731411,-0.0016519626326189,0.001651959851383,-0.0016519614171206,0.0016519610562561,-0.0013859401418221,0.0013859346801963,-0.0013859364627167,0.0013859383943887,-0.001561923271676,0.0015619274281961,-0.0015619265180453,0.0015619237487706,-4.1298903517205e-10,7.2657589448752e-11,-0.00083047668137973,0.00083047636122348,2.055955404277e-09,-2.450661584184e-09,-0.00097543526070115,0.00097543630537335,-0.00097543675908621,0.00097543480757065,-0.00097543511829656,0.0009754364793848,-0.00097543661586405,0.00097543496008681,-0.00095324649087955,0.00095324508698668,-0.00095324695570436,0.00095324460482697,0.65730118998676,125803,2834,0.0064862700851716,0.0064862701688282,0.0034596009688827,36.737880381799,5.6303043054395e-05,5.6303043054395e-05,5.6303043054395e-05,3538889.1928718,0.016568766151009
35819200,0.99903582535371,0.016258249359619,0.006186491088613,0.0061864912127061,0.0038852670582998,-0.0015641962674895,0.0015641969952182,9.1069820791252e-10,-1.7844551561199e-10,-1.4276161133077e-09,2.2316243084092e-09,-0.0016540008905822,0.0016540007053057,-0.0016540012577429,0.0016540003064415,-0.0016539996690573,0.0016540019850349,-0.0016540000411508,0.0016540015808465,-0.0013878032347805,0.0013878063302502,-0.0013878044046643,0.0013878052036522,1.5034967376185e-09,-2.0249685530985e-09,-2.1559408210201e-09,1.6235498504312e-09,-0.0015641969084329,0.001564196409971,-0.0016540010609381,0.0016540004750479,-0.0016539998574711,0.0016540016913788,-0.0016540021539504,0.0016539993695986,-0.0016540009472045,0.0016540005723833,-0.0013878075822616,0.0013878021242051,-0.001387803930379,0.0013878058279317,-0.0015639131779515,0.0015639173624493,-0.0015639164355162,0.0015639136519112,-4.1875333074021e-10,6.9221560387669e-11,-0.00083217156977687,0.00083217124445172,2.0521671389452e-09,-2.4497515789648e-09,-0.00097715971912403,0.00097716076450808,-0.0009771612179129,0.00097715926574178,-0.00097715958115824,0.00097716093553823,-0.00097716107816585,0.0009771594153702,-0.00095511257594505,0.00095511116240045,-0.00095511303755885,0.00095511067898089,0.69619441923751,125803,2834,0.0064944969420327,0.0064944970571293,0.003466647560267,37.723522351248,6.4188178809983e-05,6.4188178809983e-05,6.4188178809983e-05,3560729.6473479,0.016592655897415
36019200,0.99910579099821,0.016259433363567,0.0061869406278789,0.00618694075198,0.0038855519837079,-0.0015648395351877,0.0015648402737573,9.1461563012032e-10,-1.8107356991497e-10,-1.4379382731493e-09,2.2793022357636e-09,-0.0016546674102091,0.0016546672103069,-0.0016546677765409,0.0016546668074075,-0.0016546661693002,0.0016546685071145,-0.0016546665426657,0.0016546681025265,-0.0013884000691962,0.0013884031793237,-0.0013884012515187,0.001388402053629,1.5389519393688e-09,-2.0676364497288e-09,-2.1261954238223e-09,1.5824569617577e-09,-0.0015648401909198,0.0015648396854575,-0.0016546675435113,0.0016546670021604,-0.0016546663580075,0.0016546681885093,-0.0016546686593738,0.0016546658656183,-0.0016546674776409,0.0016546670470059,-0.001388404401276,0.0013883989766144,-0.0013884008215387,0.0013884026156289,-0.0015645552524936,0.0015645594925811,-0.0015645585468312,0.0015645556653519,-4.259029024121e-10,6.981953573758e-11,-0.00083262811955549,0.00083262779249151,2.0120814381259e-09,-2.4081227167917e-09,-0.00097767719796,0.00097767821783862,-0.00097767867149176,0.00097767674394751,-0.00097767706126497,0.00097767838930165,-0.00097767853080504,0.00097767689399076,-0.00095565041885702,0.00095564904212067,-0.00095565087721054,0.00095564852336598,0.73586529490147,125803,2834,0.0064971570142697,0.0064971571536291,0.0034685508719923,37.994167700511,6.6353341604089e-05,6.6353341604089e-05,6.6353341604089e-05,3562781.5855647,0.016599999750951
36219200,0.99917025744837,0.016260489090398,0.0061873427118158,0.0061873428359025,0.0038858035426793,-0.0015647395824698,0.0015647403278743,9.3154620996155e-10,-1.8972653122e-10,-1.481763792545e-09,2.325154754883e-09,-0.0016545560448182,0.0016545558290628,-0.0016545564207495,0.0016545554231926,-0.001654554774473,0.0016545571605144,-0.0016545551548518,0.0016545567482875,-0.0013883133250772,0.0013883165015927,-0.0013883145380757,0.0013883153441681,1.5697871923729e-09,-2.1057767840455e-09,-2.0666774881683e-09,1.5178903776159e-09,-0.001564740243458,0.0015647397326951,-0.0016545561422527,0.0016545556572823,-0.0016545550017234,0.0016545568095498,-0.0016545572836988,0.0016545545054628,-0.0016545561395255,0.0016545556432693,-0.0013883176508194,0.0013883123176736,-0.0013883141866871,0.0013883158233816,-0.0015644572109891,0.0015644614580581,-0.0015644605636561,0.0015644575556506,-4.1389805260491e-10,6.9972587209021e-11,-0.00083238029121754,0.00083237997380557,1.9719988099904e-09,-2.3563268714666e-09,-0.00097753612842493,0.00097753712479784,-0.00097753756950924,0.00097753568323255,-0.0009775359930169,0.00097753729533437,-0.00097753743235149,0.00097753583252014,-0.00095543094463944,0.00095542958655852,-0.0009554313897821,0.00095542909303077,0.71361273853835,125803,2834,0.0064967399151006,0.0064967400510858,0.003467530615009,37.867363530964,6.5338908247711e-05,6.5338908247711e-05,6.5338908247711e-05,3550603.2897212,0.016598115623139
36419200,0.9992271462375,0.016261408141299,0.0061876930627165,0.0061876931867951,0.0038860218917873,-0.00156294316349,0.001562943922852,9.4616226833335e-10,-1.9719396780082e-10,-1.52907244271e-09,2.3989147309193e-09,-0.0016527686842282,0.0016527684449815,-0.0016527690806166,0.0016527680471734,-0.0016527673712683,0.0016527698230944,-0.0016527677652753,0.0016527694031204,-0.0013865295994604,0.0013865328300962,-0.0013865308501174,0.0013865316643663,1.6084911791104e-09,-2.1690671099589e-09,-1.9877100173996e-09,1.415222344131e-09,-0.0015629438458232,0.0015629433177636,-0.0016527687199755,0.0016527683121221,-0.0016527676596184,0.0016527694319453,-0.0016527699057967,0.0016527671461996,-0.0016527688128166,0.0016527682136142,-0.0013865339102812,0.0013865286901171,-0.0013865306157898,0.001386532011863,-0.00156265022555,0.0015626544741408,-0.0015626536129233,0.0015626504244868,-3.9420040750375e-10,8.2129524646457e-11,-0.00083070981543027,0.00083070952477838,1.9152509695042e-09,-2.2624961512855e-09,-0.00097582804121179,0.00097582900945523,-0.0009758294291608,0.0009758276204761,-0.00097582791146777,0.00097582918089794,-0.0009758292945457,0.00097582776151108,-0.00095371048088518,0.00095370918130971,-0.00095371092339152,0.00095370870535947,0.70434246784905,125803,2834,0.0064893046699989,0.00648930482961,0.0034605908123867,36.902050667608,5.7616405340867e-05,5.7616405340867e-05,5.7616405340867e-05,3531631.7535682,0.01657594325307
36619200,0.99927874778632,0.01626219482142,0.0061879943136626,0.0061879944377233,0.0038862060700342,-0.0015620140014929,0.0015620147474898,9.383131681768e-10,-1.8552294322496e-10,-1.5757379114649e-09,2.3872894741806e-09,-0.0016518462108454,0.0016518459603929,-0.0016518465950229,0.0016518455543139,-0.0016518448892226,0.0016518473427897,-0.0016518452755435,0.0016518469257569,-0.0013855917642288,0.0013855950182207,-0.0013855929697566,0.0013855938573545,1.6396895175519e-09,-2.1884870037339e-09,-1.9345640677333e-09,1.3790491489032e-09,-0.0015620146606653,0.0015620141380069,-0.001651846238082,0.0016518458810423,-0.0016518451951379,0.0016518469514867,-0.0016518474335526,0.0016518446816307,-0.0016518463771363,0.0016518457254942,-0.0013855960288898,0.0013855909039107,-0.0013855928299174,0.0013855941472029,-0.0015617212782919,0.0015617255717314,-0.001561724842073,0.0015617215812968,-4.1454053979148e-10,9.274702596555e-11,-0.00082983841671442,0.00082983811546915,1.8395533895887e-09,-2.2091407473659e-09,-0.00097491616678887,0.0009749170751191,-0.0009749175130755,0.00097491572879189,-0.00097491602200322,0.00097491725365055,-0.00097491736627574,0.00097491588331264,-0.00095283311855676,0.0009528318975161,-0.00095283360435907,0.00095283140697037,0.66675553773146,125803,2834,0.0064854589459143,0.0064854590485895,0.0034569705835649,36.395974672742,5.3567797381938e-05,5.3567797381938e-05,5.3567797381938e-05,3521886.5951076,0.016564443566339
36819200,0.99932699059718,0.016262910312112,0.0061882688197,0.0061882689437781,0.003886372548634,-0.0015620909383227,0.0015620916584073,9.4415743199149e-10,-2.0410744665761e-10,-1.6012533112811e-09,2.3281325445606e-09,-0.001651958912203,0.0016519586796988,-0.001651959306457,0.001651958269176,-0.0016519576043699,0.0016519600528751,-0.0016519579953724,0.0016519596250915,-0.0013856011556169,0.0013856044116892,-0.0013856023346788,0.0013856032308835,1.6364522836237e-09,-2.1788487653188e-09,-1.9020493499024e-09,1.3622034519946e-09,-0.0015620915628243,0.0015620910452626,-0.0016519589646462,0.001651958618742,-0.0016519579473757,0.0016519596845501,-0.001651960162751,0.0016519574305561,-0.0016519591167811,0.0016519584536328,-0.0013856053755648,0.0013856003164692,-0.0013856022027788,0.0013856035115017,-0.0015617975117928,0.0015618017588296,-0.0015618011213329,0.0015617978418801,-3.9825898361636e-10,9.7632672330055e-11,-0.00082991547789217,0.00082991518769388,1.8189971825777e-09,-2.1851366906246e-09,-0.00097491843101647,0.00097491932576966,-0.0009749197594229,0.00097491799924014,-0.00097491828021434,0.0009749195061459,-0.0009749196083795,0.00097491815495677,-0.00095296487366878,0.00095296368989638,-0.00095296536250067,0.00095296321605477,0.64958126320813,125803,2834,0.0064857782853349,0.0064857783087791,0.003457288509137,36.429630110652,5.3837040885212e-05,5.3837040885212e-05,5.3837040885212e-05,3528239.5027509,0.016565414927973
37019200,0.99937269023212,0.016263632759869,0.0061885442599513,0.0061885443840855,0.0038865441158317,-0.0015626486938689,0.001562649429399,9.3819953994218e-10,-1.9382942676171e-10,-1.5457988032018e-09,2.3349330065759e-09,-0.0016525660446366,0.0016525658199502,-0.0016525664352581,0.0016525654127136,-0.0016525647495268,0.0016525671757866,-0.0016525651409053,0.0016525667544465,-0.0013860655236023,0.001386068751341,-0.0013860667329676,0.0013860675830324,1.5989561126354e-09,-2.1426217449348e-09,-1.9043749410087e-09,1.3547257633042e-09,-0.0015626493425355,0.0015626488249173,-0.0016525660914088,0.0016525657280836,-0.0016525650717153,0.0016525667867778,-0.0016525672607945,0.0016525645614889,-0.0016525662207289,0.0016525655849439,-0.0013860697315957,0.0013860646938461,-0.001386066584086,0.0013860678845936,-0.001562354841162,0.0015623590331515,-0.00156235833371,0.0015623551480168,-4.1820792491709e-10,1.0755573395204e-10,-0.00083044087639978,0.0008304405828051,1.8154695167536e-09,-2.1775409271847e-09,-0.00097536235384888,0.00097536324205803,-0.00097536368089681,0.00097536191562251,-0.00097536220235107,0.00097536342741619,-0.0009753635268866,0.00097536207486753,-0.00095357032237769,0.00095356914490188,-0.00095357083087149,0.00095356864901296,0.68962108823513,125803,2834,0.0064880880768656,0.0064880881681682,0.0034594684251281,36.716239402456,5.6129915219648e-05,5.6129915219648e-05,5.6129915219648e-05,3541346.7462271,0.016572326098915
37219200,0.99941705809431,0.016264381603214,0.006188828213837,0.0061888283379883,0.003886725051389,-0.001564240304422,0.0015642410337566,9.4154776324449e-10,-2.0241378275082e-10,-1.4961888181645e-09,2.280314407019e-09,-0.0016541694828029,0.0016541692884164,-0.0016541698751124,0.0016541688756994,-0.0016541682224464,0.0016541706088868,-0.0016541686163246,0.0016541701842855,-0.0013876028954807,0.0013876060982669,-0.0013876041178276,0.0013876049161002,1.5518785198824e-09,-2.0852097029327e-09,-1.9229903641171e-09,1.3829060428351e-09,-0.0015642409462027,0.0015642404376968,-0.0016541695647999,0.0016541691605769,-0.0016541685263971,0.0016541702305928,-0.0016541706982431,0.0016541680259981,-0.0016541696439369,0.0016541690666479,-0.0013876070925752,0.0013876020538866,-0.0013876039011726,0.0013876052901659,-0.0015639586125698,0.0015639627283666,-0.0015639620053291,0.001563958944494,-4.2278174894524e-10,1.0477293969979e-10,-0.00083179182636887,0.00083179152698959,1.8370347711006e-09,-2.2059996714817e-09,-0.00097678726765459,0.00097678816785433,-0.00097678861191221,0.00097678682425749,-0.00097678711546109,0.00097678835339829,-0.00097678845781376,0.0009767869852623,-0.00095503565529981,0.00095503445740765,-0.00095503616530609,0.00095503395758431,0.73362849742547,125803,2834,0.0064946733457936,0.0064946734402697,0.0034650875907739,37.49610816309,6.2368865304719e-05,6.2368865304719e-05,6.2368865304719e-05,3551938.5749691,0.01659142800539
37419200,0.99945925506204,0.016265045133503,0.006189081557395,0.0061890816815605,0.0038868818945472,-0.0015652389624489,0.001565239699406,9.4813489283573e-10,-2.1506681091538e-10,-1.435787770728e-09,2.2662974049346e-09,-0.0016551511661492,0.0016551509942304,-0.0016551515651232,0.0016551505804296,-0.0016551499286524,0.0016551522919169,-0.00165515032871,0.001655151863832,-0.0013886097113399,0.0013886128817237,-0.0013886109682682,0.0013886116936987,1.5145934449158e-09,-2.0501513141213e-09,-1.9395170774454e-09,1.3913124395255e-09,-0.0015652396190744,0.0015652391110442,-0.0016551512578638,0.0016551508238676,-0.0016551502125998,0.001655151906269,-0.0016551523685955,0.0016551497175315,-0.0016551513041143,0.0016551507653333,-0.0013886139010878,0.0013886088510479,-0.0013886106841547,0.001388612111685,-0.0015649628068731,0.0015649668576119,-0.0015649660435786,0.001564963068237,-4.2166876558807e-10,1.0154768146451e-10,-0.00083253931884615,0.00083253902096192,1.8599839887549e-09,-2.2197871578128e-09,-0.00097769313487087,0.000977694052894,-0.00097769449214345,0.00097769269546717,-0.00097769298886639,0.00097769423685991,-0.0009776943416707,0.00097769285237471,-0.00095584510986206,0.0009558438920018,-0.00095584560434622,0.00095584337233911,0.68665852833325,125803,2834,0.0064988025574644,0.0064988026985247,0.0034682044421385,37.942525457374,6.5940203658995e-05,6.5940203658995e-05,6.5940203658995e-05,3548504.592615,0.016602993893681
37619200,0.99949834618604,0.016265638502268,0.0061893088354727,0.0061893089596284,0.003887020707167,-0.001565233951966,0.0015652346862269,9.4318585002559e-10,-2.1341504314046e-10,-1.4287694522505e-09,2.2549176831656e-09,-0.0016551683879649,0.0016551682189952,-0.0016551687880982,0.00165516780997,-0.0016551671558896,0.0016551695117726,-0.0016551675557113,0.0016551690850727,-0.0013885689995873,0.0013885721557462,-0.0013885702565579,0.0013885709697411,1.4974025297335e-09,-2.0329342721289e-09,-1.9411346828583e-09,1.3932867856076e-09,-0.0015652346061457,0.0015652340991427,-0.0016551684862481,0.0016551680405711,-0.0016551674445537,0.0016551691302118,-0.0016551695879825,0.0016551669498602,-0.001655168520749,0.0016551679965887,-0.0013885731802739,0.0013885681377355,-0.0013885699584462,0.00138857139673,-0.0015649519303619,0.0015649559454364,-0.0015649551291578,0.0015649521895575,-4.2843861051356e-10,1.1506349909497e-10,-0.00083249500756673,0.00083249471456324,1.8629232883565e-09,-2.2161548161129e-09,-0.00097764599659689,0.00097764691063064,-0.00097764735287063,0.00097764555419087,-0.00097764584425161,0.00097764710191793,-0.00097764719573863,0.00097764571656062,-0.00095583780192636,0.0009558366026177,-0.00095583831435752,0.00095583607156366,0.66415580428544,125803,2834,0.0064987812029384,0.0064987813415795,0.0034680222138156,37.916701666833,6.5733613334668e-05,6.5733613334668e-05,6.5733613334668e-05,3548417.8065948,0.016602765185126
37819200,0.999533535085,0.016266152103667,0.0061895062322949,0.0061895063564437,0.0038871395149283,-0.0015640994059029,0.0015641001434091,9.5908858356094e-10,-2.2757929078535e-10,-1.418181541645e-09,2.264777645774e-09,-0.0016540728467823,0.0016540726851759,-0.0016540732343547,0.0016540722429659,-0.0016540716185176,0.0016540739663844,-0.0016540720185105,0.0016540735324426,-0.0013873934453041,0.0013873966396846,-0.0013873947156791,0.0013873954167325,1.5292643290833e-09,-2.047026985163e-09,-1.9187567691068e-09,1.3834181382571e-09,-0.001564100057744,0.0015640995595548,-0.0016540729361453,0.0016540725272418,-0.001654071869068,0.0016540735585607,-0.0016540740341374,0.0016540713872442,-0.0016540729921841,0.0016540724395257,-0.0013873975988544,0.0013873925999133,-0.0013873944233585,0.0013873958397916,-0.0015638060215986,0.0015638101209031,-0.0015638093036558,0.001563806322724,-4.4413079685293e-10,8.2171495305459e-11,-0.00083151763973167,0.00083151731172898,1.8225610295539e-09,-2.220040382667e-09,-0.0009765488663372,0.0009765497571118,-0.00097655021673274,0.00097654840655261,-0.00097654871979588,0.00097654993577304,-0.00097655006804038,0.00097654856888262,-0.00095484403399313,0.00095484281603816,-0.00095484451012789,0.00095484224976718,0.64016453294584,125803,2834,0.0064940876269006,0.0064940877674027,0.0034639560167409,37.336141086933,6.1089128695463e-05,6.1089128695463e-05,6.1089128695463e-05,3544765.249281,0.016589087413032
38019200,0.99956454103348,0.016266624079783,0.0061896867768562,0.0061896869009942,0.0038872504019329,-0.0015620442299278,0.0015620449711442,9.541794584137e-10,-2.1833590010577e-10,-1.45624396357e-09,2.2956858812545e-09,-0.0016520723716188,0.0016520721876662,-0.0016520727702855,0.0016520717706594,-0.0016520711184019,0.0016520735017539,-0.001652071518748,0.0016520730718126,-0.001385286689292,0.0013852898872496,-0.0013852879539832,0.0013852886868279,1.5398436519511e-09,-2.0775387892477e-09,-1.8985719491565e-09,1.3478847681779e-09,-0.0015620448899876,0.0015620443794101,-0.001652072435918,0.001652072044155,-0.0016520714146481,0.0016520730948083,-0.0016520735626192,0.0016520709179979,-0.0016520725261175,0.0016520719387954,-0.0013852908588367,0.0013852858726652,-0.0013852877211416,0.0013852890457051,-0.0015617368312242,0.0015617409016019,-0.0015617401084329,0.0015617370462215,-4.3881561735405e-10,1.1684060707025e-10,-0.00082979854734308,0.00082979824971782,1.8116473944598e-09,-2.1711153194669e-09,-0.00097459979928057,0.00097460067498612,-0.00097460112457566,0.00097459934981442,-0.00097459964177492,0.00097460087054833,-0.00097460096302247,0.00097459951921187,-0.00095306659140187,0.00095306543619022,-0.00095306711115123,0.0009530648771753,0.66570161238947,125803,2834,0.0064855862491864,0.0064855863903688,0.0034568014438537,36.307913143016,5.2863305144127e-05,5.2863305144127e-05,5.2863305144127e-05,3539154.9652694,0.016564527412516
38219200,0.99959282264483,0.016267058124451,0.0061898525738566,0.0061898526979885,0.0038873528526055,-0.0015611770229405,0.0015611777525105,9.6417947621414e-10,-2.2754831996679e-10,-1.4761359101789e-09,2.2721182492295e-09,-0.001651226844721,0.0016512266740773,-0.001651227248575,0.0016512262369658,-0.0016512255935267,0.0016512279797567,-0.0016512260038404,0.0016512275388354,-0.0013843880632354,0.0013843913032648,-0.001384389334728,0.0013843900756667,1.5508966685831e-09,-2.0793302705509e-09,-1.8946301457183e-09,1.3559989365273e-09,-0.001561177665738,0.0015611771596004,-0.0016512269274259,0.0016512265439717,-0.0016512258969796,0.0016512275808628,-0.001651228052178,0.001651225399791,-0.0016512270218167,0.0016512264264897,-0.0013843922395038,0.0013843872655977,-0.0013843891140765,0.0013843904573495,-0.0015608724028337,0.0015608765179814,-0.0015608758031033,0.0015608727440763,-4.405494309954e-10,1.0793327794774e-10,-0.00082908297302768,0.00082908266428991,1.8066469417404e-09,-2.1865000764291e-09,-0.00097377184977492,0.00097377272733167,-0.00097377318063253,0.00097377139756663,-0.00097377169450061,0.00097377291534117,-0.0009737730218921,0.00097377156203697,-0.000952343471169,0.0009523423085443,-0.00095234399616194,0.00095234177068066,0.67076548246507,125803,2834,0.0064819990141646,0.0064819991172611,0.00345382342228,35.868202512159,4.9345620097272e-05,4.9345620097272e-05,4.9345620097272e-05,3535403.7756755,0.016554205715581
38419200,0.99962501150179,0.016267585182111,0.0061900526464969,0.0061900527706372,0.0038874797649766,-0.0015686360974432,0.0015686368038185,9.5144275660629e-10,-2.2720663981664e-10,-1.3633573848972e-09,2.1130376747377e-09,-0.0016586765677369,0.0016586764635289,-0.0016586769712491,0.0016586760353361,-0.0016586754058364,0.0016586776810246,-0.0016586758125465,0.0016586772436759,-0.001391691174864,0.0013916943078372,-0.0013916924263873,0.0013916930914677,1.4115579249332e-09,-1.9180441091503e-09,-2.0620201168506e-09,1.5479101144857e-09,-0.0015686367157901,0.0015686362315971,-0.0016586767852532,0.0016586762032534,-0.0016586756445634,0.0016586773704827,-0.0016586778158454,0.0016586751665234,-0.0016586766638804,0.0016586763101237,-0.0013916954287137,0.0013916902229714,-0.0013916919483696,0.0013916937648784,-0.0015683907526413,0.0015683947001639,-0.0015683938843425,0.0015683912549868,-4.5541731166496e-10,1.2165361641847e-10,-0.00083559315948273,0.0008355928442795,1.9764709053838e-09,-2.3668164737499e-09,-0.00098060238065507,0.0009806033532507,-0.00098060382621364,0.00098060190934683,-0.00098060221294829,0.00098060355327946,-0.00098060365572264,0.00098060208420536,-0.00095928006241905,0.00095927880060318,-0.00095928063537505,0.00095927826888796,0.71254270332503,125803,2834,0.0065128631482584,0.006512863243548,0.0034808931782082,39.658546112093,7.9668368896741e-05,7.9668368896741e-05,7.9668368896741e-05,3591736.5342615,0.016644480137482
38619200,0.99965479778306,0.016268074830598,0.0061902389451175,0.0061902390692717,0.0038875968162083,-0.0015689455476626,0.0015689462909781,9.5529504533328e-10,-2.4217541041333e-10,-1.3158888560281e-09,2.2205243326823e-09,-0.0016590022259394,0.0016590021005493,-0.0016590026319019,0.0016590016807826,-0.0016590010413803,0.0016590033453948,-0.0016590014488055,0.0016590029116172,-0.0013920096363341,0.0013920127343164,-0.0013920109523837,0.001392011519827,1.4101862760714e-09,-1.9365002230011e-09,-2.0874911165463e-09,1.5366836464282e-09,-0.001568946217719,0.0015689457209649,-0.0016590023930997,0.0016590018036989,-0.0016590012478999,0.0016590029834529,-0.0016590034314343,0.0016590007722235,-0.0016590022686738,0.0016590019189324,-0.0013920138917543,0.0013920086223242,-0.0013920103829132,0.0013920121632325,-0.0015686768895396,0.001568680831568,-0.0015686797621466,0.0015686771163012,-4.5881779272446e-10,1.198826863721e-10,-0.0008357425763306,0.00083574226725719,2.0090184517771e-09,-2.3701210284801e-09,-0.00098089052830534,0.00098089152261505,-0.00098089198769565,0.00098089006187129,-0.0009808903710926,0.00098089172441397,-0.0009808918224805,0.00098089023589075,-0.00095943266373164,0.00095943137789065,-0.00095943317572389,0.00095943075047976,0.71626666366921,125803,2834,0.0065141409416972,0.0065141411484281,0.0034815220381074,39.752228834138,8.0417830673105e-05,8.0417830673105e-05,8.0417830673105e-05,3586215.5824246,0.016647719792176
38819200,0.99968222353758,0.016268527211392,0.0061904110107931,0.0061904111349183,0.0038877050656802,-0.0015690398468315,0.0015690405759219,9.6763705511689e-10,-2.4649226212471e-10,-1.3588926532328e-09,2.1928882148879e-09,-0.0016590815463209,0.0016590814257595,-0.0016590819576889,0.0016590809981996,-0.0016590803587779,0.0016590826730857,-0.0016590807723244,0.0016590822319039,-0.001392119128135,0.0013921222780135,-0.0013921204364989,0.0013921210514917,1.4657083785563e-09,-1.9923544798101e-09,-2.0949657475853e-09,1.5537895007716e-09,-0.0015690404985152,0.0015690399989789,-0.0016590817239338,0.00165908115783,-0.0016590805715533,0.0016590823450178,-0.0016590827996545,0.0016590800860152,-0.0016590816305681,0.0016590812406836,-0.0013921234454302,0.0013921181247375,-0.0013921199146597,0.0013921216969824,-0.0015687756480482,0.0015687797064607,-0.0015687787450278,0.0015687759826082,-4.5754818043511e-10,1.2005647979813e-10,-0.00083572066584862,0.00083572035458016,1.9968511820708e-09,-2.3702621405056e-09,-0.00098096077524641,0.00098096175853295,-0.00098096222804606,0.00098096030553164,-0.00098096060980828,0.00098096196308519,-0.00098096205871644,0.00098096048307063,-0.00095943596180866,0.00095943469132694,-0.00095943650669053,0.00095943409766941,0.71845446430236,125803,2834,0.0065145284993535,0.006514528653783,0.0034814385346081,39.755847180156,8.0446777441245e-05,8.0446777441245e-05,8.0446777441245e-05,3577297.8277841,0.016648423940076
38880000,0.99969034791093,0.016268661386848,0.0061904620313104,0.0061904621554333,0.0038877372001042,-0.0015690663170173,0.0015690670370274,9.6940484093577e-10,-2.5127709659836e-10,-1.3564884480914e-09,2.1644550322669e-09,-0.001659101970602,0.0016591018618706,-0.0016591023848443,0.0016591014271725,-0.0016591007922405,0.0016591030973425,-0.0016591012109901,0.0016591026493948,-0.0013921507073378,0.001392153863335,-0.0013921520142426,0.001392152618016,1.5053949410414e-09,-2.0352331556731e-09,-2.1074923534683e-09,1.5647416186956e-09,-0.0015690669613359,0.0015690664570407,-0.0016591021551442,0.0016591016029955,-0.0016591009932762,0.0016591027951052,-0.001659103255275,0.0016591005005461,-0.0016591020812763,0.0016591016627587,-0.0013921550449707,0.0013921496781659,-0.0013921514985326,0.0013921532752053,-0.0015688032687244,0.0015688074224828,-0.0015688065007376,0.0015688036639348,-4.5572279510264e-10,1.1915973786945e-10,-0.00083570753991563,0.00083570722731043,1.9784536237138e-09,-2.3574168484406e-09,-0.00098098139915262,0.00098098237299522,-0.00098098284150436,0.00098098093102694,-0.00098098123424827,0.00098098257477489,-0.00098098267356952,0.00098098110397975,-0.00095943721184863,0.0009594359491976,-0.0009594377577471,0.00095943537534288,0.71910519803675,125803,2834,0.00651463692985,0.0065146370627783,0.0034813870358947,39.755983334617,8.0447866676938e-05,8.0447866676938e-05,8.0447866676938e-05,3574153.0621775,0.016648592368185
