time,ASR_ext,ASR_strain,ASR_strain_xx,ASR_strain_yy,ASR_strain_zz,disp_x_101,disp_x_102,disp_x_103,disp_x_104,disp_x_105,disp_x_106,disp_x_p1_neg,disp_x_p1_pos,disp_x_p2_neg,disp_x_p2_pos,disp_x_p3_neg,disp_x_p3_pos,disp_x_p4_neg,disp_x_p4_pos,disp_x_p5_neg,disp_x_p5_pos,disp_x_p6_neg,disp_x_p6_pos,disp_y_101,disp_y_102,disp_y_103,disp_y_104,disp_y_105,disp_y_106,disp_y_p1_neg,disp_y_p1_pos,disp_y_p2_neg,disp_y_p2_pos,disp_y_p3_neg,disp_y_p3_pos,disp_y_p4_neg,disp_y_p4_pos,disp_y_p5_neg,disp_y_p5_pos,disp_y_p6_neg,disp_y_p6_pos,disp_y_p7_neg,disp_y_p7_pos,disp_y_p8_neg,disp_y_p8_pos,disp_z_101,disp_z_102,disp_z_103,disp_z_104,disp_z_105,disp_z_106,disp_z_p1_neg,disp_z_p1_pos,disp_z_p2_neg,disp_z_p2_pos,disp_z_p3_neg,disp_z_p3_pos,disp_z_p4_neg,disp_z_p4_pos,disp_z_p5_neg,disp_z_p5_pos,disp_z_p6_neg,disp_z_p6_pos,humidity,ndof,nelem,strain_xx,strain_yy,strain_zz,temp,thermal_strain_xx,thermal_strain_yy,thermal_strain_zz,vonmises,vstrain
2419200,0,0,0,0,0,0,0,0,0,0,0,0,0,0,0,0,0,0,0,0,0,0,0,0,0,0,0,0,0,0,0,0,0,0,0,0,0,0,0,0,0,0,0,0,0,0,0,0,0,0,0,0,0,0,0,0,0,0,0,0,0,0,0,0,0,0,0,0,0,0,0,0,0,0,0
2619200,0.021301239784508,0.00043668119140332,0.00014556039713444,0.00014556039713444,0.00014556039713444,-3.9364402952989e-05,3.936307910786e-05,-6.594715733406e-10,-6.5820832920206e-10,2.30622968704e-09,-3.7325714273175e-09,-3.9716443682076e-05,3.9717116849994e-05,-3.9716444391454e-05,3.971711943672e-05,-3.971834790564e-05,3.9715093845404e-05,-3.9718358278468e-05,3.9715102900646e-05,-4.0078452856274e-05,4.0075128807655e-05,-4.0078455270768e-05,4.0075136553792e-05,-1.8477289213624e-09,2.9566473514194e-09,-1.3163448286442e-09,2.3367008808714e-09,-3.9363225216667e-05,3.9364256985346e-05,-3.9717590746324e-05,3.9715839542618e-05,-3.9716428885011e-05,3.9717070841359e-05,-3.9716064830409e-05,3.9717442290557e-05,-3.9714903866257e-05,3.9718671591902e-05,-4.0077269901177e-05,4.0076283357407e-05,-4.0073733008917e-05,4.0079922575626e-05,-4.0077986907155e-05,4.0075537130193e-05,-4.0073314913843e-05,4.0080364693688e-05,-2.0227696535697e-10,-2.0260623780527e-10,-3.9363947955394e-05,3.9363534354036e-05,7.6109455449556e-10,-1.2067451630743e-09,-3.9716631160676e-05,3.9716878538487e-05,-3.9717281641522e-05,3.9716224543199e-05,-3.971662488514e-05,3.9716873228618e-05,-3.9717273336363e-05,3.9716213778081e-05,-4.0077326740437e-05,4.0076275405287e-05,-4.0077350796055e-05,4.007629843751e-05,0.81993057807265,131329,3014,0.00016400211706616,0.00016400211736024,0.00016400211758395,32.697061301659,2.3976490413272e-05,2.3976490413272e-05,2.3976490413272e-05,478766.03168297,0.00049212753189968
2819200,0.043205965292596,0.00087359865207209,0.00029119955044916,0.00029119955070443,0.0002911995509185,-7.3574601113201e-05,7.3573925932539e-05,-3.1091426836708e-10,-3.605164220443e-10,1.7661243051516e-09,-2.5126703658473e-09,-7.4791441014786e-05,7.4792192875952e-05,-7.4791444486754e-05,7.4792179036718e-05,-7.4792778633793e-05,7.4790748666594e-05,-7.4792814324928e-05,7.4790733019021e-05,-7.5163575786556e-05,7.5161538594352e-05,-7.5163679605083e-05,7.5161503265106e-05,-1.6470289919746e-10,-4.5711463134414e-11,-2.6493395701071e-09,2.4239683172809e-09,-7.3574377496316e-05,7.3574149404485e-05,-7.4792747852298e-05,7.4790797725841e-05,-7.4791111000341e-05,7.479252549353e-05,-7.4792715155139e-05,7.4790829132096e-05,-7.4791092353151e-05,7.4792537042056e-05,-7.516510540757e-05,7.5159948035675e-05,-7.5160232845492e-05,7.5164996678183e-05,-7.5161873732728e-05,7.5163253603765e-05,-7.5161766505427e-05,7.5163354408601e-05,-2.8099672862885e-10,-3.3503886043985e-10,-7.3574572359806e-05,7.3573954662001e-05,1.3145070720293e-09,-1.9943694562442e-09,-7.4791553507928e-05,7.4792054995484e-05,-7.4792622739654e-05,7.4790974167603e-05,-7.4791556741421e-05,7.4792037702656e-05,-7.4792627693358e-05,7.4790924797136e-05,-7.5163443963242e-05,7.5161649150162e-05,-7.5163427139017e-05,7.5161779927751e-05,0.82138593836178,131329,3014,0.00030651239914336,0.0003065123988414,0.00030651239909345,32.941478296432,2.5931826371457e-05,2.5931826371457e-05,2.5931826371457e-05,794518.44459315,0.00091996073044139
3019200,0.065188854643132,0.0013016129837161,0.00043387099466048,0.00043387099437994,0.00043387099467569,-0.00010643503861417,0.00010643477829845,-7.1236342510253e-11,-1.8975310763973e-10,1.2272381597681e-09,-1.5333295466805e-09,-0.00010892824088324,0.00010892893931446,-0.00010892825847465,0.00010892890686374,-0.00010892910503916,0.00010892798154863,-0.00010892917348318,0.0001089279354631,-0.0001090423483867,0.00010904130841853,-0.00010904254271643,0.00010904119531784,1.1743708840968e-09,-2.1358142693296e-09,-3.431809300212e-09,2.5179801515378e-09,-0.00010643536904615,0.0001064344474404,-0.00010892945916707,0.00010892766555545,-0.00010892753246108,0.00010892969992716,-0.00010893052082579,0.00010892653461066,-0.00010892862240462,0.00010892853284916,-0.0001090456979183,0.00010903787463811,-0.00010903999505853,0.00010904378553199,-0.0001090396790567,0.00010904403787681,-0.00010904292914668,0.00010904066060005,-2.7677874201119e-10,-4.025959130043e-10,-0.00010643524869547,0.0001064345679411,1.6682483424101e-09,-2.4284464349188e-09,-0.00010892822995988,0.00010892894827183,-0.00010892953883709,0.00010892761102989,-0.00010892824624571,0.00010892890933554,-0.00010892956444177,0.00010892751729099,-0.00010904290720061,0.00010904069649843,-0.00010904283149798,0.00010904094207937,0.82013449372678,131329,3014,0.00044338040699933,0.00044338040611188,0.00044338040642431,32.856737753532,2.5253902028257e-05,2.5253902028257e-05,2.5253902028257e-05,1083027.5277074,0.0013310280135161
3219200,0.08648191611653,0.0017012672363571,0.00056708907888848,0.00056708907848891,0.00056708907897966,-0.00013614836891998,0.00013614889039338,2.5365863068972e-10,2.6203901585852e-10,-5.8938778453423e-11,5.8850084812952e-10,-0.00014038695375377,0.00014038729896779,-0.00014038693644533,0.0001403872942847,-0.00014038677803084,0.00014038746027215,-0.00014038679286268,0.00014038746471434,-0.00013963253703147,0.00013963326777032,-0.00013963259128978,0.00013963331784763,1.5097508141505e-09,-2.5715545062867e-09,-3.6067941448225e-09,2.6243669377245e-09,-0.00013614912740667,0.00013614813123592,-0.00014038795708303,0.00014038627596389,-0.00014038595375253,0.00014038839360826,-0.00014038929074707,0.00014038487808914,-0.00014038729423762,0.00014038697970461,-0.00013963706286205,0.00013962863590871,-0.0001396310705241,0.00013963486409279,-0.00013963038579307,0.000139635496744,-0.00013963437601519,0.00013963135445968,-3.61174172899e-10,-3.630025028536e-10,-0.00013614899017879,0.00013614826865146,1.8521711234656e-09,-2.6679690919381e-09,-0.00014038674094903,0.0001403875342262,-0.00014038820081022,0.00014038605174849,-0.00014038673888303,0.00014038753810775,-0.00014038819335395,0.00014038602737051,-0.00013963400910027,0.00013963175653528,-0.00013963405276298,0.00013963182322183,0.80676032734295,131329,3014,0.0005671251356124,0.00056712513421529,0.00056712513460591,32.290227311661,2.0721818493285e-05,2.0721818493285e-05,2.0721818493285e-05,1303390.4207134,0.0017028269484352
3419200,0.10519189252305,0.0020373470407142,0.00067911568037024,0.00067911567987084,0.00067911568047313,-0.00015838851523613,0.00015838988212488,6.3006629099554e-10,7.2578308547935e-10,-1.4821914233488e-09,2.9298588321326e-09,-0.0001646391351691,0.00016463905682879,-0.00016463909179308,0.00016463907364262,-0.00016463777795697,0.00016464048059554,-0.00016463775473906,0.00016464051993607,-0.00016240350549357,0.00016240622877071,-0.00016240347703636,0.00016240637826086,2.4721676504367e-09,-3.9088152647633e-09,-3.6584892254384e-09,2.3495527680781e-09,-0.00015838986288606,0.00015838853361015,-0.00016463970641165,0.00016463852221115,-0.00016463778205123,0.0001646405563598,-0.00016464176873645,0.00016463637365922,-0.00016463983706469,0.00016463840297005,-0.00016240944998605,0.00016240015071105,-0.00016240367820206,0.00016240616811294,-0.0001624014590268,0.00016240839164709,-0.00016240768050774,0.00016240195121828,-3.56273960553e-10,-2.740773623453e-10,-0.00015838950978537,0.0001583888869037,1.7940777227085e-09,-2.5142937251518e-09,-0.00016463871505264,0.00016463951733302,-0.00016464011594716,0.00016463810440285,-0.00016463870765757,0.00016463956102261,-0.00016464009533968,0.00016463813757523,-0.00016240586159018,0.00016240385836951,-0.00016240595078623,0.00016240379447725,0.78590063093716,131329,3014,0.00065973764155991,0.00065973763975865,0.00065973764015993,30.388280078042,5.5062406243329e-06,5.5062406243329e-06,5.5062406243329e-06,1447673.6159939,0.0019811778635457
3619200,0.12308790253007,0.0023481534487352,0.00078271781620837,0.00078271781592963,0.00078271781659715,-0.00018085597277549,0.00018085678972552,4.5575546890974e-10,3.5477039178747e-10,-3.6610415712225e-10,1.2470705847173e-09,-0.00018929080704699,0.0001892911277819,-0.00018929081899187,0.00018929109486545,-0.00018929031824402,0.00018929163405758,-0.00018929037053147,0.00018929159894822,-0.00018528183131422,0.00018528328568261,-0.00018528199782305,0.00018528320875713,2.4874185898782e-09,-3.8506496625874e-09,-3.6422251233723e-09,2.4112758637899e-09,-0.00018085700359672,0.00018085575844539,-0.00018929156426732,0.00018929040010124,-0.00018928961445709,0.00018929245952151,-0.0001892935521058,0.00018928827861202,-0.000189291620395,0.00018929031374752,-0.00018528712484577,0.00018527787987354,-0.00018528131153004,0.00018528391519977,-0.0001852791226749,0.00018528611641847,-0.00018528529412159,0.00018527968120573,-2.2444657169365e-10,-3.4263292989477e-10,-0.00018085666324278,0.00018085609907484,1.8496581849842e-09,-2.5089614624716e-09,-0.00018929052488619,0.00018929145246593,-0.00018929191714475,0.00018929001989827,-0.00018929055247755,0.00018929142379561,-0.00018929195440872,0.00018928995851145,-0.00018528362344916,0.00018528145842976,-0.00018528353142864,0.00018528164279022,0.77012035384669,131329,3014,0.00075328529082768,0.00075328528987208,0.00075328529044544,29.681859220083,-1.4512623933636e-07,-1.4512623933636e-07,-1.4512623933636e-07,1622451.0155616,0.0022624181306597
3819200,0.14050917196006,0.0026471044357937,0.00088236814593973,0.00088236814468547,0.00088236814516853,-0.0002028509256834,0.00020285131358,2.4014295443729e-10,1.4228794570093e-10,1.6215593212993e-10,2.6149930130232e-10,-0.0002135333914975,0.00021353381618869,-0.00021353340585821,0.00021353377889222,-0.00021353340883551,0.000213533811013,-0.00021353346067828,0.00021353377836214,-0.0002077472119354,0.00020774773667854,-0.00020774738082713,0.0002077476477372,1.7361807796316e-09,-2.6852367706967e-09,-3.4715319009768e-09,2.6362039508637e-09,-0.00020285154010785,0.00020285069833277,-0.00021353429204116,0.00021353291014317,-0.00021353232810895,0.00021353498629702,-0.00021353569692116,0.00021353143254459,-0.00021353374231786,0.00021353348518275,-0.00020775154768574,0.00020774328197056,-0.00020774568654221,0.00020774935165446,-0.00020774475942491,0.00020775028760244,-0.00020774909736784,0.000207745776499,-2.0653635978686e-10,-3.2533175369118e-10,-0.00020285138459633,0.00020285085404492,1.8977116859275e-09,-2.5231466987952e-09,-0.00021353312028719,0.00021353410455645,-0.00021353454329319,0.00021353265643666,-0.00021353316480469,0.00021353408325147,-0.000213534592185,0.00021353260712514,-0.00020774854099068,0.0002077463816448,-0.00020774843343149,0.00020774657238673,0.77140880160052,131329,3014,0.00084485749323777,0.00084485749152484,0.00084485749194233,29.233198399726,-3.7344128021911e-06,-3.7344128021911e-06,-3.7344128021911e-06,1804676.9325722,0.0025377964606535
4019200,0.15973356148039,0.0029739232203808,0.00099130774145768,0.00099130773925936,0.00099130773966377,-0.00023023244289931,0.00023023199957921,-5.366346837523e-11,-3.8606244479996e-10,2.1486498959338e-09,-2.611879879392e-09,-0.00024356084083437,0.00024356210246859,-0.00024356092766469,0.00024356199725496,-0.00024356240961332,0.00024356047250889,-0.00024356255012999,0.00024356035160811,-0.00023578356230157,0.00023578189568035,-0.00023578396004269,0.00023578155891548,7.5734499515152e-10,-1.2210510420133e-09,-3.4199277851709e-09,3.0342778556485e-09,-0.00023023241298937,0.00023023202845178,-0.00024356237858929,0.00024356051960263,-0.00024356029218739,0.00024356271967083,-0.00024356297406096,0.00024355984486601,-0.00024356091853852,0.00024356200656276,-0.00023578635795305,0.00023577901848882,-0.00023578015339505,0.0002357854189393,-0.00023578089906978,0.00023578462811056,-0.00023578285553735,0.00023578252835706,-9.5161714102897e-11,-4.5259275920482e-10,-0.00023023249606883,0.00023023194556047,2.0905989358361e-09,-2.7382675061603e-09,-0.00024356089195161,0.00024356206250818,-0.00024356242965555,0.00024356047667003,-0.00024356098346009,0.00024356194542103,-0.00024356254533944,0.00024356031444508,-0.00023578397771957,0.00023578142635438,-0.00023578367177006,0.00023578190403593,0.77300335835127,131329,3014,0.00095884353670277,0.00095884353454367,0.00095884353493519,30.538406276001,6.7072502080093e-06,6.7072502080093e-06,6.7072502080093e-06,2034005.416214,0.0028806846035241
4219200,0.18076717118488,0.0033276285780044,0.0011092095282084,0.001109209524822,0.001109209524974,-0.00025953925132952,0.00025953841663435,-3.1647552661049e-10,-5.1231837034899e-10,2.633951018722e-09,-3.5300442566814e-09,-0.00027601642893154,0.00027601776172612,-0.00027601647803924,0.00027601769367657,-0.00027601846980316,0.00027601564379577,-0.00027601856439096,0.00027601556652932,-0.0002659004814815,0.00026589782895537,-0.00026590074967615,0.00026589764455868,-3.0643652468407e-10,3.3022594196294e-10,-3.3303155411919e-09,3.3942901437452e-09,-0.00025953879868641,0.00025953886735249,-0.00027601822048071,0.00027601589394151,-0.000276016050959,0.00027601817934569,-0.00027601801401174,0.00027601607279078,-0.0002760158661803,0.00027601832528747,-0.00026590225766488,0.00026589597422946,-0.00026589578774819,0.00026590265651116,-0.00026589831720457,0.00026590003133854,-0.00026589773076494,0.00026590055665547,-1.7209302798495e-10,-3.9705118341036e-10,-0.00025953911719407,0.00025953854885468,2.1969524342104e-09,-2.8694980288049e-09,-0.00027601649436558,0.0002760176960197,-0.00027601812225123,0.00027601603383262,-0.00027601655164313,0.00027601761675683,-0.00027601819284425,0.00027601591333489,-0.00026590038297555,0.00026589786389769,-0.00026590022519352,0.00026589821511161,0.77489565397946,131329,3014,0.0010808313920102,0.001080831388003,0.0010808313880232,31.781586495757,1.6652691966055e-05,1.6652691966055e-05,1.6652691966055e-05,2265816.4163132,0.0032477746479232
4419200,0.20212462643964,0.003682503679333,0.0012275012286858,0.0012275012252657,0.0012275012253815,-0.00028694618050404,0.00028694533441811,-2.7546626135657e-10,-5.6216914386854e-10,2.3906013356819e-09,-3.3077881928119e-09,-0.00030687888584128,0.00030688008080503,-0.00030687896269881,0.00030687998190247,-0.0003068807622562,0.00030687812158549,-0.00030688088764683,0.00030687801094741,-0.00029419076987968,0.00029418835431268,-0.00029419114981956,0.00029418808474324,2.4716311461194e-10,-1.8511646775096e-10,-3.2618332085748e-09,3.3550725477829e-09,-0.0002869457090993,0.00028694580350374,-0.00030688039792232,0.00030687848854044,-0.00030687826118898,0.00030688073720238,-0.00030688056164393,0.00030687831191489,-0.00030687844893619,0.00030688052430423,-0.0002941927724869,0.00029418626907545,-0.0002941864269584,0.00029419284624576,-0.0002941881846405,0.00029419097163174,-0.00029418866727906,0.0002941904396004,-1.1922757776758e-10,-4.3946349173611e-10,-0.00028694603225693,0.00028694548027128,2.1660073717704e-09,-2.8272105971128e-09,-0.00030687886718288,0.000306880096955,-0.00030688047202889,0.00030687846405931,-0.00030687895594026,0.00030687998731391,-0.00030688057814171,0.00030687831196079,-0.00029419082442608,0.0002941882318625,-0.0002941905657146,0.0002941886869665,0.77613010265366,131329,3014,0.0011948990038903,0.0011948989990627,0.0011948989989066,31.98114127953,1.8249130236239e-05,1.8249130236239e-05,1.8249130236239e-05,2464835.8492892,0.0035911541700261
4619200,0.22502051552227,0.0040588133189342,0.0013529377748884,0.0013529377719175,0.0013529377721283,-0.00031752341620263,0.00031752265527782,-3.3872974492116e-10,-4.1845531383034e-10,2.0684642243084e-09,-2.9113234234208e-09,-0.00034139634162218,0.00034139732244728,-0.00034139635578945,0.00034139729438241,-0.00034139798115378,0.0003413955928706,-0.00034139803752801,0.00034139554959609,-0.0003258068694077,0.00032580456166019,-0.00032580701045166,0.00032580449770896,-3.0533179660428e-11,1.1556944652925e-10,-3.2909029302929e-09,3.3992052952366e-09,-0.00031752297738115,0.00031752309276619,-0.00034139783525609,0.00034139574519793,-0.00034139567505507,0.00034139801441908,-0.00034139781387438,0.00034139574090555,-0.00034139568178524,0.00034139798115916,-0.00032580887735084,0.00032580249526964,-0.00032580242497726,0.00032580915183095,-0.00032580460949254,0.00032580684672949,-0.00032580450491472,0.00032580691612425,-2.035070575432e-10,-3.2130461229112e-10,-0.000317523297169,0.00031752277310579,2.1912049778979e-09,-2.8202135403093e-09,-0.00034139623887507,0.00034139743263512,-0.00034139784188736,0.00034139578356787,-0.00034139624781859,0.0003413973746089,-0.00034139787452245,0.00034139569143287,-0.00032580685405777,0.00032580451469477,-0.00032580681494519,0.00032580475488838,0.77694609496597,131329,3014,0.0013221467940378,0.0013221467912649,0.00132214679153,33.013378341433,2.6507026731467e-05,2.6507026731467e-05,2.6507026731467e-05,2682656.630799,0.0039743504365299
4819200,0.25020787416893,0.0044678355954314,0.0014892785341309,0.0014892785307064,0.0014892785305942,-0.00035143710172756,0.00035143638648961,-2.5794775706426e-10,-4.5697188817544e-10,2.311776757601e-09,-3.1192293179355e-09,-0.00037994583021608,0.00037994704275272,-0.00037994588156866,0.00037994698009739,-0.00037994760456491,0.00037994517029226,-0.00037994770173329,0.00037994508697521,-0.00036094789785457,0.00036094558886544,-0.00036094816329343,0.00036094539703425,5.2451245094745e-11,2.6878221785833e-11,-3.3375344708884e-09,3.4336039450846e-09,-0.00035143669072826,0.00035143679586081,-0.00037994742921263,0.00037994535567273,-0.00037994523930686,0.00037994765378423,-0.00037994746014214,0.00037994529885282,-0.00037994530376766,0.00037994756425104,-0.00036094998200967,0.00036094344170428,-0.00036094345971972,0.00036095016798468,-0.00036094554068109,0.00036094796792741,-0.00036094561646745,0.00036094787054113,-1.3582660460517e-10,-3.7768387750209e-10,-0.00035143700003329,0.00035143648657082,2.2573698710691e-09,-2.8761571756005e-09,-0.0003799457979918,0.00037994707949642,-0.00037994743771713,0.00037994539136834,-0.00037994584255067,0.00037994698175577,-0.00037994751248218,0.00037994525724502,-0.00036094796700462,0.0003609454673719,-0.00036094778996675,0.00036094583146978,0.77793123216165,131329,3014,0.0014632610398116,0.0014632610364238,0.0014632610364553,34.50175293071,3.8414023445681e-05,3.8414023445681e-05,3.8414023445681e-05,2914465.4622461,0.0043994778720942
5019200,0.27745166109773,0.0049032888451446,0.0016344296175804,0.001634429613881,0.0016344296136832,-0.00038701060091368,0.00038700994372879,-2.6817262692209e-10,-3.8983048544626e-10,2.1135640898326e-09,-2.8661225487471e-09,-0.00042089454553893,0.00042089564040491,-0.00042089457337381,0.00042089560338432,-0.00042089617000034,0.00042089391769944,-0.00042089624049977,0.00042089385873987,-0.0003978797311452,0.00039787755608506,-0.00039787992157266,0.00039787745316956,7.94459681966e-11,-3.3112815039282e-11,-3.3718132315707e-09,3.4321997049312e-09,-0.00038701023765472,0.00038701030493111,-0.00042089609761964,0.0004208940044603,-0.00042089389645216,0.00042089631106866,-0.00042089616071921,0.000420893911786,-0.00042089399333093,0.00042089618785546,-0.00039788193212448,0.00039787529761359,-0.0003978753735466,0.00039788206873397,-0.00039787740966747,0.00039787989912668,-0.00039787755863577,0.0003978797197196,-1.6798014921881e-10,-3.3724857547869e-10,-0.00038701052258513,0.00038701001994223,2.2690913017668e-09,-2.8792050233879e-09,-0.00042089446008804,0.00042089573717055,-0.0004208961036382,0.00042089404230939,-0.00042089447757018,0.00042089565847402,-0.00042089615162241,0.00042089392931866,-0.00039787982497258,0.00039787740371321,-0.00039787972984072,0.00039787769477875,0.77678229374886,131329,3014,0.0016112615818599,0.0016112615775794,0.0016112615774577,35.811387186036,4.889109748829e-05,4.889109748829e-05,4.889109748829e-05,3144687.0470252,0.0048455481665928
5219200,0.30612345757144,0.0053563824446876,0.0017854608174488,0.0017854608137211,0.0017854608135178,-0.00042320767184152,0.00042320712744403,-4.0018958977685e-10,-1.5318044675132e-10,1.431517585591e-09,-2.071047096874e-09,-0.00046310396560084,0.00046310456607114,-0.00046310387540994,0.00046310465445304,-0.00046310510929325,0.00046310334086122,-0.00046310504673064,0.00046310340309122,-0.00043558895373191,0.00043558700538146,-0.000435588779059,0.00043558728712772,-2.45993580669e-11,5.7391431854314e-11,-3.3732298703941e-09,3.4160180544119e-09,-0.00042320737393609,0.00042320742307414,-0.00046310531829083,0.00046310315087396,-0.00046310312016146,0.0004631054394911,-0.00046310531270419,0.00046310310941719,-0.00046310315383256,0.00046310538421269,-0.00043559124992665,0.00043558466123522,-0.00043558469793275,0.00043559144420549,-0.00043558686743269,0.00043558913870162,-0.00043558679460186,0.00043558915677553,-3.4434271602227e-10,-1.4969151255646e-10,-0.0004232076424784,0.0004232071544749,2.2146853997636e-09,-2.811184198973e-09,-0.00046310371237633,0.00046310484907144,-0.00046310531644645,0.00046310318704147,-0.00046310360070752,0.00046310488201167,-0.00046310524020888,0.00046310320067538,-0.00043558894619635,0.00043558694329779,-0.0004355892250199,0.00043558686755392,0.77856400194358,131329,3014,0.0017618355939318,0.0017618355891965,0.0017618355890788,36.763702727482,5.650962181986e-05,5.650962181986e-05,5.650962181986e-05,3378738.1871952,0.0052995830699742
5419200,0.33590483003586,0.0058151177588068,0.0019383725892778,0.0019383725852916,0.0019383725842374,-0.00045950148666764,0.00045950102155471,-3.6570418719399e-10,-1.1060995310362e-10,1.1074052217512e-09,-1.6620474411651e-09,-0.00050608942408887,0.00050608983583583,-0.00050608932832995,0.00050608993219252,-0.00050609030998546,0.00050608886909048,-0.00050609024028827,0.00050608893890254,-0.00047327051226814,0.0004732688469229,-0.00047327033190982,0.00047326915148192,3.0824848572399e-10,-3.0938044492286e-10,-3.3383712926451e-09,3.3473634418239e-09,-0.0004595012469594,0.00045950125883459,-0.00050609058097444,0.00050608862453771,-0.000506088412537,0.000506090878477,-0.00050609079291258,0.00050608835873598,-0.00050608866639268,0.00050609060219887,-0.00047327303986397,0.00047326626415555,-0.00047326659744642,0.00047327295312443,-0.00047326826241554,0.00047327113696392,-0.00047326885756037,0.00047327048602953,-3.4367278154714e-10,-1.4564671400463e-10,-0.00045950149271062,0.00045950101281784,2.1682471512511e-09,-2.7579584714457e-09,-0.00050608909406174,0.00050609020127417,-0.00050609065950309,0.00050608857120802,-0.00050608897545696,0.00050609023644051,-0.00050609058158616,0.00050608859477636,-0.00047327063155372,0.00047326867071069,-0.00047327090708838,0.00047326857202567,0.76958753735117,131329,3014,0.001912791069566,0.0019127910645167,0.001912791063969,37.574827834418,6.2998622675344e-05,6.2998622675344e-05,6.2998622675344e-05,3592413.3028288,0.0057549788645586
5619200,0.36553700764891,0.0062446849223767,0.0020815616431627,0.0020815616399279,0.0020815616392861,-0.00049229403147098,0.0004922936004803,-2.265188058295e-10,-2.1346681182366e-10,8.9752007411311e-10,-1.4102980131138e-09,-0.0005460657311712,0.00054606609051001,-0.00054606571169673,0.00054606610960413,-0.00054606645966422,0.00054606528939541,-0.0005460664672371,0.00054606527940229,-0.00050668878640654,0.00050668755290252,-0.00050668885819541,0.00050668762572517,9.4723120637193e-10,-1.0327042962452e-09,-3.2639200843164e-09,3.1952663872196e-09,-0.0004922938509326,0.00049229377887943,-0.00054606664977486,0.00054606512719481,-0.00054606455467889,0.00054606730560064,-0.00054606730767989,0.00054606441491697,-0.00054606525506887,0.00054606657985486,-0.00050669167916301,0.00050668460105798,-0.00050668546936902,0.00050669106789269,-0.00050668616016331,0.00050669022626158,-0.00050668808729508,0.000506688220995,-2.2382322273654e-10,-2.7314373649928e-10,-0.00049229405612091,0.00049229357367921,2.0809202894533e-09,-2.6760189167605e-09,-0.00054606536591703,0.00054606649581867,-0.00054606687593575,0.00054606492649783,-0.00054606532813993,0.00054606645447567,-0.00054606687908969,0.00054606487040224,-0.00050668921711836,0.00050668705420348,-0.00050668925096688,0.0005066872074847,0.73637637804162,131329,3014,0.0020491667174415,0.0020491667129991,0.0020491667129806,37.741720172214,6.4333761377715e-05,6.4333761377715e-05,6.4333761377715e-05,3762753.1939744,0.0061665710094195
5819200,0.39264412092941,0.0066190745493462,0.0022063581839731,0.0022063581826439,0.0022063581827291,-0.0005182429538383,0.00051824257707086,-2.0348757234434e-10,-1.8006854748536e-10,3.0432361937232e-10,-7.5218413299694e-10,-0.00057886908150147,0.00057886908761427,-0.00057886906382361,0.00057886910244892,-0.00057886940947304,0.00057886869774586,-0.00057886941665699,0.0005788686844725,-0.00053269670677129,0.0005326959553324,-0.00053269678922844,0.00053269604766374,1.521709991442e-09,-1.6646639989856e-09,-3.1276526378168e-09,3.0076360693714e-09,-0.00051824283047022,0.00051824269895196,-0.00057886960160742,0.0005788685339182,-0.00057886761328525,0.00057887060207126,-0.00057887067332629,0.00057886741206169,-0.00057886872321458,0.00057886946553466,-0.00053269990079555,0.00053269270447629,-0.00053269401166813,0.00053269885692986,-0.00053269380598762,0.00053269891593275,-0.00053269691033993,0.00053269569488031,-2.2351719033562e-10,-2.6885513017503e-10,-0.00051824300001469,0.00051824252971301,1.9241772939692e-09,-2.5112858537645e-09,-0.00057886858392078,0.00057886962946298,-0.00057886999211444,0.00057886817011476,-0.00057886855611044,0.00057886958757828,-0.00057887000058653,0.00057886811224978,-0.00053269731415757,0.00053269525530206,-0.00053269736361929,0.00053269542662115,0.71318193471055,131329,3014,0.0021570709828868,0.0021570709798102,0.0021570709804539,36.554013754092,5.4832110032739e-05,5.4832110032739e-05,5.4832110032739e-05,3909782.3135572,0.0064923589954729
6019200,0.41821488066738,0.0069627346106595,0.0023209115352139,0.0023209115371612,0.0023209115382843,-0.00054279144329843,0.00054279112030902,-1.4769124254568e-12,-3.2294001663946e-10,2.1203405547574e-10,-5.9776146754749e-10,-0.00060996494140739,0.00060996504794675,-0.00060996505157767,0.00060996493005831,-0.00060996519906387,0.00060996472628367,-0.00060996531636482,0.00060996461835442,-0.00055709341671293,0.00055709309500777,-0.00055709377639934,0.00055709284104378,2.2026572923956e-09,-2.4221705849312e-09,-3.0295604677272e-09,2.8451431221883e-09,-0.00054279137923204,0.0005427911865302,-0.00060996523842939,0.00060996469761741,-0.00060996335385076,0.00060996667520113,-0.00060996681395994,0.00060996309971784,-0.0006099649282565,0.00060996507871266,-0.00055709697248461,0.00055708945636711,-0.00055709129287492,0.00055709533611298,-0.00055709010368372,0.00055709641612304,-0.00055709463442175,0.0005570918292305,-3.3074805925618e-11,-4.2989664143799e-10,-0.00054279150797818,0.00054279105908049,1.8059604403688e-09,-2.3637331913529e-09,-0.00060996445716993,0.00060996555442219,-0.00060996579189129,0.00060996417580284,-0.00060996457577597,0.00060996539329522,-0.00060996591485773,0.00060996402334408,-0.00055709435203271,0.0005570921105236,-0.0005570940550814,0.0005570925739522,0.70262235572906,131329,3014,0.0022591419352226,0.0022591419397381,0.0022591419424455,35.890282143288,4.9522257146307e-05,4.9522257146307e-05,4.9522257146307e-05,4037984.8832231,0.0068006357821018
6219200,0.44311220502486,0.0072979487825843,0.0024326495922724,0.0024326495939815,0.0024326495963305,-0.00056764743596955,0.00056764713740583,-1.4003607493521e-11,-2.8424991544844e-10,-2.3931376559932e-11,-3.3166298721752e-10,-0.00064129404773827,0.00064129401039718,-0.00064129414564205,0.00064129390718658,-0.0006412941571725,0.00064129384929888,-0.00064129426296608,0.00064129374728864,-0.00058187281422331,0.00058187265867567,-0.00058187312828035,0.00058187243883173,2.3430875307557e-09,-2.6099948525334e-09,-2.9496498530751e-09,2.7238598973169e-09,-0.00056764740418913,0.00056764717118874,-0.00064129420517785,0.00064129381342723,-0.0006412923799571,0.00064129571598674,-0.00064129589049363,0.00064129208767718,-0.00064129408133192,0.00064129399982278,-0.00058187645126387,0.00058186897571697,-0.00058187094352218,0.00058187464781291,-0.00058186949523613,0.00058187603971505,-0.00058187434158544,0.00058187109244027,-4.6683422177027e-11,-3.9913278844376e-10,-0.00056764750591808,0.0005676470712041,1.7149374087658e-09,-2.2543849608957e-09,-0.00064129353109867,0.0006412945642284,-0.0006412947894726,0.00064129324232094,-0.0006412936256949,0.00064129440268953,-0.00064129491620822,0.00064129310632602,-0.00058187376035886,0.00058187163949326,-0.00058187351802611,0.00058187209234314,0.7074629692749,131329,3014,0.0023624817143307,0.0023624817185184,0.0023624817221499,35.770944562458,4.8567556499661e-05,4.8567556499661e-05,4.8567556499661e-05,4145791.5145234,0.0071128458762431
6419200,0.46775688919296,0.0076258279085022,0.00254194263503,0.0025419426356883,0.0025419426377839,-0.00059247268771439,0.00059247241283885,-7.6025427357733e-11,-2.0267745613696e-10,-1.8153445483525e-10,-1.506110921404e-10,-0.00067273604880549,0.00067273588097395,-0.00067273609705738,0.00067273582995311,-0.00067273604884464,0.00067273583315481,-0.00067273611900173,0.00067273576634822,-0.00060653511810194,0.00060653497688456,-0.00060653530636227,0.00060653486845363,2.2565411952258e-09,-2.5519485881268e-09,-2.8785587399313e-09,2.6279766299001e-09,-0.00059247267802932,0.00059247242414331,-0.00067273614971819,0.00067273574707261,-0.00067273436655589,0.00067273759638485,-0.00067273777978406,0.00067273406459258,-0.00067273603812888,0.00067273591804166,-0.00060653866474037,0.00060653139133062,-0.00060653333225622,0.00060653687424646,-0.00060653190963792,0.00060653824891164,-0.00060653663988587,0.00060653342393113,-1.0755997258726e-10,-3.2325944870456e-10,-0.00059247276326577,0.00059247234053001,1.6496544669825e-09,-2.1725876631294e-09,-0.00067273551594101,0.00067273646074785,-0.00067273670686581,0.00067273518464852,-0.00067273555219979,0.00067273633846611,-0.0006727368111066,0.00067273509254313,-0.00060653598690764,0.00060653404412384,-0.00060653584754796,0.00060653437675472,0.70211761084098,131329,3014,0.0024656841878886,0.0024656841912737,0.0024656841946525,35.957685818029,5.0061486544232e-05,5.0061486544232e-05,5.0061486544232e-05,4243635.854433,0.0074247413197466
6619200,0.4929427869559,0.007982370790805,0.0026607902632128,0.002660790262917,0.0026607902646752,-0.00062010061696331,0.00062010035159384,-6.942835495259e-11,-2.0292173443913e-10,-2.1404000975404e-11,-3.03977934271e-10,-0.00070726018959907,0.00070726014298464,-0.0007072602441856,0.00070726008853651,-0.00070726029531281,0.00070725998587835,-0.00070726036919896,0.00070725992068761,-0.00063476013223976,0.00063475987646398,-0.00063476029008646,0.00063475973674492,2.0982229016384e-09,-2.4225490179963e-09,-2.8404972976195e-09,2.5654584405278e-09,-0.00062010062012545,0.00062010035129991,-0.00070726038143163,0.00070725991217507,-0.00070725863364289,0.00070726172782506,-0.0007072619150297,0.00070725832329169,-0.00070726020538813,0.000707260147403,-0.00063476355127813,0.00063475642328613,-0.00063475829173945,0.00063476178594009,-0.00063475704352584,0.00063476300921987,-0.00063476150506413,0.00063475849533932,-8.7867590323078e-11,-3.1748573461697e-10,-0.00062010069054528,0.00062010028281429,1.6128176641304e-09,-2.1104716120556e-09,-0.00070725972572989,0.0007072606503376,-0.0007072608800406,0.00070725940061808,-0.00070725976676002,0.000707260518566,-0.00070726099084309,0.00070725930831754,-0.0006347609280725,0.00063475905121937,-0.00063476075574657,0.00063475936879044,0.74071518071767,131329,3014,0.0025805264063264,0.0025805264123042,0.0025805264163279,36.730626518958,5.6245012151668e-05,5.6245012151668e-05,5.6245012151668e-05,4358211.3766692,0.007771935106472
6819200,0.51956502456108,0.0083909183760087,0.0027969727917386,0.0027969727912487,0.0027969727930214,-0.00065230202220492,0.00065230174841451,-5.6276025570754e-11,-2.2918446607188e-10,3.4461054367856e-10,-6.8546449688308e-10,-0.00074683411512383,0.00074683432999358,-0.00074683418710211,0.00074683426143105,-0.00074683447238559,0.00074683391932545,-0.00074683455841012,0.00074683384648281,-0.00066870587234918,0.00066870537086072,-0.00066870602367563,0.00066870516800964,1.7845020321395e-09,-2.1270300942863e-09,-2.8281230666812e-09,2.53758258971e-09,-0.00065230202333069,0.00065230175127274,-0.00074683452294755,0.00074683387541385,-0.00074683279351931,0.00074683567601206,-0.00074683585611009,0.00074683248703316,-0.0007468341577848,0.0007468343011111,-0.00066870906998088,0.00066870214281186,-0.00066870381713694,0.00066870744244809,-0.00066870298607484,0.00066870828860936,-0.00066870685791877,0.00066870440320491,-5.105043476779e-11,-3.2747991024295e-10,-0.00065230208528345,0.0006523016916097,1.6057529168506e-09,-2.0772457313923e-09,-0.00074683377302811,0.00074683470711971,-0.00074683491738279,0.00074683346717605,-0.00074683383331853,0.00074683455848167,-0.00074683503982097,0.00074683336159408,-0.00066870654945536,0.00066870469144983,-0.00066870632168287,0.00066870502872922,0.79222279365886,131329,3014,0.0027143632219091,0.0027143632301875,0.0027143632349461,38.163190724204,6.7705525793632e-05,6.7705525793632e-05,6.7705525793632e-05,4531806.036576,0.0081767142331934
7019200,0.54796687766956,0.0087881399098728,0.0029293799705182,0.0029293799689864,0.0029293799703683,-0.0006849316452632,0.00068493135454973,-6.4238815930622e-11,-2.3846275889111e-10,7.5671290458725e-10,-1.1176620390743e-09,-0.00078770071537709,0.00078770119719362,-0.00078770079082608,0.00078770112808188,-0.00078770135492986,0.00078770050046226,-0.00078770144387272,0.00078770042705942,-0.00070198476993988,0.00070198397313785,-0.00070198492233368,0.00070198376757242,1.3750172811849e-09,-1.7040199708596e-09,-2.8185286724709e-09,2.5398899479397e-09,-0.00068493162976115,0.00068493137223628,-0.00078770138493778,0.00078770047816308,-0.00078769965791267,0.00078770227727989,-0.00078770244159741,0.00078769936418955,-0.00078770074531373,0.00078770117685552,-0.0007019876752249,0.0007019810442087,-0.00070198242434347,0.00070198633634277,-0.00070198214051152,0.00070198663628108,-0.00070198519360637,0.00070198356610541,-4.3017740102274e-11,-3.281030814702e-10,-0.00068493169637534,0.00068493130729288,1.6091655067454e-09,-2.0726153438916e-09,-0.00078770050255311,0.00078770144399584,-0.00078770164452508,0.00078770020213875,-0.00078770056592198,0.00078770128935316,-0.00078770177048424,0.00078770009171525,-0.0007019852992166,0.0007019834395695,-0.000701985064626,0.00070198378847852,0.73336568082084,131329,3014,0.0028499645511466,0.0028499645556572,0.00284996455912,39.890799438629,8.1526395509031e-05,8.1526395509031e-05,8.1526395509031e-05,4589061.9246493,0.008586997568574
7219200,0.57658111619349,0.0091700058007434,0.0030566686018052,0.0030566685989885,0.0030566685999497,-0.00071498260789942,0.00071498231095194,-2.7134911664722e-11,-2.7227443434999e-10,1.0522153298675e-09,-1.4089743049492e-09,-0.00082604490762622,0.00082604559961031,-0.0008260450084121,0.00082604550204431,-0.00082604575338722,0.00082604470708569,-0.00082604585666056,0.00082604461033895,-0.00073212352065385,0.00073212261443572,-0.00073212382182296,0.00073212243251209,1.2470463946522e-09,-1.5063110132785e-09,-2.7602770270527e-09,2.5437947664728e-09,-0.00071498256783492,0.00071498234628658,-0.00082604572946726,0.00082604474712931,-0.00082604401978839,0.00082604651793437,-0.00082604667998289,0.00082604373766488,-0.00082604499706654,0.00082604553395999,-0.00073212622429807,0.000732119852713,-0.00073212109346586,0.00073212517761811,-0.00073212096156533,0.00073212524091298,-0.00073212364087503,0.00073212244405165,-2.6615419476028e-11,-3.9071032112671e-10,-0.00071498266061227,0.00071498225314367,1.5702744325469e-09,-2.0752425530586e-09,-0.00082604479626232,0.00082604576067745,-0.00082604593356351,0.00082604452694493,-0.0008260448878494,0.00082604557463353,-0.00082604608404534,0.00082604439788853,-0.0007321240295039,0.00073212202543958,-0.00073212377251258,0.00073212248337866,0.70719547498068,131329,3014,0.0029748374360593,0.0029748374261877,0.0029748374254171,40.741912413013,8.83352993041e-05,8.83352993041e-05,8.83352993041e-05,4644879.18011,0.0089649733236867
7419200,0.60474779376837,0.0095301463471273,0.0031767154490372,0.0031767154484035,0.0031767154496865,-0.00074291452131087,0.0007429142199268,-6.4002351007404e-11,-2.358509870613e-10,1.1365083065102e-09,-1.4950600282659e-09,-0.00086211140697053,0.00086211212776195,-0.00086211148113387,0.00086211205323846,-0.00086211231070123,0.00086211117854732,-0.00086211239658541,0.00086211109695171,-0.00075973353175047,0.00075973251545024,-0.00075973378030916,0.00075973239256338,1.0459581097284e-09,-1.282985426323e-09,-2.7273239797371e-09,2.5304744059671e-09,-0.00074291447283286,0.00074291426623057,-0.00086211230144249,0.00086211120491106,-0.00086211060054888,0.0008621129649452,-0.00086211311387153,0.0008621103393001,-0.00086211144622651,0.00086211211380186,-0.00075973607159161,0.00075972992636001,-0.00075973099694932,0.00075973518911025,-0.00075973111118624,0.00075973499636188,-0.00075973339064236,0.00075973259985397,-6.0557730532313e-11,-3.5971183210927e-10,-0.00074291457256157,0.00074291416669252,1.5444589978966e-09,-2.0507173908296e-09,-0.0008621113288048,0.00086211225638277,-0.00086211244613199,0.00086211104585913,-0.00086211140004893,0.00086211209379433,-0.00086211258377757,0.00086211093127438,-0.00075973395379278,0.00075973201196577,-0.00075973374835243,0.00075973242530057,0.68502083577302,131329,3014,0.0030908939902992,0.0030908939857884,0.0030908939861858,41.273029853938,9.2584238831508e-05,9.2584238831508e-05,9.2584238831508e-05,4675356.1358195,0.0093163933831094
7619200,0.63127388607824,0.0098600752453764,0.0032866917468627,0.0032866917482818,0.0032866917502319,-0.00076720915652692,0.00076720887510128,-1.0164042027846e-10,-1.6532444421642e-10,1.0417778151087e-09,-1.3661997273302e-09,-0.00089408761352383,0.00089408823241884,-0.0008940876398783,0.00089408819234562,-0.00089408843953501,0.00089408736530505,-0.00089408849792371,0.00089408730971495,-0.00078350663342713,0.00078350564464683,-0.00078350684858475,0.00078350565796388,9.9917119328092e-10,-1.1836997747274e-09,-2.6691407021462e-09,2.5202401321008e-09,-0.00076720910388086,0.00076720892431079,-0.00089408847062363,0.00089408735215063,-0.00089408677989641,0.00089408909575871,-0.00089408923521924,0.00089408655039221,-0.00089408759025098,0.00089408829166432,-0.00078350907097059,0.00078350314163357,-0.00078350413406925,0.00078350835278865,-0.00078350425920538,0.00078350808254586,-0.00078350640184439,0.00078350579349355,-1.2680010896136e-10,-3.2639083098416e-10,-0.00076720922313547,0.00076720880484058,1.497956740391e-09,-2.0337276090028e-09,-0.00089408751654306,0.00089408838302987,-0.00089408860672633,0.00089408720459028,-0.00089408755317767,0.00089408826254066,-0.00089408872925385,0.00089408712338892,-0.00078350703438463,0.00078350513789852,-0.0007835069186111,0.0007835054813303,0.67223853447281,131329,3014,0.0031918307096659,0.0031918307025494,0.0031918307021014,41.070619539785,9.0964956318278e-05,9.0964956318278e-05,9.0964956318278e-05,4678954.7258615,0.0096221369929747
7819200,0.65634183946018,0.010167892082924,0.0033892973558219,0.0033892973615921,0.0033892973655099,-0.00079003957747579,0.00079003928567323,-8.3629020014373e-11,-1.9991092553492e-10,1.0824147047973e-09,-1.4257488203816e-09,-0.00092436926020119,0.00092436992216405,-0.00092436930667801,0.00092436986335856,-0.00092437011978737,0.00092436902202886,-0.00092437018590274,0.00092436895806738,-0.00080574253732293,0.00080574151733396,-0.00080574272058343,0.00080574143461722,1.0217971735551e-09,-1.2480059116419e-09,-2.664636403152e-09,2.4781518360954e-09,-0.00079003953299118,0.00079003933437753,-0.00092437011557194,0.00092436904125083,-0.00092436844573373,0.00092437076187127,-0.0009243709072809,0.00092436820750822,-0.00092436927357403,0.00092436993948212,-0.00080574501518637,0.00080573900789374,-0.00080574004584151,0.00080574413564216,-0.00080574016228748,0.00080574395116043,-0.00080574239796513,0.00080574162986209,-7.7219086627556e-11,-3.3789421500485e-10,-0.0007900396342343,0.00079003923532123,1.4932891164984e-09,-1.9929321056892e-09,-0.00092436917776983,0.00092437005590293,-0.00092437025700157,0.00092436888409058,-0.00092436923288813,0.0009243699104385,-0.00092437039109082,0.00092436879269191,-0.00080574292697342,0.00080574107319999,-0.00080574273941525,0.00080574143347492,0.66655683971733,131329,3014,0.003286677733998,0.0032866777428296,0.003286677747378,40.971872979253,9.0174983834023e-05,9.0174983834023e-05,9.0174983834023e-05,4673295.7818988,0.009909523724604
8019200,0.68011031857322,0.01045655661881,0.0034855188675164,0.003485518873566,0.0034855188777276,-0.00081164793839253,0.00081164764453496,-9.2057018574214e-11,-1.9541142710916e-10,1.098056545538e-09,-1.4456625339431e-09,-0.00095320826647812,0.00095320893625412,-0.00095320830899656,0.00095320888332028,-0.00095320913843772,0.00095320802488258,-0.00095320920089044,0.00095320796453422,-0.00082671224900342,0.00082671120336266,-0.00082671241647499,0.00082671112580627,9.8524533843523e-10,-1.2106951916738e-09,-2.6502261188589e-09,2.4648283326149e-09,-0.00081164789106564,0.00081164769559641,-0.00095320913222021,0.00095320804620336,-0.00095320746988593,0.00095320975738285,-0.00095320989836821,0.00095320723653897,-0.0009532082753431,0.00095320895969434,-0.00082671468525243,0.00082670873295883,-0.00082670974172537,0.00082671382513798,-0.00082670990022427,0.00082671360862759,-0.00082671206947307,0.00082671135748248,-7.7536913035824e-11,-3.3358858083313e-10,-0.00081164799271471,0.00081164759599022,1.4838048903674e-09,-1.9792681517754e-09,-0.00095320819268166,0.00095320906297669,-0.00095320926220993,0.00095320789753006,-0.00095320824420722,0.0009532089181715,-0.0009532093976207,0.00095320780911823,-0.00082671261693341,0.00082671077926642,-0.00082671243249175,0.00082671113859606,0.66097842315321,131329,3014,0.0033764421637237,0.0033764421715153,0.0033764421757522,40.977141004451,9.021712803561e-05,9.021712803561e-05,9.021712803561e-05,4670093.5701276,0.010181588973237
8219200,0.70269758818676,0.010728076388416,0.0035760254574609,0.0035760254634264,0.0035760254675292,-0.00083214218544858,0.00083214188464729,-9.6806685210453e-11,-1.9977124721376e-10,1.1405742544453e-09,-1.4979800719135e-09,-0.00098070410913676,0.00098070480427966,-0.00098070415300133,0.00098070475319185,-0.00098070501294133,0.00098070386110675,-0.00098070507385057,0.00098070380128984,-0.00084654997968275,0.00084654889426268,-0.00084655013881582,0.0008465488101975,9.381384810281e-10,-1.1670909338661e-09,-2.6477407340086e-09,2.4588108088599e-09,-0.00083214213521334,0.0008321419389203,-0.0009807050014433,0.00098070388950189,-0.00098070334183527,0.00098070559639053,-0.0009807057351169,0.00098070310713286,-0.00098070411586723,0.0009807048286634,-0.00084655238653978,0.0008465464604153,-0.00084654743945203,0.00084655154105865,-0.0008465476643002,0.00084655127095482,-0.00084654974469838,0.00084654911125889,-7.0282092018568e-11,-3.3425100939051e-10,-0.00083214223448392,0.0008321418417205,1.4838227002939e-09,-1.9725411135024e-09,-0.00098070404755552,0.00098070492066469,-0.00098070511458936,0.00098070375514441,-0.00098070409960536,0.00098070477129409,-0.00098070525056519,0.00098070366371437,-0.00084655032641959,0.00084654849386363,-0.00084655013411565,0.00084654886093865,0.65549730612087,131329,3014,0.0034615732958785,0.0034615733042928,0.0034615733085852,41.071332025191,9.097065620153e-05,9.097065620153e-05,9.097065620153e-05,4672446.9414333,0.010439682104685
8419200,0.72418278903433,0.010985643406838,0.00366188113059,0.0036618811362154,0.0036618811400322,-0.00085168139301374,0.00085168108556414,-1.0968961967506e-10,-1.9846041590582e-10,1.1833186923674e-09,-1.5529979902715e-09,-0.0010069880571947,0.0010069887773398,-0.0010069880972856,0.001006988732779,-0.0010069889927229,0.0010069878014915,-0.0010069890500778,0.0010069877461896,-0.00086544671141619,0.00086544556865433,-0.00086544683949146,0.00086544547737989,8.6490563465969e-10,-1.1031461996592e-09,-2.6537943955977e-09,2.4561053477417e-09,-0.00085168134107906,0.00085168114254112,-0.0010069889820509,0.0010069878270648,-0.0010069873210495,0.0010069895362332,-0.0010069896700793,0.0010069870899353,-0.0010069880506253,0.0010069888127791,-0.00086544907397411,0.00086544317957174,-0.00086544411222108,0.0008654482424872,-0.00086544443911302,0.00086544789252846,-0.00086544639787316,0.00086544587447163,-6.7072032760145e-11,-3.2519251094495e-10,-0.00085168143617822,0.00085168104976572,1.4943387923286e-09,-1.9711281379767e-09,-0.0010069880051824,0.0010069888805739,-0.0010069890748189,0.0010069877124633,-0.0010069880555372,0.0010069887340653,-0.0010069892088933,0.0010069876214509,-0.00086544702503989,0.00086544521322819,-0.00086544682867356,0.00086544557074043,0.65381527574672,131329,3014,0.0035427326537858,0.0035427326642804,0.0035427326690999,41.234202948548,9.2273623588382e-05,9.2273623588382e-05,9.2273623588382e-05,4676755.6002112,0.010685798372131
8619200,0.74505751864756,0.011235499808799,0.0037451665986003,0.0037451666033929,0.0037451666068057,-0.00087146660286262,0.00087146628220038,-1.0103103351245e-10,-2.2501069878349e-10,1.3489902750966e-09,-1.7387733997544e-09,-0.0010333578118331,0.0010333586532001,-0.0010333578699725,0.0010333585952039,-0.0010333588657483,0.0010333575549018,-0.0010333589298797,0.0010333574948778,-0.000884636813633,0.00088463555305303,-0.00088463693843603,0.00088463541898424,7.4010693288295e-10,-9.8876014836317e-10,-2.6742998294346e-09,2.4670610938571e-09,-0.00087146654535771,0.00087146634562747,-0.0010333588356211,0.0010333575999626,-0.0010333571705108,0.001033359315359,-0.0010333594471196,0.0010333569365882,-0.0010333578140736,0.001033358676275,-0.00088463911555426,0.00088463323391307,-0.00088463408567764,0.00088463832278514,-0.00088463461377978,0.00088463779953357,-0.00088463633284997,0.00088463604259191,-3.7825007383753e-11,-3.3939945193266e-10,-0.00087146663659438,0.0008714662570442,1.5114496590298e-09,-1.9743020270606e-09,-0.0010333578052836,0.0010333587080998,-0.0010333588860169,0.0010333575267028,-0.0010333578737467,0.0010333585426491,-0.0010333590263694,0.0010333574248048,-0.00088463708045688,0.00088463525970964,-0.00088463684798274,0.00088463563951244,0.65261450935585,131329,3014,0.0036249074767404,0.0036249074890505,0.0036249074945541,41.856544776195,9.7252358209557e-05,9.7252358209557e-05,9.7252358209557e-05,4685232.3671172,0.010935055573238
8819200,0.76474516127148,0.011460847960287,0.0038202826501824,0.0038202826536476,0.0038202826564568,-0.00088871262421195,0.00088871231643354,-1.0739512650555e-10,-1.9444989751264e-10,1.3640907229354e-09,-1.7282112620675e-09,-0.0010568961233389,0.0010568969585627,-0.0010568961639911,0.0010568969120129,-0.0010568971788081,0.0010568958619041,-0.0010568972360859,0.0010568958072862,-0.0009010228531468,0.00090102160501667,-0.00090102302697504,0.00090102156360716,7.1284047724717e-10,-9.064462665509e-10,-2.6633046653431e-09,2.5052234600622e-09,-0.00088871255600394,0.00088871238403222,-0.0010568971663783,0.0010568958904254,-0.0010568954854236,0.0010568976191899,-0.0010568977434145,0.0010568952707015,-0.0010568961010997,0.0010568970132684,-0.00090102508727162,0.00090101932102495,-0.00090102011000103,0.00090102448199246,-0.00090102065226421,0.00090102386196716,-0.00090102224704683,0.00090102216032911,-7.1570195873762e-11,-3.445423940546e-10,-0.00088871266865692,0.00088871227185617,1.5138912880133e-09,-2.0115824978443e-09,-0.0010568961149444,0.0010568970171821,-0.0010568972081168,0.0010568958311737,-0.0010568961756433,0.0010568968670294,-0.0010568973470281,0.0010568957348933,-0.00090102313345459,0.00090102123977526,-0.00090102295062673,0.00090102163347161,0.62942560747156,131329,3014,0.0036965340099801,0.0036965340087084,0.0036965340096856,41.997131971865,9.8377055774922e-05,9.8377055774922e-05,9.8377055774922e-05,4691560.2641824,0.011152371359466
9019200,0.78317697698151,0.011672002066789,0.0038906673515996,0.0038906673560193,0.0038906673591702,-0.00090466717611137,0.00090466686369187,-1.094655699608e-10,-1.9920608350854e-10,1.3609210320614e-09,-1.7328142353028e-09,-0.0010787808223623,0.0010787816567799,-0.0010787808649051,0.0010787816090939,-0.0010787818788087,0.0010787805582785,-0.0010787819351046,0.0010787805036573,-0.00091618710177037,0.00091618584744355,-0.00091618725997139,0.0009161857894106,7.1396168491911e-10,-9.1799992607983e-10,-2.6897506205609e-09,2.5218814103786e-09,-0.00090466710958491,0.00090466693223669,-0.0010787818702787,0.0010787805844737,-0.0010787801759423,0.0010787823259169,-0.0010787824511139,0.0010787799573168,-0.0010787807939152,0.0010787817151492,-0.00091618937555331,0.00091618353730307,-0.00091618433419494,0.00091618873165491,-0.00091618489884411,0.00091618811061244,-0.00091618650833387,0.00091618640584936,-6.0405872553823e-11,-3.4422725450543e-10,-0.00090466721659313,0.00090466682657773,1.5405697242848e-09,-2.0275170624514e-09,-0.0010787808027999,0.0010787817266286,-0.0010787819120911,0.0010787805253651,-0.0010787808671605,0.0010787815717099,-0.0010787820501772,0.001078780423673,-0.00091618738691205,0.0009161854896222,-0.00091618718981962,0.0009161858883473,0.62978085740359,131329,3014,0.0037627944155376,0.0037627944197581,0.003762794422559,42.046812296817,9.8774498374535e-05,9.8774498374535e-05,9.8774498374535e-05,4691226.0118053,0.011353450632913
9219200,0.80021946696952,0.011864746192446,0.0039549153932837,0.0039549153979939,0.0039549154011685,-0.00091888610322346,0.00091888579192266,-1.0949995755734e-10,-1.9668337707549e-10,1.3121156188568e-09,-1.6806956005501e-09,-0.0010985121587419,0.0010985129577444,-0.0010985121999207,0.0010985129106712,-0.0010985131822946,0.0010985118923536,-0.0010985132367414,0.0010985118375383,-0.0009296277968013,0.00092962658221595,-0.00092962796694111,0.00092962654050459,7.6634879246112e-10,-9.6481028096003e-10,-2.712375753284e-09,2.5489983875702e-09,-0.00091888603618949,0.00091888585996466,-0.0010985131842313,0.0010985119117606,-0.0010985114723627,0.001098513668397,-0.0010985137966131,0.0010985112491821,-0.00109851212297,0.0010985130230638,-0.00092963012778703,0.00092962421468814,-0.00092962504522598,0.00092962947419015,-0.00092962555352645,0.00092962889476361,-0.00092962725041714,0.00092962708351816,-6.0415559875529e-11,-3.4975768387814e-10,-0.00091888614454115,0.00091888575257401,1.5637302687019e-09,-2.0553825966784e-09,-0.0010985121129252,0.0010985130571602,-0.0010985132400152,0.0010985118389784,-0.0010985121779331,0.0010985128995506,-0.0010985133775252,0.0010985117329295,-0.00092962811315587,0.00092962618055502,-0.00092962791902527,0.00092962659243473,0.62301124802545,131329,3014,0.0038218454224377,0.0038218454245535,0.0038218454265473,41.896576100708,9.7572608805667e-05,9.7572608805667e-05,9.7572608805667e-05,4684841.858205,0.011532689366158
9419200,0.81569070574341,0.012037519819178,0.004012506601913,0.004012506607033,0.0040125066102315,-0.00093097624448687,0.00093097598429676,-8.1550447601569e-11,-1.6104002036733e-10,1.2269855607275e-09,-1.531289772325e-09,-0.0011155931745263,0.0011155939499971,-0.001115593211905,0.0011155938865394,-0.0011155941243447,0.0011155929588682,-0.0011155941821947,0.0011155929162078,-0.00094095550097216,0.00094095438306144,-0.00094095567585331,0.00094095437692672,8.9623871965912e-10,-1.0521869241783e-09,-2.7199892953453e-09,2.5997365222386e-09,-0.00093097618754419,0.00093097603956675,-0.0011155941374923,0.00111559294103,-0.0011155924131197,0.0011155947253759,-0.0011155948559586,0.0011155922338519,-0.0011155931406818,0.0011155940262586,-0.0009409578827511,0.0009409519246329,-0.00094095278289588,0.0009409572275875,-0.00094095314136365,0.00094095677171043,-0.00094095506419213,0.00094095475243656,-7.599017049363e-11,-3.6682988983396e-10,-0.00093097631820328,0.00093097590878888,1.5765197900202e-09,-2.0998092227108e-09,-0.0011155930930673,0.0011155940527356,-0.0011155942544032,0.0011155928291402,-0.001115593194286,0.0011155939128476,-0.0011155944061657,0.0011155927419532,-0.00094095589112621,0.00094095390720048,-0.00094095569892802,0.00094095429946565,0.61621359202413,131329,3014,0.003872055397345,0.0038720553938898,0.0038720553936144,41.413619937361,9.3708959498886e-05,9.3708959498886e-05,9.3708959498886e-05,4678476.2196043,0.011685121506655
9619200,0.8293895700252,0.012188572445752,0.0040628574761191,0.0040628574825932,0.0040628574870401,-0.00094051042446444,0.00094051021412914,-5.664800244241e-11,-1.2193217537927e-10,1.0605148935862e-09,-1.3000616779493e-09,-0.0011295304382557,0.0011295311279602,-0.0011295304686201,0.0011295310581712,-0.001129531262762,0.001129530271511,-0.0011295313174371,0.0011295302382586,-0.000949755045045,0.00094975409753885,-0.00094975522765841,0.0009497541341664,1.0938699906142e-09,-1.210327015028e-09,-2.7319498939972e-09,2.6523405869813e-09,-0.00094051037953043,0.00094051025538105,-0.0011295312969141,0.0011295302134841,-0.0011295295531789,0.0011295320225319,-0.0011295321546147,0.0011295294074949,-0.0011295304049137,0.0011295312200942,-0.00094975755713411,0.00094975148740157,-0.00094975242771067,0.00094975685246279,-0.00094975255457581,0.00094975661827148,-0.00094975483154098,0.00094975424239463,-9.4080116181736e-11,-3.7976468865533e-10,-0.00094051052987576,0.00094051010411555,1.5946482728399e-09,-2.1486025218737e-09,-0.0011295302972865,0.0011295312715447,-0.0011295314939247,0.0011295300363131,-0.0011295304203881,0.0011295311483929,-0.0011295316547186,0.001129529966628,-0.0009497555407531,0.00094975350674073,-0.00094975535957244,0.00094975388703838,0.60938555518831,131329,3014,0.0039116519781024,0.0039116519704764,0.0039116519685078,40.445766077296,8.5966128618366e-05,8.5966128618366e-05,8.5966128618366e-05,4671508.9853086,0.011805353701227
9819200,0.84179670216013,0.012326369442328,0.0041087898067025,0.0041087898148416,0.0041087898207842,-0.00094970408058966,0.00094970383946452,-9.023158919277e-11,-1.3407872563403e-10,9.3288823275779e-10,-1.2197523030221e-09,-0.0011426778729596,0.0011426784536201,-0.0011426778933855,0.0011426784100486,-0.0011426786218145,0.0011426776721738,-0.0011426786697903,0.0011426776351042,-0.00095835403832727,0.00095835312959899,-0.00095835413772676,0.0009583530901042,1.1203057988183e-09,-1.3177322488847e-09,-2.7984999893878e-09,2.6437577364798e-09,-0.00094970404782269,0.0009497038776638,-0.0011426786862647,0.0011426776009253,-0.0011426769140244,0.0011426794271641,-0.0011426795576339,0.0011426767298818,-0.0011426778106586,0.0011426785588502,-0.00095835673868162,0.00095835041872254,-0.00095835145793331,0.00095835578879156,-0.00095835157737976,0.00095835566668364,-0.00095835401467666,0.00095835317991995,-7.0119206465198e-11,-3.4197664423061e-10,-0.00094970416192276,0.00094970376567977,1.6556763266218e-09,-2.1528258533244e-09,-0.0011426776792499,0.0011426786689574,-0.001142678882218,0.0011426774058087,-0.0011426777660078,0.0011426785411794,-0.001142679030284,0.0011426773198311,-0.00095835454551949,0.00095835258421278,-0.00095835432747363,0.00095835295109086,0.61214216994308,131329,3014,0.0039498318394502,0.0039498318507764,0.0039498318551262,39.872453019527,8.1379624156218e-05,8.1379624156218e-05,8.1379624156218e-05,4667363.2132658,0.011921296638446
10019200,0.85291604752643,0.012450959808991,0.0041503199292874,0.0041503199369641,0.0041503199427399,-0.00095742559817483,0.00095742536731694,-8.1181656014958e-11,-1.2554953660666e-10,8.528517100245e-10,-1.1188514097398e-09,-0.0011538936734693,0.0011538941942481,-0.0011538936917373,0.0011538941463057,-0.0011538943665642,0.0011538934724872,-0.0011538944104732,0.0011538934349931,-0.00096558511181828,0.00096558429445722,-0.00096558526544085,0.00096558431215161,1.2274840822509e-09,-1.3977145978557e-09,-2.8185204471277e-09,2.6881620641825e-09,-0.00095742556308734,0.00095742540221829,-0.0011538944441854,0.0011538933918217,-0.0011538926507531,0.0011538952344887,-0.0011538953776598,0.0011538924572189,-0.001153893606506,0.0011538943063527,-0.00096558789037583,0.00096558148911162,-0.00096558258829431,0.00096558698043288,-0.00096558257408472,0.00096558693097014,-0.00096558515983488,0.0009655842316862,-8.0838215506829e-11,-3.6123599654709e-10,-0.00095742568820545,0.00095742527734317,1.6734110159863e-09,-2.1978567735137e-09,-0.0011538934414692,0.0011538944552795,-0.0011538946686035,0.0011538931703871,-0.0011538935294423,0.0011538943227754,-0.0011538948169317,0.0011538930833044,-0.00096558568412496,0.00096558364064503,-0.00096558548846107,0.00096558403645466,0.61575181188894,131329,3014,0.0039818986029891,0.0039818986026058,0.0039818986030575,39.082097407874,7.5056779262989e-05,7.5056779262989e-05,7.5056779262989e-05,4662424.5553768,0.01201868887731
10219200,0.86276639492391,0.012562472828282,0.0041874909355722,0.0041874909434489,0.004187490949261,-0.00096363654312152,0.00096363632245842,-8.1046705519956e-11,-1.1400232074853e-10,7.518976061619e-10,-1.0042706627794e-09,-0.0011631664153483,0.0011631668685092,-0.0011631664266066,0.0011631668247441,-0.0011631670348038,0.0011631662200214,-0.001163167078278,0.0011631661837281,-0.00097140235606631,0.00097140162014871,-0.00097140251526423,0.00097140164970599,1.3117733090359e-09,-1.4826681067222e-09,-2.8499344941767e-09,2.7196394654136e-09,-0.00096363651469948,0.00096363635059651,-0.001163167138197,0.0011631661134286,-0.0011631653211364,0.0011631679804469,-0.0011631681268545,0.001163165126474,-0.0011631663353044,0.001163166993389,-0.00097140522854615,0.00097139872194868,-0.00097139987899065,0.00097140427401873,-0.00097139975969546,0.0009714043174282,-0.00097140251504531,0.00097140144071358,-8.5362464705887e-11,-3.6272488003331e-10,-0.00096363663957866,0.00096363622585218,1.7019253972591e-09,-2.2323226366052e-09,-0.0011631661406516,0.0011631671710454,-0.0011631673867611,0.0011631658687745,-0.001163166227569,0.0011631670431389,-0.0011631675372672,0.0011631657802794,-0.00097140298685804,0.0009714009070801,-0.0009714027870629,0.00097140130715515,0.62007541893438,131329,3014,0.0040076928417773,0.0040076928412113,0.0040076928414446,38.04209019385,6.6736721550797e-05,6.6736721550797e-05,6.6736721550797e-05,4655883.8546542,0.012097040405861
10419200,0.87185296091958,0.012666534510308,0.0042221781626767,0.0042221781708362,0.004222178176795,-0.00097056482024494,0.00097056458543363,-7.9080240447055e-11,-1.4238514187871e-10,8.6043001177729e-10,-1.1418692385021e-09,-0.0011729404209851,0.0011729409699337,-0.0011729404556647,0.0011729409113411,-0.0011729411289813,0.0011729402325077,-0.0011729411705393,0.0011729402010601,-0.00097805819293352,0.00097805731585057,-0.00097805826679993,0.00097805727508615,1.2813991686315e-09,-1.5044057749748e-09,-2.8918826418371e-09,2.7158270898371e-09,-0.0009705647991686,0.00097056461314761,-0.0011729411919504,0.0011729401617665,-0.0011729393758519,0.0011729420306934,-0.0011729421830049,0.001172939166839,-0.0011729403722775,0.0011729410610166,-0.00097806107154447,0.00097805441869885,-0.00097805559051469,0.00097805996739441,-0.00097805557911938,0.00097805999938503,-0.00097805832727261,0.000978057197901,-4.5665561742553e-11,-3.6181394712639e-10,-0.00097056490571857,0.00097056450947335,1.7477910884614e-09,-2.2414868962022e-09,-0.0011729401707417,0.0011729412430401,-0.0011729414453333,0.0011729399087697,-0.0011729402787132,0.0011729410920773,-0.0011729415949633,0.0011729398197006,-0.00097805874623906,0.00097805672355214,-0.00097805851882083,0.00097805710807375,0.62506671252954,131329,3014,0.0040364619884221,0.0040364620022377,0.0040364620081746,37.716793166203,6.4134345329622e-05,6.4134345329622e-05,6.4134345329622e-05,4656724.7337351,0.012184431111212
10619200,0.88035232564392,0.012761841542849,0.0042539471738728,0.0042539471816116,0.0042539471873648,-0.00097737327255462,0.00097737304581988,-8.6565092495845e-11,-1.2641308649051e-10,9.6553776063124e-10,-1.2382772565974e-09,-0.0011824520931905,0.0011824527039102,-0.0011824521103255,0.0011824526609566,-0.0011824528617821,0.0011824519095572,-0.0011824529067458,0.0011824518767087,-0.00098458253879785,0.00098458160659011,-0.0009845826263648,0.00098458155947307,1.1333894662847e-09,-1.3365990206777e-09,-2.9018437897073e-09,2.7444546921771e-09,-0.00097737324648268,0.00097737307679966,-0.0011824529482961,0.0011824518070157,-0.0011824511103774,0.001182453700353,-0.0011824538319923,0.0011824509323973,-0.0011824520153909,0.0011824528286721,-0.00098458531235699,0.00098457879307579,-0.00098457984195128,0.00098458434002542,-0.00098458001124991,0.00098458419210822,-0.00098458248636328,0.00098458166318892,-5.6821210180444e-11,-3.5814699817858e-10,-0.00097737336331747,0.0009773729622981,1.7589873307621e-09,-2.2596827141118e-09,-0.0011824518728787,0.0011824529382386,-0.0011824531523802,0.0011824516089787,-0.0011824519745202,0.0011824528077408,-0.0011824533102667,0.0011824515176683,-0.00098458307950639,0.00098458101903433,-0.00098458283638639,0.00098458142311511,0.61395643010428,131329,3014,0.0040647325296277,0.0040647325398235,0.0040647325446238,37.647112709494,6.3576901675955e-05,6.3576901675955e-05,6.3576901675955e-05,4658427.3708975,0.012270314210233
10819200,0.88832899038739,0.012849566402803,0.0042831887940919,0.0042831888015197,0.0042831888071917,-0.00098380187494274,0.00098380163833704,-9.2226506367067e-11,-1.2836456981521e-10,1.107491483366e-09,-1.3888690074169e-09,-0.0011914085008592,0.0011914091986478,-0.0011914085216756,0.0011914091530703,-0.0011914093719609,0.0011914082995247,-0.001191409409966,0.0011914082702083,-0.00099070347396,0.00099070243807724,-0.00099070356661758,0.00099070243166127,9.8501206596177e-10,-1.1734897129742e-09,-2.9082166914396e-09,2.7625584066628e-09,-0.00098380183978311,0.00098380167662582,-0.0011914094560576,0.001191408207596,-0.0011914076128808,0.0011914101024542,-0.0011914102362162,0.001191407425534,-0.0011914084089934,0.0011914093346584,-0.00099070616693812,0.00099069972203711,-0.00099070066350278,0.00099070534132497,-0.00099070104925285,0.00099070494601897,-0.00099070318717232,0.00099070273003787,-5.7576451549516e-11,-3.6369854778843e-10,-0.00098380196043234,0.00098380155750353,1.7690385963793e-09,-2.2755927569239e-09,-0.0011914083196616,0.0011914094016909,-0.0011914096100411,0.0011914080564484,-0.0011914084223035,0.0011914092602541,-0.0011914097615174,0.0011914079635732,-0.00099070396490778,0.00099070188866391,-0.00099070374060996,0.00099070229085908,0.60387279553288,131329,3014,0.0040914248483457,0.0040914248548467,0.0040914248579721,37.649659928453,6.3597279427622e-05,6.3597279427622e-05,6.3597279427622e-05,4660473.1787664,0.012351408652332
11019200,0.89587904834979,0.012930862387632,0.0043102874558222,0.0043102874631144,0.0043102874686955,-0.00099012334877266,0.00099012309694333,-1.0471666765415e-10,-1.3589335940409e-10,1.2760404259585e-09,-1.5786745440469e-09,-0.0012001114904793,0.0012001122919635,-0.0012001115090157,0.0012001122535589,-0.0012001124787279,0.0012001112766489,-0.0012001125154397,0.0012001112466807,-0.0009966992605341,0.00099669808679643,-0.00099669934302609,0.0009966980696258,8.1213468461644e-10,-1.0018183306928e-09,-2.9146167936631e-09,2.7670888537876e-09,-0.00099012330530238,0.00099012314460581,-0.0012001125557517,0.0012001111935428,-0.0012001107069011,0.001200113092519,-0.0012001132152473,0.001200110524699,-0.0012001113896799,0.001200112436648,-0.00099670182748668,0.00099669549025573,-0.00099669631688291,0.00099670110506633,-0.00099669693272502,0.00099670049178425,-0.00099669874253837,0.00099669860930725,-5.2096969473343e-11,-3.6161243616477e-10,-0.0009901234253865,0.00099012302659582,1.7807170234202e-09,-2.2801337249799e-09,-0.0012001113592351,0.0012001124476181,-0.0012001126527699,0.0012001110972728,-0.0012001114576334,0.0012001123053246,-0.001200112804595,0.0012001109992844,-0.00099669968359032,0.00099669760666306,-0.00099669945142553,0.00099669802001652,0.59321240948812,131329,3014,0.004117671011647,0.0041176710203679,0.0041176710246438,37.826460935711,6.5011687485691e-05,6.5011687485691e-05,6.5011687485691e-05,4663333.3142176,0.012431152451328
11219200,0.90299073372156,0.013007422278967,0.0043358074198237,0.0043358074268783,0.004335807432265,-0.00099596760301202,0.00099596735527434,-1.0195536953933e-10,-1.2706148806464e-10,1.4252497145701e-09,-1.7174257218231e-09,-0.001208158400078,0.0012081592968495,-0.0012081584167073,0.0012081592560794,-0.0012081594852858,0.0012081581826781,-0.0012081595209485,0.0012081581549692,-0.0010022387614394,0.0010022375015776,-0.0010022388709802,0.0010022375221014,6.7134220008733e-10,-8.2545785041752e-10,-2.9049628348326e-09,2.7886713396676e-09,-0.00099596754955513,0.00099596740971532,-0.0012081595614046,0.0012081581009511,-0.0012081577086799,0.0012081600048557,-0.0012081601211609,0.0012081575405756,-0.0012081582871627,0.0012081594559962,-0.0010022412158649,0.0010022350150773,-0.0010022357148349,0.001002240671708,-0.0010022365205314,0.0010022398276673,-0.0010022380050254,0.0010022382459786,-6.0309331444264e-11,-3.7258474088015e-10,-0.00099596768393856,0.00099596727611525,1.7758542888411e-09,-2.2928937587725e-09,-0.001208158313765,0.0012081594056639,-0.0012081596123309,0.0012081580548102,-0.0012081584191625,0.0012081592637935,-0.0012081597662407,0.0012081579569712,-0.0010022391522947,0.0010022370347689,-0.0010022389283099,0.0010022374579656,0.59263757344125,131329,3014,0.0041419352482115,0.0041419352502618,0.0041419352518468,37.936385343144,6.589108274515e-05,6.589108274515e-05,6.589108274515e-05,4664518.4240876,0.012504879835443
11419200,0.9096185517387,0.013079387686743,0.0043597958889966,0.0043597958961686,0.0043597959015775,-0.0010011060812233,0.0010011058311375,-1.0481893526524e-10,-1.2626410921813e-10,1.5164807507011e-09,-1.8120702216456e-09,-0.001215326078343,0.0012153270346414,-0.001215326092909,0.0012153269948176,-0.001215327224946,0.0012153258590214,-0.0012153272603259,0.001215325832122,-0.0010071152055126,0.001007113877629,-0.0010071153086724,0.0010071138950629,5.7335866873256e-10,-7.2053609023285e-10,-2.9076934788053e-09,2.7972348392436e-09,-0.0010011060237575,0.0010011058902428,-0.0012153273000858,0.0012153257761472,-0.001215325443095,0.0012153276848407,-0.0012153277938308,0.0012153252853277,-0.0012153259556113,0.0012153272035941,-0.0010071175933046,0.0010071114573078,-0.0010071120812814,0.0010071171163025,-0.0010071130232006,0.0010071161410104,-0.0010071143147838,0.0010071147598646,-5.7129831222872e-11,-3.7436393993861e-10,-0.0010011061608442,0.0010011057540851,1.7800346824564e-09,-2.2957970709313e-09,-0.0012153260185416,0.0012153271138119,-0.001215327320024,0.0012153257624674,-0.0012153261268535,0.0012153269720471,-0.0012153274767846,0.0012153256629144,-0.0010071155673254,0.0010071134435774,-0.001007115333754,0.0010071138710747,0.59626754394333,131329,3014,0.0041632696145766,0.0041632696180005,0.0041632696198896,37.863728706299,6.530982965039e-05,6.530982965039e-05,6.530982965039e-05,4664000.3812097,0.012569710764624
11619200,0.91572629200005,0.013146115288285,0.0043820384227817,0.0043820384300297,0.0043820384354739,-0.0010054459132184,0.0010054456560233,-1.1284618756761e-10,-1.2557335767306e-10,1.5621893455702e-09,-1.8649311741328e-09,-0.0012215276994532,0.001221528678596,-0.0012215277132309,0.0012215286428745,-0.0012215288801747,0.0012215274700632,-0.0012215289094918,0.0012215274465252,-0.0010112283981577,0.0010112270217292,-0.001011228498373,0.0010112270619427,5.460783838734e-10,-6.8748460688151e-10,-2.9062773181369e-09,2.8001695369683e-09,-0.0010054458507293,0.0010054457196582,-0.0012215289451912,0.0012215274014085,-0.0012215270882752,0.0012215293073068,-0.0012215294158,0.001221526926152,-0.0012215275786376,0.0012215288472392,-0.001011230746802,0.0010112246337485,-0.0010112252387974,0.0010112303090024,-0.0010112262204793,0.001011229287664,-0.0010112274390385,0.0010112279583698,-5.8804001578117e-11,-3.7579925756123e-10,-0.0010054459892565,0.0010054455820251,1.7880977072542e-09,-2.3062166643992e-09,-0.0012215276494122,0.0012215287539555,-0.0012215289576848,0.00122152739319,-0.0012215277552479,0.0012215286087459,-0.0012215291108078,0.0012215272935093,-0.0010112287325082,0.0010112266007847,-0.0010112285153439,0.0010112270357348,0.59873866931854,131329,3014,0.0041812889095888,0.0041812889119904,0.004181288913813,37.583443740202,6.3067549921613e-05,6.3067549921613e-05,6.3067549921613e-05,4662417.008981,0.012624473360229
11819200,0.92127719686176,0.013207259550021,0.0044024198433276,0.0044024198506425,0.0044024198560512,-0.0010088461241605,0.001008845868006,-1.0663207046344e-10,-1.2851683204606e-10,1.5130133478926e-09,-1.8124233862685e-09,-0.0012266080022781,0.0012266089452206,-0.0012266080132774,0.0012266089094528,-0.0012266091443128,0.0012266077710834,-0.0012266091827581,0.0012266077377248,-0.0010144348269624,0.0010144335271275,-0.0010144349703934,0.0010144335570905,5.4210677941275e-10,-6.7736957723982e-10,-2.9205153885482e-09,2.8190330700976e-09,-0.0010088460612736,0.0010088459309419,-0.0012266092422463,0.0012266076746728,-0.0012266073682599,0.0012266095969311,-0.0012266097037608,0.0012266072056859,-0.0012266078596472,0.0012266091312518,-0.0010144372283487,0.0010144311046155,-0.0010144317043309,0.0010144368212182,-0.0010144326806509,0.0010144357764538,-0.0010144338921584,0.0010144344460293,-5.1691750087812e-11,-3.8674791482256e-10,-0.0010088462002324,0.0010088457921598,1.7806235288941e-09,-2.302355623072e-09,-0.0012266079359272,0.0012266090393086,-0.0012266092336566,0.0012266076867025,-0.0012266080416526,0.0012266088909892,-0.0012266093965328,0.0012266075723289,-0.0010144352221755,0.0010144330459358,-0.0010144349689644,0.0010144335130197,0.60218599581744,131329,3014,0.0041954081168502,0.0041954081169775,0.0041954081173052,37.032063465828,5.8656507726623e-05,5.8656507726623e-05,5.8656507726623e-05,4658285.9562757,0.012667388071598
12019200,0.92636936626152,0.013265389941707,0.0044217966404824,0.0044217966479015,0.0044217966533234,-0.001012240881749,0.0010122406186693,-1.2396742796841e-10,-1.2566756503039e-10,1.5154919127329e-09,-1.8303967833406e-09,-0.0012315358302673,0.0012315367776222,-0.0012315358420531,0.0012315367463884,-0.0012315369828908,0.0012315355941946,-0.0012315370086444,0.0012315355745448,-0.001017728223323,0.0010177268479394,-0.0010177282839926,0.0010177268741326,5.6864710727644e-10,-7.3191440383355e-10,-2.9217869872762e-09,2.7957647092097e-09,-0.0010122408230253,0.0010122406812517,-0.0012315370511379,0.001231535524353,-0.0012315351910432,0.0012315374338079,-0.0012315375423978,0.0012315350225341,-0.0012315357023804,0.0012315369484916,-0.0010177306169906,0.0010177244312164,-0.0010177250683429,0.0010177301000588,-0.001017726029766,0.0010177291234274,-0.0010177273253547,0.0010177277474679,-4.6508083739378e-11,-3.700192325782e-10,-0.0010122409522758,0.0010122405537125,1.8027744489339e-09,-2.3045276292775e-09,-0.0012315357598172,0.0012315368732085,-0.0012315370710245,0.0012315355061614,-0.0012315358661523,0.0012315367231311,-0.0012315372236863,0.0012315354015575,-0.0010177285593388,0.0010177264477001,-0.0010177283227274,0.0010177268752672,0.61930376242395,131329,3014,0.0042095038108233,0.0042095038188715,0.0042095038223979,36.630122883708,5.5440983069664e-05,5.5440983069664e-05,5.5440983069664e-05,4654885.8412483,0.012710232654015
12219200,0.93113625928595,0.01332186217927,0.0044406207197352,0.0044406207270929,0.0044406207324422,-0.0010161234218137,0.0010161231571577,-1.2802698383411e-10,-1.2588050523109e-10,1.5316245935965e-09,-1.85176967259e-09,-0.0012368939565847,0.0012368949134682,-0.0012368939657295,0.0012368948861048,-0.0012368951187931,0.0012368937191361,-0.0012368951460221,0.0012368936991461,-0.0010216093001818,0.0010216079089724,-0.0010216093513743,0.0010216079199351,5.3982416539028e-10,-7.1041299370525e-10,-2.91838890385e-09,2.7859056680266e-09,-0.0010161233635056,0.0010161232199814,-0.0012368951873377,0.0012368936479999,-0.001236893329925,0.0012368955558399,-0.0012368956603397,0.0012368931652039,-0.001236893827094,0.0012368950852174,-0.0010216116775806,0.0010216055147515,-0.0010216061361554,0.0010216111530276,-0.0010216071291565,0.0010216101586836,-0.0010216083895384,0.0010216088352785,-3.988076349358e-11,-3.6831560118179e-10,-0.0010161234900344,0.001016123095331,1.7980186488233e-09,-2.2922307623501e-09,-0.0012368938923471,0.0012368950006454,-0.0012368951954959,0.0012368936413675,-0.0012368939991721,0.0012368948516003,-0.0012368953519614,0.0012368935328779,-0.0010216096297337,0.0010216075262299,-0.0010216093739157,0.0010216079587502,0.63790520106272,131329,3014,0.004225623409856,0.0042256234192519,0.0042256234231191,36.590840108191,5.5126720865528e-05,5.5126720865528e-05,5.5126720865528e-05,4654354.4786329,0.012759230369211
12419200,0.93563700960568,0.013373218007195,0.0044577393291343,0.0044577393363913,0.004457739341669,-0.0010199836011863,0.0010199833469415,-1.2687212529072e-10,-1.1544863956449e-10,1.5749217212519e-09,-1.8836790935732e-09,-0.0012422252315035,0.001242226225892,-0.0012422252404145,0.0012422261961949,-0.0012422264233029,0.0012422250052419,-0.001242226444448,0.0012422249940741,-0.0010254354571516,0.0010254340250961,-0.0010254354880328,0.0010254340556205,5.2381853470385e-10,-6.8294393759032e-10,-2.8967860109805e-09,2.7758358664657e-09,-0.0010199835428241,0.0010199834092302,-0.0012422264731834,0.0012422249441292,-0.0012422246309705,0.0012422268394067,-0.0012422269418496,0.0012422244799283,-0.0012422251121437,0.0012422263925263,-0.0010254377782272,0.0010254316723546,-0.0010254322672535,0.0010254372771353,-0.0010254332858271,0.0010254362649638,-0.0010254345030345,0.0010254349951394,-4.2364606202126e-11,-3.7047952666359e-10,-0.0010199836754344,0.0010199832783334,1.7866107612235e-09,-2.285217650243e-09,-0.0012422251835528,0.0012422262878916,-0.0012422264885958,0.0012422249353092,-0.0012422253013817,0.0012422261414669,-0.0012422266450413,0.0012422248359416,-0.0010254357600979,0.0010254336715772,-0.001025435511917,0.0010254340883187,0.61827140692983,131329,3014,0.0042416502652721,0.0042416502734372,0.0042416502769579,36.7175883519,5.6140706815204e-05,5.6140706815204e-05,5.6140706815204e-05,4654512.1777729,0.012807950064719
12619200,0.93982903973588,0.013418167284995,0.0044727224217907,0.0044727224289692,0.0044727224342355,-0.0010230176450567,0.0010230173908113,-1.2005622762936e-10,-1.1619726654739e-10,1.5407521797256e-09,-1.8422461905258e-09,-0.0012466081856662,0.001246609148067,-0.0012466081930933,0.0012466091191329,-0.0012466093496469,0.0012466079539852,-0.0012466093760089,0.001246607933917,-0.0010283327088092,0.0010283313408876,-0.0010283327933244,0.0010283313850868,5.3727397426903e-10,-6.7836022659014e-10,-2.8868193369748e-09,2.7808256422211e-09,-0.0010230175828369,0.0010230174541627,-0.0012466094172782,0.0012466078836074,-0.001246607570996,0.0012466097789811,-0.0012466098815249,0.0012466074144598,-0.0012466080580734,0.0012466093209822,-0.0010283350435207,0.0010283289747816,-0.0010283295702224,0.0010283346042005,-0.0010283305485065,0.0010283335875759,-0.0010283317599915,0.0010283322780583,-4.095665853749e-11,-3.8550745374721e-10,-0.0010230177197253,0.0010230173179534,1.7637736311322e-09,-2.2739866008144e-09,-0.0012466081295138,0.0012466092268554,-0.0012466094177093,0.0012466078874656,-0.001246608244797,0.0012466090742798,-0.0012466095804752,0.0012466077745191,-0.0010283330532159,0.0010283309163232,-0.001028332797097,0.0010283313788679,0.5873172747896,131329,3014,0.0042542478184859,0.0042542478208456,0.0042542478222147,36.603370314749,5.5226962517996e-05,5.5226962517996e-05,5.5226962517996e-05,4653468.444736,0.012846247457912
12819200,0.94372861211918,0.013460393396371,0.0044867977922302,0.0044867977994376,0.004486797804703,-0.0010258179711841,0.0010258177170206,-1.2560753309961e-10,-1.1177369144927e-10,1.5113425984622e-09,-1.8138480324524e-09,-0.0012505785468708,0.0012505794890756,-0.0012505785524739,0.0012505794625692,-0.0012505796925427,0.0012505783130217,-0.0012505797144418,0.0012505782975758,-0.001030999076113,0.0010309977116131,-0.0010309991416003,0.0010309977641705,5.7264704781569e-10,-7.1944594866093e-10,-2.8760863228519e-09,2.7652132431507e-09,-0.0010258179110995,0.0010258177790358,-0.0012505797514549,0.0012505782515959,-0.0012505779151758,0.0012505801370558,-0.0012505802419428,0.0012505777553383,-0.0012505784262129,0.0012505796544884,-0.0010310014195176,0.0010309953396509,-0.001030995963226,0.0010310009421714,-0.0010309968902598,0.0010309999825001,-0.001030998176137,0.0010309986041704,-3.9650604318902e-11,-3.8308820732999e-10,-0.0010258180452533,0.0010258176458395,1.7585635187681e-09,-2.2653106895487e-09,-0.0012505784819031,0.0012505795765669,-0.0012505797664646,0.0012505782403522,-0.0012505785978601,0.0012505794229905,-0.0012505799273367,0.0012505781286765,-0.0010309994169554,0.001030997296051,-0.0010309991629124,0.0010309977514332,0.59135073891129,131329,3014,0.0042658738226876,0.0042658738267217,0.0042658738286744,36.464366090301,5.4114928722405e-05,5.4114928722405e-05,5.4114928722405e-05,4653182.3485766,0.012881589312217
13019200,0.94727633187132,0.013498978420368,0.0044996594668865,0.0044996594741111,0.0044996594793707,-0.0010275705798253,0.0010275703306369,-1.040553201814e-10,-1.2302444001133e-10,1.4015494864488e-09,-1.6918808087909e-09,-0.0012533746777037,0.0012533755499066,-0.0012533746892231,0.0012533755142554,-0.0012533757435408,0.0012533744507198,-0.0012533757797169,0.0012533744184857,-0.0010326204574833,0.00103261924547,-0.0010326206091083,0.0010326192924244,6.577094354198e-10,-7.8997907661162e-10,-2.8825998852769e-09,2.7837453114021e-09,-0.001027570520038,0.0010275703892189,-0.0012533758348178,0.0012533743649967,-0.0012533739850216,0.0012533762613467,-0.0012533763720945,0.0012533738163097,-0.0012533745511745,0.0012533757183661,-0.0010326229034177,0.0010326167791521,-0.0010326174556587,0.0010326224423256,-0.0010326182532324,0.0010326215595358,-0.0010326196793752,0.0010326200010731,-2.6180467734094e-11,-4.1164355527783e-10,-0.0010275706566669,0.0010275702521834,1.731257110269e-09,-2.2512738940396e-09,-0.0012533745815924,0.0012533756755743,-0.0012533758469636,0.0012533743551817,-0.0012533747050872,0.0012533755086241,-0.0012533760233924,0.0012533742223479,-0.0010326209025524,0.0010326187058226,-0.0010326206072447,0.0010326192248327,0.59303210700375,131329,3014,0.0042731520574251,0.004273152054946,0.0042731520540608,35.904394137373,4.9635153098987e-05,4.9635153098987e-05,4.9635153098987e-05,4647617.3531025,0.012903718656518
13219200,0.95048086264273,0.013534021801766,0.0045113405939434,0.0045113406012678,0.0045113406065547,-0.0010287591859316,0.001028758942924,-1.2238193249244e-10,-1.0364092425267e-10,1.3078606379906e-09,-1.5965091088014e-09,-0.0012554897905449,0.0012554906039013,-0.0012554897949365,0.0012554905773401,-0.0012554907988316,0.0012554895674177,-0.0012554908171267,0.0012554895544335,-0.0010336930629441,0.0010336918497388,-0.001033693136312,0.0010336919298558,7.792864541507e-10,-9.2862932946731e-10,-2.8724135763017e-09,2.7598754907352e-09,-0.0010287591340952,0.0010287589957385,-0.0012554908652525,0.001255489498976,-0.0012554890329415,0.0012554913796256,-0.001255491495466,0.0012554888634603,-0.0012554896809436,0.0012554907598402,-0.0010336955403504,0.0010336893379761,-0.0010336901064105,0.0010336949475687,-0.0010336907506653,0.001033694256997,-0.0010336924364884,0.0010336924658238,-3.6684934447493e-11,-3.9354099588683e-10,-0.0010287592657615,0.0010287588646531,1.7476553931509e-09,-2.26104620162e-09,-0.0012554896606241,0.001255490757944,-0.0012554909425467,0.0012554894260257,-0.0012554897828978,0.0012554905996628,-0.001255491106628,0.0012554893116258,-0.0010336934838758,0.0010336913473674,-0.0010336932261644,0.0010336918130531,0.5951291330156,131329,3014,0.004278089540599,0.0042780895426736,0.0042780895438547,35.182004028167,4.3856032225334e-05,4.3856032225334e-05,4.3856032225334e-05,4639623.0294889,0.01291873401171
13419200,0.95337983339735,0.013565169433315,0.0045217231377654,0.0045217231451283,0.0045217231504216,-0.0010296636683712,0.0010296634285647,-1.1603925949204e-10,-1.0753461297962e-10,1.1970338653194e-09,-1.4824073852367e-09,-0.001257233792092,0.0012572345323483,-0.0012572337957376,0.0012572345080603,-0.0012572347198913,0.0012572335748876,-0.0012572347474564,0.0012572335531936,-0.001034480078065,0.0010344789629172,-0.0010344801651317,0.0010344790008717,8.6211059815454e-10,-1.0251804842175e-09,-2.8831582191913e-09,2.7587316926393e-09,-0.00102966362269,0.0010296634761912,-0.0012572348073483,0.0012572334870846,-0.0012572329665792,0.0012572353764418,-0.0012572354905152,0.001257232794479,-0.0012572336786504,0.0012572346896846,-0.0010344826468916,0.0010344763666772,-0.0010344772029167,0.0010344819617546,-0.0010344777270867,0.0010344814036439,-0.0010344796060805,0.0010344794247722,-2.2670319731411e-11,-3.9889913331706e-10,-0.0010296637486186,0.0010296633511963,1.7426458605122e-09,-2.247855392899e-09,-0.0012572336279422,0.0012572347213354,-0.0012572348971426,0.0012572333996557,-0.0012572337503647,0.0012572345600675,-0.0012572350719178,0.0012572332717453,-0.0010344805601075,0.0010344784051429,-0.001034480261943,0.0010344789060432,0.58608787905137,131329,3014,0.0042818476902837,0.0042818476943595,0.0042818476962684,34.4513980837,3.8011184669602e-05,3.8011184669602e-05,3.8011184669602e-05,4630963.5849869,0.012930164878813
13619200,0.9560342375966,0.013593297948881,0.0045310993096263,0.0045310993169867,0.0045310993222678,-0.0010307041796831,0.0010307039420019,-1.4049584618363e-10,-8.2421502756138e-11,1.160565033829e-09,-1.4451217409346e-09,-0.0012590316890528,0.0012590323985571,-0.0012590316846633,0.0012590323833014,-0.0012590325978713,0.0012590314587708,-0.0012590326033762,0.0012590314607953,-0.0010354055503406,0.0010354043811621,-0.0010354055486914,0.0010354044720234,9.2447777866241e-10,-1.101224719554e-09,-2.8644670752807e-09,2.7281411086831e-09,-0.0010307041391385,0.001030703985669,-0.0012590326549864,0.0012590314003583,-0.001259030837551,0.0012590332677291,-0.0012590333907007,0.0012590306551375,-0.0012590315874402,0.0012590325423247,-0.0010354081147253,0.0010354017933683,-0.0010354026818997,0.0010354073461674,-0.0010354031314502,0.0010354068799687,-0.0010354051319635,0.0010354047943718,-3.8804169441613e-11,-3.7459013296974e-10,-0.0010307042602587,0.0010307038659026,1.7602955819871e-09,-2.2581260629459e-09,-0.0012590315072055,0.0012590326030247,-0.0012590327915818,0.0012590312653803,-0.0012590316245184,0.0012590324475019,-0.001259032946517,0.0012590311571845,-0.0010354059758864,0.001035403889113,-0.0010354057332202,0.0010354043237785,0.57890326170466,131329,3014,0.0042861695306375,0.0042861695371513,0.0042861695399278,33.906933726773,3.3655469814185e-05,3.3655469814185e-05,3.3655469814185e-05,4625804.5046057,0.012943307420843
13819200,0.95848743197731,0.013619299469343,0.0045397664831486,0.0045397664904667,0.0045397664957273,-0.0010318601612709,0.0010318599202788,-1.328020336655e-10,-9.6116338594186e-11,1.1408651163538e-09,-1.4317679641186e-09,-0.00126087565768,0.0012608763626298,-0.0012608756618616,0.0012608763397949,-0.0012608765573906,0.0012608754315012,-0.0012608765676796,0.0012608754270713,-0.0010364591465142,0.0010364580083587,-0.0010364591603328,0.0010364580829852,9.2810789645207e-10,-1.1115462976707e-09,-2.870579186303e-09,2.727802438952e-09,-0.0010318601213698,0.00103185996347,-0.0012608766218432,0.0012608753682591,-0.0012608748035377,0.0012608772349271,-0.0012608773617355,0.0012608746138654,-0.0012608755564943,0.0012608765041712,-0.0010364617430325,0.0010364553969977,-0.0010364562946304,0.0010364609650882,-0.0010364567449872,0.0010364604978462,-0.0010364587553824,0.0010364584084688,-2.1041922330775e-11,-3.8725884777273e-10,-0.0010318602385373,0.0010318598475658,1.7441085769743e-09,-2.2371291148441e-09,-0.0012608754739879,0.001260876571302,-0.0012608767466863,0.0012608752431984,-0.0012608756005389,0.0012608764028982,-0.001260876908541,0.0012608751246331,-0.0010364595940247,0.0010364574993572,-0.0010364593224288,0.0010364579548421,0.57842618728025,131329,3014,0.0042909699206125,0.004290969927468,0.0042909699300578,33.506881020585,3.0455048164683e-05,3.0455048164683e-05,3.0455048164683e-05,4623070.4704207,0.012957903347272
14019200,0.96079247527935,0.013643743424187,0.0045479144681299,0.00454791447541,0.0045479144806475,-0.001033427090605,0.0010334268449769,-1.4828972252724e-10,-8.6674712735257e-11,1.1815346609271e-09,-1.4785516045869e-09,-0.0012630997705838,0.0012631004867546,-0.0012630997615982,0.0012631004799248,-0.0012631006932939,0.0012630995327778,-0.001263100700778,0.0012630995310108,-0.0010379466157268,0.0010379454312485,-0.0010379466169105,0.0010379455059442,8.8109240370246e-10,-1.067990458279e-09,-2.8521710255181e-09,2.7061775645031e-09,-0.0010334270490808,0.0010334268902908,-0.0012631007517557,0.0012630994765723,-0.001263098941067,0.0012631013353984,-0.0012631014536798,0.0012630987565362,-0.0012630996693078,0.0012631006286267,-0.0010379491468264,0.0010379428828454,-0.0010379437530424,0.0010379483866117,-0.0010379442355041,0.0010379478958145,-0.0010379461757707,0.0010379458756247,-2.6573373113457e-11,-3.7676641660342e-10,-0.0010334271646057,0.0010334267763349,1.741819332718e-09,-2.2299558081896e-09,-0.0012630995996467,0.0012631006842103,-0.0012631008628472,0.0012630993641287,-0.0012630997134615,0.0012631005260997,-0.0012631010240868,0.0012630992442401,-0.0010379470347155,0.0010379449494793,-0.0010379467627828,0.0010379454105429,0.57821464321265,131329,3014,0.0042974751768607,0.0042974751847517,0.0042974751879799,33.390800614036,2.9526404912285e-05,2.9526404912285e-05,2.9526404912285e-05,4623358.2889097,0.012977680845803
14219200,0.9629538840886,0.01366572269501,0.0045552408917883,0.004555240899012,0.0045552409042099,-0.001034762787487,0.0010347625483726,-1.3588760140352e-10,-8.7670428905047e-11,1.232453074434e-09,-1.5175158848726e-09,-0.0012650576315074,0.001265058386864,-0.001265057626676,0.001265058372323,-0.0012650585864096,0.0012650574018919,-0.001265058597066,0.0012650573969084,-0.0010391812440496,0.0010391800547165,-0.0010391812805924,0.0010391801429542,8.4214950761575e-10,-1.0057561034297e-09,-2.8373248295812e-09,2.7124777175701e-09,-0.0010347627417206,0.0010347625954772,-0.001265058644506,0.0012650573449539,-0.0012650568375599,0.0012650591998851,-0.0012650593171287,0.001265056660768,-0.0012650575320064,0.0012650585297026,-0.0010391837289672,0.0010391775408395,-0.0010391783642535,0.0010391830582202,-0.0010391788945784,0.0010391824904975,-0.0010391807235612,0.0010391805609666,-2.2946306976661e-11,-3.9562759520148e-10,-0.0010347628664104,0.0010347624715177,1.7170235155073e-09,-2.218834308032e-09,-0.0012650574813723,0.001265058562273,-0.0012650587359966,0.0012650572550581,-0.0012650576068959,0.0012650583978717,-0.001265058904881,0.0012650571307123,-0.0010391816694644,0.0010391795501578,-0.0010391813875532,0.0010391800369805,0.55856767821591,131329,3014,0.0043030208115014,0.0043030208142975,0.0043030208157794,33.233643288716,2.8269146309725e-05,2.8269146309725e-05,2.8269146309725e-05,4622635.4494781,0.012994541832769
14419200,0.96496787247014,0.013686467440034,0.0045621558067886,0.0045621558140244,0.004562155819221,-0.0010357926684758,0.0010357924257189,-1.2765739562478e-10,-1.0064051185439e-10,1.2652643880415e-09,-1.555803855466e-09,-0.001266607534534,0.0012666083163451,-0.0012666075350401,0.0012666082964626,-0.0012666085121236,0.0012666073076419,-0.0012666085304897,0.0012666072941308,-0.001040107576761,0.0010401063943009,-0.0010401076437709,0.0010401064649914,8.0206826174614e-10,-9.6418111150793e-10,-2.8387322429396e-09,2.7145782468107e-09,-0.0010357926209664,0.001035792474552,-0.001266608575922,0.0012666072466919,-0.0012666067665696,0.0012666091033339,-0.0012666092198798,0.0012666065894115,-0.0012666074355634,0.0012666084576723,-0.0010401100535685,0.0010401038946789,-0.001040104691222,0.0010401094203454,-0.001040105270316,0.0010401087962187,-0.0010401070233089,0.0010401069458838,-7.3407090993171e-12,-4.1029367304522e-10,-0.0010357927444216,0.0010357923516875,1.7001800029621e-09,-2.2008859965465e-09,-0.0012666073985968,0.0012666084789066,-0.0012666086400727,0.0012666071834832,-0.0012666075316076,0.0012666083053749,-0.0012666088192759,0.0012666070472572,-0.0010401080189254,0.0010401058778568,-0.0010401077013436,0.0010401063944984,0.5638359449039,131329,3014,0.0043072966132763,0.004307296616054,0.0043072966172508,32.955318770644,2.6042550165151e-05,2.6042550165151e-05,2.6042550165151e-05,4621340.2558074,0.013007540990035
14619200,0.96675922445422,0.013705042402874,0.0045683474610599,0.0045683474683091,0.0045683474735047,-0.0010351025352516,0.0010351023006337,-1.2713398282056e-10,-8.851302889949e-11,1.2083629914871e-09,-1.4844065439284e-09,-0.0012663223883638,0.0012663231302527,-0.001266322385468,0.0012663231121295,-0.0012663233256039,0.0012663221646549,-0.0012663233384868,0.0012663221558683,-0.0010392911495302,0.0010392900049079,-0.0010392912189709,0.0010392901055179,8.7305461781725e-10,-1.023511340501e-09,-2.8385218152444e-09,2.7249786540847e-09,-0.0010351024890624,0.0010351023468159,-0.0012663233908145,0.0012663221016261,-0.0012663215787715,0.0012663239602305,-0.0012663240798761,0.0012663214015768,-0.001266322289819,0.0012663232737803,-0.0010392936551711,0.0010392874620138,-0.0010392882981005,0.0010392930118078,-0.0010392887856979,0.0010392924650246,-0.0010392906512325,0.0010392904732,-1.4061303319189e-11,-4.1516410693328e-10,-0.001035102617088,0.0010351022190109,1.7052556895651e-09,-2.2161773508914e-09,-0.0012663222294321,0.0012663233163848,-0.0012663234804999,0.0012663220145184,-0.0012663223644031,0.0012663231432866,-0.0012663236586038,0.0012663218809618,-0.0010392916112806,0.001039289447754,-0.0010392913124038,0.0010392899719758,0.56645707327449,131329,3014,0.0043044357262995,0.0043044357263168,0.004304435726745,31.820940093769,1.696752075015e-05,1.696752075015e-05,1.696752075015e-05,4605287.0681208,0.012998849114111
14819200,0.96837311490362,0.013721919054459,0.0045739730115604,0.0045739730188468,0.0045739730240518,-0.0010346153713755,0.0010346151338067,-1.1885061690112e-10,-1.106652673991e-10,1.1732303359421e-09,-1.4655825848404e-09,-0.0012661966036481,0.0012661973437007,-0.0012661966123864,0.0012661973175419,-0.0012661975225549,0.0012661963958498,-0.0012661975445906,0.0012661963814105,-0.0010387060962958,0.0010387049733959,-0.001038706137439,0.0010387050025713,8.8127968326061e-10,-1.0699339249938e-09,-2.8750085379829e-09,2.7279633219118e-09,-0.0010346153337905,0.001034615175953,-0.0012661975964858,0.0012661963171556,-0.0012661957755176,0.0012661981886653,-0.0012661983064096,0.0012661955994052,-0.0012661965042004,0.0012661974862504,-0.0010387086804153,0.0010387023735532,-0.0010387032399647,0.0010387079093309,-0.001038703744389,0.0010387074106407,-0.0010387056978077,0.0010387054070535,2.0827056924178e-11,-4.2043063051519e-10,-0.0010346154479208,0.0010346150636143,1.7095767607358e-09,-2.1940193176129e-09,-0.0012661964352396,0.0012661975312292,-0.0012661976825884,0.0012661962333358,-0.0012661965854702,0.001266197347284,-0.0012661978728945,0.001266196090414,-0.0010387065804479,0.0010387044513029,-0.0010387062140981,0.0010387049774138,0.56962156840261,131329,3014,0.0043024167251304,0.0043024167346428,0.0043024167383426,30.869042335341,9.3523386827291e-06,9.3523386827291e-06,9.3523386827291e-06,4592042.6503073,0.012992716147138
15019200,0.9697982105093,0.01373677070236,0.0045789235608913,0.0045789235681381,0.0045789235733307,-0.0010332697068249,0.0010332694774251,-1.3307209262127e-10,-7.7380267821228e-11,1.1240728639338e-09,-1.3939104226993e-09,-0.0012651385967136,0.0012651392800726,-0.0012651385887456,0.0012651392671069,-0.0012651394760562,0.0012651383727901,-0.0012651394836942,0.0012651383692669,-0.0010372513501312,0.0010372502507926,-0.0010372514026295,0.0010372503678174,9.5810486208464e-10,-1.1138858331241e-09,-2.8549081542196e-09,2.737658624076e-09,-0.0010332696650308,0.0010332695190434,-0.0012651395480502,0.0012651383032586,-0.0012651377260023,0.0012651401718951,-0.0012651402950634,0.0012651375444933,-0.0012651384948789,0.0012651394268487,-0.0010372539237408,0.001037247639718,-0.0010372485373035,0.0010372532183989,-0.0010372489194466,0.0010372527757748,-0.0010372509573333,0.0010372506116365,-1.2885452270043e-11,-4.1628858796351e-10,-0.0010332697914014,0.0010332693928725,1.7247344173563e-09,-2.2359363140628e-09,-0.0012651384018155,0.0012651395025292,-0.0012651396657199,0.001265138187824,-0.0012651385381314,0.0012651393280861,-0.0012651398448287,0.0012651380529229,-0.0010372518420368,0.0010372496628854,-0.0010372515403941,0.0010372501890808,0.56738228868632,131329,3014,0.0042968354732943,0.0042968354729549,0.0042968354733376,29.522977610483,-1.4161791161344e-06,-1.4161791161344e-06,-1.4161791161344e-06,4571639.569936,0.012975756176558
15219200,0.97096902065333,0.013748376759062,0.0045827922464333,0.004582792253714,0.0045827922589143,-0.0010293558280047,0.0010293556145986,-1.3146836426113e-10,-5.5332576039549e-11,9.4336342651252e-10,-1.1852012514153e-09,-0.0012613402408824,0.0012613407977785,-0.0012613402245727,0.0012613407897416,-0.0012613409933305,0.0012613400220095,-0.001261340993021,0.0012613400232959,-0.0010331594952487,0.0010331585403284,-0.001033159579011,0.0010331587248005,1.1641015050134e-09,-1.2973390873689e-09,-2.8706957908138e-09,2.7745097217171e-09,-0.0010293557897672,0.0010293556487195,-0.0012613410815135,0.0012613399388066,-0.0012613392401411,0.0012613418238976,-0.0012613419577047,0.0012613390516325,-0.001261340138585,0.0012613409502063,-0.0010331621949792,0.0010331557799178,-0.0010331568048872,0.0010331614526345,-0.0010331569130849,0.0010331612308539,-0.0010331593075004,0.0010331586508634,-3.2738552918505e-11,-4.2562454787399e-10,-0.0010293559245573,0.0010293555128545,1.7493674824801e-09,-2.2872736593745e-09,-0.0012613399751494,0.0012613410965877,-0.0012613412660441,0.0012613397583633,-0.0012613401088342,0.0012613409260565,-0.0012613414424901,0.0012613396272701,-0.0010331600724451,0.0010331578254524,-0.0010331598066655,0.0010331583641604,0.54391446615881,131329,3014,0.0042805975142115,0.004280597505691,0.004280597503428,26.878545637431,-2.2571634900553e-05,-2.2571634900553e-05,-2.2571634900553e-05,4528707.6184089,0.012926407157071
15419200,0.97203479774596,0.013760686203656,0.0045868953946048,0.0045868954019211,0.0045868954071296,-0.0010285428164838,0.0010285425930522,-1.5167738156599e-10,-6.1342397620095e-11,9.8916485469268e-10,-1.2644641194303e-09,-0.0012606459971521,0.0012606465948691,-0.0012606459800615,0.0012606465925172,-0.0012606467848892,0.0012606457722123,-0.001260646785269,0.0012606457839282,-0.0010322964543004,0.0010322953832287,-0.0010322963924284,0.0010322954622344,1.0613664986954e-09,-1.2724836952411e-09,-2.9040828026696e-09,2.7383153561852e-09,-0.0010285427933815,0.0010285426220803,-0.0012606468653503,0.0012606456870858,-0.0012606450296841,0.0012606475767264,-0.0012606477039547,0.0012606448432327,-0.0012606458856571,0.0012606467448298,-0.001032299176299,0.0010322926626718,-0.0010322936658303,0.0010322982227162,-0.0010322939462902,0.0010322979629626,-0.0010322962856561,0.0010322955985376,-9.2592124315337e-13,-3.8973953578353e-10,-0.0010285429005433,0.0010285425169021,1.7851470749969e-09,-2.2631909803926e-09,-0.00126064574219,0.0012606468648585,-0.0012606470330645,0.0012606455206453,-0.00126064587839,0.0012606466971721,-0.0012606472094427,0.0012606453922236,-0.0010322969655464,0.0010322948484739,-0.001032296632932,0.0010322953153234,0.61488005065425,131329,3014,0.0042772245817852,0.0042772245941121,0.0042772245981871,25.929345087263,-3.0165239301899e-05,-3.0165239301899e-05,-3.0165239301899e-05,4516652.6028603,0.012916155961985
15619200,0.97303981449523,0.013772569388026,0.0045908564560695,0.004590856463371,0.0045908564685852,-0.001028687587391,0.0010286873480525,-1.845267418347e-10,-4.4143904286967e-11,1.1399344021983e-09,-1.430751480995e-09,-0.0012611175735538,0.0012611182408046,-0.0012611175387005,0.0012611182593668,-0.0012611184644375,0.0012611173147894,-0.0012611184490873,0.0012611173384386,-0.0010324700597738,0.0010324688282191,-0.0010324699650834,0.0010324689559121,9.1925421203063e-10,-1.1176520136452e-09,-2.8724912470337e-09,2.7167852966122e-09,-0.0010286875526773,0.0010286873880526,-0.0012611185206748,0.0012611172610361,-0.0012611166986661,0.0012611191333769,-0.0012611192519489,0.0012611165121167,-0.001261117456128,0.0012611183943589,-0.0010324726100479,0.001032466267331,-0.0010324671693621,0.0010324717837005,-0.001032467611873,0.0010324713444826,-0.001032469651202,0.0010324692475701,-2.3471441110644e-11,-3.7176264867098e-10,-0.0010286876640568,0.0010286872786805,1.7914362236031e-09,-2.2727351758387e-09,-0.0012611173621377,0.001261118475402,-0.001261118653822,0.0012611171258959,-0.0012611174766878,0.0012611183179782,-0.0012611188155201,0.0012611170035742,-0.00103247047077,0.0010324683688304,-0.0010324701872062,0.0010324688216508,0.62695263602293,131329,3014,0.0042778283248034,0.0042778283358061,0.0042778283399403,25.553280407871,-3.3173756737028e-05,-3.3173756737028e-05,-3.3173756737028e-05,4509850.5255254,0.012917999010745
15819200,0.97396686163576,0.013784421022569,0.0045948070009209,0.0045948070082186,0.0045948070134297,-0.0010281051004948,0.001028104868056,-1.048967280652e-10,-1.1067508762851e-10,1.2446177364884e-09,-1.5210321197775e-09,-0.0012608310647936,0.0012608318519277,-0.0012608310787995,0.0012608318167617,-0.0012608320298089,0.0012608308596629,-0.0012608320536164,0.0012608308407579,-0.0010319235184535,0.0010319223830196,-0.0010319236171078,0.001031922445367,8.2196328875056e-10,-9.7443569853145e-10,-2.905797212995e-09,2.7911136875265e-09,-0.0010281050546518,0.0010281049141564,-0.0012608321236916,0.0012608307651875,-0.001260830271706,0.0012608326648127,-0.0012608327838302,0.0012608300972981,-0.0012608309467233,0.0012608320162873,-0.0010319260851572,0.0010319197833658,-0.0010319205833941,0.0010319254638067,-0.0010319211948456,0.0010319248054955,-0.0010319229594027,0.0010319229269473,3.9722409507656e-11,-4.6442063094499e-10,-0.0010281051824896,0.0010281047866525,1.7172721359415e-09,-2.2243585970482e-09,-0.00126083090482,0.0012608320365518,-0.0012608321677699,0.0012608307250599,-0.0012608310779615,0.0012608318286741,-0.0012608323769263,0.0012608305625287,-0.0010319240338458,0.0010319217813342,-0.0010319236373893,0.0010319223909073,0.66920159351165,131329,3014,0.0042754146647559,0.0042754146653171,0.0042754146659796,24.790761805984,-3.9273905552125e-05,-3.9273905552125e-05,-3.9273905552125e-05,4496014.6676428,0.012910672214357
16019200,0.97485219005791,0.013795708443264,0.0045985694744892,0.0045985694817832,0.0045985694869914,-0.0010284737873931,0.0010284735454112,-2.1796678932303e-10,-1.408708588449e-11,1.4245731462682e-09,-1.7221501042612e-09,-0.0012616079893784,0.001261608824193,-0.001261607929143,0.0012616088658835,-0.0012616090705002,0.0012616077112077,-0.0012616090351909,0.0012616077570039,-0.0010323790988281,0.0010323776155299,-0.0010323789474573,0.0010323777996435,6.5908071461583e-10,-8.4089594944125e-10,-2.8280499448564e-09,2.6869287920584e-09,-0.0010284737431337,0.0010284735953216,-0.0012616090841037,0.0012616076903796,-0.0012616072868926,0.0012616095403285,-0.0012616096414778,0.0012616071307985,-0.0012616078707615,0.001261608984545,-0.0010323813841339,0.0010323753196402,-0.0010323760267912,0.0010323807405714,-0.0010323767929382,0.0010323799937563,-0.001032378327456,0.0010323784277227,-4.5405152197885e-11,-3.4940917070144e-10,-0.0010284738628897,0.0010284734777297,1.7940179107931e-09,-2.2751574647512e-09,-0.0012616078654251,0.0012616089618572,-0.0012616091623412,0.0012616076160857,-0.0012616079689212,0.0012616088289717,-0.0012616093141673,0.0012616075132548,-0.0010323793717941,0.001032377313165,-0.0010323791145572,0.0010323777173088,0.66743249182396,131329,3014,0.0042769487855169,0.0042769487972798,0.0042769488017407,24.592932084939,-4.0856543320486e-05,-4.0856543320486e-05,-4.0856543320486e-05,4490031.2192768,0.01291534725989
16219200,0.97572590215504,0.013806792224947,0.0046022640683836,0.0046022640756765,0.0046022640808866,-0.001029823903816,0.0010298236413992,-1.5351427895004e-10,-9.8133148746726e-11,1.6168637747157e-09,-1.9358341473015e-09,-0.0012633964156651,0.0012633974192126,-0.0012633964129233,0.0012633974064677,-0.0012633976354239,0.001263396161084,-0.0012633976448341,0.0012633961601778,-0.0010338321027554,0.001033830593994,-0.0010338320772604,0.0010338306460395,4.4328722315406e-10,-6.1738823816348e-10,-2.857731658776e-09,2.7217506663623e-09,-0.0010298238472775,0.0010298237035072,-0.0012633976781209,0.0012633961218632,-0.0012633958629299,0.0012633979872669,-0.0012633980886261,0.0012633956941868,-0.0012633962929329,0.0012633975769194,-0.0010338343438279,0.001033828343727,-0.0010338288991218,0.0010338338595097,-0.0010338299917506,0.0010338327692825,-0.0010338310646036,0.0010338316478054,3.6567624442998e-11,-4.2573085803805e-10,-0.0010298239666045,0.0010298235862944,1.7203201258863e-09,-2.1950666319859e-09,-0.0012633963740374,0.001263397483085,-0.0012633976193681,0.0012633961791966,-0.0012633965293518,0.0012633972835861,-0.0012633978145469,0.0012633960216158,-0.0010338323991249,0.0010338302527584,-0.0010338320130796,0.0010338308052755,0.66426058762202,131329,3014,0.0042825549178794,0.0042825549294669,0.0042825549338213,24.945495275685,-3.8036037794521e-05,-3.8036037794521e-05,-3.8036037794521e-05,4494485.4876583,0.012932396883815
16419200,0.97652728586986,0.013815784646145,0.0046052615421319,0.0046052615494058,0.0046052615546075,-0.0010288343993843,0.0010288341602374,-1.2319629823177e-10,-9.2879401098052e-11,1.6275220535537e-09,-1.9061592413201e-09,-0.0012627369643742,0.0012627379842635,-0.001262736963465,0.001262737960327,-0.0012627381871779,0.0012627367395279,-0.0012627381973396,0.0012627367311294,-0.0010328441636321,0.0010328427521103,-0.0010328442816211,0.0010328428984438,4.1636287301369e-10,-5.1117808849631e-10,-2.8408626422383e-09,2.776233655644e-09,-0.0010288343299285,0.0010288342255269,-0.0012627382610569,0.0012627366627892,-0.0012627364339158,0.0012627385345311,-0.0012627386351041,0.0012627362901154,-0.0012627368235818,0.0012627381798665,-0.0010328463557489,0.0010328405066235,-0.0010328409839392,0.001032846144271,-0.0010328421028964,0.0010328449314323,-0.001032842996436,0.0010328438776762,2.3692197690212e-11,-4.7350174878778e-10,-0.0010288344798632,0.0010288340744526,1.6730730837951e-09,-2.202168885958e-09,-0.0012627369328724,0.0012627380410756,-0.0012627381776878,0.0012627367555553,-0.0012627371058631,0.0012627378397872,-0.0012627383870324,0.0012627365983806,-0.0010328445325466,0.0010328422601787,-0.0010328441637003,0.0010328428830708,0.5998214479211,131329,3014,0.0042784530551535,0.0042784530465226,0.0042784530441231,24.071772817295,-4.5025817461639e-05,-4.5025817461639e-05,-4.5025817461639e-05,4477732.7200045,0.012919940507557
16619200,0.97728866295195,0.013826122561422,0.0046087075139089,0.0046087075211606,0.0046087075263528,-0.0010289779765932,0.0010289777147723,-1.8404593202311e-10,-6.6414142211191e-11,1.7104874657526e-09,-2.028994676723e-09,-0.0012630630888071,0.0012630641326114,-0.0012630630614932,0.0012630641427065,-0.0012630643704834,0.0012630628162972,-0.0012630643592438,0.0012630628355169,-0.0010330246598701,0.0010330230374822,-0.0010330245903375,0.0010330231576812,3.4767464973761e-10,-5.0812590380096e-10,-2.824371399847e-09,2.7002736036386e-09,-0.0010289779153963,0.001028977781091,-0.0012630643921859,0.0012630627938396,-0.0012630625942818,0.0012630646416214,-0.0012630647357051,0.0012630624399882,-0.0012630629597805,0.0012630643009247,-0.0010330267699739,0.0010330209174186,-0.0010330213950653,0.001033026375105,-0.0010330225941368,0.001033025180592,-0.0010330234698952,0.0010330242493073,1.2303463343523e-11,-4.0752514329837e-10,-0.0010289780404644,0.0010289776579679,1.7253701735961e-09,-2.2056378913206e-09,-0.0012630630717737,0.0012630641695628,-0.00126306432397,0.0012630628635402,-0.001263063212547,0.0012630639898126,-0.0012630645079857,0.0012630627225241,-0.0010330248860917,0.0010330227640791,-0.0010330245395934,0.0010330232813904,0.70236009223984,131329,3014,0.0042790500837295,0.0042790500944146,0.0042790500984276,23.76569532013,-4.7474437438958e-05,-4.7474437438958e-05,-4.7474437438958e-05,4474456.3062322,0.012921757373462
16819200,0.9780203782253,0.013836102649173,0.0046120342098198,0.0046120342170796,0.0046120342222734,-0.0010293626816078,0.0010293623166487,-1.5952127326401e-10,-1.9758298094615e-10,1.6841464665403e-09,-2.108437637501e-09,-0.0012638458747233,0.0012638468727383,-0.0012638459115612,0.0012638468416191,-0.00126384715326,0.0012638455119469,-0.0012638472066783,0.0012638454522268,-0.0010335137619881,0.0010335121916094,-0.0010335138178586,0.0010335121195089,2.2270344207584e-10,-4.2912276510879e-10,-2.9121415921731e-09,2.738174759173e-09,-0.0010293625956589,0.0010293624086668,-0.0012638472727131,0.0012638454770254,-0.0012638454131126,0.0012638473703194,-0.0012638474883135,0.0012638451245481,-0.0012638456922228,0.0012638470346565,-0.0010335159743141,0.0010335099842846,-0.001033510432253,0.0010335156470399,-0.0010335118026208,0.001033514172385,-0.0010335123909784,0.0010335133991898,1.0700366096455e-10,-4.7801851618599e-10,-0.001029362686257,0.0010293623201727,1.6523731806189e-09,-2.1076466495622e-09,-0.0012638458631224,0.0012638469758761,-0.001263847004816,0.0012638456997825,-0.0012638459989362,0.0012638466804871,-0.001263847217924,0.0012638454372259,-0.0010335140254415,0.0010335117821392,-0.001033513576753,0.0010335125367904,0.70571912097308,131329,3014,0.0042806505665418,0.004280650579163,0.0042806505834998,23.643334243542,-4.8453326051662e-05,-4.8453326051662e-05,-4.8453326051662e-05,4468919.8264519,0.012926634447891
17019200,0.9787193391124,0.01384542843268,0.0046151428043439,0.0046151428115853,0.0046151428167506,-0.0010295014510375,0.0010295012157475,-4.4322516051088e-10,2.1957728612346e-10,1.8935486958577e-09,-2.1851612117073e-09,-0.001264375050716,0.0012643760543435,-0.0012643748341078,0.0012643762421729,-0.0012643764532,0.0012643746357041,-0.0012643762540082,0.0012643748463211,-0.0010337452135488,0.0010337429804996,-0.0010337446655003,0.0010337436901912,3.5919951789448e-10,-4.8237765339417e-10,-2.5484300261707e-09,2.459673338508e-09,-0.001029501387563,0.0010295012797507,-0.0012643762304756,0.0012643748285158,-0.0012643746118287,0.0012643765019572,-0.0012643765918801,0.0012643745065022,-0.0012643749790918,0.001264376189112,-0.001033746715996,0.0010337414503813,-0.0010337419016667,0.0010337464033094,-0.0010337429140901,0.0010337453881557,-0.0010337437909483,0.0010337444643352,-2.6971136553233e-10,-1.6417165355103e-10,-0.0010295015371697,0.0010295011308082,1.9234730072788e-09,-2.4421325970696e-09,-0.0012643750236326,0.0012643760774919,-0.0012643764434085,0.0012643746376641,-0.0012643750110845,0.0012643760979184,-0.0012643764603922,0.0012643746963198,-0.0010337449758047,0.0010337431765613,-0.0010337451390003,0.0010337431677637,0.69246306562005,131329,3014,0.004281230966387,0.0042812309675024,0.0042812309688536,23.415952670032,-5.0272378639743e-05,-5.0272378639743e-05,-5.0272378639743e-05,4462085.2920932,0.012928410651169
17219200,0.97937948135971,0.013853975757528,0.0046179919126209,0.0046179919198661,0.004617991925041,-0.0010292451056707,0.0010292448408807,-3.6948708486436e-10,1.2468048712611e-10,1.8336916408026e-09,-2.1449340302965e-09,-0.0012644487836121,0.0012644497724042,-0.0012644486335855,0.0012644499047342,-0.0012644501448394,0.0012644483795657,-0.0012644500108545,0.0012644485144723,-0.0010335503377275,0.0010335482973875,-0.0010335499657771,0.0010335488299824,3.5661824368702e-10,-4.8175815270736e-10,-2.6293252276099e-09,2.5364220289014e-09,-0.0010292450337751,0.0010292449123455,-0.0012644500153245,0.0012644485173347,-0.0012644483274535,0.0012644502471689,-0.0012644503460517,0.0012644481679141,-0.0012644486875272,0.001264449911638,-0.0010335520113,0.0010335465795908,-0.0010335470445631,0.0010335517492385,-0.0010335480918781,0.0010335506233707,-0.0010335489203307,0.0010335496728352,-1.799458557188e-10,-2.5296852886744e-10,-0.0010292451743589,0.0010292447719079,1.8388694685353e-09,-2.3546941432544e-09,-0.0012644487613393,0.0012644498253053,-0.0012644500960362,0.0012644484366458,-0.0012644487868526,0.0012644497553638,-0.0012644501677899,0.001264448402362,-0.0010335502376587,0.0010335482871188,-0.001033550257341,0.0010335485061637,0.67476322228679,131329,3014,0.004280170862204,0.0042801708613364,0.0042801708616069,22.992499840072,-5.3660001279425e-05,-5.3660001279425e-05,-5.3660001279425e-05,4452584.8956891,0.012925198699509
17419200,0.98000968444095,0.013861749874009,0.0046205832847802,0.0046205832920275,0.0046205832972013,-0.0010292657069422,0.0010292654453141,-2.5618606248576e-10,4.077405585117e-12,1.7589313585603e-09,-2.0793857630158e-09,-0.0012647554100302,0.0012647564422485,-0.0012647553379825,0.0012647564992149,-0.0012647567263326,0.0012647550963925,-0.0012647566669136,0.0012647551605727,-0.0010336142367453,0.0010336124492856,-0.001033614035742,0.0010336127131178,3.1908827698419e-10,-4.7571841475765e-10,-2.7478935659428e-09,2.626770389471e-09,-0.0010292656442771,0.0010292655123393,-0.0012647566940063,0.0012647551257183,-0.0012647549434804,0.0012647569227935,-0.0012647570167748,0.0012647547934099,-0.0012647552900686,0.0012647566069976,-0.0010336161725161,0.001033610495165,-0.0010336109544068,0.0010336158147759,-0.0010336121401421,0.0010336146258836,-0.0010336129585939,0.0010336137592114,-4.0949228352712e-11,-3.5783581509677e-10,-0.0010292657710706,0.001029265387266,1.7404033213438e-09,-2.224004642773e-09,-0.0012647553981045,0.0012647564734762,-0.0012647566628977,0.0012647551592376,-0.0012647555087677,0.001264756328747,-0.0012647568142839,0.0012647550522989,-0.0010336143371562,0.0010336122975089,-0.0010336140905474,0.0010336127165273,0.64748129122765,131329,3014,0.004280259154981,0.0042802591640769,0.0042802591676241,22.736239357217,-5.5710085142261e-05,-5.5710085142261e-05,-5.5710085142261e-05,4446797.5211294,0.012925474347076
17619200,0.9805235568188,0.013867816937995,0.0046226056394459,0.0046226056466887,0.0046226056518607,-0.0010244955942709,0.0010244953658074,-2.1252168581426e-10,1.8883177514242e-11,1.4600535556896e-09,-1.7112331442962e-09,-0.0012599845622961,0.0012599853926049,-0.0012599844923637,0.0012599854374673,-0.0012599856624397,0.0012599842721791,-0.0012599856089151,0.0012599843217123,-0.0010287286589912,0.0010287272153427,-0.0010287286475341,0.0010287275973807,7.1204000203311e-10,-7.8402133908516e-10,-2.7595564246233e-09,2.7160462105527e-09,-0.0010244955279161,0.0010244954230696,-0.0012599856655538,0.0012599842772928,-0.0012599838767706,0.0012599861040647,-0.0012599862190337,0.0012599837134751,-0.0012599844577465,0.0012599855538355,-0.0010287308118041,0.0010287249732427,-0.0010287256446876,0.0010287305247963,-0.0010287262868646,0.0010287297026997,-0.0010287277127948,0.0010287280392546,-6.5177040356745e-11,-4.2036133663207e-10,-0.0010244956850673,0.0010244952632725,1.7334811043128e-09,-2.2951119454202e-09,-0.0012599844425531,0.0012599855499802,-0.0012599857322987,0.0012599842171887,-0.0012599845627018,0.0012599853940102,-0.0012599858965292,0.0012599840973794,-0.0010287289750165,0.0010287267118615,-0.001028728772401,0.0010287272435049,0.6239056100826,131329,3014,0.0042604680646897,0.0042604680458291,0.0042604680403019,19.879789374897,-7.856168500082e-05,-7.856168500082e-05,-7.856168500082e-05,4396603.7788182,0.012865330127136
17819200,0.98100412159636,0.013873283508077,0.00462442782945,0.0046244278367232,0.0046244278419041,-0.0010236779473251,0.0010236776881502,-2.2633365042705e-10,-3.744485882056e-11,1.3474134434148e-09,-1.6800368412924e-09,-0.0012592258732114,0.001259226669152,-0.0012592258263793,0.0012592267073599,-0.0012592269150867,0.001259225588243,-0.0012592268815438,0.0012592256328715,-0.0010278883585475,0.0010278868727482,-0.0010278881235985,0.0010278869727366,6.688454980708e-10,-9.1257048680393e-10,-2.8584469883809e-09,2.6604858072777e-09,-0.0010236779128937,0.0010236777347928,-0.0012592269367932,0.0012592255640952,-0.001259225142348,0.0012592274110097,-0.0012592275179481,0.0012592249621158,-0.0012592257479952,0.0012592268249381,-0.0010278907373923,0.0010278845209588,-0.0010278852829952,0.0010278899006224,-0.0010278860673579,0.0010278892145359,-0.0010278877014214,0.0010278876295023,3.0879211190706e-11,-3.765746562851e-10,-0.0010236780072526,0.0010236776446358,1.7796666559935e-09,-2.2159113106658e-09,-0.0012592257209714,0.0012592268358014,-0.0012592269907787,0.0012592255046452,-0.0012592258556186,0.0012592266583217,-0.0012592271680842,0.0012592253646598,-0.0010278886476932,0.0010278866080744,-0.0010278882681073,0.0010278870746017,0.60341925849619,131329,3014,0.0042570757319895,0.0042570757573742,0.0042570757660673,19.209381052885,-8.3924951576916e-05,-8.3924951576916e-05,-8.3924951576916e-05,4385970.4115358,0.012855021210331
18019200,0.9814718323407,0.013878602208026,0.0046262007294589,0.0046262007366988,0.0046262007418686,-0.0010240210037231,0.0010240207510227,-2.3941680556917e-10,-6.2768115124228e-12,1.3982081585241e-09,-1.7091600003058e-09,-0.0012596447263485,0.0012596455305831,-0.0012596446625637,0.0012596455817983,-0.0012596457962205,0.0012596444249427,-0.0012596457476184,0.0012596444809088,-0.0010282145158782,0.0010282129929991,-0.0010282143135081,0.0010282132007602,6.7059838358339e-10,-8.6654392399412e-10,-2.810580668643e-09,2.6555009149321e-09,-0.0010240209588314,0.001024020801423,-0.0012596457982813,0.0012596444257688,-0.0012596440181142,0.0012596462545975,-0.0012596463629349,0.0012596438404022,-0.0012596446094232,0.0012596456835717,-0.0010282167847163,0.0010282107190094,-0.0010282114485331,0.0010282161075884,-0.0010282121925999,0.00102821538293,-0.0010282137438494,0.0010282137890464,-5.5283603476803e-12,-3.7826889938007e-10,-0.0010240210708167,0.0010240206914945,1.7688714301479e-09,-2.2390569002751e-09,-0.0012596445862429,0.001259645693174,-0.0012596458605305,0.0012596443603674,-0.001259644708592,0.0012596455269376,-0.0012596460273675,0.0012596442304631,-0.001028214776513,0.001028212689401,-0.0010282144680297,0.0010282131614596,0.6026601619485,131329,3014,0.0042584991844458,0.0042584991958799,0.0042584992001067,19.169325828266,-8.4245393373874e-05,-8.4245393373874e-05,-8.4245393373874e-05,4387516.5165048,0.012859345455438
18219200,0.98188784936574,0.013883436769606,0.0046278122499961,0.0046278122572229,0.0046278122623874,-0.0010217119336264,0.0010217117040311,-2.104330010045e-10,6.184456569097e-12,1.2855666564682e-09,-1.5484178373097e-09,-0.0012572963253923,0.001257297054007,-0.0012572962629302,0.001257297095172,-0.0012572973112096,0.0012572960426916,-0.0012572972638183,0.0012572960898832,-0.0010258192215664,0.00102581787834,-0.0010258191634053,0.0010258181929912,8.3521245728371e-10,-9.5462859749795e-10,-2.8001035276003e-09,2.7144520257861e-09,-0.0010217118804544,0.0010217117525769,-0.0012572973355604,0.0012572960259169,-0.0012572955362947,0.0012572978667924,-0.0012572979860503,0.0012572953601717,-0.0012572962126675,0.0012572972157889,-0.0010258215467903,0.0010258154925974,-0.0010258162815217,0.0010258210364498,-0.001025816788491,0.0010258204136605,-0.0010258185262965,0.0010258184973377,-2.7629289267708e-11,-4.2514855823867e-10,-0.0010217120200289,0.0010217116118244,1.7448641701856e-09,-2.2770310836899e-09,-0.0012572961463802,0.0012572972667415,-0.0012572974313334,0.0012572959328293,-0.0012572962794541,0.0012572970941678,-0.0012572976075534,0.0012572957976908,-0.0010258196005941,0.0010258173584798,-0.0010258193300184,0.0010258179046168,0.61339065108919,131329,3014,0.0042489179395976,0.0042489179299963,0.0042489179275108,17.681994587632,-9.6144043298943e-05,-9.6144043298943e-05,-9.6144043298943e-05,4363728.3317068,0.012830226747179
18419200,0.98226367655798,0.013887844685796,0.0046292815553854,0.0046292815626219,0.0046292815677885,-0.001019778659749,0.0010197784225327,-2.2027337577016e-10,-7.1281664747013e-12,1.1888808183306e-09,-1.4786856224928e-09,-0.0012553372637301,0.0012553379423082,-0.0012553372056518,0.0012553379855602,-0.0012553381901097,0.0012553369843877,-0.0012553381464416,0.0012553370341695,-0.001023827571261,0.0010238262392258,-0.0010238274121576,0.0010238264548355,8.8031240669197e-10,-1.0704160323577e-09,-2.8460805300183e-09,2.6971654405293e-09,-0.0010197786224677,0.0010197784636547,-0.0012553382210013,0.0012553369546919,-0.0012553364156559,0.001255338807827,-0.0012553389252582,0.0012553362332216,-0.0012553371446874,0.0012553381013365,-0.0010238300254482,0.0010238237688421,-0.0010238246385263,0.0010238292515307,-0.0010238251209757,0.0010238287671138,-0.0010238270688777,0.0010238267558211,5.5618259723873e-12,-4.0376983357933e-10,-0.0010197787364941,0.0010197783511606,1.7774631607352e-09,-2.2607425106917e-09,-0.0012553370499306,0.001255338178949,-0.0012553383374559,0.0012553368369507,-0.0012553371868801,0.0012553380024909,-0.0012553385169244,0.001255336697653,-0.0010238279553375,0.001023825800834,-0.0010238276219352,0.0010238263125755,0.61738718469124,131329,3014,0.004240896090957,0.0042408960989387,0.0042408961020818,16.423567007825,-0.0001062114639374,-0.0001062114639374,-0.0001062114639374,4343448.8836378,0.012805848927084
18619200,0.98262129294477,0.013891998635482,0.0046306662052867,0.0046306662125155,0.0046306662176794,-0.0010192801448941,0.0010192799040906,-2.0779980800556e-10,-2.5893210156674e-11,1.2179899899183e-09,-1.5148504587701e-09,-0.0012548772384984,0.0012548779485681,-0.0012548771926917,0.0012548779816531,-0.0012548781862201,0.0012548769661902,-0.0012548781534898,0.0012548770076256,-0.0010233105619448,0.0010233092286772,-0.0010233104199489,0.0010233094026151,8.3304817514493e-10,-1.0292837141258e-09,-2.8591462224044e-09,2.7046815857465e-09,-0.0010192801069916,0.0010192799466673,-0.0012548782264572,0.0012548769266456,-0.001254876416457,0.0012548787871163,-0.0012548789037852,0.0012548762344293,-0.0012548771166242,0.0012548781109145,-0.0010233130239764,0.0010233067585849,-0.0010233076008037,0.001023312255276,-0.0010233081583501,0.0010233117062182,-0.0010233100235429,0.0010233097912321,2.9420359139988e-11,-4.1927948221139e-10,-0.0010192802184575,0.0010192798370426,1.7628115787281e-09,-2.2383277471532e-09,-0.0012548770382702,0.001254878169962,-0.0012548783133293,0.0012548768385917,-0.0012548771904608,0.0012548779809144,-0.0012548785057328,0.0012548766874686,-0.0010233109554608,0.0010233087891684,-0.0010233105779506,0.0010233093331714,0.61178948651399,131329,3014,0.0042388278263869,0.0042388278360906,0.0042388278398693,15.966266029687,-0.00010986987176251,-0.00010986987176251,-0.00010986987176251,4337100.2704015,0.012799564005876
18819200,0.98296790672963,0.013896324365377,0.0046321081152552,0.0046321081224801,0.0046321081276421,-0.0010193045762175,0.0010193043269273,-2.3575603499143e-10,-9.2292543761434e-12,1.301230698266e-09,-1.6106910769638e-09,-0.0012549520417688,0.0012549527892978,-0.0012549519818633,0.0012549528401308,-0.00125495304636,0.0012549517467227,-0.0012549530011098,0.0012549518027515,-0.0010233314543201,0.0010233300125167,-0.0010233312663433,0.0010233302200427,7.5465145328322e-10,-9.5579832768813e-10,-2.8359056294594e-09,2.6755439695886e-09,-0.0010193045357073,0.0010193043728289,-0.0012549530641427,0.0012549517293661,-0.0012549512714116,0.001254953574588,-0.0012549536906921,0.0012549510896508,-0.0012549519242779,0.0012549529493568,-0.001023333826008,0.0010233276494269,-0.0010233284441289,0.0010233330858811,-0.0010233290922123,0.0010233324651625,-0.001023330810515,0.0010233306982823,1.4353884910434e-11,-3.980672464071e-10,-0.0010193046439923,0.0010193042664681,1.7718103282048e-09,-2.2416109214133e-09,-0.0012549518635332,0.0012549529882548,-0.0012549531396788,0.0012549516522076,-0.0012549520034642,0.0012549528136982,-0.0012549533223278,0.0012549515132062,-0.00102333177748,0.0010233296510287,-0.0010233314300317,0.0010233301619966,0.6492326656138,131329,3014,0.0042389293861565,0.0042389293973433,0.0042389294012884,15.790712963908,-0.00011127429628873,-0.00011127429628873,-0.00011127429628873,4336012.1991421,0.012799872396565
19019200,0.98331604036649,0.013900970095141,0.0046336566918437,0.004633656699068,0.0046336567042292,-0.0010203252931264,0.0010203250421123,-2.2766214166608e-10,-1.4094474688179e-11,1.4470419564792e-09,-1.7538866227911e-09,-0.0012561448791173,0.001256145722166,-0.0012561448215395,0.0012561457657668,-0.001256145981922,0.0012561445855009,-0.001256145938709,0.0012561446352007,-0.0010244071326242,0.0010244056089588,-0.0010244069723327,0.0010244058226113,6.1753110511997e-10,-7.9445886858793e-10,-2.8121833853373e-09,2.6741987867266e-09,-0.001020325242918,0.0010203250960312,-0.001256145992418,0.001256144577191,-0.0012561442057958,0.0012561464117954,-0.0012561465177264,0.0012561440351532,-0.0012561447563254,0.0012561458847425,-0.0010244093705262,0.0010244033577848,-0.0010244040358421,0.0010244087851824,-0.0010244048546119,0.0010244079633644,-0.0010244062741061,0.0010244064834321,1.9469551483273e-11,-4.1402487561837e-10,-0.0010203253616375,0.0010203249787957,1.7409418273781e-09,-2.2205029737466e-09,-0.0012561447552527,0.0012561458688348,-0.0012561460163446,0.0012561445521864,-0.0012561449001619,0.0012561456838024,-0.0012561462038924,0.001256144404075,-0.001024407418041,0.0010244052683222,-0.0010244070598108,0.0010244058040192,0.68719399765509,131329,3014,0.0042431662432168,0.0042431662509202,0.0042431662539599,16.1728235465,-0.000108217411628,-0.000108217411628,-0.000108217411628,4342687.9435653,0.012812751491827
19219200,0.98368663256063,0.013906078401915,0.0046353594607685,0.004635359467993,0.0046353594731537,-0.0010230297125917,0.0010230294533364,-2.0300698895231e-10,-5.2495068135232e-11,1.6387650685873e-09,-1.9628408317952e-09,-0.0012591777929291,0.0012591787906849,-0.001259177759887,0.0012591788107155,-0.001259179032646,0.0012591775180083,-0.0012591790061709,0.0012591775526529,-0.0010272378487891,0.0010272362240819,-0.0010272377130751,0.0010272363635076,3.4689697829121e-10,-5.2615898936397e-10,-2.8067608992134e-09,2.6657356857717e-09,-0.0010230296559509,0.0010230295160816,-0.0012591790575402,0.0012591774890184,-0.0012591772810784,0.0012591793151629,-0.001259179410489,0.0012591771257644,-0.0012591776503614,0.0012591789743707,-0.0010272399606538,0.0010272341137562,-0.0010272346047083,0.001027239509145,-0.001027235804945,0.0010272383460962,-0.0010272367030388,0.0010272374270759,6.3913654364084e-11,-4.4070908287533e-10,-0.0010230297739903,0.0010230294003002,1.6881405630969e-09,-2.1510364915323e-09,-0.0012591777488259,0.0012591788512249,-0.0012591789751203,0.0012591775721647,-0.0012591779230225,0.0012591786419996,-0.0012591791836759,0.00125917740768,-0.0010272380908044,0.0010272359568168,-0.0010272376565537,0.0010272365344282,0.70678361568464,131329,3014,0.0042543906724531,0.0042543906851311,0.0042543906897796,17.488068696653,-9.7695450426774e-05,-9.7695450426774e-05,-9.7695450426774e-05,4363997.6631784,0.012846869503259
19419200,0.98406614837006,0.013911180620618,0.0046370602003346,0.0046370602075613,0.0046370602127223,-0.0010246608150574,0.0010246605608029,-2.3643453829303e-10,-3.0621241600912e-12,1.7975747204438e-09,-2.1035798477561e-09,-0.001261146735102,0.0012611477984213,-0.0012611466678522,0.0012611478475945,-0.0012611480755339,0.0012611464322322,-0.0012611480212742,0.0012611464895649,-0.0010289709215035,0.0010289691603794,-0.0010289707937394,0.0010289694452097,2.6445540110427e-10,-3.8637011391375e-10,-2.7307571220109e-09,2.6407602403633e-09,-0.0010246607438605,0.0010246606314207,-0.0012611480552905,0.0012611464497173,-0.0012611463075032,0.0012611482423503,-0.0012611483326626,0.0012611461673176,-0.00126114660789,0.0012611479760895,-0.0010289728104037,0.0010289672411117,-0.0010289676344017,0.0010289725908635,-0.0010289688859807,0.0010289712999655,-0.0010289695378161,0.0010289705422293,5.2271102271353e-12,-4.2435576492855e-10,-0.0010246608836631,0.0010246604916815,1.6772524577799e-09,-2.1781066449548e-09,-0.0012611467384487,0.001261147817531,-0.001261147971536,0.0012611465387263,-0.0012611468852112,0.0012611476390517,-0.0012611481592236,0.0012611463992434,-0.001028971073405,0.0010289689201208,-0.0010289707411977,0.0010289694676622,0.69265170618389,131329,3014,0.0042611620796098,0.0042611620784011,0.0042611620784908,18.223763010647,-9.1809895914824e-05,-9.1809895914824e-05,-9.1809895914824e-05,4374551.3877115,0.012867457196043
19619200,0.98444235349669,0.013916097040703,0.0046386990070335,0.0046386990142556,0.0046386990194138,-0.0010253684021755,0.0010253681477444,-2.352364750401e-10,2.1418294509334e-12,1.8576476237873e-09,-2.1568049907939e-09,-0.001262120762803,0.0012621218578299,-0.0012621206936288,0.0012621219071786,-0.0012621221390362,0.0012621204531984,-0.0012621220861803,0.0012621205091826,-0.0010297465959847,0.0010297448039504,-0.001029746488137,0.0010297451080118,2.5646397147398e-10,-3.6188617083177e-10,-2.7127218781779e-09,2.6377797264198e-09,-0.0010253683275018,0.0010253682205354,-0.0012621221037594,0.0012621204900221,-0.0012621203603983,0.0012621222779858,-0.001262122368601,0.0012621202186732,-0.0012621206500251,0.0012621220196497,-0.0010297484306237,0.0010297429230821,-0.0010297433001877,0.0010297482715288,-0.0010297445429588,0.0010297469508877,-0.0010297451554844,0.0010297462089334,8.6519465713241e-13,-4.3261676659004e-10,-0.0010253684722604,0.001025368075489,1.6641259192425e-09,-2.1762950075343e-09,-0.0012621207856922,0.0012621218602895,-0.0012621220109021,0.0012621205881128,-0.0012621209330442,0.0012621216790927,-0.0012621222010759,0.0012621204432416,-0.0010297467358206,0.0010297445556523,-0.0010297464081513,0.0010297451211535,0.67639369002092,131329,3014,0.0042641008165562,0.004264100812667,0.0042641008120351,18.456625298968,-8.9946997608259e-05,-8.9946997608259e-05,-8.9946997608259e-05,4376890.0102582,0.012876395482855
19819200,0.98481210926521,0.013920773345014,0.004640257775137,0.0046402577823595,0.0046402577875173,-0.0010258334476871,0.0010258331753297,-2.5684118944267e-10,3.620717624856e-12,1.8734240865625e-09,-2.1938872947785e-09,-0.0012627989977587,0.0012628000820068,-0.0012627989213784,0.0012628001429071,-0.0012628003839898,0.0012627986571687,-0.0012628003289861,0.0012627987156678,-0.0010302598877558,0.0010302580364663,-0.0010302597355884,0.0010302583255695,2.8442271354541e-10,-4.1507582757868e-10,-2.7115407263794e-09,2.612775361023e-09,-0.0010258333740742,0.0010258332495921,-0.0012628003257426,0.0012627987288912,-0.0012627985865285,0.001262800512376,-0.0012628006063874,0.0012627984231011,-0.0012627989016427,0.0012628002152336,-0.0010302617212191,0.0010302561721373,-0.0010302565902505,0.0010302614807513,-0.0010302577805133,0.0010302602203884,-0.0010302584767047,0.0010302593996366,9.6262794531822e-13,-4.1729389119336e-10,-0.0010258335069169,0.0010258331172347,1.6764549032623e-09,-2.1745162270219e-09,-0.001262799020233,0.0012628000924312,-0.0012628002374602,0.00126279881459,-0.0012627991520183,0.0012627999093352,-0.0012628004209196,0.0012627986621619,-0.0010302599878407,0.0010302578311823,-0.0010302596659267,0.0010302583921963,0.65787308214279,131329,3014,0.004266032436019,0.0042660324374033,0.0042660324383787,18.55836185494,-8.9133105160479e-05,-8.9133105160479e-05,-8.9133105160479e-05,4377462.4317018,0.012882271030028
20019200,0.98516966136003,0.013925482357053,0.0046418274458184,0.0046418274530394,0.0046418274581953,-0.0010258444726718,0.0010258442117385,-2.2717575690715e-10,-1.5774167051201e-11,1.7695772315126e-09,-2.078490809356e-09,-0.0012629536316503,0.0012629546754761,-0.0012629535735816,0.0012629547158979,-0.0012629549513142,0.0012629533232814,-0.0012629549068507,0.001262953370534,-0.0010302979615236,0.0010302962359579,-0.0010302978584871,0.0010302965010735,3.0072711932896e-10,-4.2419312160859e-10,-2.7336059141997e-09,2.6417807603203e-09,-0.0010258444015216,0.0010258442825482,-0.0012629549383988,0.0012629533431221,-0.0012629531871322,0.0012629551385824,-0.0012629552351836,0.0012629530302662,-0.0012629535086635,0.0012629548416393,-0.0010302998816854,0.0010302942806504,-0.0010302947030032,0.0010302996513096,-0.0010302958997511,0.0010302983866813,-0.0010302966123965,0.0010302975509004,2.7085748725439e-11,-4.4808025374994e-10,-0.0010258445377914,0.0010258441464732,1.6554023934755e-09,-2.1575756944553e-09,-0.0012629536268206,0.0012629547092519,-0.0012629548401921,0.0012629534427681,-0.0012629537852167,0.0012629545086842,-0.0012629550405457,0.001262953280298,-0.0010302981439996,0.0010302959497607,-0.0010302977762509,0.0010302965519114,0.68048789443843,131329,3014,0.0042660795184504,0.0042660795177743,0.0042660795181483,18.400970525528,-9.0392235795777e-05,-9.0392235795777e-05,-9.0392235795777e-05,4374185.6886325,0.012882417019654
20219200,0.98551783278428,0.013930216189624,0.0046434053900118,0.0046434053972294,0.0046434054023832,-0.0010260401448748,0.0010260398940762,-1.9701900608696e-10,-4.3028114726513e-11,1.6568820505966e-09,-1.9638321410114e-09,-0.0012633309352546,0.0012633319439938,-0.0012633309002283,0.0012633319622516,-0.001263332185024,0.0012633306649434,-0.0012633321546284,0.0012633307019452,-0.0010305410510165,0.0010305394371073,-0.0010305409497406,0.0010305396248231,3.006687299886e-10,-4.4802929545006e-10,-2.7727478470696e-09,2.6601378066969e-09,-0.0010260400839484,0.0010260399582737,-0.0012633322181835,0.0012633306270542,-0.0012633304560123,0.0012633324376186,-0.0012633325337461,0.0012633303069783,-0.001263330783628,0.001263332141726,-0.0010305430925256,0.001030537377027,-0.0010305378130974,0.0010305427689007,-0.0010305390557949,0.0010305415193631,-0.0010305398110378,0.0010305407031467,7.1040877308786e-11,-4.6945080295316e-10,-0.0010260402122926,0.0010260398313068,1.6434872696656e-09,-2.1251410948836e-09,-0.0012633309016494,0.0012633319954857,-0.0012633321091197,0.0012633307406136,-0.0012633310910755,0.0012633317753978,-0.0012633323290334,0.0012633305678276,-0.0010305413070638,0.0010305391267759,-0.0010305408603279,0.0010305397500336,0.69909044806878,131329,3014,0.0042668933126707,0.0042668933195007,0.0042668933223337,18.352312702834,-9.0781498377325e-05,-9.0781498377325e-05,-9.0781498377325e-05,4371786.2464499,0.012884895130371
20419200,0.98586354604343,0.01393492362312,0.0046449745345097,0.0046449745417283,0.0046449745468825,-0.0010267845029011,0.0010267842461655,-2.5169769945511e-10,5.8261998371237e-12,1.7058132783988e-09,-2.0193617896482e-09,-0.0012643137687797,0.0012643147641994,-0.0012643136928126,0.0012643148244768,-0.0012643150442478,0.001264313454931,-0.0012643149881621,0.0012643135185793,-0.0010313575176887,0.0010313557765721,-0.0010313573224774,0.0010313560298422,4.2051860273693e-10,-5.8321157509186e-10,-2.7377340979509e-09,2.6116958020605e-09,-0.0010267844445168,0.0010267843084786,-0.0012643149968237,0.0012643135017062,-0.0012643132544465,0.001264315292886,-0.0012643153878393,0.0012643131004196,-0.001264313673156,0.0012643149008122,-0.0010313595004927,0.0010313537792401,-0.0010313543102806,0.0010313590620046,-0.0010313553436742,0.0010313580271557,-0.0010313563727609,0.0010313569419673,2.5523031024216e-11,-4.1942784617897e-10,-0.0010267845677179,0.0010267841868485,1.6858351408495e-09,-2.1639628067893e-09,-0.0012643137364746,0.0012643148159846,-0.0012643149602751,0.0012643135396982,-0.0012643138843395,0.0012643146319329,-0.0012643151546269,0.0012643133882523,-0.0010313576852017,0.0010313555574757,-0.0010313573081576,0.0010313561080821,0.69998785084943,131329,3014,0.0042699842584655,0.0042699842666402,0.0042699842698656,18.616468319777,-8.866825344178e-05,-8.866825344178e-05,-8.866825344178e-05,4374271.5923576,0.012894295384579
20619200,0.98619627277917,0.013938926769488,0.0046463089166353,0.0046463089238501,0.0046463089290029,-0.001026590484255,0.0010265902432328,-1.9842905039342e-10,-2.503049130626e-11,1.5306113634029e-09,-1.8176862303157e-09,-0.0012643247428518,0.0012643256573994,-0.001264324700233,0.0012643256811277,-0.0012643259021805,0.001264324470654,-0.0012643258657439,0.0012643245106808,-0.0010311948702782,0.0010311933564431,-0.0010311947950993,0.0010311935988217,4.5339333044696e-10,-5.8105906452054e-10,-2.7682064943103e-09,2.6739769319988e-09,-0.0010265904236888,0.001026590302991,-0.0012643259415178,0.0012643244316082,-0.0012643241731423,0.0012643262452475,-0.0012643263486857,0.0012643240163388,-0.0012643245952848,0.0012643258530105,-0.0010311969834693,0.0010311912057215,-0.0010311917341948,0.0010311966449953,-0.0010311927607402,0.0010311955619395,-0.0010311937732837,0.0010311944344387,5.7706148175608e-11,-4.7950934917147e-10,-0.0010265905593394,0.0010265901673594,1.6473382164189e-09,-2.150196373212e-09,-0.0012643246619363,0.0012643257630083,-0.0012643258775576,0.001264324499721,-0.0012643248484787,0.0012643255423893,-0.0012643260971522,0.0012643243252938,-0.0010311951834144,0.0010311929479989,-0.0010311947607796,0.0010311935928625,0.63099510084543,131329,3014,0.0042691815589251,0.0042691815572577,0.0042691815572599,18.384942868387,-9.0520457052905e-05,-9.0520457052905e-05,-9.0520457052905e-05,4368123.2425927,0.012891862053898
20819200,0.98650772240644,0.013943003768752,0.0046476679163924,0.004647667923604,0.0046476679287552,-0.0010256321912459,0.0010256319533785,-2.2422416516449e-10,3.6683118767667e-12,1.4463509447067e-09,-1.7297889494879e-09,-0.001263382537875,0.0012633833750329,-0.0012633824704358,0.0012633834229144,-0.0012633836350068,0.0012633822507885,-0.0012633835859211,0.0012633823032167,-0.001030212480267,0.0010302109933582,-0.0010302123690975,0.0010302112764964,6.5985404804732e-10,-7.988392740747e-10,-2.7727137526801e-09,2.6691952804421e-09,-0.0010256321377046,0.0010256320064907,-0.0012633836349708,0.0012633822514406,-0.0012633818610008,0.0012633840705918,-0.0012633841779379,0.001263381699844,-0.001263382430574,0.0012633835297333,-0.0010302146696914,0.0010302087645384,-0.001030209442892,0.0010302141868429,-0.0010302101707947,0.0010302133994588,-0.0010302116202457,0.0010302118372234,3.3224323990296e-11,-4.5783454917468e-10,-0.0010256322689469,0.0010256318754119,1.6846571253959e-09,-2.1906560725931e-09,-0.0012633824168915,0.0012633835209563,-0.0012633836527821,0.0012633822372527,-0.0012633825817698,0.0012633833220629,-0.001263383862719,0.0012633820726564,-0.001030212807589,0.0010302105737548,-0.0010302124132522,0.0010302111861573,0.67643101677788,131329,3014,0.0042652053166961,0.0042652053158407,0.0042652053161537,17.703225864929,-9.5974193080571e-05,-9.5974193080571e-05,-9.5974193080571e-05,4357108.6152426,0.012879776518003
21019200,0.98679446720593,0.013946623278299,0.0046488744195747,0.0046488744267867,0.0046488744319378,-0.0010241302706863,0.0010241300374223,-2.1623767544039e-10,2.1249731129418e-12,1.2654301138022e-09,-1.5401963746462e-09,-0.0012619427158321,0.0012619434378715,-0.0012619426552268,0.0012619434797229,-0.0012619436916229,0.0012619424334517,-0.0012619436437136,0.0012619424840768,-0.0010286926038097,0.0010286912455706,-0.0010286924978191,0.0010286915268518,7.9699895137032e-10,-9.4228460935751e-10,-2.8042979542268e-09,2.6954236472968e-09,-0.0010241302229451,0.0010241300844783,-0.0012619437238699,0.0012619424063276,-0.0012619419323229,0.0012619442422568,-0.0012619443593885,0.0012619417553743,-0.0012619425906387,0.0012619436081158,-0.00102869494183,0.001028688868022,-0.0010286896477656,0.0010286943640229,-0.001028690216417,0.0010286937271997,-0.0010286919228076,0.0010286918895773,4.1002726659552e-11,-4.6782573474493e-10,-0.001024130351305,0.0010241299562052,1.7036392496668e-09,-2.2117709844735e-09,-0.0012619425285499,0.0012619436544519,-0.0012619437778705,0.0012619423534412,-0.0012619426996829,0.0012619434435142,-0.0012619439898071,0.0012619421823965,-0.0010286930052764,0.0010286907394095,-0.0010286926074002,0.0010286913713539,0.65602049129869,131329,3014,0.0042589745289992,0.0042589745276136,0.0042589745277653,16.74670697167,-0.00010362634422664,-0.00010362634422664,-0.00010362634422664,4339084.7204902,0.012860843841289
21219200,0.98704462456396,0.013949805416967,0.0046499351324644,0.0046499351396763,0.0046499351448266,-0.0010210649054012,0.0010210646814593,-2.2770878038836e-10,2.4549520764286e-11,1.0661392043556e-09,-1.3277164466739e-09,-0.0012588170244912,0.001258817604759,-0.0012588169504809,0.0012588176581545,-0.0012588178637576,0.0012588167401849,-0.0012588178039942,0.0012588167999579,-0.0010255537778959,0.001025552538743,-0.0010255536480242,0.0010255528593507,1.040111694558e-09,-1.1945964692122e-09,-2.8334457966515e-09,2.717374601812e-09,-0.0010210648668585,0.0010210647188073,-0.0012588178960552,0.0012588167139949,-0.0012588160852039,0.0012588185663893,-0.0012588186928507,0.0012588158972691,-0.0012588169076042,0.0012588177654782,-0.0010255562804497,0.0010255499932546,-0.0010255509456457,0.0010255555423901,-0.0010255512007168,0.0010255552168548,-0.0010255533901742,0.0010255528843728,2.4744134642495e-11,-4.5800217420091e-10,-0.0010210649922234,0.0010210645932701,1.7516253660915e-09,-2.2664077476373e-09,-0.0012588167563431,0.0012588179046001,-0.0012588180392502,0.0012588165705113,-0.0012588169156777,0.0012588177016928,-0.0012588182425042,0.0012588164067312,-0.0010255542462514,0.0010255519604596,-0.0010255538767047,0.0010255525712806,0.65967492904503,131329,3014,0.0042462555303612,0.0042462555279267,0.0042462555275449,14.932080835767,-0.00011814335331386,-0.00011814335331386,-0.00011814335331386,4307366.9342377,0.012822191656106
21419200,0.98727283062651,0.013952734318838,0.0046509114330886,0.0046509114402999,0.0046509114454498,-0.0010192178058257,0.0010192175828954,-2.1580001581059e-10,2.9728382112451e-12,9.4245523428658e-10,-1.2149308794015e-09,-0.0012569448390839,0.0012569453622383,-0.0012569447801296,0.0012569454058328,-0.0012569455975977,0.0012569445726822,-0.001256945551558,0.0012569446263692,-0.0010236716195686,0.0010236704639565,-0.0010236714563377,0.0010236706924749,1.0933674002933e-09,-1.2902851223112e-09,-2.8919749591262e-09,2.7383302542652e-09,-0.0010192177793007,0.0010192176134481,-0.0012569456633128,0.0012569445069537,-0.001256943831197,0.0012569463887487,-0.001256946514904,0.0012569436416568,-0.0012569447036402,0.0012569455394539,-0.0010236742789252,0.001023667786758,-0.0010236688075587,0.0010236733604076,-0.0010236690328251,0.0010236731286931,-0.001023671403431,0.001023670690786,6.2194660378171e-11,-4.6201769688238e-10,-0.0010192178898726,0.0010192175045557,1.7733332170787e-09,-2.2579257766674e-09,-0.0012569445284619,0.0012569456949694,-0.0012569458155695,0.0012569443544301,-0.0012569447070024,0.0012569454808553,-0.0012569460333207,0.0012569441792937,-0.0010236721460174,0.0010236698812225,-0.0010236717028377,0.001023670501672,0.66373850255763,131329,3014,0.0042385914554233,0.0042385914638253,0.0042385914672843,13.797834684004,-0.00012721732252796,-0.00012721732252796,-0.00012721732252796,4287547.6187759,0.01279890214486
21619200,0.98748950089336,0.013955545226223,0.0046518484022171,0.0046518484094283,0.0046518484145777,-0.0010184600848907,0.0010184598544474,-2.4309880170436e-10,2.1837188388884e-11,9.8530942244408e-10,-1.2674979368669e-09,-0.0012562142720498,0.0012562148024412,-0.0012562141951286,0.001256214863188,-0.0012562150605486,0.0012562139846406,-0.0012562149993044,0.0012562140500568,-0.0010229071259605,0.0010229058846445,-0.0010229069059901,0.0010229061398623,1.0997312565825e-09,-1.3082295432612e-09,-2.8871348349533e-09,2.7234076807656e-09,-0.001018460057861,0.0010184598867194,-0.0012562150963521,0.0012562139508955,-0.0012562132669239,0.0012562158260732,-0.0012562159491293,0.0012562130751366,-0.0012562141464584,0.0012562149643123,-0.0010229097437406,0.0010229032522825,-0.0010229042833273,0.0010229087888853,-0.0010229044933166,0.0010229085905335,-0.0010229068969473,0.001022906131971,4.6563573191272e-11,-4.3928674103278e-10,-0.0010184601648824,0.0010184597817108,1.8024837735933e-09,-2.2814745978553e-09,-0.0012562139652834,0.0012562151334224,-0.0012562152671103,0.0012562137766183,-0.0012562141241244,0.001256214929638,-0.0012562154713833,0.0012562136097158,-0.0010229075995849,0.001022905363583,-0.0010229071847429,0.0010229059462009,0.66921249723967,131329,3014,0.0042354478032991,0.004235447814231,0.0042354478183882,13.268130163064,-0.00013145495869549,-0.00013145495869549,-0.00013145495869549,4278422.8931216,0.012789350142581
21819200,0.98770706198939,0.013958322545,0.0046527741751436,0.0046527741823538,0.0046527741875026,-0.0010192472906813,0.0010192470658487,-2.1498378380474e-10,6.5158424160751e-13,1.0917054984993e-09,-1.3676987023317e-09,-0.0012571091909111,0.0012571098157556,-0.0012571091332429,0.0012571098549112,-0.0012571100493253,0.0012571089241518,-0.001257110005515,0.001257108978492,-0.001023728085104,0.0010237268173041,-0.0010237279017741,0.0010237270271017,9.1482950957657e-10,-1.1078065308242e-09,-2.8932239459172e-09,2.7434159116811e-09,-0.0010192472597219,0.0010192471022405,-0.0012571101171975,0.0012571088526704,-0.0012571082838429,0.0012571107379168,-0.0012571108527589,0.0012571081095024,-0.0012571090350683,0.0012571100098985,-0.0010237306309523,0.0010237242504791,-0.0010237251403464,0.001023729813142,-0.001023725612602,0.0010237293422956,-0.0010237276441654,0.0010237272792477,7.5683295750795e-11,-4.6706711989068e-10,-0.0010192473732113,0.0010192469909604,1.7706097197061e-09,-2.247827029089e-09,-0.0012571089271452,0.0012571100945274,-0.0012571102113419,0.0012571087600144,-0.0012571091158857,0.0012571098741222,-0.0012571104359233,0.0012571085795166,-0.0010237285626252,0.0010237263037532,-0.0010237280888702,0.0010237269243081,0.65989250023762,131329,3014,0.0042387150431004,0.0042387150544189,0.0042387150589765,13.594017928687,-0.00012884785657051,-0.00012884785657051,-0.00012884785657051,4284197.5369675,0.0127992803662
22019200,0.98792731910274,0.013961083087269,0.0046536943558994,0.0046536943631097,0.0046536943682599,-0.0010202819539335,0.0010202817000673,-3.0378127633759e-10,6.0930996129305e-11,1.3806755407511e-09,-1.685529132095e-09,-0.0012582549629703,0.0012582556978889,-0.0012582548434665,0.0012582557958809,-0.0012582560210862,0.0012582546259431,-0.0012582559225802,0.0012582547113127,-0.0010247919066127,0.0010247902767734,-0.0010247915892802,0.0010247906056914,8.8082445435246e-10,-1.0680136667428e-09,-2.81467870108e-09,2.6710710681032e-09,-0.0010202819054451,0.0010202817541975,-0.0012582559488071,0.0012582547086286,-0.0012582541483255,0.0012582565389831,-0.0012582566248602,0.0012582539762179,-0.0012582548651946,0.0012582558138448,-0.0010247941365163,0.0010247879725685,-0.0010247888379624,0.0010247933613396,-0.0010247892807395,0.001024792919353,-0.0010247912536376,0.0010247908860187,9.4761066879159e-13,-3.9900185235553e-10,-0.0010202820259103,0.0010202816366599,1.8153429662979e-09,-2.298416659787e-09,-0.0012582547792767,0.0012582559161123,-0.0012582560905372,0.0012582545583964,-0.0012582548877857,0.0012582557296822,-0.0012582562581124,0.0012582543996841,-0.0010247921445588,0.001024789966501,-0.0010247918121067,0.0010247904915587,0.6498277360596,131329,3014,0.0042430088356941,0.0042430088474869,0.0042430088535962,14.053896079761,-0.00012516883136191,-0.00012516883136191,-0.00012516883136191,4292789.8397291,0.012812329416371
22219200,0.98815116093304,0.013963863083517,0.0046546210213224,0.0046546210285264,0.0046546210336684,-0.0010214482878701,0.0010214480506438,-3.8801866647256e-10,1.6254811423728e-10,1.7042350055551e-09,-1.9991777008759e-09,-0.0012595239786745,0.0012595248807059,-0.001259523801513,0.0012595250443407,-0.0012595252248551,0.001259523578627,-0.001259525098194,0.0012595237391979,-0.0010259860844774,0.0010259841187854,-0.0010259856439536,0.0010259846285401,8.5690555129638e-10,-1.0440191714549e-09,-2.7295445908985e-09,2.5824694204653e-09,-0.0010214482503566,0.0010214480917375,-0.0012595250051344,0.0012595237810089,-0.001259523272473,0.0012595255863927,-0.0012595257103991,0.0012595231219958,-0.0012595240152125,0.0012595249071032,-0.0010259881189308,0.001025982126563,-0.001025982974163,0.0010259873391638,-0.001025983381736,0.0010259869399919,-0.001025985336911,0.0010259849601093,-8.7121900838674e-11,-3.1141673696186e-10,-0.0010214483632229,0.001021447979569,1.8690968052727e-09,-2.3545359692777e-09,-0.0012595238673547,0.001259524985025,-0.0012595252017391,0.0012595235979397,-0.0012595239648473,0.0012595249096342,-0.0012595253542321,0.0012595235272754,-0.0010259861302695,0.001025984058562,-0.0010259859142822,0.0010259844052276,0.64497828213091,131329,3014,0.004247848836434,0.0042478488438367,0.0042478488451679,14.583524435863,-0.00012093180451309,-0.00012093180451309,-0.00012093180451309,4302848.1500516,0.012827037697252
22419200,0.98837498822237,0.0139667778007,0.0046555925937087,0.0046555926009188,0.0046555926060727,-0.0010221841725701,0.0010221839372243,-3.3557131870303e-10,1.20773190109e-10,1.7377825712883e-09,-2.0193299418564e-09,-0.001260337960056,0.001260338911791,-0.0012603378188088,0.0012603390422323,-0.0012603392289072,0.0012603375878963,-0.0012603391293779,0.00126033771987,-0.0010267391685933,0.0010267372926785,-0.0010267388730417,0.001026737771099,6.5802585508193e-10,-7.9555702830094e-10,-2.7396349439659e-09,2.6350451565854e-09,-0.0010221841209887,0.0010221839876302,-0.0012603390925813,0.0012603377115069,-0.0012603373434736,0.0012603395336258,-0.0012603396530463,0.0012603371990892,-0.0012603379358233,0.0012603390082696,-0.0010267411637235,0.001026735317327,-0.0010267359997902,0.0010267406539486,-0.0010267366909279,0.0010267399129228,-0.0010267381605688,0.0010267383350017,-4.9378227646687e-11,-3.7567109541767e-10,-0.0010221842507418,0.0010221838572714,1.8044376561241e-09,-2.3120678759576e-09,-0.0012603378742152,0.0012603389980112,-0.0012603391783873,0.0012603376435164,-0.0012603380116365,0.0012603388870553,-0.0012603393606342,0.0012603375410334,-0.0010267392834272,0.0010267370989479,-0.001026739014261,0.0010267375782591,0.671397449,131329,3014,0.0042509025716481,0.004250902569159,0.0042509025677913,14.871844752455,-0.00011862524198036,-0.00011862524198036,-0.00011862524198036,4308680.6075711,0.012836317503402
22619200,0.98859655379046,0.013969699181776,0.0046565663873963,0.0046565663946094,0.0046565663997699,-0.0010226231265342,0.0010226228825994,-2.7681809469134e-10,5.2662188618051e-11,1.7140755213753e-09,-2.0047459891509e-09,-0.0012608946245245,0.0012608956028088,-0.0012608945269762,0.0012608956868161,-0.0012608958926693,0.0012608942905811,-0.0012608958213252,0.00126089438118,-0.0010272069552843,0.0010272051855098,-0.0010272067496634,0.0010272055487868,4.7100628072439e-10,-6.0238814048889e-10,-2.7809493499968e-09,2.681822733811e-09,-0.0010226230671231,0.0010226229421212,-0.0012608958466741,0.0012608943305591,-0.0012608940697393,0.001260896168004,-0.0012608962745293,0.001260893923746,-0.0012608945233871,0.0012608957638959,-0.001027208974073,0.0010272031636249,-0.0010272037092376,0.0010272085964186,-0.0010272046984695,0.0010272075593541,-0.001027205778365,0.0010272063746956,2.0182599553085e-11,-4.3979299983162e-10,-0.0010226232001595,0.001022622809155,1.7473739844977e-09,-2.2494226120803e-09,-0.0012608945522799,0.0012608956860623,-0.0012608958242264,0.0012608943645378,-0.0012608947233931,0.0012608955134363,-0.001260896035109,0.0012608942154192,-0.0010272071517624,0.0010272049046698,-0.0010272067741487,0.0010272054964991,0.67880653321114,131329,3014,0.0042527250011952,0.0042527250014231,0.0042527250015064,15.008485550608,-0.00011753211559514,-0.00011753211559514,-0.00011753211559514,4310467.9255863,0.012841858354016
22819200,0.98881507486646,0.013972570648383,0.0046575235429306,0.0046575235501449,0.0046575235553075,-0.0010229503050282,0.0010229500582065,-3.2751318813809e-10,1.0009834015265e-10,1.8544252963448e-09,-2.1508694164157e-09,-0.0012613484100261,0.0012613494470098,-0.0012613482757169,0.0012613495647938,-0.0012613497704776,0.0012613480401542,-0.0012613496701319,0.0012613481621192,-0.0010275655021206,0.0010275635407785,-0.0010275651960035,0.0010275639846061,4.9670587542005e-10,-6.3721088040603e-10,-2.7381867540684e-09,2.6313800716576e-09,-0.0010229502467235,0.0010229501173875,-0.0012613496350908,0.001261348166601,-0.0012613478866395,0.0012613499766908,-0.0012613500844141,0.0012613477446006,-0.00126134836519,0.0012613495505456,-0.0010275673943343,0.0010275616532252,-0.0010275622173704,0.0010275669751968,-0.00102756313738,0.0010275660184291,-0.0010275642939989,0.0010275647811776,-2.2974124568029e-11,-3.9240073104467e-10,-0.0010229503772002,0.0010229499870129,1.7821242886792e-09,-2.2814665257784e-09,-0.0012613483709216,0.0012613494919048,-0.001261349662376,0.0012613481513236,-0.0012613485109545,0.001261349354409,-0.0012613498478334,0.0012613480328808,-0.0010275655776938,0.0010275633994126,-0.001027565271008,0.0010275638961354,0.67692184040603,131329,3014,0.0042540838360631,0.0042540838378835,0.0042540838380236,15.090400922012,-0.0001168767926239,-0.0001168767926239,-0.0001168767926239,4311044.998178,0.012845991007885
23019200,0.9890296876973,0.013975172631963,0.0046583908707864,0.0046583908780046,0.0046583908831724,-0.0010231464069794,0.0010231461666018,-1.009194998315e-10,-1.2327847954472e-10,1.517025909841e-09,-1.8064702752496e-09,-0.0012616614454096,0.0012616624296756,-0.0012616614787206,0.0012616623826919,-0.0012616626010492,0.001261661236501,-0.001261662627269,0.0012616612234553,-0.0010277821691244,0.0010277808337361,-0.0010277822540097,0.0010277808941808,1.1316349558739e-10,-2.3188977002964e-10,-2.9060667486694e-09,2.8171940872459e-09,-0.0010231463425188,0.0010231462317963,-0.0012616628221478,0.0012616610110506,-0.0012616609726404,0.0012616629154973,-0.0012616630177662,0.0012616608244948,-0.0012616611665404,0.0012616627652173,-0.0010277844280441,0.0010277785704317,-0.0010277788570799,0.0010277842992997,-0.0010277804638388,0.001027782656353,-0.0010277807823734,0.0010277822402911,2.0954138336046e-10,-6.1684953387605e-10,-0.0010231464781585,0.0010231460963944,1.6015396898559e-09,-2.0905126102159e-09,-0.0012616613577639,0.0012616625346155,-0.0012616625442078,0.0012616612976048,-0.001261661657456,0.0012616622191083,-0.0012616628575132,0.0012616610397889,-0.0010277826835789,0.0010277802414637,-0.0010277819894715,0.0010277811402502,0.63260384578046,131329,3014,0.0042548986967786,0.0042548986983128,0.0042548986987555,15.108116016354,-0.00011673507186917,-0.00011673507186917,-0.00011673507186917,4310570.147778,0.012848470165958
23219200,0.98924023173009,0.013977854735342,0.0046592849052462,0.0046592849124642,0.0046592849176317,-0.0010233472010156,0.00102334694134,-3.3948214558289e-10,9.6723936414842e-11,1.8709382100043e-09,-2.1819798382784e-09,-0.0012618859182553,0.0012618869525671,-0.0012618857756267,0.0012618870779805,-0.0012618872974033,0.0012618855358231,-0.0012618871884974,0.0012618856545864,-0.0010279788888596,0.0010279768898791,-0.0010279785653635,0.0010279773331121,4.5707102095439e-10,-5.9935305364989e-10,-2.7324450213406e-09,2.6242319903566e-09,-0.0010233471362312,0.0010233470077377,-0.0012618871595305,0.0012618856738593,-0.0012618854102582,0.0012618874743271,-0.0012618875681124,0.0012618852639118,-0.0012618858569765,0.0012618870596715,-0.0010279807267237,0.0010279750344294,-0.001027975573654,0.0010279803318788,-0.0010279765331383,0.0010279793387129,-0.0010279776203362,0.001027978160446,-1.9273085426352e-11,-3.9416159116337e-10,-0.0010233472675957,0.0010233468770829,1.7727036280916e-09,-2.2696522188738e-09,-0.0012618858889382,0.0012618870008263,-0.001261887171914,0.0012618856661768,-0.0012618860111688,0.0012618868508466,-0.0012618873506185,0.0012618855353136,-0.0010279789369502,0.0010279767644202,-0.0010279786303078,0.0010279772751733,0.65900392103099,131329,3014,0.0042557315571142,0.0042557315604881,0.0042557315619241,15.109155715046,-0.00011672675427963,-0.00011672675427963,-0.00011672675427963,4311796.3788328,0.012850999374462
23419200,0.98944605646496,0.013980445623697,0.0046601485346983,0.004660148541916,0.0046601485470827,-0.0010234280961099,0.0010234278387278,-3.2799536911368e-10,8.7266505215227e-11,1.8282998541062e-09,-2.1365424048608e-09,-0.0012620357031978,0.0012620367174356,-0.0012620355699311,0.0012620368337131,-0.0012620370522504,0.001262035331194,-0.0012620369505326,0.0012620354429011,-0.0010280672128826,0.001028065264456,-0.0010280669180219,0.0010280656925252,4.5761139971086e-10,-5.9647950461131e-10,-2.7395289463429e-09,2.6343584918556e-09,-0.0010234280314835,0.0010234279044562,-0.0012620369389554,0.0012620354446718,-0.0012620351843397,0.0012620372508484,-0.0012620373460184,0.0012620350369983,-0.0012620356273385,0.0012620368404829,-0.0010280690857998,0.0010280633734375,-0.0010280639157794,0.0010280686968288,-0.0010280648838991,0.0010280676911643,-0.001028065957942,0.0010280665169206,-6.3809715362879e-12,-4.0955993007821e-10,-0.0010234281638223,0.0010234277726934,1.759094658498e-09,-2.2580017695371e-09,-0.0012620356627918,0.0012620367779365,-0.0012620369373232,0.0012620354511977,-0.0012620357966962,0.0012620366162465,-0.0012620371261459,0.0012620353113385,-0.0010280672983827,0.0010280650984552,-0.0010280669648225,0.0010280656398124,0.65256753894513,131329,3014,0.0042560677687475,0.0042560677710574,0.0042560677722143,15.055071479542,-0.00011715942816367,-0.00011715942816367,-0.00011715942816367,4310591.9314017,0.012852022150083
23619200,0.98966059816824,0.013983216728391,0.0046610722362639,0.0046610722434807,0.0046610722486463,-0.0010253430678993,0.0010253428081839,-2.816825174101e-10,3.2908599547226e-11,1.8210421048255e-09,-2.1392422478531e-09,-0.0012640861313032,0.0012640871852888,-0.0012640860380775,0.001264087263617,-0.001264087483791,0.0012640857955664,-0.0012640874100793,0.0012640858804045,-0.001030038669776,0.0010300367877292,-0.0010300384157373,0.0010300370972696,3.0480028353856e-10,-4.6075597948765e-10,-2.7666228719977e-09,2.6460663131986e-09,-0.0010253430050758,0.0010253428753497,-0.0012640874321084,0.0012640858438955,-0.0012640856708703,0.0012640876575236,-0.0012640877487764,0.0012640855260112,-0.001264086012323,0.0012640873490629,-0.0010300405778542,0.0010300348741125,-0.0010300353201739,0.0010300402165958,-0.0010300365332866,0.0010300390071864,-0.0010300373311618,0.0010300381609422,5.9626790913055e-11,-4.517540949872e-10,-0.0010253431308687,0.0010253427512023,1.7129141429575e-09,-2.1898048582735e-09,-0.0012640861054949,0.0012640872262279,-0.0012640873479662,0.0012640859323817,-0.0012640862813859,0.0012640870234662,-0.0012640875663343,0.0012640857618467,-0.001030038808533,0.0010300366020008,-0.0010300383653104,0.001030037213383,0.66669417156753,131329,3014,0.0042640141201627,0.0042640141292045,0.0042640141325846,16.007954930974,-0.0001095363605522,-0.0001095363605522,-0.0001095363605522,4327390.3027873,0.012876172005946
23819200,0.98988781811976,0.013986326802276,0.0046621089275581,0.0046621089347764,0.004662108939942,-0.0010277700071805,0.001027769745706,-2.6000078677208e-10,8.9159415358709e-12,1.8557365564044e-09,-2.1765036756008e-09,-0.0012667160470952,0.0012667171410644,-0.0012667159710197,0.0012667172023349,-0.0012667174268031,0.0012667157247482,-0.0012667173651433,0.0012667157966875,-0.001032547836359,0.0010325459693881,-0.0010325476212385,0.0010325462431648,1.9749399431582e-10,-3.4685214887185e-10,-2.7603958243005e-09,2.6450408610424e-09,-0.0010277699406238,0.0010277698162026,-0.0012667173998879,0.001266715748408,-0.0012667156432821,0.0012667175564504,-0.0012667176457109,0.0012667155009177,-0.0012667159097486,0.0012667173235439,-0.0010325497111654,0.0010325440885335,-0.0010325444548942,0.0010325494336657,-0.001032545817993,0.0010325480729993,-0.0010325463901763,0.0010325474517417,8.6905056639586e-11,-4.7781681105382e-10,-0.0010277700682708,0.0010277696900341,1.6728282761562e-09,-2.1479941390476e-09,-0.0012667160441796,0.0012667171594373,-0.0012667172622993,0.0012667158904762,-0.0012667162395377,0.0012667169367826,-0.0012667174954289,0.0012667157045832,-0.0010325479900351,0.0010325457671581,-0.0010325475027403,0.0010325464235146,0.70079572597399,131329,3014,0.0042740853512473,0.0042740853594424,0.0042740853624721,17.241463744759,-9.966829004193e-05,-9.966829004193e-05,-9.966829004193e-05,4348317.5985919,0.012906782137359
24019200,0.99011150606307,0.013989424106152,0.0046631413621828,0.0046631413694018,0.0046631413745671,-0.001028112802918,0.0010281125678948,-2.5966633234238e-10,4.8356649237559e-11,1.7709077159261e-09,-2.0468038909579e-09,-0.0012672518860716,0.0012672529126641,-0.0012672517915651,0.0012672529843927,-0.0012672532017498,0.0012672515745089,-0.0012672531222418,0.0012672516584421,-0.0010329403296589,0.0010329385615299,-0.0010329401800377,0.0010329389707455,2.9847689943316e-10,-3.8300737856764e-10,-2.7210329156059e-09,2.6650690643632e-09,-0.0010281127306902,0.0010281126357215,-0.0012672531810296,0.0012672515873569,-0.001267251429617,0.0012672533851198,-0.0012672534776087,0.0012672513031721,-0.0012672517452452,0.0012672531147147,-0.0010329421843064,0.0010329366574338,-0.0010329370449542,0.0010329420567241,-0.0010329382437996,0.0010329407703297,-0.0010329389123617,0.0010329399560713,4.3343960518818e-11,-4.8924437371433e-10,-0.0010281128836033,0.0010281124815847,1.6597507045788e-09,-2.1845566952925e-09,-0.0012672518534321,0.0012672529639476,-0.0012672530885595,0.0012672516925999,-0.0012672520429602,0.0012672527597058,-0.0012672533144434,0.0012672515255127,-0.0010329405346337,0.001032938237456,-0.0010329401210379,0.0010329388985387,0.70866619032055,131329,3014,0.0042755098706616,0.0042755098615356,0.004275509858956,17.343176423492,-9.8854588612064e-05,-9.8854588612064e-05,-9.8854588612064e-05,4347749.8638793,0.01291111740586
24219200,0.99033131442948,0.013992323819624,0.0046641079333432,0.0046641079405587,0.0046641079457222,-0.0010283835238888,0.0010283832778049,-2.3770291419208e-10,9.2663166850918e-12,1.7608758502456e-09,-2.0563891944864e-09,-0.0012677142626367,0.0012677153031389,-0.001267714189698,0.0012677153567291,-0.0012677155734762,0.0012677139634258,-0.0012677155187181,0.0012677140247103,-0.0010332629821788,0.0010332612438858,-0.0010332628360535,0.0010332615282388,4.7837608555075e-10,-6.1311232503418e-10,-2.7616025376762e-09,2.6610616011682e-09,-0.0010283834632213,0.0010283833398034,-0.0012677155074755,0.0012677140233564,-0.001267713741582,0.0012677158369671,-0.001267715935983,0.001267713598517,-0.0012677141938915,0.0012677154231128,-0.0010332649893844,0.0010332592105285,-0.0010332597606323,0.0010332645973839,-0.0010332607399106,0.0010332635907968,-0.0010332618387382,0.0010332624003031,9.3154529693062e-11,-5.0746144025428e-10,-0.0010283835959675,0.0010283832077097,1.6633973987924e-09,-2.1596665413755e-09,-0.0012677142289044,0.0012677153527356,-0.0012677154497028,0.0012677140878895,-0.0012677144371102,0.0012677151227694,-0.0012677156992242,0.0012677138918223,-0.001033263227531,0.0010332609211239,-0.0010332627168096,0.0010332616349296,0.68010475380976,131329,3014,0.0042766352838647,0.0042766352866802,0.0042766352880074,17.418258941419,-9.8253928468644e-05,-9.8253928468644e-05,-9.8253928468644e-05,4346620.2548017,0.012914543955818
24419200,0.99054726527984,0.013995170346077,0.0046650567754942,0.0046650567827099,0.004665056787873,-0.001028669501669,0.00102866925131,-2.279300554815e-10,-6.4089462110925e-12,1.6999058000741e-09,-2.0008485802728e-09,-0.0012681281147448,0.001268129116682,-0.0012681280501509,0.0012681291643448,-0.001268129381733,0.0012681278158079,-0.0012681293375377,0.0012681278679996,-0.0010335822437467,0.0010335805635908,-0.0010335821142254,0.0010335808107003,6.2145209604282e-10,-7.7425449747018e-10,-2.7803233916713e-09,2.6637395193537e-09,-0.0010286694455565,0.0010286693091785,-0.0012681293013205,0.0012681278960175,-0.0012681275278973,0.0012681297187915,-0.0012681298244239,0.0012681273680631,-0.0012681280778472,0.0012681291995142,-0.0010335843535376,0.0010335784328815,-0.0010335790958607,0.0010335838336015,-0.0010335798835836,0.0010335830169454,-0.001033581281164,0.0010335815285888,1.1254560492667e-10,-5.2046791985643e-10,-0.0010286695704688,0.001028669185056,1.6654068670222e-09,-2.1558445021656e-09,-0.0012681280582196,0.0012681291928659,-0.001268129274347,0.0012681279272008,-0.0012681282723777,0.0012681289499372,-0.0012681295321458,0.0012681277149974,-0.0010335825304023,0.0010335801998708,-0.0010335819862702,0.0010335809489769,0.67934995676695,131329,3014,0.0042778230330148,0.0042778230366934,0.0042778230382989,17.491865829321,-9.7665073365435e-05,-9.7665073365435e-05,-9.7665073365435e-05,4346777.0708424,0.0129181565741
24619200,0.99075850568205,0.013998100835139,0.0046660336051822,0.0046660336123972,0.0046660336175595,-0.0010288418551813,0.0010288416044265,-2.2401764179717e-10,-9.0280293763702e-12,1.6204583599624e-09,-1.918697848686e-09,-0.0012684122352009,0.001268413180946,-0.0012684121719171,0.0012684132274665,-0.0012684134459417,0.0012684119343262,-0.0012684134054114,0.0012684119819375,-0.001033784144271,0.0010337825302809,-0.0010337840323621,0.0010337827740019,7.5570410103416e-10,-9.1236341995137e-10,-2.7891188734455e-09,2.6692764979327e-09,-0.0010288418016887,0.001028841658853,-0.0012684133587309,0.001268412026522,-0.0012684115784071,0.0012684138552733,-0.0012684139674343,0.0012684114062629,-0.001268412217537,0.0012684132414853,-0.0010337863373151,0.0010337803135905,-0.0010337810729004,0.0010337857375246,-0.0010337816776722,0.0010337850882819,-0.001033783334175,0.001033783320289,1.1699158354625e-10,-5.2948357766957e-10,-0.0010288419243546,0.0010288415367095,1.6706625564645e-09,-2.1651717764591e-09,-0.0012684121486201,0.0012684132915789,-0.0012684133663473,0.0012684120211656,-0.0012684123634766,0.0012684130422732,-0.0012684136277674,0.0012684117997269,-0.0010337844728592,0.0010337821093835,-0.0010337839216186,0.001033782884927,0.70944814813889,131329,3014,0.0042785391954167,0.0042785391973822,0.0042785391984298,17.497816375799,-9.7617468993606e-05,-9.7617468993606e-05,-9.7617468993606e-05,4345724.3903806,0.012920335586547
24819200,0.99096500662897,0.014000735702385,0.0046669118942653,0.0046669119014793,0.0046669119066405,-0.0010289606495551,0.001028960423058,-3.152109902265e-10,1.0390854401825e-10,1.2067329370195e-09,-1.4794056167916e-09,-0.0012686956932524,0.0012686963188901,-0.0012686955670718,0.0012686964273111,-0.0012686966301329,0.0012686953549579,-0.0012686965117741,0.0012686954778808,-0.0010339424708008,0.0010339409476073,-0.0010339421395724,0.0010339414125613,5.4002817918339e-10,-6.803539113701e-10,-2.7555933435783e-09,2.650536736455e-09,-0.0010289606002652,0.0010289604734126,-0.0012686967109644,0.001268695272775,-0.0012686949552369,0.0012686970752203,-0.0012686971784589,0.0012686947978494,-0.0012686954388353,0.0012686966209704,-0.001033944606208,0.0010339387840465,-0.0010339393789217,0.0010339441689879,-0.0010339402824875,0.0010339432324125,-0.0010339414889423,0.0010339419270898,1.6702351313456e-11,-4.3247591236362e-10,-0.0010289607325319,0.0010289603418492,1.7107502488571e-09,-2.2089472202375e-09,-0.0012686954630219,0.0012686965716238,-0.0012686967200275,0.0012686952683617,-0.0012686956197462,0.0012686963841383,-0.0012686969092958,0.0012686951230147,-0.0010339427560994,0.0010339405786423,-0.0010339424113966,0.0010339411342364,0.6611259723118,131329,3014,0.0042790340077916,0.0042790340100382,0.0042790340114725,17.493834982647,-9.7649320138827e-05,-9.7649320138827e-05,-9.7649320138827e-05,4343216.7567407,0.012921844681977
25019200,0.9911785792782,0.01400342631147,0.0046678087639616,0.0046678087711748,0.0046678087763341,-0.0010307504772589,0.0010307502317151,-2.7066336859635e-10,3.1598369426798e-11,1.4131605489153e-09,-1.7183162988225e-09,-0.0012706266487646,0.001270627450569,-0.0012706265611815,0.0012706275248338,-0.0012706277291946,0.0012706263348686,-0.001270627658958,0.0012706264152755,-0.0010357864314052,0.0010357848435994,-0.0010357861637942,0.0010357851191693,6.9591719998137e-10,-8.9026658581801e-10,-2.7893340560663e-09,2.63592043387e-09,-0.0010307504352946,0.0010307502799572,-0.0012706276979765,0.0012706263633493,-0.0012706259325685,0.0012706281798856,-0.0012706282871196,0.0012706257651614,-0.001270626546857,0.0012706275935264,-0.0010357886565648,0.0010357826201126,-0.0010357833624712,0.0010357879590278,-0.0010357840604132,0.0010357872927965,-0.0010357856739792,0.0010357856504691,9.7111929797205e-11,-4.7625259995704e-10,-0.0010307505457989,0.0010307501717435,1.6999786360696e-09,-2.1648605127915e-09,-0.0012706264929095,0.0012706276228061,-0.0012706277218711,0.001270626339719,-0.0012706266875644,0.0012706273958639,-0.0012706279596292,0.0012706261471437,-0.0010357867373714,0.0010357845084243,-0.0010357862232203,0.0010357851695944,0.65362910079721,131329,3014,0.0042864608742378,0.0042864608873047,0.004286460892028,18.393787395221,-9.0449700838233e-05,-9.0449700838233e-05,-9.0449700838233e-05,4358877.0640876,0.012944417077741
25219200,0.9914103436496,0.014006456290857,0.0046688187570902,0.0046688187643038,0.0046688187694628,-0.0010340340598404,0.0010340338101723,-2.6212416481611e-10,1.8718040294365e-11,1.5239301244514e-09,-1.834475681086e-09,-0.0012741132732,0.0012741141505244,-0.0012741131918213,0.0012741142180547,-0.0012741144270403,0.0012741129613798,-0.0012741143630385,0.0012741130353169,-0.0010391600078363,0.0010391583616106,-0.0010391597647413,0.0010391586220574,5.7772335933046e-10,-7.6236461268329e-10,-2.7710710199385e-09,2.6259906298884e-09,-0.0010340340113055,0.0010340338640209,-0.0012741143940429,0.0012741129914499,-0.0012741126382923,0.0012741147982544,-0.0012741148998138,0.0012741124779973,-0.0012741131686788,0.0012741142963175,-0.0010391621423504,0.0010391562270825,-0.0010391568812543,0.0010391615413212,-0.0010391577286344,0.001039160719829,-0.0010391590969873,0.0010391593222583,1.1080755616993e-10,-4.9080458246279e-10,-0.0010340341258023,0.0010340337514777,1.669186862193e-09,-2.1344750734428e-09,-0.0012741131600317,0.0012741142795039,-0.0012741143697389,0.001274113017241,-0.0012741133640235,0.0012741140443656,-0.0012741146158067,0.0012741128157313,-0.0010391602873406,0.0010391580496295,-0.0010391597483002,0.0010391587380952,0.67455043047877,131329,3014,0.0043000855858609,0.0043000855968975,0.004300085600912,20.104507415879,-7.6763940672964e-05,-7.6763940672964e-05,-7.6763940672964e-05,4388742.407173,0.012985827261139
25419200,0.99164914253088,0.014009864871662,0.0046699549506893,0.0046699549579064,0.0046699549630662,-0.0010358921758632,0.0010358919407287,-2.5889555633023e-10,4.4441846214457e-11,1.525658141191e-09,-1.8030213029368e-09,-0.0012761737351511,0.0012761746002415,-0.0012761736439554,0.0012761746710519,-0.0012761748852181,0.0012761734229839,-0.0012761748093718,0.0012761735030972,-0.0010410898150099,0.0010410882062147,-0.0010410896448051,0.001041088585365,5.6141586818572e-10,-6.7871101650426e-10,-2.7325394819333e-09,2.6481809950249e-09,-0.0010358921155342,0.0010358919984045,-0.0012761748667239,0.0012761734409229,-0.0012761731152796,0.0012761752381787,-0.0012761753419913,0.0012761729635693,-0.0012761736125568,0.0012761747744962,-0.0010410918642905,0.0010410861136067,-0.0010410867072521,0.0010410914953593,-0.0010410875519136,0.0010410905752952,-0.0010410887723391,0.0010410892215743,7.6656098208819e-11,-5.0914481374014e-10,-0.0010358922547771,0.0010358918585223,1.6432280992595e-09,-2.155625952548e-09,-0.0012761736224561,0.0012761747364093,-0.0012761748365689,0.0012761734777856,-0.0012761738240804,0.0012761745075633,-0.0012761750773375,0.0012761732853686,-0.0010410901125853,0.0010410877988718,-0.0010410896403164,0.0010410885088779,0.72789749639728,131329,3014,0.0043077964522227,0.0043077964467169,0.0043077964453484,21.028526526743,-6.9371787786058e-05,-6.9371787786058e-05,-6.9371787786058e-05,4403570.7511115,0.013009266590205
25619200,0.99188014973068,0.014013181141406,0.004671060373944,0.0046710603811527,0.0046710603863092,-0.0010358710757221,0.0010358708331416,-2.6004742987658e-10,4.2813370875026e-11,1.4910946064657e-09,-1.7701188125853e-09,-0.0012763745907034,0.0012763754209852,-0.0012763744992852,0.0012763754931654,-0.0012763757143358,0.0012763742638162,-0.0012763756429141,0.0012763743388742,-0.0010411268975515,0.0010411253139554,-0.0010411267411048,0.0010411256906451,7.2538066118792e-10,-8.4906193977181e-10,-2.7544310788407e-09,2.6641731960613e-09,-0.00103587101772,0.0010358708885413,-0.0012763756678122,0.001276374320344,-0.0012763738994805,0.0012763761334384,-0.0012763762465943,0.0012763737260189,-0.0012763745073225,0.0012763755487785,-0.0010411290314748,0.0010411231310818,-0.0010411238465236,0.0010411285628536,-0.0010411244688717,0.0010411278379175,-0.0010411260068452,0.0010411261363605,7.7809964753105e-11,-5.1532764480007e-10,-0.0010358711515152,0.0010358707541288,1.6554277485245e-09,-2.1721273140457e-09,-0.001276374459188,0.0012763755841253,-0.0012763756746369,0.0012763743153189,-0.0012763746559347,0.0012763753474345,-0.0012763759172286,0.0012763741106633,-0.0010411272159085,0.0010411248652599,-0.0010411267440932,0.001041125603847,0.7324407789379,131329,3014,0.0043077115332529,0.0043077115278953,0.0043077115265842,20.943743959132,-7.0050048326942e-05,-7.0050048326942e-05,-7.0050048326942e-05,4398294.3816558,0.013009016325886
25819200,0.9920936461285,0.014016155544127,0.0046720518415217,0.0046720518487255,0.0046720518538796,-0.0010344646439727,0.001034464429237,-2.6744871974284e-10,7.4558061361228e-11,1.1612415812786e-09,-1.4130999119442e-09,-0.001275119698411,0.0012751203213508,-0.0012751195956784,0.001275120402191,-0.0012751206012342,0.0012751193972356,-0.0012751205084465,0.0012751194930911,-0.001039743182072,0.0010397418046677,-0.0010397429769489,0.0010397422366397,7.2930514796884e-10,-8.4802537232243e-10,-2.7665292212613e-09,2.6817734217428e-09,-0.0010344645958718,0.0010344644749381,-0.0012751206656284,0.0012751193279169,-0.0012751188946008,0.001275121143941,-0.001275121255636,0.0012751187396809,-0.0012751195008259,0.0012751205747302,-0.0010397454359032,0.0010397395047858,-0.0010397402127888,0.0010397449639633,-0.001039740862552,0.0010397442401594,-0.0010397424042745,0.0010397425553152,6.0596223385794e-11,-5.0038285835304e-10,-0.0010344647351282,0.0010344643351396,1.7024010454784e-09,-2.2222018334358e-09,-0.0012751194473342,0.0012751205944961,-0.0012751207089937,0.0012751192929045,-0.0012751196451997,0.0012751203742717,-0.001275120940166,0.0012751191143921,-0.0010397436040276,0.0010397412684571,-0.0010397431655293,0.0010397419505605,0.7138686666177,131329,3014,0.0043018785162762,0.0043018785113535,0.0043018785102068,20.108657942919,-7.6730736456651e-05,-7.6730736456651e-05,-7.6730736456651e-05,4380065.6832534,0.012991294478759
26019200,0.99229661344892,0.01401886095621,0.0046729536455506,0.0046729536527531,0.0046729536579063,-0.0010338638317013,0.001033863592375,-2.6966234520634e-10,3.7541445164032e-11,1.2012820076887e-09,-1.4971065343348e-09,-0.0012746436619354,0.0012746443220692,-0.0012746435722112,0.0012746443984038,-0.0012746445976829,0.0012746433509779,-0.0012746445258571,0.0012746434321719,-0.0010391688468036,0.0010391674050319,-0.0010391685746669,0.0010391676851077,9.3991614666945e-10,-1.1475710012179e-09,-2.8454384004392e-09,2.6806135561065e-09,-0.0010338637994421,0.0010338636314307,-0.001274644581489,0.001274643366597,-0.0012746427816315,0.0012746452170483,-0.0012746453344478,0.0012746425995249,-0.0012746435609651,0.0012746444612994,-0.0010391712832651,0.0010391649692333,-0.0010391658908466,0.001039170409053,-0.001039166291806,0.0010391700389756,-0.0010391683915481,0.0010391678995354,1.1110213205319e-10,-4.9171947557226e-10,-0.0010338639039874,0.0010338635293189,1.7358120723092e-09,-2.2020982419838e-09,-0.0012746434201323,0.001274644582494,-0.0012746446717369,0.001274643274691,-0.0012746436221281,0.0012746443441498,-0.0012746449183125,0.001274643070256,-0.0010391692523271,0.0010391669665711,-0.0010391687126972,0.0010391676608173,0.68688841026609,131329,3014,0.0042993872094973,0.0042993872236687,0.0042993872286973,19.715971126032,-7.9872230991744e-05,-7.9872230991744e-05,-7.9872230991744e-05,4370708.7457151,0.012983726986499
26219200,0.99249334610327,0.014021658806405,0.0046738862622786,0.004673886269486,0.0046738862746406,-0.0010338481430323,0.0010338479186865,-2.4948165038918e-10,2.9184939067204e-11,1.2249504565456e-09,-1.50923115873e-09,-0.0012747155877282,0.0012747162837375,-0.0012747155028558,0.0012747163518112,-0.0012747165360287,0.0012747153108351,-0.0012747164714829,0.0012747153852527,-0.0010391782286163,0.0010391768241124,-0.0010391779965133,0.0010391770863136,1.0328984834254e-09,-1.2350824948441e-09,-2.8705304921113e-09,2.7126134029684e-09,-0.0010338481133402,0.0010338479536646,-0.0012747164975698,0.0012747153336573,-0.0012747146808206,0.0012747172026618,-0.0012747173160207,0.0012747145218058,-0.0012747155229774,0.0012747163984716,-0.0010391807233287,0.0010391743227533,-0.0010391752991146,0.0010391798000674,-0.0010391755943323,0.001039179553444,-0.0010391778915964,0.0010391772436731,1.2617137387467e-10,-5.1218282219577e-10,-0.0010338482237307,0.0010338478452508,1.7348697494494e-09,-2.2066965638171e-09,-0.0012747153535643,0.0012747165249081,-0.0012747166158784,0.0012747152224454,-0.0012747155753076,0.001274716288454,-0.0012747168791235,0.00127471501615,-0.001039178679303,0.0010391763570283,-0.0010391780912618,0.0010391770731643,0.72525111658727,131329,3014,0.0042993228747057,0.0042993228857005,0.0042993228897725,19.629113120682,-8.0567095034543e-05,-8.0567095034543e-05,-8.0567095034543e-05,4367895.8580528,0.012983532903998
26419200,0.99268852357581,0.014024522127158,0.0046748407025264,0.0046748407097378,0.0046748407148938,-0.0010344939704085,0.0010344937397323,-2.6220062915664e-10,3.8531242132296e-11,1.189225440185e-09,-1.4760275846058e-09,-0.001275546788193,0.0012755474434748,-0.0012755466983572,0.0012755475181038,-0.0012755477119768,0.0012755464898605,-0.0012755476403583,0.001275546569922,-0.0010398887557079,0.0010398873465513,-0.0010398885069684,0.0010398876366935,9.4282144610624e-10,-1.1371249227998e-09,-2.8658721075955e-09,2.7140893638352e-09,-0.0010344939359583,0.001034493778693,-0.0012755477133901,0.0012755464830301,-0.001275545896421,0.0012755483501516,-0.001275548463515,0.0012755457263286,-0.001275546672016,0.0012755476040705,-0.0010398912159638,0.0010398848800559,-0.0010398857903571,0.0010398903775192,-0.0010398862054669,0.0010398899863903,-0.0010398882946632,0.0010398878529735,1.1643902863231e-10,-5.0672695772163e-10,-0.0010344940485622,0.0010344936677441,1.7467243460349e-09,-2.2223455705595e-09,-0.001275546535171,0.0012755477123048,-0.0012755478021486,0.0012755463967713,-0.0012755467468258,0.0012755474727993,-0.0012755480562588,0.0012755461895052,-0.0010398891957404,0.0010398868659245,-0.0010398886397734,0.0010398875819838,0.74503107432268,131329,3014,0.0043020043568081,0.004302004366182,0.0043020043695761,19.91897207059,-7.8248223435277e-05,-7.8248223435277e-05,-7.8248223435277e-05,4370083.2021137,0.012991688303413
26619200,0.99288866294175,0.014027427317426,0.0046758090992811,0.0046758091064945,0.0046758091116506,-0.0010361159563251,0.0010361157081861,-2.6343575645376e-10,2.3636645063777e-11,1.3388567259637e-09,-1.6433246082671e-09,-0.0012774390324607,0.0012774397804365,-0.0012774389492148,0.0012774398503193,-0.0012774400593654,0.0012774387155453,-0.0012774399948181,0.0012774387892694,-0.0010416139364273,0.0010416124138657,-0.0010416136915078,0.0010416126811603,8.8680841226066e-10,-1.08601006173e-09,-2.8691857422306e-09,2.7121927082962e-09,-0.0010361159158869,0.0010361157538402,-0.0012774400255727,0.001277438753052,-0.0012774382067836,0.0012774406223653,-0.0012774407363871,0.0012774380244143,-0.0012774389449367,0.0012774399041753,-0.0010416163306342,0.0010416100147938,-0.0010416108928367,0.0010416155171841,-0.0010416113801635,0.0010416150431275,-0.0010416133591046,0.0010416130149175,1.2908338812051e-10,-5.1446579974649e-10,-0.0010361160248883,0.0010361156467792,1.7367706838037e-09,-2.2076601316454e-09,-0.0012774388283518,0.0012774400058937,-0.0012774400810613,0.0012774386957727,-0.001277439042135,0.0012774397526186,-0.001277440339216,0.0012774384745111,-0.0010416143212045,0.0010416119843042,-0.0010416137483456,0.0010416127244403,0.73848803872776,131329,3014,0.0043087366794522,0.0043087366902919,0.0043087366942791,20.758868136235,-7.1529054910123e-05,-7.1529054910123e-05,-7.1529054910123e-05,4381376.1896127,0.013012158050769
26819200,0.99309226826222,0.014030300620526,0.00467676686698,0.0046767668741949,0.004676766879351,-0.0010375503822137,0.0010375501791877,-2.9426085926803e-10,1.065522715483e-10,1.2051729394704e-09,-1.4543508624618e-09,-0.0012791312312306,0.0012791318776524,-0.00127913110673,0.0012791319792426,-0.0012791321598192,0.0012791309302896,-0.0012791320493651,0.0012791310511595,-0.0010431404420928,0.001043138973414,-0.0010431401384426,0.0010431394194391,5.7190763669363e-10,-7.0105067512207e-10,-2.7904180132379e-09,2.6979405865192e-09,-0.0010375503371545,0.0010375502247681,-0.0012791322492489,0.00127913081965,-0.0012791304690116,0.0012791326528355,-0.0012791327461845,0.0012791303464222,-0.0012791309765409,0.0012791321931831,-0.0010431426344214,0.0010431367474986,-0.0010431373451957,0.0010431421840988,-0.0010431382317217,0.0010431412803732,-0.0010431395228709,0.0010431399318828,5.8278331578151e-11,-4.783927378126e-10,-0.0010375504786114,0.0010375500837881,1.7575673529209e-09,-2.2608651456217e-09,-0.0012791309745983,0.0012791321389169,-0.0012791322734196,0.001279130811472,-0.0012791311733917,0.0012791319387433,-0.0012791325014719,0.0012791306491735,-0.0010431408288289,0.0010431385313901,-0.0010431403721535,0.0010431391558563,0.72122277253812,131329,3014,0.0043146906621931,0.0043146906632864,0.0043146906642376,21.496859493347,-6.5625124053226e-05,-6.5625124053226e-05,-6.5625124053226e-05,4391175.2521023,0.01303026147387
27019200,0.99329270062507,0.014033040928263,0.0046776803028928,0.0046776803101069,0.0046776803152634,-0.0010380497624548,0.0010380495324699,-2.2911450385624e-10,1.919602607458e-11,1.550219930904e-09,-1.8232663232595e-09,-0.0012798112148593,0.0012798121225613,-0.0012798111401809,0.0012798121754996,-0.0012798123848557,0.0012798109329767,-0.0012798123266972,0.0012798109938615,-0.0010436914610249,0.0010436899030661,-0.0010436913550221,0.0010436902310568,8.7207351287068e-10,-9.9894489538974e-10,-2.8510413834925e-09,2.7603712518604e-09,-0.0010380497082637,0.0010380495841161,-0.0012798123023755,0.0012798110076453,-0.0012798104735096,0.0012798128816719,-0.0012798129922019,0.0012798103228671,-0.001279811186269,0.0012798122089953,-0.0010436937477469,0.0010436875664127,-0.0010436883797291,0.0010436931670634,-0.0010436888776237,0.0010436926036554,-0.0010436907307427,0.0010436906242889,1.2894767914868e-10,-5.6703492688398e-10,-0.0010380498457519,0.0010380494459605,1.6980069970224e-09,-2.2164011321433e-09,-0.0012798110861013,0.0012798122708742,-0.0012798123418163,0.0012798109774464,-0.0012798113271656,0.0012798120103577,-0.001279812623599,0.0012798107524678,-0.0010436918636045,0.0010436893959021,-0.0010436912753709,0.0010436902120998,0.70228870234626,131329,3014,0.0043167641744334,0.0043167641691836,0.0043167641677664,21.715244663434,-6.3878042692527e-05,-6.3878042692527e-05,-6.3878042692527e-05,4392465.3670657,0.013036568035375
27219200,0.99348763517767,0.014035615088498,0.0046785383563056,0.0046785383635184,0.0046785383686737,-0.0010382087832395,0.0010382085141877,-1.7737873946597e-10,-7.028096620002e-11,1.8291132341404e-09,-2.142860069037e-09,-0.0012800868288267,0.0012800879319048,-0.0012800868021001,0.0012800879419736,-0.0012800881819926,0.0012800865400724,-0.0012800881777817,0.0012800865487728,-0.0010438762109925,0.0010438745471339,-0.0010438762222979,0.001043874699694,1.14416250802e-09,-1.3124240365194e-09,-2.9282143922386e-09,2.7993188608205e-09,-0.0010382087280234,0.0010382085693247,-0.0012800879597484,0.0012800867769383,-0.0012800860878634,0.0012800886947312,-0.0012800888234645,0.0012800858879754,-0.0012800869849393,0.0012800878130892,-0.0010438786384659,0.0010438720858156,-0.001043873124683,0.0010438777966919,-0.0010438732850734,0.001043877561827,-0.0010438756949598,0.0010438750031802,2.115775721857e-10,-6.3231275198535e-10,-0.0010382088439,0.0010382084536142,1.664366686549e-09,-2.1659277744962e-09,-0.001280086792024,0.0012800880007343,-0.0012800880046636,0.0012800867305887,-0.0012800870673536,0.0012800876792017,-0.0012800883284563,0.001280086436618,-0.0010438766073221,0.0010438740321995,-0.0010438758800974,0.0010438750192244,0.68192144757234,131329,3014,0.0043174247249544,0.0043174247248413,0.0043174247251543,21.739946829131,-6.368042536695e-05,-6.368042536695e-05,-6.368042536695e-05,4391031.3341687,0.01303857753863
27419200,0.99367867437292,0.014038227624298,0.0046794092015739,0.0046794092087853,0.0046794092139391,-0.001038621159254,0.0010386209384588,-4.6661628145761e-10,2.593206305798e-10,7.1035687555565e-10,-9.7564470169466e-10,-0.0012805774425097,0.0012805776372697,-0.001280577217463,0.0012805778473088,-0.0012805780405886,0.0012805770010536,-0.0012805778241777,0.001280577224849,-0.001044308724277,0.001044307223723,-0.0010443080519618,0.0010443079517834,-1.5627110172594e-11,-1.205328332624e-10,-2.7099294965995e-09,2.6054729727489e-09,-0.0010386211094264,0.001038620992535,-0.0012805784077154,0.001280576640853,-0.0012805766811561,0.001280578415609,-0.0012805784978538,0.0012805765303561,-0.0012805767892365,0.0012805783260941,-0.0010443106702982,0.0010443052761677,-0.0010443054805332,0.0010443105587311,-0.0010443071208304,0.0010443089037974,-0.0010443072159487,0.0010443087225797,-8.459002733273e-11,-3.1639414299376e-10,-0.0010386212457873,0.0010386208576934,1.8863521187964e-09,-2.3728144034723e-09,-0.0012805769810135,0.0012805781253543,-0.0012805783427228,0.0012805767044254,-0.0012805770600259,0.0012805780013273,-0.0012805784560416,0.0012805766223192,-0.0010443089654642,0.0010443069094856,-0.0010443088288492,0.0010443072482176,0.70215250670759,131329,3014,0.0043191359846187,0.004319135993484,0.004319135996602,21.892036438609,-6.2463708491131e-05,-6.2463708491131e-05,-6.2463708491131e-05,4392631.4637501,0.013043778582578
27619200,0.99386853912827,0.014040868639439,0.0046802895399536,0.0046802895471661,0.0046802895523198,-0.0010394547892957,0.0010394545609975,-3.9470549748858e-10,1.7298524424306e-10,1.0467173882376e-09,-1.3304289330446e-09,-0.0012815442914457,0.00128154478039,-0.0012815441196347,0.001281544938128,-0.0012815451317627,0.0012815439096138,-0.0012815449693535,0.0012815440795781,-0.0010451870014098,0.0010451854188184,-0.0010451864709051,0.0010451859686102,2.36087926236e-10,-3.9727818555281e-10,-2.7761332832425e-09,2.6507257238903e-09,-0.0010394547422388,0.0010394546138037,-0.0012815453274391,0.0012815437086295,-0.0012815435629331,0.0012815455220361,-0.0012815456084393,0.0012815434193708,-0.0012815438627558,0.0012815452524411,-0.0010451890560869,0.0010451833601607,-0.0010451837565074,0.0010451887164919,-0.0010451850851143,0.001045187413144,-0.0010451857563031,0.0010451867106807,4.3646418396584e-12,-3.9236898660268e-10,-0.0010394548696618,0.0010394544884398,1.8344680275257e-09,-2.3088829748276e-09,-0.00128154396477,0.0012815451261854,-0.0012815452883906,0.0012815437468821,-0.0012815441030353,0.0012815449511994,-0.0012815454673794,0.0012815436179016,-0.0010451872715693,0.0010451851188054,-0.0010451869363281,0.0010451855948925,0.71253171685758,131329,3014,0.0043225956143329,0.0043225956263032,0.0043225956305501,22.282171755725,-5.9342625954199e-05,-5.9342625954199e-05,-5.9342625954199e-05,4397497.7873609,0.013054296293719
27819200,0.99405452168141,0.014043502867624,0.0046811676160136,0.0046811676232282,0.0046811676283819,-0.0010398648586118,0.0010398646207599,-2.9996034727023e-10,8.1444841004249e-11,1.3972802472241e-09,-1.6778202333024e-09,-0.0012820929962694,0.0012820937555499,-0.0012820928823487,0.0012820938514066,-0.0012820940662951,0.0012820926560229,-0.0012820939669861,0.0012820927588945,-0.0010456368720881,0.0010456352599948,-0.001045636609043,0.0010456356922027,5.8601241839578e-10,-7.158080714408e-10,-2.8266255618906e-09,2.7312274064392e-09,-0.0010398648009526,0.0010398646772992,-0.0012820940949934,0.0012820926311411,-0.0012820922822131,0.0012820944888096,-0.0012820945918148,0.001282092122422,-0.001282092803784,0.0012820939950665,-0.0010456390319082,0.0010456330580927,-0.0010456336832087,0.001045638608445,-0.0010456345476541,0.0010456376736246,-0.0010456358408695,0.0010456362585005,8.078940476267e-11,-5.0889182899806e-10,-0.0010398649378312,0.0010398645402943,1.7558979409497e-09,-2.265935714837e-09,-0.0012820927975805,0.0012820939830929,-0.0012820940792302,0.001282092647497,-0.0012820929964598,0.00128209374457,-0.0012820943232968,0.0012820924497262,-0.0010456372092773,0.0010456348239109,-0.0010456367189452,0.0010456355329363,0.72383700530034,131329,3014,0.0043242981732128,0.0043242981709004,0.0043242981705984,22.443837827897,-5.8049297376823e-05,-5.8049297376823e-05,-5.8049297376823e-05,4398095.2238905,0.01305947431945
28019200,0.99423735575389,0.014046143635177,0.004682047871868,0.0046820478790786,0.0046820478842304,-0.0010403825401396,0.001040382287905,-2.3616963767968e-10,-3.2982009481074e-12,1.642926116529e-09,-1.9486318541345e-09,-0.001282771006541,0.001282771973292,-0.0012827709399707,0.0012827720231322,-0.0012827722419648,0.0012827707069775,-0.0012827721930927,0.0012827707624355,-0.0010462069566245,0.0010462052905201,-0.0010462068007619,0.0010462055388573,8.0429608524183e-10,-9.7432041861751e-10,-2.8930238150316e-09,2.7620264803743e-09,-0.0010403824886832,0.0010403823423538,-0.0012827721482756,0.0012827707989159,-0.0012827703047953,0.0012827726907808,-0.0012827728009959,0.0012827701383909,-0.001282770982993,0.0012827720415797,-0.0010462092520141,0.0010462029738969,-0.0010462037774819,0.0010462085710946,-0.0010462043908529,0.0010462079448041,-0.0010462061713338,0.001046206090585,1.7071808923838e-10,-5.740721922827e-10,-0.0010403826084012,0.001040382223858,1.7194127508413e-09,-2.2062987980862e-09,-0.0012827708970344,0.0012827721027721,-0.001282772148024,0.0012827708013028,-0.0012827711482796,0.001282771818841,-0.0012827724438446,0.0012827705526591,-0.0010462073229782,0.0010462048626204,-0.0010462066599527,0.0010462057082495,0.73612816163012,131329,3014,0.0043264475076344,0.0043264475138929,0.0043264475164024,22.670796485618,-5.6233628115058e-05,-5.6233628115058e-05,-5.6233628115058e-05,4399468.6957574,0.013066011518639
28219200,0.99441989150768,0.014048835534948,0.0046829451717911,0.0046829451790025,0.0046829451841543,-0.0010413735160011,0.0010413732683849,-1.9113349503234e-10,-5.0763879433623e-11,1.7935652111963e-09,-2.1047839632359e-09,-0.0012839639218261,0.0012839650284269,-0.0012839638832329,0.0012839650488804,-0.001283965257822,0.0012839636679909,-0.0012839652375185,0.0012839636978707,-0.0010472721426695,0.001047270456856,-0.0010472720466205,0.0010472705902675,8.7885731542603e-10,-1.0680320794579e-09,-2.9204790119127e-09,2.7735566007534e-09,-0.0010413734698011,0.0010413733199919,-0.0012839651029241,0.0012839638055809,-0.0012839632507078,0.0012839657100417,-0.0012839658169179,0.0012839631023386,-0.0012839639851341,0.001283965016352,-0.0010472744927923,0.0010472680988262,-0.0010472689607425,0.0010472736874141,-0.0010472695049609,0.001047273190793,-0.0010472714757358,0.00104727120375,2.2887375203457e-10,-6.1502425278419e-10,-0.0010413735845081,0.001041373207308,1.696344021031e-09,-2.1675752503875e-09,-0.0012839638689375,0.0012839650856383,-0.0012839651085959,0.0012839638095411,-0.0012839641614585,0.0012839647811071,-0.0012839654394928,0.0012839635371827,-0.0010472725381739,0.0010472700412922,-0.0010472717546519,0.0010472709582594,0.7494920943235,131329,3014,0.0043305609542894,0.0043305609655496,0.0043305609697201,23.164259519664,-5.2285923842692e-05,-5.2285923842692e-05,-5.2285923842692e-05,4405141.2232921,0.013078520145824
28419200,0.99459679606121,0.014051501778322,0.0046838339195791,0.0046838339267948,0.004683833931948,-0.0010414797747171,0.0010414795492881,-3.0612439637453e-10,1.0296352335857e-10,1.3994947181617e-09,-1.6638085346737e-09,-0.0012842582872934,0.0012842590290014,-0.0012842581586579,0.0012842591359387,-0.0012842593449518,0.0012842579478359,-0.0012842592304907,0.0012842580650391,-0.0010474352680464,0.0010474336572268,-0.001047435002546,0.0010474341523113,5.6045730371263e-10,-6.6647422927089e-10,-2.8079714115732e-09,2.7348447295466e-09,-0.0010414797148534,0.0010414796057448,-0.0012842593871658,0.0012842579037918,-0.0012842575831357,0.0012842597527473,-0.0012842598521801,0.0012842574372887,-0.0012842580689197,0.0012842593008618,-0.0010474373785698,0.0010474314957195,-0.001047432073675,0.0010474370430753,-0.0010474329787537,0.0010474360536309,-0.0010474341728078,0.0010474347139814,6.8824065854384e-11,-5.1291415076595e-10,-0.0010414798622052,0.0010414794574672,1.7519591643648e-09,-2.2765950933914e-09,-0.0012842580787063,0.0012842592616641,-0.0012842593728139,0.0012842579261805,-0.0012842582778406,0.0012842590360711,-0.001284259609633,0.0012842577377953,-0.0010474356019168,0.0010474332012179,-0.0010474351436301,0.0010474339118663,0.76402648327623,131329,3014,0.0043310039561736,0.0043310039491146,0.0043310039471526,23.176433399693,-5.2188532802455e-05,-5.2188532802455e-05,-5.2188532802455e-05,4401876.7732256,0.013079872711349
28619200,0.99476858720853,0.014054110117167,0.0046847033658678,0.0046847033730749,0.0046847033782246,-0.0010416321885177,0.0010416319209266,-1.3766188546507e-10,-1.1577555069522e-10,1.8647397175111e-09,-2.1862459759803e-09,-0.0012846140122059,0.0012846151871572,-0.0012846140157338,0.0012846151670366,-0.0012846153997025,0.0012846137653386,-0.0012846154243583,0.0012846137461356,-0.0010476544723462,0.0010476528509394,-0.0010476545312578,0.0010476528948162,1.0686176154344e-09,-1.2529411296427e-09,-2.9591181917044e-09,2.8158772903525e-09,-0.0010416321367568,0.0010416319753831,-0.0012846151980915,0.0012846139712363,-0.0012846133112951,0.0012846159052481,-0.0012846160283863,0.0012846131254054,-0.0012846141720766,0.0012846150676389,-0.0010476569400585,0.0010476503590207,-0.001047651357627,0.0010476560794297,-0.001047651647751,0.0010476557655914,-0.0010476539500331,0.0010476533708002,2.860538588392e-10,-6.8937093730872e-10,-0.0010416322478659,0.0010416318653726,1.6605734253276e-09,-2.1464524166315e-09,-0.0012846139887499,0.0012846152338992,-0.0012846151958682,0.0012846139735562,-0.0012846143138456,0.0012846148707599,-0.0012846155687458,0.0012846136407451,-0.0010476549515219,0.0010476522969322,-0.0010476540698109,0.001047653380864,0.76896224084464,131329,3014,0.0043316385505208,0.0043316385561736,0.0043316385584288,23.222838115969,-5.1817295072246e-05,-5.1817295072246e-05,-5.1817295072246e-05,4398756.7745763,0.013081808574773
28819200,0.99494188107876,0.014056665314706,0.0046855550983805,0.0046855551055881,0.0046855551107375,-0.0010429386723881,0.0010429384270767,-4.6874193904964e-10,2.2880689816514e-10,1.0487718382697e-09,-1.3517546376178e-09,-0.0012861769229174,0.0012861773306539,-0.0012861767044094,0.0012861775384815,-0.0012861777435573,0.0012861764636286,-0.001286177536461,0.0012861766815608,-0.0010490589878643,0.0010490572411417,-0.0010490582928797,0.0010490578906818,1.5465750827143e-10,-3.3641162394221e-10,-2.7711364745294e-09,2.6262207881343e-09,-0.0010429386245831,0.0010429384833192,-0.0012861779517295,0.0012861762660954,-0.0012861761997405,0.0012861780698912,-0.0012861781564276,0.001286176032627,-0.0012861764253065,0.0012861778541022,-0.0010490609492789,0.0010490552924851,-0.0010490556421555,0.0010490606051056,-0.0010490570835888,0.0010490591968223,-0.0010490575948918,0.0010490586568612,-3.2736094611251e-11,-3.3885683886206e-10,-0.0010429387425485,0.0010429383684088,1.8405047991065e-09,-2.2998673966591e-09,-0.0012861765748419,0.0012861777040483,-0.0012861778929217,0.0012861763190545,-0.0012861766698189,0.0012861775563444,-0.0012861780259988,0.0012861762103009,-0.0010490591168878,0.0010490570821304,-0.0010490588815665,0.0010490574750945,0.74978590232996,131329,3014,0.0043370616332586,0.0043370616508091,0.0043370616571162,23.9115858104,-4.6307313516798e-05,-4.6307313516798e-05,-4.6307313516798e-05,4406888.7124629,0.013098300220076
29019200,0.99510606734339,0.01405893984708,0.0046863132758367,0.0046863132830467,0.0046863132881966,-0.0010423778369242,0.0010423775915081,-1.3084099533858e-10,-9.3403289270098e-11,1.7763313973245e-09,-2.065151682416e-09,-0.0012857564991014,0.0012857576208085,-0.0012857564948072,0.0012857576028186,-0.0012857578253444,0.0012857562717067,-0.0012857578426303,0.0012857562565918,-0.0010485247645777,0.00104852325006,-0.0010485248783853,0.0010485233683379,1.0572057194389e-09,-1.1938618811111e-09,-2.9094230691747e-09,2.8100495104866e-09,-0.0010423777800201,0.001042377644874,-0.0012857576558896,0.0012857564383766,-0.0012857557872717,0.0012857583516433,-0.0012857584713289,0.0012857556220464,-0.0012857566309386,0.0012857575426401,-0.0010485271887536,0.0010485207721776,-0.0010485217253257,0.0010485264831901,-0.0010485219958114,0.0010485261330897,-0.0010485242215585,0.001048523766139,2.6661504412283e-10,-7.0622427600961e-10,-0.0010423779118552,0.0010423775120926,1.6691324744281e-09,-2.1884140406444e-09,-0.0012857564415235,0.0012857577010824,-0.001285757672974,0.0012857564285961,-0.0012857567722996,0.0012857573448756,-0.0012857580502473,0.0012857561035886,-0.0010485253181426,0.0010485225836146,-0.0010485244555735,0.0010485236838772,0.71130447129671,131329,3014,0.004334736337423,0.0043347363300833,0.0043347363280808,23.567195201199,-4.9062438390404e-05,-4.9062438390404e-05,-4.9062438390404e-05,4397581.8182226,0.013091236182312
29219200,0.99526882924996,0.014061136217235,0.004687045399224,0.0046870454064313,0.00468704541158,-0.0010432072109655,0.0010432069762928,-3.5092486313338e-10,1.223321901885e-10,1.3106349142383e-09,-1.6041218053564e-09,-0.001286693326974,0.0012866940027767,-0.0012866931809293,0.0012866941332692,-0.001286694332233,0.0012866929672022,-0.0012866941978928,0.0012866931111039,-0.0010493927993794,0.0010493911130988,-0.001049392350631,0.0010493915699899,5.4684167914007e-10,-7.2708416337569e-10,-2.8347556230416e-09,2.6943598208073e-09,-0.0010432071680248,0.0010432070260951,-0.0012866943759261,0.0012866929150559,-0.0012866925809469,0.0012866947617991,-0.0012866948588848,0.0012866924290882,-0.0012866930805295,0.0012866942922196,-0.0010493949643456,0.0010493889447363,-0.0010493895668918,0.0010493943809662,-0.0010493905188817,0.0010493934699111,-0.0010493918084025,0.0010493921579869,8.0515799915228e-11,-4.6341607019245e-10,-0.0010432072869721,0.0010432069097092,1.777474619547e-09,-2.2466058377779e-09,-0.0012866930858006,0.0012866942561413,-0.0012866943762764,0.0012866929189361,-0.0012866932733038,0.0012866940421664,-0.0012866945983379,0.0012866927436964,-0.0010493930638325,0.0010493908232313,-0.0010493925906278,0.001049391440555,0.69517199025548,131329,3014,0.004338177809638,0.0043381778239384,0.0043381778292326,23.975045949674,-4.5799632402611e-05,-4.5799632402611e-05,-4.5799632402611e-05,4403030.9112855,0.013101697533354
29419200,0.9954307480372,0.014063155713551,0.0046877185646638,0.0046877185718697,0.0046877185770178,-0.0010441835075672,0.0010441831928611,1.2797395810107e-10,-4.3110708088637e-10,2.3516446018128e-09,-2.7274922139263e-09,-0.0012877573530514,0.0012877589953018,-0.001287757543455,0.0012877587955124,-0.0012877590592568,0.0012877572383301,-0.001287759286503,0.0012877570175564,-0.0010503923129579,0.0010503908964514,-0.0010503929457594,0.0010503903144286,1.5578384124537e-09,-1.7980733548249e-09,-3.0609472715131e-09,2.8666856147399e-09,-0.0010441834543491,0.0010441832500007,-0.001287758657482,0.0012877576656759,-0.0012877567122581,0.0012877596589389,-0.0012877598018934,0.0012877564748569,-0.0012877579096426,0.0012877584613564,-0.00105039517015,0.0010503880387921,-0.0010503894197303,0.0010503938899911,-0.0010503890700185,0.0010503942142826,-0.001050392402796,0.0010503907661962,6.0163852691481e-10,-9.8134517334328e-10,-0.001044183537359,0.0010441831683658,1.5667485214964e-09,-2.0289201948955e-09,-0.00128775750357,0.0012877588817174,-0.0012877586221168,0.001287757690846,-0.0012877580073308,0.0012877583130676,-0.0012877591936099,0.0012877571343291,-0.001050393154156,0.001050389967736,-0.0010503916588647,0.0010503916934313,0.65090117894695,131329,3014,0.0043422282503163,0.0043422282584641,0.0043422282612702,24.458047205023,-4.1935622359817e-05,-4.1935622359817e-05,-4.1935622359817e-05,4410305.4561114,0.013114008596432
29619200,0.99559219438551,0.014065136306425,0.0046883787622919,0.0046883787694941,0.0046883787746391,-0.0010452987507911,0.0010452984824245,-7.0493084131727e-11,-1.8587147848921e-10,1.9122873055531e-09,-2.237608760353e-09,-0.0012888829639928,0.0012888841804328,-0.0012888829990254,0.0012888841283657,-0.0012888843558035,0.0012888827512318,-0.0012888844193895,0.0012888826958985,-0.0010515050305388,0.0010515035162585,-0.001051505214999,0.0010515034138942,1.0693397525095e-09,-1.2598798613586e-09,-2.9382158385225e-09,2.7896463456627e-09,-0.001045298699015,0.0010452985373624,-0.0012888841689437,0.0012888829414063,-0.0012888823021534,0.0012888848601161,-0.0012888849764573,0.0012888821211073,-0.0012888831421318,0.0012888840384493,-0.0010515075332183,0.0010515010054967,-0.0010515019896707,0.0010515066485779,-0.0010515022775256,0.0010515063609912,-0.0010515045823465,0.0010515039677982,3.7582691106937e-10,-7.7026790952057e-10,-0.001045298808237,0.0010452984295042,1.6411932391143e-09,-2.1187534252137e-09,-0.0012888829423222,0.0012888842210033,-0.0012888841380542,0.0012888829768195,-0.0012888833128895,0.0012888838174882,-0.0012888845559371,0.0012888825914805,-0.0010515056344494,0.0010515028395422,-0.0010515045882487,0.0010515040979863,0.64191651612175,131329,3014,0.0043468541438623,0.0043468541504457,0.0043468541532447,24.9989199677,-3.7608640258403e-05,-3.7608640258403e-05,-3.7608640258403e-05,4420437.3147856,0.013128064764283
29819200,0.9957538641809,0.014067254606505,0.0046890848623192,0.0046890848695206,0.0046890848746654,-0.0010466045640818,0.001046604297151,-2.122735668353e-10,-4.1597770304906e-11,1.7341557977013e-09,-2.0555232686163e-09,-0.0012901924987857,0.0012901935139035,-0.001290192448162,0.001290193549053,-0.0012901937797899,0.0012901921910123,-0.001290193747976,0.0012901922319465,-0.0010528117698349,0.001052810074973,-0.0010528116495951,0.0010528102453794,8.2802281498428e-10,-1.0165530276682e-09,-2.8761529687768e-09,2.7275639003608e-09,-0.0010466045118025,0.0010466043537458,-0.0012901936561068,0.0012901923223015,-0.0012901918338839,0.0012901941972216,-0.0012901943105694,0.0012901916482264,-0.0012901925116783,0.0012901935314869,-0.00105281406848,0.0010528077827282,-0.0010528086027138,0.0010528133177489,-0.0010528091930014,0.0010528127400469,-0.0010528110044515,0.00105281083014,2.3992537370923e-10,-6.2698258096547e-10,-0.0010466046219055,0.0010466042452792,1.6866835988562e-09,-2.157424326256e-09,-0.0012901924068689,0.0012901936268853,-0.0012901936314021,0.0012901923499104,-0.0012901926901555,0.0012901933044481,-0.0012901939515211,0.0012901920537086,-0.0010528121499925,0.0010528096169465,-0.0010528113903224,0.0010528105998426,0.67837953764673,131329,3014,0.0043522704699904,0.0043522704789654,0.0043522704823201,25.635947251634,-3.2512421986929e-05,-3.2512421986929e-05,-3.2512421986929e-05,4432542.1124312,0.013144523708975
30019200,0.99591217251926,0.014069364396785,0.0046897881257468,0.0046897881329472,0.0046897881380912,-0.0010472315381066,0.0010472312879042,-2.2014945902632e-10,-1.3296366363958e-11,1.6137874839589e-09,-1.9124350945383e-09,-0.0012908794514425,0.0012908803835072,-0.0012908793850736,0.0012908804300182,-0.0012908806494843,0.0012908791514187,-0.0012908806056025,0.0012908792019908,-0.0010534497801449,0.0010534481788039,-0.0010534496736399,0.0010534484284409,7.5178372961936e-10,-9.038227706344e-10,-2.8484097683792e-09,2.7335962392454e-09,-0.0010472314821737,0.0010472313444733,-0.0012908805906944,0.0012908792126919,-0.0012908787737438,0.0012908810807632,-0.0012908811875936,0.001290878607257,-0.0012908793950703,0.0012908804792412,-0.0010534520311564,0.0010534459076675,-0.0010534466464344,0.0010534514445916,-0.0010534473144665,0.0010534507447538,-0.0010534489392277,0.0010534489994413,2.1222426328267e-10,-6.2528935566293e-10,-0.0010472316074885,0.0010472312196847,1.6823865040413e-09,-2.1773977817424e-09,-0.0012908793210787,0.0012908805339137,-0.0012908805546974,0.0012908792571617,-0.0012908795981252,0.0012908802277388,-0.0012908808698657,0.0012908789736266,-0.0010534502062255,0.0010534476543563,-0.0010534494847302,0.0010534486171573,0.68873330341731,131329,3014,0.0043548716855023,0.0043548716868421,0.0043548716879018,25.914973897464,-3.0280208820291e-05,-3.0280208820291e-05,-3.0280208820291e-05,4436605.3780938,0.013152429944811
30219200,0.9960652696078,0.014071303680674,0.0046904345537098,0.0046904345609101,0.004690434566054,-0.0010474723366781,0.0010474720913143,-2.3813218149002e-10,1.2490791297253e-11,1.5522207879557e-09,-1.8417854157786e-09,-0.0012911853125328,0.0012911861905608,-0.0012911852325096,0.0012911862497309,-0.0012911864691355,0.0012911850005483,-0.0012911864104224,0.0012911850652967,-0.0010536979645346,0.0010536963724302,-0.001053697831121,0.0010536966815569,7.8028280759549e-10,-9.2172793082052e-10,-2.8394551062325e-09,2.7346300654494e-09,-0.0010474722806686,0.0010474721468067,-0.0012911864169191,0.0012911850569826,-0.0012911846027486,0.0012911869219182,-0.0012911870308688,0.0012911844340633,-0.0012911852393933,0.0012911863038211,-0.0010537002123468,0.0010536940961429,-0.0010536948475766,0.0010536996436983,-0.0010536954709587,0.0010536989672559,-0.0010536971318535,0.0010536971637119,1.8848973056223e-10,-6.1206308959863e-10,-0.0010474724101943,0.0010474720174542,1.6885497799339e-09,-2.1932935795779e-09,-0.001291185158373,0.0012911863666089,-0.001291186400627,0.0012911850829287,-0.0012911854247526,0.0012911860715278,-0.001291186702357,0.0012911848105641,-0.0010536983812511,0.0010536958402324,-0.0010536977078417,0.0010536967761553,0.66008545512804,131329,3014,0.0043558709998048,0.0043558709987609,0.00435587099909,25.990985076374,-2.9672119389006e-05,-2.9672119389006e-05,-2.9672119389006e-05,4436657.633277,0.013155467961714
30419200,0.9962109053078,0.014073033113123,0.0046910110311914,0.0046910110383938,0.0046910110435381,-0.001047218551737,0.001047218309461,-2.4105096226445e-10,1.5508567018041e-11,1.4683536377455e-09,-1.7575959159453e-09,-0.0012909145569182,0.0012909153867868,-0.0012909144763456,0.0012909154467778,-0.0012909156606585,0.0012909142504129,-0.0012909156006644,0.0012909143170303,-0.0010534167279498,0.0010534151877837,-0.0010534165744985,0.001053415491073,8.3765406482382e-10,-9.9212488454154e-10,-2.8555086562603e-09,2.7391081267176e-09,-0.0010472185014852,0.0010472183605408,-0.001290915617827,0.0012909142945988,-0.0012909137974436,0.0012909161666096,-0.0012909162781728,0.0012909136271256,-0.0012909144791684,0.0012909155044654,-0.001053419044024,0.0010534128491859,-0.0010534136470506,0.001053418404261,-0.0010534142047284,0.0010534178129315,-0.0010534160027506,0.0010534158928429,1.9279034924011e-10,-6.0870464278511e-10,-0.0010472186258034,0.0010472182368051,1.701375750874e-09,-2.1993195642676e-09,-0.0012909143735177,0.0012909155892208,-0.0012909156226837,0.0012909142996185,-0.0012909146426978,0.0012909152937611,-0.0012909159260364,0.0012909140273689,-0.0010534171745667,0.0010534146421874,-0.0010534164902712,0.0010534155681991,0.62526767779255,131329,3014,0.0043548173602432,0.0043548173620004,0.0043548173631834,25.786528288312,-3.1307773693507e-05,-3.1307773693507e-05,-3.1307773693507e-05,4433253.2053575,0.013152262034709
30619200,0.99634846469734,0.014074787361018,0.0046915957804896,0.0046915957876922,0.0046915957928364,-0.001046763439184,0.0010467631999415,-2.4826146498854e-10,2.7312641117562e-11,1.3911545055083e-09,-1.67475134979e-09,-0.0012903553903837,0.0012903561623146,-0.0012903553040105,0.0012903562281912,-0.0012903564409062,0.0012903550788148,-0.0012903563744537,0.0012903551517623,-0.0010529088643527,0.0010529073602298,-0.0010529086952335,0.0010529076846964,9.1547257954014e-10,-1.0719745569389e-09,-2.8647962939783e-09,2.7469587446251e-09,-0.0010467633917731,0.0010467632478879,-0.0012903564021808,0.0012903551207381,-0.0012903545761667,0.0012903569982571,-0.0012903571139304,0.0012903543995555,-0.0012903553089058,0.0012903562831,-0.0010529112343694,0.0010529049664063,-0.0010529058199758,0.001052910544156,-0.0010529062787707,0.0010529100466065,-0.0010529082246643,0.0010529079667761,1.8529405586437e-10,-6.0405327085192e-10,-0.0010467635156125,0.0010467631245715,1.7161735214299e-09,-2.2168729709936e-09,-0.0012903551756734,0.0012903563977686,-0.0012903564354099,0.0012903550968855,-0.0012903554405295,0.0012903561050433,-0.0012903567336397,0.0012903548276962,-0.001052909327267,0.0010529067900717,-0.0010529086606983,0.0010529077102046,0.66318502248077,131329,3014,0.0043529272930128,0.0043529272941594,0.0043529272952162,25.453265463754,-3.3973876289969e-05,-3.3973876289969e-05,-3.3973876289969e-05,4429344.1608168,0.013146509827619
30819200,0.99648603515306,0.014076633523872,0.0046922111681081,0.0046922111753102,0.004692211180454,-0.0010480292873986,0.0010480290345804,-2.6106712934311e-10,1.5332584188313e-11,1.4067474933003e-09,-1.718356512741e-09,-0.001291680546209,0.0012916813313662,-0.0012916804617387,0.0012916813999285,-0.001291681612168,0.0012916802252317,-0.0012916815481953,0.0012916802995536,-0.001054204577111,0.0010542030131874,-0.0010542043340028,0.0010542032677498,8.2092960622892e-10,-1.0229761486154e-09,-2.8795364026721e-09,2.7197173016978e-09,-0.0010480292454475,0.0010480290828747,-0.0012916815823314,0.0012916802578122,-0.0012916797616269,0.0012916821336262,-0.0012916822444568,0.0012916795806141,-0.001291680445754,0.0012916814617618,-0.001054206947373,0.0010542006544312,-0.0010542014747002,0.0010542061615442,-0.0010542020736899,0.0010542055975087,-0.0010542039117437,0.0010542037019944,2.0889436165594e-10,-5.8658589279186e-10,-0.0010480293520609,0.0010480289786439,1.7248791504348e-09,-2.1883576764251e-09,-0.001291680337656,0.0012916815556586,-0.0012916815862743,0.0012916802590702,-0.0012916806020011,0.0012916812586286,-0.0012916818852012,0.0012916799842201,-0.0010542050022664,0.0010542025370382,-0.0010542042930493,0.0010542034334068,0.69236591341887,131329,3014,0.0043581789593029,0.0043581789725051,0.0043581789774203,26.088251072223,-2.8893991422213e-05,-2.8893991422213e-05,-2.8893991422213e-05,4440460.0712492,0.013162473320129
31019200,0.9966280231819,0.014078601969579,0.0046928673166757,0.0046928673238793,0.0046928673290235,-0.0010503180911634,0.0010503178423793,-2.6965767223145e-10,2.8330227236887e-11,1.5570638132105e-09,-1.8655115903426e-09,-0.0012941497794025,0.0012941506620315,-0.0012941496868438,0.0012941507367179,-0.001294150946239,0.0012941494598312,-0.0012941508730827,0.0012941495448487,-0.0010565711028506,0.0010565694182688,-0.0010565708394163,0.0010565697012321,7.3713706754409e-10,-9.273458660016e-10,-2.8494520375409e-09,2.7008657623553e-09,-0.0010503180457172,0.0010503178940241,-0.0012941508765794,0.0012941495229714,-0.0012941490748172,0.0012941513817679,-0.001294151485517,0.0012941489129938,-0.0012941497004379,0.001294150777448,-0.0010565733457524,0.0010565671797643,-0.0010565679297902,0.0010565726282539,-0.0010565686311949,0.0010565719735292,-0.0010565703016573,0.0010565702590267,2.0033811201408e-10,-5.8076123370179e-10,-0.0010503181582459,0.0010503177839369,1.7087544179314e-09,-2.174707754215e-09,-0.001294149623057,0.0012941508259986,-0.0012941508683543,0.0012941495421239,-0.0012941498895173,0.0012941505402869,-0.0012941511643652,0.0012941492794571,-0.0010565714573047,0.0010565690218561,-0.001056570760098,0.0010565698949016,0.71216093789932,131329,3014,0.004367675999788,0.0043676760126895,0.0043676760177298,27.299069685929,-1.9207442512567e-05,-1.9207442512567e-05,-1.9207442512567e-05,4460114.6266755,0.013191346881044
31219200,0.99677483661112,0.014080746799992,0.0046935822601444,0.004693582267351,0.0046935822724966,-0.0010527668751478,0.0010527666193705,-2.6750913030911e-10,2.3677601371413e-11,1.6330753765212e-09,-1.9436586030639e-09,-0.0012968370833199,0.0012968380070418,-0.0012968369928417,0.0012968380794834,-0.0012968383003591,0.0012968367521618,-0.0012968382300858,0.0012968368317991,-0.0010591189476555,0.0010591172260883,-0.0010591187203862,0.0010591175261336,5.8969248279366e-10,-7.5593652027217e-10,-2.8223968745221e-09,2.6941662083047e-09,-0.0010527668191457,0.0010527666788696,-0.0012968382518717,0.0012968368022672,-0.0012968364588384,0.0012968386496845,-0.0012968387501523,0.0012968362947613,-0.0012968369773723,0.0012968381474226,-0.0010591210819152,0.0010591150879031,-0.0010591157207959,0.0010591205353181,-0.0010591166001336,0.0010591196618429,-0.0010591179355363,0.0010591182397484,2.0084809214042e-10,-5.9420146205321e-10,-0.0010527669394055,0.0010527665601012,1.6793054594445e-09,-2.1563497098201e-09,-0.0012968369562148,0.0012968381499101,-0.0012968381823146,0.0012968368809986,-0.0012968372227289,0.0012968378552669,-0.0012968384811742,0.0012968366083589,-0.0010591192822091,0.0010591168173228,-0.0010591185902696,0.0010591177252665,0.74546455629053,131329,3014,0.0043778373957758,0.0043778374030495,0.0043778374061095,28.605341867749,-8.7572650580103e-06,-8.7572650580103e-06,-8.7572650580103e-06,4480340.6878254,0.013222243354354
31419200,0.99692026820107,0.014082759011106,0.0046942529971828,0.0046942530043891,0.0046942530095344,-0.0010539271166194,0.001053926875864,-2.8564744881357e-10,6.4594709764192e-11,1.6310065513988e-09,-1.9164632651569e-09,-0.0012982537270086,0.001298254633529,-0.0012982536146399,0.0012982547226981,-0.0012982549408552,0.0012982533914419,-0.0012982548462567,0.0012982534917955,-0.0010603629437571,0.0010603612152615,-0.0010603627187191,0.0010603616342585,5.6200753275774e-10,-6.839786113641e-10,-2.7776138675213e-09,2.6897018580359e-09,-0.0010539270546246,0.0010539269365776,-0.0012982548920245,0.0012982534366443,-0.0012982531162647,0.0012982552637837,-0.0012982553633412,0.0012982529677001,-0.0012982536036641,0.0012982548021896,-0.0010603649824093,0.0010603591480384,-0.0010603597240543,0.0010603645936351,-0.0010603606185446,0.0010603636558845,-0.0010603618343772,0.0010603622984028,1.5806746402983e-10,-5.8508347666023e-10,-0.0010539271924326,0.0010539267986217,1.6800709846905e-09,-2.1878370008608e-09,-0.0012982535947129,0.001298254781408,-0.0012982548396982,0.0012982535044115,-0.0012982538494963,0.0012982545089504,-0.0012982551225326,0.0012982532566181,-0.0010603632627311,0.0010603607809318,-0.0010603626494301,0.0010603616568235,0.71243069258438,131329,3014,0.0043826536874511,0.0043826536848135,0.0043826536844753,29.223227206505,-3.8141823479634e-06,-3.8141823479634e-06,-3.8141823479634e-06,4486935.2857958,0.013236893813876
31619200,0.99705750231526,0.01408455809682,0.0046948526924211,0.0046948526996268,0.0046948527047717,-0.0010535962803723,0.0010535960396446,-2.822654300731e-10,5.9986847237111e-11,1.5950813965053e-09,-1.8820261044238e-09,-0.0012980363373995,0.001298037227109,-0.001298036229407,0.0012980373129009,-0.001298037528451,0.0012980360058442,-0.0012980374386766,0.0012980361031279,-0.0010600512728696,0.0010600495662704,-0.0010600510378161,0.0010600499586589,7.0207500958751e-10,-8.4326871223807e-10,-2.8091578459001e-09,2.7045791138092e-09,-0.0010535962255483,0.0010535960951546,-0.0012980374539652,0.0012980360764943,-0.0012980356625489,0.0012980379208609,-0.001298038026412,0.0012980355053799,-0.0012980362508125,0.0012980373567264,-0.0010600534103403,0.0010600474021911,-0.0010600480930759,0.0010600528794084,-0.0010600488132851,0.001060052129586,-0.0010600503346694,0.0010600504870579,1.6958297000373e-10,-5.8832023083843e-10,-0.0010535963555421,0.0010535959657019,1.6902444907205e-09,-2.1905537076173e-09,-0.0012980361912136,0.0012980373871434,-0.0012980374386647,0.0012980361060489,-0.0012980364520612,0.0012980371084144,-0.0012980377275033,0.0012980358516926,-0.0010600516120707,0.0010600491283981,-0.0010600509725412,0.0010600500102555,0.68058196801088,131329,3014,0.0043812823469513,0.0043812823484227,0.0043812823495222,29.0112680052,-5.5098559583973e-06,-5.5098559583973e-06,-5.5098559583973e-06,4480723.2076348,0.01323272840124
31819200,0.99718582400251,0.014086175564837,0.0046953918484264,0.0046953918556326,0.0046953918607776,-0.0010529806436097,0.0010529803912122,-2.8489086036801e-10,5.4329294689105e-11,1.5387248343949e-09,-1.8329765785296e-09,-0.0012974352240822,0.0012974360629881,-0.0012974351197494,0.0012974361486216,-0.0012974363759706,0.0012974348726373,-0.0012974362902932,0.001297434964074,-0.0010594217066137,0.0010594200288861,-0.0010594214790943,0.0010594204149837,8.6282604561994e-10,-1.0170958216102e-09,-2.8407218629375e-09,2.7238109736428e-09,-0.0010529805902718,0.0010529804448256,-0.0012974362838463,0.0012974349767816,-0.0012974344714361,0.0012974368387264,-0.0012974369563534,0.001297434283268,-0.001297435167443,0.0012974361537611,-0.0010594239521076,0.0010594177599363,-0.0010594185781009,0.0010594233096023,-0.0010594190886082,0.0010594227391738,-0.0010594209165402,0.0010594207558429,1.7439071610098e-10,-5.9320742159694e-10,-0.0010529807128299,0.0010529803226099,1.7027669769612e-09,-2.2029462375193e-09,-0.0012974350529159,0.001297436262119,-0.0012974362978912,0.0012974349670834,-0.0012974353066104,0.0012974359680894,-0.0012974365877302,0.0012974346992898,-0.0010594220642611,0.0010594195481823,-0.0010594214276642,0.0010594204599738,0.65806103505477,131329,3014,0.0043787281370933,0.0043787281377044,0.0043787281383826,28.628973363534,-8.5682130917283e-06,-8.5682130917283e-06,-8.5682130917283e-06,4472992.0828633,0.013224962847763
32019200,0.99730807415821,0.014087884525875,0.0046959615021068,0.0046959615093118,0.004695961514456,-0.0010529615575577,0.0010529613141926,-2.9024890021298e-10,5.8376179765426e-11,1.3810650032945e-09,-1.6771292684109e-09,-0.0012973968166369,0.0012973975653367,-0.0012973967091431,0.0012973976553834,-0.001297397864807,0.0012973964815442,-0.0012973977754176,0.0012973965794328,-0.0010593915869898,0.0010593899926173,-0.0010593913008868,0.0010593903463972,8.1321679358018e-10,-9.9379258501355e-10,-2.8576775221743e-09,2.7174730425173e-09,-0.0010529615138926,0.0010529613620106,-0.0012973978355166,0.0012973965123172,-0.0012973960223634,0.0012973983780802,-0.0012973984885225,0.001297395847365,-0.0012973966960805,0.0012973977215849,-0.001059393897136,0.0010593876759088,-0.0010593884760186,0.0010593931841416,-0.0010593890726362,0.0010593925938425,-0.0010593908629372,0.0010593907188894,1.8508978245773e-10,-5.7985953892441e-10,-0.0010529616291302,0.0010529612484563,1.7315164864923e-09,-2.2105079433673e-09,-0.0012973965908533,0.0012973978090597,-0.0012973978509125,0.0012973965027329,-0.0012973968475488,0.0012973975210381,-0.0012973981421726,0.0012973962416392,-0.0010593919903665,0.0010593895185639,-0.001059391323989,0.0010593903933163,0.71766732717265,131329,3014,0.0043786482218841,0.004378648230549,0.0043786482340161,28.559203334136,-9.1263733269112e-06,-9.1263733269112e-06,-9.1263733269112e-06,4471865.9916162,0.013224717059482
32219200,0.99742592233136,0.014089573336636,0.0046965244390266,0.0046965244462326,0.004696524451377,-0.0010532649265796,0.001053264688408,-2.933389720487e-10,6.2895730608015e-11,1.3157889821086e-09,-1.6105442505375e-09,-0.0012978219082979,0.0012978226187584,-0.0012978217980171,0.0012978227116953,-0.0012978229135455,0.0012978215803056,-0.0012978228208247,0.0012978216822679,-0.0010597336041974,0.0010597320461236,-0.0010597332946075,0.0010597323953369,7.9307193734049e-10,-9.8109513780523e-10,-2.8647885974418e-09,2.7180282713857e-09,-0.0010532648864147,0.0010532647338467,-0.0012978229103775,0.001297821579652,-0.0012978210959814,0.0012978234476187,-0.0012978235551065,0.0012978209281039,-0.0012978217599263,0.0012978228048085,-0.0010597359399488,0.0010597297105962,-0.0010597304997906,0.0010597352080397,-0.0010597311328411,0.0010597346070681,-0.0010597329048845,0.0010597327767292,1.8860312783332e-10,-5.7554917283843e-10,-0.0010532649999664,0.001053264622336,1.7441575110088e-09,-2.2162736172741e-09,-0.0012978216585078,0.0012978228819619,-0.0012978229270293,0.00129782157023,-0.0012978219172545,0.0012978225971333,-0.0012978232191304,0.0012978213127288,-0.0010597340290163,0.0010597315706172,-0.0010597333517068,0.0010597324309151,0.73341166337134,131329,3014,0.0043799081779511,0.0043799081889364,0.0043799081931451,28.69432441469,-8.0454046824775e-06,-8.0454046824775e-06,-8.0454046824775e-06,4471574.2877419,0.013228551681496
32419200,0.99754040689665,0.014091259959282,0.0046970866465735,0.0046970866537815,0.0046970866589266,-0.0010538101902759,0.0010538099669694,-2.9532454792013e-10,8.0478016363607e-11,1.257128203714e-09,-1.5355194155829e-09,-0.001298530067338,0.0012985307437542,-0.0012985299493312,0.0012985308418172,-0.001298531032749,0.001298529752455,-0.0012985309310967,0.0012985298633123,-0.0010603353984507,0.0010603338829059,-0.0010603350799868,0.0010603342644096,7.3062110818903e-10,-9.0270968673761e-10,-2.8512868432737e-09,2.7196456432207e-09,-0.0010538101504488,0.0010538100110044,-0.0012985310652003,0.001298529706823,-0.0012985292565184,0.0012985315693801,-0.0012985316705587,0.0012985291081095,-0.0012985298769066,0.0012985309801483,-0.0010603377102895,0.001060331564695,-0.001060332295153,0.0010603370502274,-0.001060333011578,0.0010603363682395,-0.001060334652706,0.0010603346753134,1.7846219483774e-10,-5.7294375096169e-10,-0.0010538102725417,0.0010538098906224,1.7517666982445e-09,-2.2311223038775e-09,-0.0012985297967382,0.0012985310216994,-0.0012985310790047,0.0012985297051636,-0.0012985300574698,0.0012985307470807,-0.0012985313699749,0.0012985294599551,-0.0010603358473278,0.0010603333872132,-0.0010603351799752,0.0010603342282547,0.75109668452617,131329,3014,0.004382172184005,0.0043821721927665,0.0043821721962875,28.972238310705,-5.8220935143573e-06,-5.8220935143573e-06,-5.8220935143573e-06,4473398.9965823,0.0132354402043
32619200,0.99765453270895,0.014092798516086,0.0046975994988414,0.0046975995060495,0.0046975995111948,-0.0010551804051284,0.0010551801511085,-2.9794631265055e-10,4.7799492640664e-11,1.44604589382e-09,-1.7631470138337e-09,-0.0013001359316263,0.0013001367294917,-0.0013001358274155,0.0013001368199213,-0.0013001370308125,0.001300135590729,-0.0013001369443225,0.0013001356881651,-0.0010617935496131,0.0010617918779399,-0.0010617932148003,0.0010617921812453,7.9149803175463e-10,-1.0046093387787e-09,-2.8830256857796e-09,2.7130361623405e-09,-0.001055180364798,0.0010551801993628,-0.001300136976596,0.0013001356453996,-0.0013001351568745,0.001300137519697,-0.0013001376282768,0.0013001349784891,-0.0013001358301878,0.0013001368618741,-0.0010617958693527,0.0010617895726659,-0.0010617903825883,0.0010617950596891,-0.0010617910255274,0.001061794476648,-0.0010617928331328,0.0010617926398306,2.1073520597823e-10,-5.7745504835054e-10,-0.0010551804678406,0.0010551800992357,1.7365894293556e-09,-2.1900410692045e-09,-0.0013001357269749,0.0013001369487916,-0.0013001369784919,0.0013001356458689,-0.0013001359903313,0.0013001366509274,-0.0013001372781742,0.0013001353758029,-0.0010617939189019,0.0010617914815361,-0.0010617932026378,0.0010617923548837,0.6965411689188,131329,3014,0.0043878592059823,0.0043878592224496,0.0043878592284652,29.722678797815,1.8143038252295e-07,1.8143038252295e-07,1.8143038252295e-07,4482910.5005127,0.013252737060998
32819200,0.99775823334701,0.014094072935978,0.0046980243054743,0.0046980243126799,0.0046980243178242,-0.0010536725613267,0.0010536723346258,-2.8092652147584e-10,8.2274796855549e-11,1.3428039834071e-09,-1.6006996214606e-09,-0.0012986310236064,0.0012986317354771,-0.0012986309088447,0.0012986318267684,-0.0012986320402591,0.0012986306912372,-0.0012986319428456,0.0012986307909915,-0.0010602506862301,0.0010602491724323,-0.0010602504913208,0.0010602496410638,9.5648076988299e-10,-1.0721230856845e-09,-2.8578218339288e-09,2.7772819907688e-09,-0.0010536725084363,0.0010536723825058,-0.0012986320048498,0.0012986307324271,-0.0012986301688716,0.0012986326146531,-0.0012986327331743,0.0012986299948959,-0.0012986309184642,0.0012986318872339,-0.001060253019212,0.0010602467839478,-0.001060247638778,0.0010602524421743,-0.001060248036228,0.0010602519376838,-0.0010602499935641,0.0010602497812329,1.6209759747084e-10,-6.151712932922e-10,-0.0010536726478353,0.0010536722416947,1.7272575708639e-09,-2.259147204736e-09,-0.0012986307753051,0.0012986320123849,-0.0012986320533695,0.0012986306927056,-0.0012986310370088,0.0012986317198923,-0.0012986323508496,0.0012986304306918,-0.001060251153912,0.0010602485503245,-0.0010602505282304,0.0010602494807277,0.64446386699635,131329,3014,0.0043816037674315,0.004381603757032,0.0043816037540597,28.864879929773,-6.6809605618132e-06,-6.6809605618132e-06,-6.6809605618132e-06,4466825.2856657,0.013233719643695
33019200,0.99785564494042,0.014095385420778,0.0046984618004089,0.0046984618076126,0.004698461812756,-0.0010532156975853,0.0010532154576433,-3.0422476778923e-10,7.1026896030022e-11,1.2423032996046e-09,-1.5396307942184e-09,-0.0012980823817303,0.001298083038029,-0.0012980822667205,0.0012980831374937,-0.0012980833391371,0.001298082044937,-0.0012980832413703,0.0012980821521175,-0.0010597562648977,0.0010597547276295,-0.0010597559200049,0.001059755077858,9.0845817589411e-10,-1.1130849390173e-09,-2.9061526086636e-09,2.7447373128087e-09,-0.0010532156624594,0.0010532154992098,-0.0012980833308814,0.0012980820526083,-0.001298081492803,0.0012980839435752,-0.0012980840562848,0.0012980813135713,-0.0012980822396141,0.0012980832145282,-0.001059758703376,0.0010597522962172,-0.0010597531795161,0.0010597578520125,-0.0010597536815245,0.00105975739201,-0.0010597557009603,0.0010597553259945,1.9584819858962e-10,-5.7596934573773e-10,-0.0010532157699269,0.0010532153941645,1.7762349400654e-09,-2.2424452026177e-09,-0.0012980820956035,0.0012980833403538,-0.0012980833794562,0.0012980820067351,-0.001298082354015,0.0012980830486649,-0.0012980836746903,0.0012980817446804,-0.0010597567130597,0.0010597542397168,-0.0010597560205685,0.0010597551029065,0.69524392728692,131329,3014,0.0043797067066238,0.0043797067200223,0.0043797067250184,28.557849695619,-9.1372024350504e-06,-9.1372024350504e-06,-9.1372024350504e-06,4462610.938322,0.013227946735661
33219200,0.99794972499016,0.014096725780765,0.0046989085870705,0.0046989085942756,0.0046989085994194,-0.0010535835479633,0.0010535833045976,-3.0802288711223e-10,7.3653739369997e-11,1.3053937960568e-09,-1.6038597844786e-09,-0.0012985057057859,0.001298506397354,-0.0012985055890403,0.0012985064985046,-0.0012985067054525,0.001298505361086,-0.0012985066055347,0.001298505470038,-0.0010601444179484,0.0010601428303161,-0.0010601440761655,0.001060143195776,9.070920584763e-10,-1.1053816675841e-09,-2.9037384041664e-09,2.7481272733009e-09,-0.0010535835096093,0.0010535833485483,-0.0012985066758471,0.0012985053926394,-0.0012985048371163,0.0012985072837115,-0.0012985073973579,0.0012985046555456,-0.0012985055802129,0.0012985065572445,-0.0010601468223483,0.0010601404267447,-0.0010601413055663,0.0010601459949104,-0.0010601418061292,0.0010601455205204,-0.0010601438087862,0.001060143456037,1.9347266077831e-10,-5.7869452874997e-10,-0.0010535836191123,0.0010535832412273,1.773174736626e-09,-2.2441013123924e-09,-0.0012985054383237,0.0012985066834616,-0.0012985067210653,0.0012985053496993,-0.001298505696214,0.0012985063901152,-0.0012985070158281,0.0012985050866494,-0.0010601448395224,0.0010601423563464,-0.0010601441543879,0.001060143226569,0.72923015320374,131329,3014,0.0043812331629481,0.0043812331745927,0.004381233179089,28.726556107571,-7.7875511394306e-06,-7.7875511394306e-06,-7.7875511394306e-06,4464447.0443704,0.013232588163465
33419200,0.99804200542061,0.014098068533506,0.0046993561713163,0.0046993561785228,0.0046993561836671,-0.0010544335195633,0.0010544332972625,-3.1512087474417e-10,9.5105258981974e-11,1.3539400247969e-09,-1.6396931410883e-09,-0.0012995049177696,0.0012995056578195,-0.0012995047887497,0.0012995057672365,-0.0012995059535796,0.0012995046016168,-0.0012995058374211,0.0012995047277459,-0.0010610503374684,0.0010610487079285,-0.0010610499572054,0.0010610491058371,8.0615277808255e-10,-9.9474682598714e-10,-2.8799326603595e-09,2.7343615976784e-09,-0.0010544334833139,0.0010544333396637,-0.001299505919875,0.0012995046120139,-0.0012995040999089,0.0012995064865711,-0.0012995065873343,0.0012995039612791,-0.0012995047784274,0.001299505848809,-0.0010610526605562,0.0010610463895695,-0.0010610471822878,0.0010610518875903,-0.001061047826999,0.0010610513247517,-0.0010610496514563,0.0010610494928936,1.8368994069252e-10,-5.6680321802135e-10,-0.0010544336016753,0.0010544332236781,1.7774998993482e-09,-2.2471220270381e-09,-0.0012995046685402,0.0012995059064048,-0.0012995059700707,0.0012995045758943,-0.0012995049341052,0.0012995056366391,-0.0012995062631937,0.0012995043400936,-0.0010610507365872,0.0010610482965202,-0.001061050052493,0.0010610491111075,0.74278858900881,131329,3014,0.0043847610666561,0.0043847610794446,0.0043847610843458,29.177344274444,-4.1812458044465e-06,-4.1812458044465e-06,-4.1812458044465e-06,4469723.0020658,0.013243318221432
33619200,0.99813141053896,0.014099369412653,0.0046997897976973,0.0046997898049054,0.0046997898100503,-0.001054910550083,0.0010549103125821,-3.1207474824242e-10,9.2245351173724e-11,1.4050613164001e-09,-1.6877749232229e-09,-0.0013001437420343,0.0013001444880838,-0.0013001436165081,0.0013001445944624,-0.0013001448070689,0.0013001433918316,-0.0013001446974068,0.0013001435067578,-0.0010615801375472,0.0010615784975788,-0.0010615798348583,0.0010615789457291,7.7547267724226e-10,-9.2383915594169e-10,-2.8628927785816e-09,2.7522929826286e-09,-0.0010549104987324,0.0010549103640076,-0.0013001447833538,0.0013001434182058,-0.0013001429552854,0.0013001452947441,-0.0013001454031764,0.0013001427874199,-0.0013001435964064,0.0013001446758259,-0.0010615823894613,0.0010615762167682,-0.0010615769685259,0.001061581802194,-0.0010615776200149,0.0010615811104013,-0.0010615792889541,0.0010615793206768,1.7261204076182e-10,-5.9058938810547e-10,-0.0010549106276,0.0010549102354361,1.7526507874715e-09,-2.2532824920607e-09,-0.0013001435072697,0.0013001447459765,-0.0013001447893579,0.0013001434175873,-0.0013001437640865,0.0013001444564783,-0.0013001450826861,0.0013001431603314,-0.0010615805324957,0.0010615780025434,-0.0010615798857151,0.0010615788862766,0.74303227952775,131329,3014,0.0043867419484007,0.0043867419485588,0.0043867419491331,29.431754561458,-2.1459635083366e-06,-2.1459635083366e-06,-2.1459635083366e-06,4471252.8243402,0.013249346141421
33819200,0.99821840347475,0.014100639453806,0.0047002131447499,0.0047002131519561,0.0047002131571001,-0.0010555399392985,0.0010555396934208,-3.1729243343396e-10,8.3392230512836e-11,1.4558433212506e-09,-1.754635353565e-09,-0.0013009382743977,0.001300939057221,-0.001300938150814,0.0013009391636274,-0.0013009393765701,0.001300937920848,-0.0013009392693216,0.0013009380353795,-0.0010622688159685,0.0010622671179123,-0.0010622684794719,0.0010622675263868,7.0888540263647e-10,-8.7960867855866e-10,-2.8696721606521e-09,2.7381045764744e-09,-0.001055539890401,0.0010555397461419,-0.00130093934806,0.0013009379504765,-0.001300937523197,0.0013009398257711,-0.0013009399308489,0.0013009373556096,-0.0013009381274688,0.0013009392421932,-0.001062271047052,0.0010622648760779,-0.0010622655982149,0.001062270420775,-0.0010622663458792,0.0010622696749008,-0.001062267924628,0.0010622680160024,1.8841597572716e-10,-5.8521100647016e-10,-0.0010555400099395,0.0010555396281809,1.7524616501613e-09,-2.2335894981387e-09,-0.0013009380573829,0.0013009392937335,-0.0013009393311589,0.0013009379712226,-0.0013009383168684,0.0013009390004671,-0.0013009396278201,0.0013009377095792,-0.0010622691809621,0.0010622666856154,-0.00106226850399,0.001062267563301,0.74517940982953,131329,3014,0.0043893548639631,0.0043893548719335,0.0043893548751781,29.775659475333,6.0527580266424e-07,6.0527580266424e-07,6.0527580266424e-07,4474551.0939313,0.013257295288386
34019200,0.99830336755086,0.014101839028455,0.0047006130029662,0.0047006130101725,0.0047006130153165,-0.0010563151841726,0.0010563149157125,-3.3267760686865e-10,7.4692155705914e-11,1.5066422247025e-09,-1.8301787961176e-09,-0.0013018855859998,0.0013018863838248,-0.0013018854625522,0.0013018864948978,-0.0013018867254315,0.0013018852000617,-0.0013018866187574,0.0013018853126522,-0.001063106414721,0.0010631046446491,-0.0010631060604017,0.0010631050448657,6.4529369464544e-10,-8.2970829301611e-10,-2.8681613204851e-09,2.7222235940255e-09,-0.0010563151300436,0.0010563149743472,-0.0013018866933719,0.0013018852487353,-0.0013018848711876,0.0013018871192514,-0.0013018872274419,0.0013018846795824,-0.0013018854342462,0.0013018865619475,-0.001063108601396,0.0010631024568052,-0.001063103151336,0.0010631079926939,-0.0010631039734678,0.001063107163302,-0.0010631054272354,0.0010631056120407,1.9345514516634e-10,-5.8027857991712e-10,-0.0010563152413295,0.0010563148648073,1.7480881168433e-09,-2.2195455966409e-09,-0.0013018853840534,0.0013018866174759,-0.0013018866415874,0.001301885295703,-0.0013018856323528,0.0013018863132059,-0.0013018869333577,0.001301885021942,-0.0010631067321822,0.001063104248775,-0.0010631060621545,0.0010631051388348,0.72426719197799,131329,3014,0.0043925728436887,0.0043925728530615,0.00439257285665,30.204577557108,4.0366204568627e-06,4.0366204568627e-06,4.0366204568627e-06,4479282.8253499,0.013267083874563
34219200,0.99838485512813,0.014102955304154,0.0047009850948664,0.0047009851020722,0.0047009851072157,-0.0010565550710662,0.0010565548296822,-3.2024818275549e-10,9.7536313214936e-11,1.5118358810692e-09,-1.7980759897775e-09,-0.0013022292802375,0.0013022300903057,-0.0013022291489424,0.001302230200833,-0.0013022304181491,0.0013022289224416,-0.0013022303036838,0.0013022290413737,-0.00106337759277,0.0010633758697354,-0.0010633772930686,0.0010633763446023,6.3095270349029e-10,-7.630792657776e-10,-2.8368318312858e-09,2.740074370276e-09,-0.0010565550124804,0.0010565548875098,-0.0013022303946673,0.0013022289477588,-0.001302228579019,0.001302230811337,-0.0013022309142326,0.0013022284203722,-0.0013022291198365,0.0013022302946311,-0.0010633797198317,0.0010633737095118,-0.0010633743508473,0.0010633792664632,-0.0010633751786788,0.0010633783840635,-0.0010633765460606,0.0010633768871433,1.7284118305579e-10,-5.9735178384245e-10,-0.0010565551469199,0.0010565547531655,1.7319380447463e-09,-2.2382170640198e-09,-0.0013022290817597,0.0013022303119456,-0.0013022303530089,0.0013022289965659,-0.0013022293412093,0.0013022300213803,-0.0013022306495211,0.0013022287377787,-0.0010633779471206,0.0010633754090053,-0.0010633772963663,0.0010633763032439,0.70594540870758,131329,3014,0.0043935690713007,0.0043935690697445,0.0043935690699092,30.330481609444,5.043852875552e-06,5.043852875552e-06,5.043852875552e-06,4479574.9859231,0.013270115111612
34419200,0.99846388433501,0.014104043169168,0.0047013477165384,0.0047013477237433,0.0047013477288864,-0.0010571853995511,0.0010571851471541,-3.2707141845738e-10,8.6191450116246e-11,1.556430944603e-09,-1.8632748293506e-09,-0.0013029345756791,0.0013029354183194,-0.0013029344484477,0.0013029355287333,-0.0013029357477269,0.0013029342110601,-0.0013029356364579,0.0013029343295169,-0.0010640363112894,0.0010640345227544,-0.0010640359603508,0.001064034940872,6.1121469478929e-10,-7.7969740230898e-10,-2.8512946929085e-09,2.7210158448507e-09,-0.0010571853464774,0.0010571852043669,-0.0013029357047276,0.0013029342561778,-0.0013029338914728,0.0013029361195056,-0.0013029362220269,0.0013029337255791,-0.0013029344305131,0.0013029356007558,-0.0010640384490713,0.0010640323759052,-0.0010640330310747,0.0010640378863709,-0.0010640338971171,0.0010640370213598,-0.0010640352827158,0.0010640355570453,1.9382266032136e-10,-5.87807134572e-10,-0.0010571854661252,0.0010571850864125,1.7345088501952e-09,-2.2127118231433e-09,-0.0013029343931894,0.0013029356210189,-0.0013029356532883,0.0013029343108201,-0.0013029346546837,0.0013029353237185,-0.0013029359525112,0.0013029340459409,-0.0010640366274924,0.0010640341400309,-0.0010640359415956,0.0010640350252856,0.70868169177721,131329,3014,0.0043961844331256,0.0043961844417585,0.0043961844452455,30.66308575773,7.7046860618403e-06,7.7046860618403e-06,7.7046860618403e-06,4484210.9908409,0.013278066910848
34619200,0.99854521222385,0.014105213847541,0.0047017379426622,0.0047017379498676,0.0047017379550107,-0.00105979291279,0.0010597926176898,-3.7427723967548e-10,7.1575039255211e-11,1.5660628324437e-09,-1.9389209849419e-09,-0.0013057103630797,0.0013057111860934,-0.0013057102272789,0.0013057113177041,-0.0013057115553775,0.0013057099469923,-0.0013057114360871,0.0013057100697732,-0.0010667307945662,0.0010667288949988,-0.0010667303402941,0.0010667292667866,3.3965167879612e-10,-5.6417018920857e-10,-2.8352107863688e-09,2.6499961861851e-09,-0.0010597928546392,0.0010597926858103,-0.001305711557767,0.001305709964129,-0.0013057097691054,0.0013057117987232,-0.0013057118936834,0.0013057095775608,-0.0013057101441124,0.0013057114243735,-0.0010667328345413,0.0010667269033726,-0.0010667274205523,0.0010667322853668,-0.0010667286333542,0.0010667311463995,-0.0010667295593065,0.0010667301949983,2.0626065349627e-10,-5.4960771344986e-10,-0.0010597929503692,0.0010597925934673,1.7425280906688e-09,-2.1742361597837e-09,-0.001305710185711,0.001305711398056,-0.0013057114204832,0.0013057100894222,-0.0013057104170971,0.0013057110965238,-0.0013057117038692,0.0013057098156351,-0.0010667310240721,0.0010667286419658,-0.0010667303325819,0.0010667294887117,0.73613947122187,131329,3014,0.004407002861231,0.0044070028819464,0.0044070028889471,32.088593111055,1.9108744888437e-05,1.9108744888437e-05,1.9108744888437e-05,4507775.6378597,0.013310959835715
34819200,0.99862874902673,0.01410642656437,0.0047021421816043,0.0047021421888116,0.0047021421939541,-0.001062486106338,0.00106248583663,-3.1336715364268e-10,5.3692698989608e-11,1.9922192735981e-09,-2.3224639599085e-09,-0.0013086518209476,0.0013086529645241,-0.0013086517111573,0.0013086530563822,-0.0013086532934472,0.0013086514540556,-0.001308653196825,0.0013086515597306,-0.001069531216939,0.0010695291470725,-0.0010695309015087,0.0010695295219447,5.3124601289163e-10,-6.9834214080527e-10,-2.8198447673719e-09,2.6905308518689e-09,-0.0010624860421602,0.0010624859040714,-0.0013086531108376,0.0013086516370434,-0.0013086513202915,0.0013086534790638,-0.0013086535816308,0.0013086511588765,-0.0013086518070681,0.0013086530155098,-0.0010695331614203,0.0010695271953744,-0.0010695277954894,0.0010695326442001,-0.0010695287531107,0.0010695316898269,-0.0010695299833749,0.0010695303973602,2.2679327297413e-10,-6.1504737684247e-10,-0.0010624861622187,0.0010624857854983,1.6516777651133e-09,-2.1238662261829e-09,-0.0013086518030476,0.0013086529985364,-0.0013086530078127,0.0013086517446258,-0.0013086520891183,0.0013086526804729,-0.0013086533271934,0.0013086514632645,-0.0010695313916706,0.0010695289166067,-0.0010695306439434,0.001069529846461,0.74236298536758,131329,3014,0.0044181778556806,0.004418177862441,0.0044181778654786,33.577375921526,3.1019007372211e-05,3.1019007372211e-05,3.1019007372211e-05,4531066.4315815,0.013344941415432
35019200,0.99871188610389,0.014107592070018,0.0047025306834871,0.0047025306906942,0.0047025306958371,-0.0010642941929501,0.0010642939428099,-3.4819371392105e-10,1.1865646756754e-10,1.748723721573e-09,-2.0439590101612e-09,-0.0013106859534246,0.0013106868944894,-0.001310685805332,0.0013106870213083,-0.0013106872477854,0.0013106855670746,-0.0013106871181147,0.0013106857016247,-0.001071428494229,0.0010714265587869,-0.0010714281536729,0.0010714270862441,2.3974098173509e-10,-3.4678950534807e-10,-2.7312366647854e-09,2.6550859931757e-09,-0.0010642941204162,0.0010642940138809,-0.0013106872293051,0.001310685588976,-0.0013106854760647,0.0013106873896176,-0.0013106874780607,0.001310685333625,-0.001310685747361,0.0013106871438185,-0.0010714302746163,0.0010714247451276,-0.0010714250977462,0.001071430122336,-0.0010714263894587,0.0010714287633764,-0.0010714269567811,0.0010714280605559,1.6238424383164e-10,-5.8686264863128e-10,-0.0010642942628787,0.0010642938711404,1.6657184463713e-09,-2.1709776083449e-09,-0.0013106858446985,0.0013106870265736,-0.0013106870700762,0.0013106857556133,-0.00131068609643,0.0013106867427046,-0.0013106873601997,0.0013106855027374,-0.0010714287091482,0.0010714262307437,-0.0010714280823781,0.0010714271092155,0.72136735240539,131329,3014,0.0044256807478925,0.0044256807448677,0.00442568074425,34.585682305057,3.9085458440456e-05,3.9085458440456e-05,3.9085458440456e-05,4543017.5864353,0.013367759577668
35219200,0.99879322305615,0.014108696156004,0.0047028987121498,0.004702898719356,0.0047028987244988,-0.00106566436762,0.001065664082692,-3.0535889164253e-10,3.2900114777018e-11,2.0593031446437e-09,-2.4012983884826e-09,-0.0013122150462662,0.0013122162290287,-0.0013122149455371,0.0013122163147685,-0.0013122165690765,0.0013122146719169,-0.0013122164780401,0.0013122147630202,-0.0010728635321513,0.0010728614555786,-0.0010728632899538,0.0010728618448974,6.0489715681322e-10,-7.5861856488535e-10,-2.8061287558393e-09,2.687353943123e-09,-0.0010656642961698,0.0010656641551976,-0.0013122163452491,0.0013122149078639,-0.0013122145571994,0.001312216739227,-0.0013122168495887,0.0013122143761966,-0.0013122150861455,0.001312216225999,-0.0010728654650295,0.0010728595035291,-0.001072860154044,0.0010728649858274,-0.0010728609923489,0.0010728641069313,-0.0010728623202728,0.0010728626470889,2.3991909434224e-10,-6.4476669626119e-10,-0.0010656644156409,0.0010656640363476,1.608015101566e-09,-2.0938533251594e-09,-0.0013122150583564,0.0013122162492128,-0.0013122162368561,0.0013122150165841,-0.0013122153479924,0.0013122159104901,-0.0013122165647157,0.0013122147141789,-0.0010728637068779,0.0010728611752432,-0.0010728629523054,0.0010728621797616,0.70214464337453,131329,3014,0.0044313659407602,0.0044313659429958,0.0044313659442665,35.346517015146,4.5172136121172e-05,4.5172136121172e-05,4.5172136121172e-05,4551141.7683693,0.013385048825594
35419200,0.99887182672314,0.014109726008856,0.0047032419964343,0.0047032420036399,0.0047032420087816,-0.0010667313109331,0.0010667310624017,-3.8259722424095e-10,1.4730651368124e-10,1.5131062054088e-09,-1.8134853853545e-09,-0.0013133830167188,0.0013133837845093,-0.0013133828465936,0.0013133839367774,-0.0013133841531702,0.0013133826147217,-0.0013133840040919,0.0013133827682238,-0.0010739705444422,0.0010739686986066,-0.0010739701125824,0.0010739692513746,1.8938507732122e-10,-3.2007182543537e-10,-2.712107884003e-09,2.6136616468636e-09,-0.0010667312464816,0.0010667311287434,-0.0013133842103863,0.0013133825614872,-0.0013133824754351,0.001313384343347,-0.0013133844281422,0.0013133823300428,-0.0013133827219467,0.0013133841188579,-0.0010739723539354,0.0010739668736287,-0.0010739672093829,0.0010739721587172,-0.0010739685536589,0.0010739707839823,-0.0010739690604548,0.0010739701746437,1.4771793011275e-10,-5.5257974071529e-10,-0.0010667313794495,0.0010667309967202,1.6905310038794e-09,-2.1779511540284e-09,-0.0013133828253119,0.0013133840000551,-0.0013133840575477,0.0013133827184202,-0.0013133830550738,0.0013133837323823,-0.0013133843313949,0.0013133824777311,-0.0010739707836876,0.0010739683721372,-0.0010739701849662,0.0010739691947238,0.68162531705488,131329,3014,0.0044357925476671,0.0044357925516271,0.0044357925535625,35.931273394177,4.9850187153416e-05,4.9850187153416e-05,4.9850187153416e-05,4557380.612022,0.013398509058131
35619200,0.99894850878234,0.014110687934845,0.0047035626384308,0.0047035626456364,0.0047035626507781,-0.0010682225749505,0.0010682223043037,-2.9836423382452e-10,3.8313442109467e-11,1.9476848073896e-09,-2.2779159772011e-09,-0.0013149443317204,0.0013149454552922,-0.0013149442341989,0.0013149455363999,-0.0013149457744522,0.001314943974347,-0.0013149456862277,0.0013149440707115,-0.0010754968323816,0.0010754948181767,-0.0010754965385525,0.0010754951598865,7.1929898773438e-10,-9.0217114456103e-10,-2.8180115757639e-09,2.6745170551369e-09,-0.0010682225179423,0.0010682223658945,-0.0013149455506004,0.0013149442013723,-0.0013149437670177,0.0013149460353015,-0.0013149461487893,0.0013149435894939,-0.00131494437998,0.0013149454421714,-0.0010754988738847,0.0010754927714576,-0.0010754935130725,0.0010754982066756,-0.001075494214291,0.0010754975154,-0.0010754958276929,0.0010754958317945,2.5898663090091e-10,-6.4177703432861e-10,-0.001068222628771,0.0010682222569723,1.6128590983646e-09,-2.0790962122732e-09,-0.0013149443069409,0.0013149454989291,-0.0013149454840677,0.0013149442699652,-0.0013149446116826,0.001314945157459,-0.0013149458202478,0.0013149439684684,-0.0010754970435348,0.0010754945469356,-0.0010754962448806,0.0010754955375787,0.65730120620356,131329,3014,0.0044419786319299,0.004441978641471,0.0044419786453958,36.739882361268,5.6319058890145e-05,5.6319058890145e-05,5.6319058890145e-05,4567440.9494571,0.013417317420253
35819200,0.99902375330867,0.014111698804502,0.0047038995949827,0.0047038996021886,0.0047038996073306,-0.001070061919098,0.0010700616643385,-3.5218670384971e-10,1.0382109842494e-10,1.6289850982117e-09,-1.9453321969073e-09,-0.0013168191062798,0.0013168199873203,-0.0013168189650033,0.0013168201124795,-0.0013168203285522,0.0013168187293674,-0.0013168202034179,0.0013168188633373,-0.0010773646457275,0.00107736274979,-0.001077364224441,0.0010773631868635,4.7120535219025e-10,-6.4963823775328e-10,-2.7624518600834e-09,2.6223750316816e-09,-0.0010700618657311,0.0010700617233293,-0.0013168202624565,0.0013168187937228,-0.001316818512421,0.0013168205950838,-0.0013168206913947,0.0013168183549961,-0.001316818962067,0.0013168201678606,-0.001077366607808,0.0010773607889219,-0.0010773613527276,0.0010773660868924,-0.0010773623566629,0.0010773651172952,-0.0010773634879944,0.0010773639437618,2.0634784847958e-10,-5.8231880291323e-10,-0.0010700619807691,0.0010700616105675,1.6603111714569e-09,-2.1210645879475e-09,-0.0013168189647428,0.0013168201432924,-0.0013168201710989,0.0013168188895279,-0.0013168192307988,0.0013168198461103,-0.001316820472638,0.0013168186228965,-0.0010773648796689,0.0010773624741196,-0.0010773641721748,0.0010773633495773,0.69619443492511,131329,3014,0.0044496080535139,0.0044496080652036,0.0044496080698936,37.72597825524,6.4207826041919e-05,6.4207826041919e-05,6.4207826041919e-05,4580820.4595104,0.01344051271198
36019200,0.99909459680256,0.014112713644711,0.0047042378750518,0.0047042378822584,0.0047042378874008,-0.001070567667357,0.0010705674211354,-3.2194432799824e-10,9.5353653981913e-11,1.5759366303942e-09,-1.8668706248839e-09,-0.0013173987321681,0.0013173995829555,-0.0013173986035516,0.0013173996907487,-0.0013173999144842,0.0013173983652669,-0.0013173998013506,0.0013173984835397,-0.0010778919822323,0.0010778902082716,-0.0010778916779353,0.0010778906830596,6.8209169939555e-10,-8.2197083147113e-10,-2.7739413589878e-09,2.6694803261603e-09,-0.0010705676102842,0.0010705674772988,-0.0013173998306575,0.0013173984561531,-0.0013173980589471,0.0013174002752282,-0.0013174003871369,0.0013173978864729,-0.0013173986354903,0.0013173997183795,-0.001077894047274,0.0010778881141225,-0.0010778888001477,0.0010778935513253,-0.0010778895151667,0.0010778927731073,-0.0010778909806061,0.0010778911715329,2.083934041069e-10,-6.2623729564519e-10,-0.0010705677376271,0.0010705673498164,1.6396037438046e-09,-2.1383207967233e-09,-0.0013173985727052,0.0013173997673845,-0.0013173997774254,0.0013173985138911,-0.0013173988537371,0.001317399450473,-0.0013174000936682,0.0013173982303692,-0.0010778923058956,0.0010778897753469,-0.0010778915968755,0.001077890731719,0.73586531072618,131329,3014,0.0044517064468369,0.0044517064449569,0.0044517064446241,37.994935445498,6.6359483563982e-05,6.6359483563982e-05,6.6359483563982e-05,4582449.7299058,0.01344689437945
36219200,0.99915986862091,0.014113615010364,0.0047045383302702,0.0047045383374758,0.004704538342618,-0.0010703115028981,0.0010703112714733,-3.0128307324422e-10,9.038887727008e-11,1.4735200633265e-09,-1.7474912321659e-09,-0.0013172610780487,0.001317261881444,-0.0013172609575346,0.0013172619792306,-0.0013172621900966,0.0013172607398676,-0.0013172620840626,0.0013172608524077,-0.0010776669897415,0.0010776653227184,-0.0010776667065101,0.0010776657720925,8.9601455105698e-10,-1.0427634770342e-09,-2.8125906273123e-09,2.7039968063769e-09,-0.0010703114559032,0.0010703113183511,-0.0013172620904887,0.0013172608375416,-0.0013172602965455,0.0013172626808268,-0.0013172627980331,0.0013172601283321,-0.0013172610192165,0.0013172619847849,-0.0010776692136775,0.0010776630627391,-0.0010776638980955,0.0010776685577738,-0.0010776643535204,0.0010776680532553,-0.00107766625732,0.0010776660288283,2.2369227629568e-10,-6.4379482430415e-10,-0.0010703115817273,0.0010703111928553,1.6490354951564e-09,-2.1501646474754e-09,-0.0013172608831743,0.0013172620941832,-0.0013172621002271,0.0013172608363287,-0.0013172611817056,0.0013172617715801,-0.0013172624300978,0.0013172605486407,-0.0010776673888706,0.0010776648250443,-0.0010776666414754,0.0010776658041488,0.71361275417197,131329,3014,0.0044506452630039,0.0044506452628008,0.0044506452634537,37.867097078107,6.5336776624854e-05,6.5336776624854e-05,6.5336776624854e-05,4576388.4893434,0.013443672755754
36419200,0.99921746221574,0.014114398576883,0.0047047995191099,0.0047047995263155,0.0047047995314578,-0.0010685520422825,0.0010685518126897,-3.5921732542199e-10,1.4849695687284e-10,1.0187297273296e-09,-1.2876811587539e-09,-0.001315497117411,0.001315497571283,-0.0013154969559901,0.0013154977142741,-0.0013154979211645,0.0013154967372494,-0.0013154977768159,0.0013154968809744,-0.001075881004555,0.0010758795576263,-0.0010758806357069,0.0010758801348424,9.0962154314339e-10,-1.0557589113451e-09,-2.8067696676661e-09,2.6969273027365e-09,-0.0010685519986497,0.0010685518546935,-0.0013154979650954,0.0013154967062235,-0.0013154961696415,0.0013154985437263,-0.0013154986644337,0.0013154959796017,-0.0013154968991335,0.0013154978288615,-0.0010758833329466,0.0010758771970486,-0.0010758780476432,0.0010758827119933,-0.0010758784668205,0.0010758822139668,-0.0010758803722749,0.0010758801384307,1.6459522090545e-10,-5.9346526022014e-10,-0.0010685521230476,0.0010685517298543,1.7333876747258e-09,-2.2430769207015e-09,-0.001315496746812,0.0013154979779066,-0.0013154980142411,0.0013154966570885,-0.0013154969925617,0.0013154976847448,-0.0013154983038007,0.0013154963942648,-0.0010758814895443,0.0010758789411233,-0.0010758808658419,0.0010758798410509,0.70434248352313,131329,3014,0.0044433465438812,0.0044433465405455,0.0044433465396057,36.899731666936,5.7597853335488e-05,5.7597853335488e-05,5.7597853335488e-05,4557008.3519538,0.013421480963694
36619200,0.99926970623556,0.014115065273866,0.0047050217514377,0.0047050217586433,0.0047050217637853,-0.001067639493228,0.001067639287327,-2.7171333193246e-10,7.9220218553173e-11,1.2539877140655e-09,-1.5097944406397e-09,-0.0013145769511626,0.001314577651282,-0.0013145768464701,0.0013145777307884,-0.0013145779113276,0.0013145766620599,-0.0013145778198489,0.0013145767708232,-0.0010749562755066,0.0010749547815638,-0.0010749559547411,0.0010749551336441,1.3773379142187e-09,-1.5843254451676e-09,-2.9307102608537e-09,2.7720178337261e-09,-0.0010676394762662,0.0010676393097267,-0.0013145777651436,0.0013145767870111,-0.0013145759172435,0.0013145786951748,-0.0013145788273644,0.0013145757487853,-0.0013145769790365,0.0013145776702636,-0.0010749588951817,0.0010749521419386,-0.0010749533391669,0.0010749577409986,-0.0010749532318051,0.0010749578827555,-0.0010749561902871,0.0010749549083183,2.6513902827292e-10,-6.5660714157313e-10,-0.0010676395839958,0.0010676392043888,1.7087740455082e-09,-2.1852839427079e-09,-0.0013145766703926,0.0013145779272024,-0.0013145779261258,0.0013145766395609,-0.0013145770031302,0.0013145775953897,-0.0013145782795874,0.0013145763478954,-0.001074956804745,0.0010749542319568,-0.0010749559607915,0.0010749552092734,0.66675555393779,131329,3014,0.0044395608737249,0.0044395608850585,0.0044395608899878,36.394653890245,5.3557231121958e-05,5.3557231121958e-05,5.3557231121958e-05,4546388.5061072,0.013409970376566
36819200,0.99931855335974,0.014115670090483,0.0047052233569764,0.004705223364182,0.004705223369325,-0.0010677393366945,0.0010677391564215,-3.7362017663066e-10,2.0303200624687e-10,8.352530650922e-10,-1.0648797120381e-09,-0.0013146340770586,0.0013146344403693,-0.0013146338940048,0.001314634599472,-0.0013146347511366,0.0013146337479062,-0.0013146345834702,0.0013146339311307,-0.0010750422155204,0.0010750408035896,-0.0010750416635303,0.0010750413623461,1.001768641892e-09,-1.1885794057242e-09,-2.8447674533787e-09,2.7043357195247e-09,-0.0010677393214952,0.0010677391777905,-0.0013146348122205,0.0013146336558133,-0.0013146330139894,0.001314635512848,-0.0013146356174501,0.0013146328814157,-0.0013146338231401,0.0013146347489683,-0.0010750446498828,0.001075038336085,-0.0010750392560389,0.0010750437503864,-0.0010750396079252,0.0010750434641464,-0.0010750418231085,0.0010750412510705,1.5492848489408e-10,-5.4762588364046e-10,-0.0010677394430541,0.001067739059123,1.8123919278619e-09,-2.2914865376298e-09,-0.0013146336323158,0.001314634876501,-0.0013146349611201,0.0013146335232065,-0.0013146338917925,0.0013146346245471,-0.0013146352454003,0.0013146333081369,-0.0010750427126073,0.0010750402928148,-0.0010750420754979,0.0010750410535406,0.64958127931769,131329,3014,0.0044399740690814,0.0044399740819306,0.0044399740879055,36.429646408125,5.3837171264999e-05,5.3837171264999e-05,5.3837171264999e-05,4547235.7616657,0.013411223103379
37019200,0.99936482710065,0.014116285598088,0.0047054285261773,0.0047054285333835,0.0047054285385271,-0.0010683138677926,0.0010683136438355,-3.1814957883699e-10,1.057010009658e-10,1.1113809948088e-09,-1.384951552916e-09,-0.0013151577960091,0.0013151583538868,-0.0013151576654528,0.0013151584665735,-0.0013151586612209,0.0013151574589862,-0.0013151585436535,0.0013151575845527,-0.0010756039218313,0.0010756024519006,-0.0010756035544267,0.0010756028854521,1.1987825346252e-09,-1.3980350015823e-09,-2.9187616104471e-09,2.7641972824391e-09,-0.0010683138409512,0.0010683136745678,-0.0013151586119027,0.0013151575051303,-0.0013151567648532,0.0013151594029346,-0.0013151595301454,0.0013151565782019,-0.0013151577001769,0.0013151584909381,-0.0010756064805361,0.0010755998761707,-0.0010756009566129,0.00107560549164,-0.0010756010712892,0.0010756053867311,-0.0010756036416679,0.0010756027425429,2.332194817461e-10,-6.2854704237813e-10,-0.0010683139489922,0.0010683135682033,1.7561558737171e-09,-2.2360642007883e-09,-0.0013151574484266,0.001315158718084,-0.0013151587287079,0.0013151573922809,-0.0013151577414681,0.0013151583972093,-0.0013151590546942,0.0013151571070589,-0.0010756044421957,0.0010756018685229,-0.0010756036790991,0.0010756028223166,0.68962110406809,131329,3014,0.004442356035445,0.0044423560435597,0.0044423560470096,36.71692493658,5.6135399492642e-05,5.6135399492642e-05,5.6135399492642e-05,4553411.443458,0.013418460858757
37219200,0.99940975503963,0.014116927944354,0.0047056426415994,0.0047056426488056,0.0047056426539491,-0.0010697431517776,0.0010697429734811,-4.1327837392348e-10,2.5124256709439e-10,9.94902564439e-10,-1.217751049806e-09,-0.001316671879065,0.0013166723143375,-0.0013166716662563,0.0013166724993048,-0.0013166726527948,0.0013166715163846,-0.0013166724600251,0.0013166717295013,-0.0010770769111558,0.001077075313551,-0.0010770762759524,0.0010770759493359,8.08050668628e-10,-9.7862980946307e-10,-2.8125474963468e-09,2.6864232078781e-09,-0.0010697431315263,0.0010697429999227,-0.0013166727013295,0.0013166714347759,-0.0013166709194768,0.0013166732792238,-0.0013166733759327,0.0013166708012976,-0.0013166715945429,0.0013166726519314,-0.0010770791591845,0.0010770730367926,-0.0010770738066598,0.0010770784022321,-0.0010770744016335,0.0010770778588346,-0.0010770762287079,0.0010770760449402,1.1657328191332e-10,-5.1170434604818e-10,-0.0010697432601246,0.0010697428740567,1.8314794431631e-09,-2.3133106530798e-09,-0.0013166714740663,0.0013166727043748,-0.0013166728148626,0.0013166713397094,-0.0013166717137138,0.0013166724790992,-0.0013166730783669,0.0013166711501339,-0.0010770772943685,0.0010770749234038,-0.0010770767173772,0.0010770756099269,0.73362851400074,131329,3014,0.0044482858090786,0.0044482858219659,0.0044482858275917,37.498006831456,6.2384054651645e-05,6.2384054651645e-05,6.2384054651645e-05,4566179.0210383,0.013436492336175
37419200,0.99945248282098,0.014117492378363,0.0047058307862683,0.0047058307934753,0.0047058307986198,-0.0010705209355597,0.0010705206984195,-3.0879470582782e-10,8.9036447762344e-11,1.3219347371541e-09,-1.603599054679e-09,-0.0013176070111744,0.0013176077064214,-0.0013176068903875,0.0013176078090052,-0.0013176080217898,0.0013176066636791,-0.0013176079141925,0.0013176067761379,-0.0010779101096219,0.0010779085234978,-0.0010779098013564,0.0010779089585717,9.6712315432801e-10,-1.1339706092722e-09,-2.9017988797576e-09,2.7749301916782e-09,-0.0010705208920907,0.0010705207428482,-0.0013176079768777,0.0013176067136967,-0.001317606128303,0.0013176086094257,-0.0013176087291957,0.0013176059445939,-0.0013176069015566,0.001317607855827,-0.0010779124993099,0.0010779061048666,-0.001077907007466,0.0010779117518398,-0.0010779074193111,0.001077911303451,-0.0010779094819806,0.0010779091221551,2.455613789449e-10,-6.5578818159179e-10,-0.0010705210109861,0.001070520624507,1.7324954393947e-09,-2.2254124868526e-09,-0.0013176067345288,0.001317608008356,-0.0013176079991847,0.0013176066932488,-0.0013176070369932,0.0013176076681017,-0.0013176083381814,0.0013176063891857,-0.0010779105854607,0.0010779079497525,-0.0010779098038571,0.0010779089650475,0.68665854446629,131329,3014,0.004451514023421,0.0044515140254336,0.0044515140265456,37.943686913004,6.5949495304031e-05,6.5949495304031e-05,6.5949495304031e-05,4570825.8236995,0.013446314278384
37619200,0.999492063224,0.014117995100942,0.0047059983604614,0.0047059983676682,0.0047059983728124,-0.0010704781265193,0.0010704778992717,-4.2066027758786e-10,2.1056435702108e-10,1.1345681717506e-09,-1.4047690685633e-09,-0.0013175809087811,0.0013175814042388,-0.0013175807059584,0.0013175815879461,-0.0013175817892845,0.0013175804941073,-0.0013175816056856,0.0013175806810234,-0.0010778673325196,0.0010778656746282,-0.0010778668152959,0.0010778663435854,6.9789886511393e-10,-8.4190787263247e-10,-2.8227301514115e-09,2.715223311662e-09,-0.0010704780797949,0.0010704779464666,-0.0013175818399452,0.001317580447147,-0.0013175800341606,0.0013175822987422,-0.0013175824036213,0.0013175798691017,-0.001317580625197,0.0013175817299455,-0.0010778695052263,0.0010778634725199,-0.0010778641701496,0.0010778689839809,-0.0010778648914638,0.0010778682124713,-0.0010778664063537,0.001077866576016,1.2742133980671e-10,-5.4755834840949e-10,-0.0010704782093709,0.0010704778172445,1.8088233596292e-09,-2.3119181760014e-09,-0.0013175805469318,0.0013175817927483,-0.001317581863236,0.0013175804260227,-0.0013175807699358,0.0013175815316802,-0.0013175821307819,0.0013175801964831,-0.0010778676996344,0.0010778652088148,-0.0010778671321183,0.001077866007426,0.6641558202867,131329,3014,0.0044513363451413,0.0044513363461561,0.0044513363468605,37.91669629501,6.5733570360084e-05,6.5733570360084e-05,6.5733570360084e-05,4569626.7422934,0.013445773610251
37819200,0.99952769009155,0.014118428295505,0.0047061427586491,0.0047061427658561,0.0047061427710001,-0.0010694544118805,0.001069454201572,-4.1429601295295e-10,2.2762532079093e-10,1.1818188411574e-09,-1.4275920810419e-09,-0.0013164745385791,0.0013164750734125,-0.0013164743328901,0.0013164752555594,-0.0013164754483221,0.0013164741410066,-0.0013164752599497,0.0013164743346799,-0.0010767980983192,0.0010767964142991,-0.0010767975870789,0.0010767971132761,7.8393556587385e-10,-9.0839157040078e-10,-2.8305150797647e-09,2.7428707968833e-09,-0.0010694543669297,0.0010694542456068,-0.0013164754621109,0.0013164741201389,-0.0013164736467796,0.0013164759834774,-0.0013164760878068,0.0013164734984329,-0.0013164742911281,0.0013164753723844,-0.0010768002708442,0.0010767941865934,-0.001076794925155,0.0010767997344067,-0.0010767955427083,0.0010767990569917,-0.0010767972091375,0.0010767972587453,1.1699494906109e-10,-5.5427827626737e-10,-0.0010694545068112,0.0010694541059333,1.815616097351e-09,-2.3347179973354e-09,-0.0013164741888071,0.0013164754413182,-0.0013164755222718,0.0013164740689418,-0.0013164744220398,0.0013164751867076,-0.0013164757932735,0.001316473849909,-0.0010767984590087,0.0010767959447165,-0.0010767979036305,0.0010767967425559,0.64016454957315,131329,3014,0.0044470884522686,0.0044470884504131,0.0044470884508173,37.334752551283,6.1078020410265e-05,6.1078020410265e-05,6.1078020410265e-05,4559714.9841093,0.013432853469413
38019200,0.99955908028867,0.014118828631422,0.0047062762039545,0.0047062762111617,0.0047062762163059,-0.0010676473011664,0.0010676470875415,-3.4582014466726e-10,1.5385823529535e-10,1.1885601480092e-09,-1.4409432103505e-09,-0.0013144917507664,0.0013144923373372,-0.0013144915931345,0.0013144924708031,-0.0013144926654531,0.0013144913951252,-0.0013144925250666,0.0013144915427631,-0.0010749088097591,0.001074907252485,-0.0010749084193301,0.0010749077991683,9.1245687911771e-10,-1.0569182609719e-09,-2.9064780639574e-09,2.8009657683134e-09,-0.0010676472617315,0.0010676471272671,-0.0013144926792812,0.0013144913755154,-0.0013144908206995,0.0013144932837703,-0.0013144933977541,0.001314490660422,-0.0013144915556436,0.0013144925797465,-0.0010749111822397,0.0010749048414521,-0.0010749056815154,0.0010749105166005,-0.00107490617511,0.0010749099732101,-0.0010749081191027,0.0010749079208014,1.9720016840551e-10,-6.2366971596534e-10,-0.0010676473925199,0.0010676469968383,1.7996493959316e-09,-2.3089627482877e-09,-0.0013144914071815,0.0013144926974432,-0.0013144927252458,0.0013144913367181,-0.0013144916905591,0.0013144923916298,-0.0013144930453505,0.0013144910680329,-0.0010749093008736,0.0010749066704708,-0.0010749085881367,0.0010749075999205,0.66570162957123,131329,3014,0.0044395896664663,0.0044395896671143,0.0044395896678246,36.305392314226,5.2843138513808e-05,5.2843138513808e-05,5.2843138513808e-05,4543301.2194014,0.013410045765799
38219200,0.99958771464902,0.014119197370451,0.004706399116964,0.0047063991241714,0.0047063991293158,-0.0010668836533064,0.0010668834391357,-4.1496901583435e-10,2.1223238368166e-10,1.2176535686075e-09,-1.4833986943352e-09,-0.001313655004948,0.0013136555822435,-0.0013136548082764,0.0013136557585095,-0.00131365594176,0.001313654616687,-0.0013136557601943,0.0013136548122922,-0.0010741168095552,0.0010741150548093,-0.0010741162064411,0.0010741156492642,8.8001945230113e-10,-1.0700383918558e-09,-2.8987967289372e-09,2.752911838439e-09,-0.0010668836239705,0.0010668834753426,-0.0013136559109029,0.001313654630771,-0.0013136540752241,0.0013136565226434,-0.0013136566281158,0.0013136539252418,-0.0013136548027624,0.0013136558296202,-0.0010741191053846,0.0010741127420257,-0.001074113587479,0.0010741182778422,-0.0010741141320649,0.0010741177814227,-0.0010741161018177,0.0010741157966054,1.5635539542059e-10,-5.4406618373978e-10,-0.0010668837420287,0.0010668833602305,1.8578405316294e-09,-2.3324991308703e-09,-0.0013136546577992,0.001313655931959,-0.0013136560051985,0.0013136545442912,-0.0013136549073438,0.0013136556689343,-0.0013136562866434,0.0013136543204037,-0.0010741171476599,0.0010741146935796,-0.0010741165136036,0.0010741154662204,0.67076549970165,131329,3014,0.0044364208321321,0.0044364208464381,0.004436420852519,35.867031629616,4.9336253036928e-05,4.9336253036928e-05,4.9336253036928e-05,4536116.2942947,0.013400408304963
38419200,0.99962032171811,0.014119648759604,0.0047065495800145,0.0047065495872226,0.0047065495923674,-0.0010737807402945,0.0010737804684045,-4.1457224327901e-10,1.3438202254498e-10,1.7372996660113e-09,-2.0906512675094e-09,-0.001320820731817,0.0013208216618529,-0.0013208205640643,0.0013208218205077,-0.0013208220359907,0.0013208203167393,-0.0013208218820811,0.0013208204847093,-0.0010812074229234,0.0010812052878418,-0.0010812068060112,0.0010812057158835,3.580928802806e-10,-5.9772594806273e-10,-2.85605691978e-09,2.6612649194506e-09,-0.0010737806931639,0.0010737805296942,-0.0013208219521089,0.0013208203937262,-0.0013208201604575,0.0013208222410965,-0.0013208223272111,0.0013208200066199,-0.001320820556107,0.0013208218683238,-0.0010812093815298,0.0010812033715824,-0.0010812038979936,0.0010812087125785,-0.001081205117452,0.0010812076304065,-0.0010812061495659,0.0010812066779729,2.3204460860825e-10,-5.550257946959e-10,-0.0010737807893907,0.0010737804388278,1.7740160122933e-09,-2.1886101836377e-09,-0.0013208205828694,0.001320821818275,-0.001320821844151,0.0013208204990412,-0.0013208208467687,0.0013208215179737,-0.0013208221480859,0.0013208202359093,-0.0010812075586095,0.0010812051942073,-0.0010812067944356,0.0010812060189886,0.71254272268736,131329,3014,0.0044650334608071,0.0044650334902315,0.0044650335013248,39.667595223489,7.9740761787912e-05,7.9740761787912e-05,7.9740761787912e-05,4596333.6119063,0.013487414321116
38619200,0.99965048138892,0.014120067271766,0.0047066890840674,0.0047066890912768,0.0047066890964221,-0.0010739240174885,0.0010739237549019,-3.9155861088851e-10,1.6519886352341e-10,1.5660557202786e-09,-1.8525104711944e-09,-0.0013210944132467,0.0013210951778102,-0.0013210942382301,0.0013210953328272,-0.0013210955863281,0.0013210939645084,-0.0013210954274593,0.0013210941174385,-0.0010813625432556,0.0010813606769623,-0.0010813622020648,0.0010813613721086,1.9887364216275e-10,-2.6356394162052e-10,-2.7501214591344e-09,2.7038793046704e-09,-0.0010739239337537,0.0010739238315949,-0.0013210956544591,0.0013210939299055,-0.0013210938700339,0.0013210957482853,-0.001321095846654,0.0013210936910011,-0.0013210940984734,0.001321095525212,-0.001081364332727,0.0010813588317278,-0.001081359154931,0.0010813643883355,-0.0010813604832763,0.0010813628675282,-0.0010813608536228,0.0010813622202222,1.6479339226322e-10,-6.2404542384066e-10,-0.0010739240829577,0.0010739236798772,1.7166998915408e-09,-2.2493894012125e-09,-0.0013210942019724,0.0013210954447267,-0.0013210954563583,0.0013210941206525,-0.001321094448247,0.0013210951244891,-0.0013210957542643,0.001321093837134,-0.0010813628309884,0.0010813601893742,-0.001081362228135,0.0010813611657096,0.71626668269652,131329,3014,0.0044656293566482,0.0044656293420702,0.0044656293368205,39.752897974317,8.0423183794535e-05,8.0423183794535e-05,8.0423183794535e-05,4595229.6722474,0.013489230991673
38819200,0.99967825000757,0.014120454047448,0.0047068180092961,0.0047068180165039,0.0047068180216483,-0.0010738940281361,0.0010738938096823,-3.8190929999186e-10,1.9365440390266e-10,9.9714826821664e-10,-1.2446269354426e-09,-0.0013211593011673,0.0013211597239587,-0.0013211591282841,0.0013211598800528,-0.0013211600815048,0.0013211588966169,-0.0013211599199781,0.0013211590724581,-0.0010813653442568,0.0010813638307971,-0.0010813648701965,0.0010813644645336,-3.616269912184e-10,2.8404936354759e-10,-2.6993188940072e-09,2.646290493886e-09,-0.0010738939629307,0.0010738938759913,-0.0013211605025098,0.0013211584866631,-0.0013211587671631,0.0013211602754762,-0.0013211603485223,0.0013211586305238,-0.0013211586264606,0.0013211604383752,-0.0010813671130236,0.0010813620311985,-0.0010813619462771,0.0010813673900775,-0.0010813640281547,0.0010813651828989,-0.0010813633804932,0.0010813657114767,1.7936685425984e-10,-6.0056737890235e-10,-0.0010738941141739,0.0010738937251962,1.7658193889004e-09,-2.2688619408251e-09,-0.0013211588949867,0.0013211601602279,-0.0013211601777837,0.0013211588114807,-0.0013211591602984,0.0013211598512261,-0.0013211604786061,0.0013211585500479,-0.0010813658189629,0.0010813632605033,-0.0010813651641378,0.0010813641442357,0.71845448286853,131329,3014,0.004465506240316,0.0044655062426787,0.0044655062435663,39.755886625185,8.0447093001483e-05,8.0447093001483e-05,8.0447093001483e-05,4592447.2617382,0.013488861243292
38880000,0.99968647593505,0.014120568794787,0.0047068562584089,0.0047068562656168,0.0047068562707612,-0.0010738765589172,0.0010738763751143,-3.8504689528754e-10,2.205354557638e-10,2.6235671253546e-10,-4.7972156930594e-10,-0.0013211752752614,0.0013211752382998,-0.0013211750932373,0.0013211754034027,-0.0013211755718615,0.0013211749121689,-0.0013211753899277,0.0013211751012106,-0.0010813606973038,0.00108135966753,-0.0010813601568492,0.0010813603171349,-1.0598383529842e-09,1.0062471578345e-09,-2.6243257294146e-09,2.5908589514593e-09,-0.0010738764955251,0.001073876440994,-0.0013211764366547,0.001321174045793,-0.0013211747483016,0.0013211757829145,-0.0013211758190838,0.0013211746566156,-0.0013211741373203,0.0013211764220181,-0.0010813624127043,0.0010813579282172,-0.0010813573433094,0.0010813631366141,-0.001081360352186,0.0010813600753177,-0.0010813583314975,0.001081362009679,1.7070035919179e-10,-5.8185561809262e-10,-0.0010738766630405,0.0010738762747012,1.8307834946004e-09,-2.3254043911538e-09,-0.0013211746236659,0.0013211759172524,-0.0013211759579419,0.0013211745276136,-0.0013211748820846,0.0013211756173896,-0.0013211762455725,0.0013211742837932,-0.0010813614133584,0.0010813588794965,-0.0010813607748655,0.0010813597078691,0.71910521646365,131329,3014,0.0044654342187806,0.0044654342239996,0.0044654342265097,39.755989577226,8.0447916617806e-05,8.0447916617806e-05,8.0447916617806e-05,4591625.6269343,0.013488643746526
