time,ASR_ext,ASR_strain,ASR_strain_xx,ASR_strain_yy,ASR_strain_zz,disp_x_101,disp_x_102,disp_x_103,disp_x_104,disp_x_105,disp_x_106,disp_x_p1_neg,disp_x_p1_pos,disp_x_p2_neg,disp_x_p2_pos,disp_x_p3_neg,disp_x_p3_pos,disp_x_p4_neg,disp_x_p4_pos,disp_x_p5_neg,disp_x_p5_pos,disp_x_p6_neg,disp_x_p6_pos,disp_y_101,disp_y_102,disp_y_103,disp_y_104,disp_y_105,disp_y_106,disp_y_p1_neg,disp_y_p1_pos,disp_y_p2_neg,disp_y_p2_pos,disp_y_p3_neg,disp_y_p3_pos,disp_y_p4_neg,disp_y_p4_pos,disp_y_p5_neg,disp_y_p5_pos,disp_y_p6_neg,disp_y_p6_pos,disp_y_p7_neg,disp_y_p7_pos,disp_y_p8_neg,disp_y_p8_pos,disp_z_101,disp_z_102,disp_z_103,disp_z_104,disp_z_105,disp_z_106,disp_z_p1_neg,disp_z_p1_pos,disp_z_p2_neg,disp_z_p2_pos,disp_z_p3_neg,disp_z_p3_pos,disp_z_p4_neg,disp_z_p4_pos,disp_z_p5_neg,disp_z_p5_pos,disp_z_p6_neg,disp_z_p6_pos,humidity,ndof,nelem,strain_xx,strain_yy,strain_zz,temp,thermal_strain_xx,thermal_strain_yy,thermal_strain_zz,vonmises,vstrain
2419200,0,0,0,0,0,0,0,0,0,0,0,0,0,0,0,0,0,0,0,0,0,0,0,0,0,0,0,0,0,0,0,0,0,0,0,0,0,0,0,0,0,0,0,0,0,0,0,0,0,0,0,0,0,0,0,0,0,0,0,0,0,0,0,0,0,0,0,0,0,0,0,0,0,0,0
2919200,0.076591003746622,0.0015995539806136,0.00053318466020454,0.00053318466020454,0.00053318466020454,-0.00016370677202987,0.00016368974267907,-6.4141147762626e-09,-6.4141148390401e-09,-6.2155159139024e-09,-6.3704647997835e-09,-0.00016509668670821,0.0001650824619126,-0.00016509807658569,0.0001650838517898,-0.00016509797214357,0.00016508375539522,-0.00016509936074918,0.00016508514400065,-0.00016671903168064,0.00016670547339694,-0.00016671996224468,0.00016670640396246,-6.215517233129e-09,-6.3704631238527e-09,-1.2710799819865e-08,-1.1743021501313e-10,-0.00016370677202979,0.00016368974267907,-0.00016509879026994,0.00016508036417106,-0.0001650959730244,0.00016508594953036,-0.00016510007506866,0.00016508165701867,-0.00016509725782289,0.00016508724237804,-0.00016672520274737,0.00016669931491488,-0.00016671379117697,0.00016671256244263,-0.00016671688697417,0.00016670783671386,-0.00016671772355095,0.00016670848867089,-7.5396026653802e-09,-7.539602539781e-09,-0.00016370790625519,0.00016368860845365,-1.2334709036488e-09,-1.3833524535939e-08,-0.00016509560768538,0.00016508338378699,-0.00016510124120759,0.00016508061514311,-0.00016509704012438,0.00016508481622629,-0.00016510261558809,0.00016508198952357,-0.00016672318320416,0.00016670319877167,-0.00016672228682104,0.00016670230238991,0.83502648770561,125301,3014,0.0006818428049646,0.00068184280496481,0.00068184280496475,32.433347268775,0.0001746667781502,0.0001746667781502,0.0001746667781502,1203226.9572147,0.0020476244628314
3419200,0.15540968227551,0.0030956633682024,0.0010318877893945,0.0010318877893945,0.0010318877894133,-0.00027523329796698,0.00027521435132667,-7.9050137054781e-09,-7.9050151878152e-09,-7.5893955226322e-09,-7.8406069378254e-09,-0.00028516569008537,0.00028514915501995,-0.00028516788962735,0.00028515135456019,-0.00028516780036087,0.00028515120530079,-0.00028516999291082,0.0002851533978421,-0.00028054455613024,0.0002805281016034,-0.00028054672792801,0.00028053027343353,-7.5893969487009e-09,-7.8406054086161e-09,-1.4442758412468e-08,-1.3672714471799e-09,-0.000275233297967,0.00027521435132648,-0.00028516789377781,0.00028514698190827,-0.00028516568593536,0.00028515352767059,-0.00028517000049468,0.00028514902863143,-0.00028516779277605,0.00028515557451197,-0.0002805509797207,0.00028052172956762,-0.00028054030433675,0.00028053664546576,-0.00028054226759583,0.00028053070584663,-0.00028054432916074,0.0002805324305121,-8.9225514561483e-09,-8.922552757138e-09,-0.00027523432721608,0.00027521332208587,-2.3353039552731e-09,-1.5448416295435e-08,-0.00028516438956016,0.0002851502400997,-0.00028517103498899,0.00028514813155163,-0.00028516665800482,0.00028515250853579,-0.00028517321323006,0.00028515030978598,-0.00028054992901935,0.00028052710283932,-0.00028054780773888,0.00028052498152637,0.77960726241633,125301,3014,0.001146108969375,0.001146108969375,0.0011461089693927,31.910845921473,0.00017048676737179,0.00017048676737179,0.00017048676737179,1882033.4184224,0.0034442541713077
3919200,0.2417112983266,0.0046205712535853,0.0015401904178556,0.0015401904178561,0.0015401904178736,-0.00039066817442794,0.00039065809483204,-4.1101674280594e-09,-4.1101663987379e-09,-3.8928388657389e-09,-4.0732351120663e-09,-0.00041498236865022,0.00041497408903336,-0.00041498342411454,0.00041497514448661,-0.00041498342477397,0.00041497506090813,-0.0004149844877743,0.0004149761238919,-0.00039768197129448,0.00039767312038808,-0.00039768291290815,0.0003976740620052,-3.8928403849181e-09,-4.0732332463264e-09,-1.001288448514e-08,1.7925500190075e-09,-0.00039066817442795,0.00039065809483209,-0.00041498429812384,0.00041497211609572,-0.00041498149464152,0.00041497711742339,-0.00041498535797085,0.00041497309169441,-0.00041498255457604,0.0004149780931066,-0.0003976877363149,0.00039766731245966,-0.00039767714788665,0.00039767986993115,-0.00039767990986388,0.00039767538309166,-0.00039768081659755,0.00039767601791938,-4.7714236931344e-09,-4.7714224997591e-09,-0.00039066884046813,0.00039065742880026,1.085059469428e-09,-1.0685957691761e-08,-0.00041498098214493,0.00041497534920292,-0.00041498601099999,0.00041497254555856,-0.00041498209475847,0.00041497646180017,-0.00041498707233481,0.00041497360687796,-0.00039768552768818,0.00039767145839649,-0.00039768462367843,0.0003976705543852,0.74640349119053,125301,3014,0.001626444932999,0.0016264449329994,0.0016264449330167,32.497067519052,0.00017517654015242,0.00017517654015242,0.00017517654015242,2693093.9154584,0.0048912820313714
4419200,0.33621770522906,0.0062464492569287,0.0020821497523042,0.0020821497523042,0.0020821497523204,-0.00051394193215249,0.00051393604485034,-2.3840144971112e-09,-2.3840162402344e-09,-2.3019257840415e-09,-2.3755969429823e-09,-0.00055740073037675,0.00055739672004441,-0.00055740113083306,0.00055739712049152,-0.00055740116173805,0.00055739713048798,-0.0005574015913916,0.00055739756012497,-0.00052407379808461,0.00052406864376435,-0.00052407455227996,0.00052406939799154,-2.3019264559564e-09,-2.3755933969509e-09,-7.8873075377467e-09,3.119278534094e-09,-0.00051394193215098,0.00051393604485146,-0.00055740248669769,0.000557394858069,-0.00055739937450888,0.00055739898246724,-0.00055740293262817,0.00055739528307951,-0.00055739982049603,0.0005573994075366,-0.00052407911260836,0.00052406316367226,-0.00052406923775431,0.00052407487808449,-0.00052407193240151,0.00052407057037622,-0.00052407270061729,0.00052407124065992,-3.0237356471869e-09,-3.0237372354472e-09,-0.00051394257358149,0.00051393540342959,2.3014079446773e-09,-8.5652224197315e-09,-0.00055739949798575,0.00055739790131773,-0.00055740354064502,0.00055739474739712,-0.00055739994236229,0.00055739834568018,-0.00055740398170548,0.00055739518844331,-0.00052407699779742,0.0005240669485054,-0.00052407625101369,0.00052406620168779,0.74424082049435,125301,3014,0.0021391413509498,0.0021391413509492,0.0021391413509672,33.59942854061,0.00018399542832488,0.00018399542832488,0.00018399542832488,3444790.1475866,0.0064381181283077
4919200,0.4390097378849,0.0079834601896475,0.0026611533965453,0.0026611533965451,0.0026611533965571,-0.00064496185616623,0.00064495785134273,-1.6377582419334e-09,-1.6377534797848e-09,-1.64572014035e-09,-1.6459729913608e-09,-0.0007146746293459,0.00071467243737903,-0.00071467463544424,0.00071467244345827,-0.00071467466953319,0.00071467250992445,-0.00071467471281406,0.00071467255317764,-0.00065980692771968,0.00065980335277285,-0.00065980749073324,0.0006598039158128,-1.6457188777586e-09,-1.6459686601531e-09,-6.7894273181311e-09,3.5139206508445e-09,-0.00064496185616313,0.00064495785134532,-0.00071467625146106,0.00071467068614692,-0.00071467301332188,0.00071467419469358,-0.00071467631022387,0.00071467077726334,-0.00071467307211456,0.00071467428584438,-0.00065981186874052,0.00065979818088883,-0.00065980254970766,0.00065980908770081,-0.00065980522599798,0.00065980502354591,-0.00065980582617527,0.00065980565277261,-2.1034248431972e-09,-2.1034199662286e-09,-0.00064496231985609,0.00064495738765949,2.7941495377967e-09,-7.3049204199014e-09,-0.00071467336517846,0.00071467369734165,-0.00071467673054805,0.00071467040601737,-0.00071467340221335,0.00071467373435263,-0.00071467679001335,0.00071467046545678,-0.00065980963703429,0.00065980175547321,-0.00065980906613815,0.00065980118454753,0.74696695512676,125301,3014,0.0026837750222824,0.0026837750222816,0.0026837750222964,35.344799609339,0.00019795839687471,0.00019795839687471,0.00019795839687471,4078836.9744055,0.0080839555529798
5419200,0.53946435710528,0.0096127733114649,0.0032042577704842,0.0032042577704834,0.0032042577704973,-0.00076353473134723,0.00076353264517673,-9.1206540188098e-10,-9.1206211333439e-10,-9.8421089797383e-10,-9.3104524800089e-10,-0.00086425846300427,0.00086425810393582,-0.00086425822139704,0.00086425786231572,-0.00086425826710618,0.0008642579653625,-0.00086425806863567,0.00086425776687009,-0.00078267527059275,0.0007826732577435,-0.00078267587694038,0.00078267386413636,-9.8420937069231e-10,-9.3103908360465e-10,-5.7524042262194e-09,3.9282844831962e-09,-0.00076353473134282,0.00076353264518039,-0.00086425996317855,0.00086425645448438,-0.00086425672121323,0.00086425951177157,-0.00086425978883936,0.00086425633746706,-0.00086425654689001,0.0008642593947735,-0.00078267989577425,0.00078266836817353,-0.0007826712517498,0.00078267875371322,-0.00078267371343049,0.00078267472978014,-0.00078267436028567,0.0007826755001055,-1.3311615917212e-09,-1.3311581542086e-09,-0.00076353514742215,0.0007635322291092,3.2028348337267e-09,-6.2291322732114e-09,-0.0008642572817147,0.00086425931623484,-0.00086426015587424,0.00086425600401604,-0.00086425706269413,0.00086425909719692,-0.00086425997641347,0.00086425582453553,-0.0007826778694166,0.00078267185548322,-0.00078267724406833,0.00078267123008669,0.73229095938568,125301,3014,0.0031764331668531,0.0031764331668517,0.0031764331668686,36.273583710635,0.00020538866968508,0.00020538866968508,0.00020538866968508,4546249.0317627,0.0095750929397108
5919200,0.63076056720759,0.010872042208509,0.0036240140694986,0.0036240140694974,0.003624014069513,-0.00085045007420962,0.0008504498523532,-1.7622527158598e-10,-1.7622176731068e-10,-3.0097702529965e-10,-2.018629336083e-10,-0.00098313818824473,0.0009831395627017,-0.00098313771650469,0.00098313909093834,-0.00098313777158134,0.00098313921990118,-0.00098313734559023,0.00098313879387762,-0.00086961561389844,0.00086961516459826,-0.00086961616113877,0.00086961571188085,-3.009757813521e-10,-2.0185511030134e-10,-4.6927211933746e-09,4.3402834381292e-09,-0.00085045007420436,0.0008504498523575,-0.00098313956804416,0.00098313802218057,-0.00098313633669447,0.00098314063146428,-0.00098313917424875,0.00098313770224642,-0.00098313594290783,0.00098314031154215,-0.00086961991819899,0.00086961058073496,-0.0008696118568276,0.00086962029575378,-0.00086961420435647,0.00086961645467712,-0.00086961478113532,0.00086961723968259,-5.2846859188257e-10,-5.2846493805301e-10,-0.00085045042267655,0.00085044950389422,3.6447662263348e-09,-5.1060043877473e-09,-0.00098313707047205,0.00098314073975808,-0.00098313947048372,0.00098313742635721,-0.00098313661379167,0.00098314028305002,-0.00098313906482146,0.00098313702066439,-0.00086961797754611,0.0008696138776952,-0.00086961740356761,0.0008696133036718,0.6360792580923,125301,3014,0.0035374368023489,0.0035374368023471,0.0035374368023656,36.779436202753,0.00020943548962203,0.00020943548962203,0.00020943548962203,4804676.4402517,0.010669174590827
6419200,0.70826383908864,0.011859562469879,0.003953187489955,0.0039531874899534,0.0039531874899702,-0.00091525509126563,0.00091525646313009,4.2400824122164e-10,4.240116552644e-10,2.5314421061813e-10,3.9286458669773e-10,-0.0010739194982266,0.0010739224121785,-0.001073918832864,0.0010739217467912,-0.0010739188883377,0.0010739218929129,-0.0010739182619249,0.0010739212664661,-0.00093410658975718,0.00093410743084008,-0.00093410715564897,0.00093410799677514,2.5314421985515e-10,3.9287497514691e-10,-1.8805911116888e-09,2.7286216112202e-09,-0.00091525509125967,0.00091525646313503,-0.001073920164045,0.0010739216162406,-0.0010739181670345,0.0010739225427338,-0.001073919573625,0.0010739211164448,-0.0010739175766199,0.0010739220429464,-0.00093410874586884,0.00093410503594621,-0.00093410499952396,0.00093411039168103,-0.00093410594331588,0.00093410791617421,-0.00093410653066054,0.00093410878819792,4.127729362172e-10,4.1277650466701e-10,-0.00091525509712768,0.00091525645727649,2.4070644405248e-09,-1.9429838400892e-09,-0.0010739187976435,0.0010739232038189,-0.0010739195231134,0.0010739211468841,-0.0010739181319259,0.0010739225380723,-0.0010739189172844,0.0010739205410231,-0.00093410790361059,0.00093410723254386,-0.00093410730177306,0.00093410663065994,0.59525943091212,125301,3014,0.0038065338635155,0.0038065338635134,0.0038065338635331,36.741496750098,0.00020913197400079,0.00020913197400079,0.00020913197400079,5025738.7788961,0.011485506907678
6919200,0.7782430309235,0.012821988767914,0.0042739962559666,0.0042739962559649,0.0042739962559825,-0.0009793236414073,0.00097932314200617,-3.0430097322591e-10,-3.0429767212088e-10,-4.693380320747e-10,-3.3166292804286e-10,-0.0011631257883751,0.0011631271757721,-0.0011631252217136,0.0011631266090846,-0.0011631252521697,0.0011631267460815,-0.0011631247186669,0.0011631262125434,-0.0010013264382107,0.0010013257565188,-0.0010013271167284,0.0010013264350799,-4.6933764229809e-10,-3.3165252635695e-10,-2.6916263394428e-09,2.0830386053791e-09,-0.00097932364140108,0.00097932314201126,-0.0011631264948312,0.0011631263590794,-0.0011631245152454,0.0011631274257823,-0.0011631259752008,0.0011631259459647,-0.0011631239956175,0.0011631270126723,-0.001001328689406,0.0010013232972184,-0.0010013248655192,0.001001328894392,-0.0010013257750013,0.0010013262730229,-0.0010013264512753,0.0010013272504031,-3.070720724825e-10,-3.0706859511814e-10,-0.00097932363868114,0.0009793231447411,1.795954255095e-09,-2.7388737663747e-09,-0.0011631250443362,0.0011631280033808,-0.0011631259267443,0.0011631259772113,-0.0011631244724709,0.0011631274314855,-0.0011631254092055,0.0011631254596394,-0.0010013278882096,0.001001325649661,-0.0010013271764082,0.0010013249378127,0.64378173705164,125301,3014,0.0040725009220939,0.0040725009220916,0.0040725009221121,38.625674168995,0.00022420539335196,0.00022420539335196,0.00022420539335196,5144522.8096906,0.012293052096668
7419200,0.83866556074399,0.013535156868614,0.0045117189561998,0.0045117189561978,0.0045117189562161,-0.0010199338942437,0.0010199327940323,-5.6381622418372e-10,-5.6381304910425e-10,-7.2242684309113e-10,-5.8791928108717e-10,-0.001230839873323,0.0012308407099054,-0.0012308393848059,0.0012308402213617,-0.0012308394039108,0.0012308403499168,-0.0012308389452449,0.0012308398912148,-0.0010430251020763,0.001043023894412,-0.0010430258600987,0.0010430246524791,-7.2242658399194e-10,-5.8790850058747e-10,-3.0523033643501e-09,1.9246853758294e-09,-0.0010199338942373,0.0010199327940375,-0.0012308406193587,0.0012308398638058,-0.001230838638758,0.0012308410674665,-0.0012308401648689,0.001230839518741,-0.0012308381842681,0.0012308407224034,-0.0010430274603183,0.0010430213449269,-0.0010430235018431,0.0010430272019772,-0.0010430244109922,0.0010430244537204,-0.0010430251506342,0.0010430254983285,-5.9879333648048e-10,-5.9878996073067e-10,-0.0010199339244858,0.0010199327637991,1.6177107421649e-09,-3.1282747018258e-09,-0.0012308391244348,0.0012308415351289,-0.0012308401549924,0.0012308395155593,-0.0012308386299446,0.001230841040608,-0.0012308397092761,0.0012308390698092,-0.0010430267002321,0.0010430238013061,-0.0010430259111128,0.001043023012139,0.55664260548471,125301,3014,0.004241100803474,0.0042411008034715,0.0042411008034927,40.764598162439,0.00024131678529952,0.00024131678529952,0.00024131678529952,5002244.6236649,0.012805373547446
7919200,0.88411653298978,0.014025576598693,0.0046751921995595,0.0046751921995575,0.0046751921995761,-0.0010425940817366,0.0010425961372541,6.2685452537748e-10,6.2685735811447e-10,4.2690408925547e-10,5.9655527899866e-10,-0.0012706594279418,0.0012706630006036,-0.0012706587103459,0.0012706622829804,-0.0012706587462845,0.0012706624296258,-0.0012706580616223,0.0012706617449271,-0.0010661250535987,0.0010661264014511,-0.0010661257942226,0.0010661271421191,4.2690458279327e-10,5.9656615029706e-10,-1.7708722336966e-09,3.0245957253863e-09,-0.00104259408173,0.0010425961372594,-0.0012706601273899,0.0012706621838767,-0.0012706580108851,0.0012706630997126,-0.0012706594621969,0.0012706616293648,-0.0012706573456906,0.0012706625452008,-0.0010661273150315,0.0010661239269327,-0.0010661235327754,0.0010661296166504,-0.0010661244173105,0.0010661268782179,-0.0010661251416031,0.0010661279581536,6.1108736520046e-10,6.1109040587228e-10,-0.0010425940938552,0.0010425961251446,2.7053306495939e-09,-1.8335645195096e-09,-0.0012706587116582,0.0012706638152297,-0.0012706594355331,0.0012706616373531,-0.0012706579846734,0.0012706630882136,-0.0012706587649781,0.0012706609667638,-0.0010661265834328,0.0010661263408045,-0.0010661258052255,0.0010661255625497,0.5070717593097,125301,3014,0.0043351807985495,0.004335180798547,0.0043351807985685,40.956256880056,0.00024285005504045,0.00024285005504045,0.00024285005504045,4935455.110662,0.013091368500534
8419200,0.9179932011546,0.014374039174037,0.0047913463913407,0.0047913463913387,0.0047913463913575,-0.0010560492682464,0.0010560511699665,5.6616173979454e-10,5.6616440094854e-10,3.6462072223428e-10,5.3684301331445e-10,-0.0012982235039146,0.0012982269825355,-0.0012982227933846,0.0012982262719779,-0.0012982228247942,0.0012982264168761,-0.0012982221458046,0.0012982257378498,-0.0010803967652583,0.0010803979885576,-0.0010803975410713,0.0010803987644145,3.6462148153484e-10,5.3685365216591e-10,-1.7460836624079e-09,2.8784213540917e-09,-0.0010560492682397,0.0010560511699719,-0.0012982241781498,0.0012982261961448,-0.0012982221191363,0.0012982270583741,-0.0012982235147979,0.0012982256462552,-0.0012982214557818,0.0012982265084833,-0.0010803989463527,0.0010803956013325,-0.0010803953599628,0.0010804011516521,-0.0010803961631452,0.0010803984342306,-0.0010803969149637,0.0010803995507701,5.5691287495866e-10,5.5691571672478e-10,-0.0010560492745636,0.0010560511636585,2.5701432462557e-09,-1.8008194949947e-09,-0.0012982228102,0.0012982277729044,-0.0012982234845725,0.0012982256574254,-0.0012982220896629,0.0012982270523358,-0.0012982228186455,0.0012982249914638,-0.0010803982973377,0.0010803979981625,-0.0010803974834001,0.0010803971841775,0.48138031764921,125301,3014,0.0043910540118416,0.004391054011839,0.0043910540118608,41.432700734511,0.00024666160587609,0.00024666160587609,0.00024666160587609,4800602.0305139,0.013261304447858
8919200,0.94270859416366,0.014602301665586,0.0048674338885238,0.0048674338885217,0.0048674338885406,-0.001061664199668,0.0010616663283757,6.5153885761161e-10,6.5154142838601e-10,4.4634526822315e-10,6.2255494484436e-10,-0.0013154042565356,0.0013154079473183,-0.0013154035303314,0.0013154072210865,-0.0013154035601264,0.0013154073657315,-0.0013154028647784,0.0013154066703465,-0.0010866485764362,0.0010866499877337,-0.0010866493684382,0.00108665077978,4.4634585676281e-10,6.2256594006361e-10,-1.5874816862034e-09,2.8905738307321e-09,-0.0010616641996613,0.0010616663283812,-0.0013154049073803,0.0013154071864654,-0.0013154028794736,0.0013154079819451,-0.0013154042263977,0.0013154066203065,-0.0013154021984876,0.0013154074157844,-0.001086650687625,0.0010866476737362,-0.0010866472572351,0.0010866530937909,-0.0010866480038371,0.0010866504049857,-0.001086648766658,0.0010866515408485,6.4414776572792e-10,6.4415048693891e-10,-0.0010616642046158,0.0010616663234372,2.5845566835527e-09,-1.6397257169755e-09,-0.0013154035870084,0.0013154087135861,-0.0013154041960574,0.0013154066311072,-0.0013154028503097,0.0013154079768556,-0.0013154035131945,0.0013154059482096,-0.0010866500995169,0.0010866500398997,-0.001086649268726,0.0010866492090612,0.43063171924148,125301,3014,0.0044143973724226,0.00441439737242,0.0044143973724419,41.891712495622,0.00025033369996497,0.00025033369996497,0.00025033369996497,4631594.3178858,0.013332362403189
9419200,0.95963398489834,0.014751212942626,0.0049170709808705,0.0049170709808684,0.0049170709808874,-0.0010623212158994,0.0010623258016272,1.5940568614806e-09,1.5940592669954e-09,1.3555506260942e-09,1.5601157979156e-09,-0.0013229414086658,0.0013229472794688,-0.0013229404885264,0.0013229463593016,-0.0013229405316827,0.0013229465192687,-0.0013229396450309,0.0013229456325799,-0.0010879175548814,0.0010879209813373,-0.0010879183405968,0.0010879217670969,1.3555512011882e-09,1.5601268892478e-09,-4.5162835631189e-10,3.6397563366965e-09,-0.0010623212158926,0.0010623258016327,-0.0013229419833971,0.0013229465818387,-0.0013229399137821,0.001322947056937,-0.0013229411231563,0.0013229458383828,-0.0013229390535375,0.0013229463134788,-0.0010879194704697,0.0010879188461179,-0.0010879164249937,0.0010879239023297,-0.001087917065684,0.0010879212922627,-0.0010879178242569,0.0010879224644532,1.6115588156315e-09,1.6115613407014e-09,-0.001062321196444,0.0010623258210919,3.3337413580487e-09,-4.8314873862298e-10,-0.0013229407950848,0.0013229480076481,-0.001322941067809,0.001322945867995,-0.0013229398616365,0.0013229470741681,-0.0013229401950534,0.0013229449952044,-0.0010879189811779,0.0010879211167016,-0.0010879181512059,0.0010879202866826,0.40723906797413,125301,3014,0.0044171566106415,0.0044171566106388,0.0044171566106608,41.150649045008,0.00024440519236007,0.00024440519236007,0.00024440519236007,4529896.4045604,0.013340809723135
9919200,0.97102218813338,0.01485129748284,0.0049504324942751,0.004950432494273,0.004950432494292,-0.0010601413822684,0.0010601473095364,2.1115790749734e-09,2.1115814216958e-09,1.856118908665e-09,2.0752010132394e-09,-0.0013265335507774,0.0013265406129514,-0.0013265325265314,0.001326539588678,-0.0013265325754356,0.0013265397554756,-0.0013265315853387,0.0013265387653415,-0.0010863752622698,0.0010863797946412,-0.001086376052985,0.0010863805854006,1.8561194614392e-09,2.0752123803903e-09,3.0548017625032e-10,3.9176924915486e-09,-0.0010601413822615,0.001060147309542,-0.0013265340421668,0.0013265399951658,-0.001326532035129,0.0013265402064693,-0.0013265330838982,0.0013265391547647,-0.001326531076856,0.0013265393660656,-0.0010863769416653,0.0010863778907188,-0.0010863743735743,0.0010863824893373,-0.0010863748623914,0.0010863800045677,-0.0010863756266779,0.0010863812030983,2.1526096830753e-09,2.1526121435002e-09,-0.0010601413395186,0.0010601473522955,3.626691825113e-09,2.9627332046519e-10,-0.001326533001814,0.00132654128554,-0.0013265330049303,0.0013265392033107,-0.0013265319622739,0.0013265402459679,-0.0013265320292116,0.0013265382275569,-0.0010863765905246,0.0010863800383738,-0.0010863757525798,0.0010863792003814,0.40432824355073,125301,3014,0.0044081435675194,0.0044081435675169,0.0044081435675391,39.827160991721,0.00023381728793377,0.00023381728793377,0.00023381728793377,4428310.5154403,0.013313471209427
10419200,0.97867655673245,0.014923050902669,0.0049743503008847,0.0049743503008826,0.0049743503009017,-0.001056320037848,0.0010563269142654,2.4766836340739e-09,2.4766859533854e-09,2.2110092370973e-09,2.4388310778847e-09,-0.0013277385384072,0.0013277464263345,-0.0013277374437262,0.0013277453316258,-0.0013277374957815,0.0013277455017851,-0.0013277364352041,0.0013277444411706,-0.0010832750453829,0.0010832803613887,-0.0010832758389334,0.0010832811549837,2.2110096892841e-09,2.4388424332639e-09,9.2356938300613e-10,4.0298122147219e-09,-0.0010563200378412,0.0010563269142709,-0.0013277389449731,0.0013277458932328,-0.0013277370371471,0.0013277458647327,-0.0013277379193981,0.001327744985736,-0.0013277360115675,0.0013277449572328,-0.0010832764772631,0.0010832787047339,-0.0010832744070382,0.0010832828116521,-0.001083274734964,0.001083280474928,-0.0010832755025855,0.0010832816883462,2.5384253117609e-09,2.5384277536275e-09,-0.0010563199744534,0.0010563269776693,3.7573830632913e-09,9.3496793673897e-10,-0.0013277380580011,0.0013277470358751,-0.0013277378194405,0.001327745051336,-0.0013277369464675,0.0013277459243099,-0.0013277367734095,0.0013277440052701,-0.0010832762721512,0.0010832807128168,-0.0010832754295329,0.0010832798701511,0.42845224819223,125301,3014,0.004392319068939,0.0043923190689363,0.0043923190689583,38.098728417319,0.00021998982733855,0.00021998982733855,0.00021998982733855,4332220.4207006,0.013265425873258
10919200,0.98429069603291,0.014971763792635,0.0049905879308733,0.0049905879308712,0.0049905879308903,-0.0010541914863129,0.0010541953684524,1.3274089115983e-09,1.3274112717027e-09,1.1002572538373e-09,1.2962923798635e-09,-0.0013308125421671,0.00133081779313,-0.0013308116847908,0.0013308169357261,-0.001330811717407,0.0013308170855175,-0.0013308108891719,0.0013308162572455,-0.0010817443506104,0.0010817472144658,-0.0010817451645203,0.0010817480284205,1.1002576369019e-09,1.2963036900639e-09,-1.7345434652766e-10,2.8282864761718e-09,-0.0010541914863061,0.0010541953684579,-0.0013308129509799,0.0013308172805561,-0.0013308112759649,0.0013308174483053,-0.0013308121407893,0.0013308165875151,-0.0013308104657697,0.001330816755261,-0.0010817457430517,0.0010817456272908,-0.0010817437720642,0.0010817496156091,-0.0010817440382032,0.0010817473592351,-0.0010817448181336,0.0010817485428957,1.3814401370109e-09,1.3814425951123e-09,-0.0010541914304872,0.0010541954242873,2.5873856735849e-09,-1.6242968935507e-10,-0.0013308120678971,0.0013308183745806,-0.0013308120503563,0.0013308166480672,-0.0013308111958862,0.0013308175025381,-0.0013308112341146,0.0013308158317908,-0.0010817455921143,0.0010817475951591,-0.0010817447348807,0.0010817467378777,0.39597081456719,125301,3014,0.0043835130769157,0.0043835130769131,0.004383513076935,37.946110840757,0.00021876888672605,0.00021876888672605,0.00021876888672605,4210667.7501131,0.013238718142317
11419200,0.98838179079115,0.015007324258782,0.0050024414195891,0.005002441419587,0.0050024414196061,-0.0010531120980992,0.0010531163263786,1.4578373065122e-09,1.4578395526494e-09,1.2245658519714e-09,1.42608880676e-09,-0.0013310854508438,0.0013310910100435,-0.0013310845658018,0.0013310901249738,-0.0013310846004508,0.0013310902774359,-0.0013310837447528,0.0013310894217011,-0.0010810595090146,0.0010810626580333,-0.0010810603183374,0.0010810634674008,1.2245662399601e-09,1.4261000368838e-09,9.2961966440627e-12,2.9063925186955e-09,-0.0010531120980925,0.0010531163263841,-0.0013310858410541,0.0013310905148672,-0.0013310841755784,0.0013310906201552,-0.0013310850053322,0.0013310897969327,-0.0013310833398516,0.0013310899022173,-0.0010810608499848,0.0010810611215571,-0.0010810589773525,0.0010810650038906,-0.0010810592179766,0.0010810627779021,-0.0010810599921366,0.0010810639646147,1.5233769067635e-09,1.5233792558094e-09,-0.0010531120309836,0.0010531163935035,2.6744863342048e-09,3.1569362004131e-11,-0.0013310849857196,0.0013310915855966,-0.0013310849038667,0.0013310898667407,-0.0013310840853815,0.0013310906852267,-0.0013310840603537,0.0013310890231929,-0.0010810607171413,0.0010810630625937,-0.0010810598633534,0.0010810622087581,0.39457194111806,125301,3014,0.0043790403559545,0.0043790403559518,0.0043790403559738,37.628307530663,0.0002162264602453,0.0002162264602453,0.0002162264602453,4182662.1196035,0.013225132833518
11919200,0.99134699276542,0.015035196281282,0.0050117320937556,0.0050117320937535,0.0050117320937726,-0.0010512993713883,0.0010513040539967,1.6312317189025e-09,1.6312339643633e-09,1.3934093688885e-09,1.5988279906377e-09,-0.0013316847848172,0.0013316907371986,-0.0013316838661252,0.001331689818479,-0.0013316839025511,0.0013316899725781,-0.0013316830134062,0.0013316890833963,-0.0010795726531887,0.0010795761751389,-0.0010795734642254,0.0010795769862203,1.3934097509001e-09,1.5988392661094e-09,2.5004784380698e-10,3.0124299152322e-09,-0.0010512993713814,0.0010513040540022,-0.0013316851514365,0.001331690264477,-0.0013316834994928,0.0013316902912061,-0.0013316842839428,0.0013316895146312,-0.0013316826319942,0.0013316895413566,-0.0010795739277668,0.0010795747036194,-0.0010795721896322,0.0010795784577533,-0.0010795723871545,0.0010795762673653,-0.0010795731630974,0.0010795774608836,1.6987632466254e-09,1.6987655786424e-09,-0.0010512993022823,0.0010513041231119,2.7797772719183e-09,2.7396035340514e-10,-0.0013316843422642,0.001331691292439,-0.0013316841802444,0.0013316895856292,-0.0013316834078657,0.0013316903580088,-0.0013316833034131,0.001331688708763,-0.0010795738385589,0.0010795766059522,-0.0010795729824036,0.0010795757497491,0.42516298576731,125301,3014,0.0043715341833169,0.0043715341833141,0.0043715341833363,37.104724030371,0.00021203779224297,0.00021203779224297,0.00021203779224297,4127853.8334848,0.013202347830627
12419200,0.99353017137421,0.015056812548251,0.0050189375160788,0.0050189375160767,0.0050189375160958,-0.0010489384511815,0.0010489427348627,1.4774858876439e-09,1.4774881711329e-09,1.246692083442e-09,1.4463666487858e-09,-0.0013328273430674,0.0013328329317952,-0.0013328264588955,0.0013328320475957,-0.0013328264917963,0.0013328321975751,-0.001332825636241,0.0013328313419829,-0.0010776411018503,0.0010776442975843,-0.0010776419175765,0.0010776451133555,1.2466925755314e-09,1.4463778889149e-09,1.2878960918855e-10,2.8261963886433e-09,-0.0010489384511747,0.0010489427348682,-0.0013328277023834,0.0013328324705404,-0.0013328260995663,0.001332832508856,-0.0013328268654198,0.0013328317506296,-0.0013328252625977,0.0013328317889414,-0.0010776423468893,0.0010776428612136,-0.001077640672523,0.00107764654974,-0.0010776408431942,0.0010776443886525,-0.0010776416219861,0.0010776455766494,1.5366752889189e-09,1.5366776652286e-09,-0.0010489383902666,0.0010489427957868,2.5919410358776e-09,1.4578881095778e-10,-0.001332826915861,0.0013328334672926,-0.0013328267699824,0.0013328318144831,-0.0013328260165332,0.0013328325679331,-0.0013328259262366,0.0013328309707026,-0.0010776422900757,0.0010776447356377,-0.0010776414305337,0.0010776438760476,0.44663644431852,125301,3014,0.0043617613518033,0.0043617613518006,0.0043617613518225,36.80225270731,0.00020961802165848,0.00020961802165848,0.00020961802165848,4040141.1867283,0.013172687682705
12919200,0.9951185424456,0.015071573314251,0.0050238577714119,0.0050238577714098,0.0050238577714289,-0.0010456242056307,0.0010456292304359,1.7572672260748e-09,1.7572695186813e-09,1.5187577721396e-09,1.7249949700583e-09,-0.0013320931941683,0.0013320994150417,-0.001332092254554,0.0013320984753998,-0.0013320922908494,0.0013320986285011,-0.001332091380432,0.0013320977180469,-0.0010747296429061,0.0010747334436615,-0.0010747304574334,0.001074734258234,1.5187583214611e-09,1.725006337257e-09,4.7087608263059e-10,3.0436726482943e-09,-0.0010456242056238,0.0010456292304414,-0.0013320935299702,0.0013320989743518,-0.0013320919187387,0.0013320989160949,-0.001332092641249,0.0013320982024109,-0.0013320910300124,0.0013320981441502,-0.0010747308256951,0.0010747320659493,-0.0010747292746297,0.00107473563596,-0.0010747294091552,0.0010747335052311,-0.0010747301871523,0.0010747347006452,1.817220216258e-09,1.8172225866856e-09,-0.0010456241439162,0.0010456292921596,2.8042631924638e-09,4.877558379969e-10,-0.0013320927904367,0.0013320999308683,-0.0013320925445538,0.0013320982662138,-0.001332091835184,0.0013320989755842,-0.0013320916463011,0.0013320973679264,-0.0010747308079744,0.0010747339021659,-0.0010747299486306,0.0010747330427737,0.41875849256559,125301,3014,0.0043480296726077,0.0043480296726048,0.0043480296726269,36.136432433066,0.00020429145946453,0.00020429145946453,0.00020429145946453,3973826.5490764,0.013130980811392
13419200,0.99625022971906,0.015081867839498,0.0050272892798276,0.0050272892798255,0.0050272892798446,-0.0010422444746814,0.0010422508595004,2.2730961729134e-09,2.2730983828459e-09,2.0160972915528e-09,2.2377865175109e-09,-0.0013285825502342,0.0013285899683657,-0.001328581502002,0.0013285889201059,-0.0013285815463625,0.0013285890817992,-0.0013285805287454,0.0013285880641452,-0.0010715532836183,0.0010715581926631,-0.0010715540977857,0.0010715590068754,2.016097689903e-09,2.2377977550794e-09,1.1111183511904e-09,3.4350880915515e-09,-0.0010422444746747,0.0010422508595059,-0.0013285828384544,0.0013285895684151,-0.0013285812137687,0.0013285893200617,-0.0013285818498894,0.0013285886971574,-0.0013285802251986,0.0013285884488001,-0.0010715543410818,0.001071556931108,-0.0010715530403074,0.001071560268444,-0.0010715531009187,0.0010715581892204,-0.0010715538811369,0.0010715594083594,2.3533391890738e-09,2.3533414758863e-09,-0.0010422443928799,0.0010422509413112,3.2033523902392e-09,1.1459323081869e-09,-0.0013285821769291,0.0013285904640941,-0.0013285817326147,0.0013285887773454,-0.0013285811114138,0.0013285893985472,-0.0013285807280976,0.0013285877727936,-0.0010715543860031,0.0010715587124221,-0.001071553523842,0.0010715578502128,0.40900439415344,125301,3014,0.0043340070952663,0.0043340070952636,0.0043340070952855,34.795197246729,0.00019356157797383,0.00019356157797383,0.00019356157797383,3979394.2564789,0.013088355994269
13919200,0.99708361206142,0.015089289640338,0.0050297632134411,0.005029763213439,0.0050297632134581,-0.0010396570700139,0.0010396627433692,2.0024106754343e-09,2.0024128685731e-09,1.7536374034046e-09,1.968555744738e-09,-0.0013265942171392,0.0013266010237207,-0.0013265932244075,0.0013266000309614,-0.0013265932643274,0.0013266001883555,-0.0013265923009063,0.0013265992248978,-0.0010690594167485,0.0010690637439717,-0.0010690602387011,0.0010690645659694,1.7536378011174e-09,1.9685670329281e-09,9.1566085411729e-10,3.0891746403302e-09,-0.0010396570700071,0.0010396627433748,-0.0013265944856239,0.001326600649577,-0.0013265929559098,0.0013266004051105,-0.0013265935474665,0.0013265998288685,-0.0013265920177472,0.001326599584398,-0.0010690604034959,0.0010690625608651,-0.001069059251939,0.0010690657490896,-0.0010690592547442,0.0010690637252415,-0.0010690600413213,0.0010690649423588,2.0898262455662e-09,2.0898285206438e-09,-0.0010396569810765,0.0010396628323159,2.8753136696705e-09,9.5959567959892e-10,-0.0013265938579266,0.0013266015010448,-0.0013265934235895,0.0013265999156311,-0.0013265928480673,0.001326600491154,-0.0013265924726855,0.0013265989646924,-0.001069060496102,0.001069064303362,-0.0010690596270885,0.0010690634343003,0.40047476240274,125301,3014,0.0043232733310058,0.0043232733310032,0.0043232733310251,33.828525955783,0.00018582820764626,0.00018582820764626,0.00018582820764626,3965947.3454127,0.013055742839099
14419200,0.99769824222905,0.015094511215785,0.0050315037385901,0.005031503738588,0.0050315037386071,-0.0010366545404871,0.0010366606530721,2.1696589640256e-09,2.1696611476354e-09,1.9157320459069e-09,2.1350100373501e-09,-0.0013241234954428,0.0013241306852482,-0.0013241224690824,0.0013241296588603,-0.0013241225111465,0.0013241298184638,-0.0013241215143519,0.0013241288216324,-0.0010661684784324,0.0010661731654032,-0.001066169299651,0.0010661739866667,1.9157324530717e-09,2.1350213526349e-09,1.1650114119318e-09,3.1743206525607e-09,-0.0010366545404802,0.0010366606530776,-0.0013241237354145,0.0013241303383496,-0.0013241222290975,0.0013241300057642,-0.0013241227659003,0.0013241294863494,-0.0013241212595781,0.00132412915376,-0.0010661693842597,0.0010661720617706,-0.001066168393809,0.001066175090313,-0.0010661683462724,0.0010661731131267,-0.0010661691326692,0.0010661743358702,2.2652797919632e-09,2.2652820531e-09,-0.0010366544433886,0.0010366607501798,2.9662335719828e-09,1.2167631392654e-09,-0.0013241231579952,0.0013241311437946,-0.0013241226336816,0.0013241295798764,-0.0013241221138954,0.0013241300996632,-0.0013241216496187,0.0013241285957788,-0.0010661695215068,0.0010661737594691,-0.0010661686523125,0.0010661728902269,0.38210045494667,125301,3014,0.0043108198889817,0.004310819888979,0.004310819889001,32.642283115516,0.00017633826492412,0.00017633826492412,0.00017633826492412,3955542.4388976,0.013017903204651
14919200,0.99813910232826,0.015098407714939,0.0050328025716412,0.0050328025716391,0.0050328025716582,-0.0010322126540649,0.0010322204938403,2.8280226633489e-09,2.8280248174301e-09,2.5527311926967e-09,2.7898019868761e-09,-0.0013196690167361,0.0013196777189745,-0.0013196678549098,0.0013196765571206,-0.0013196679066545,0.0013196767267282,-0.0013196667762179,0.0013196755962548,-0.0010618262527029,0.0010618323512084,-0.0010618270708606,0.001061833169411,2.5527317181771e-09,2.7898132600574e-09,1.9787613519356e-09,3.6772981341751e-09,-0.0010322126540581,0.0010322204938459,-0.0013196691972635,0.0013196774228786,-0.0013196676743693,0.0013196768532219,-0.0013196681028759,0.0013196764463284,-0.0013196665799766,0.0013196758766677,-0.0010618270020503,0.0010618313926939,-0.0010618263214984,0.0010618341279392,-0.0010618261829341,0.0010618322205617,-0.0010618269698321,0.0010618334674659,2.9428608506505e-09,2.9428630866116e-09,-0.0010322125378596,0.0010322206100549,3.4726683842617e-09,2.046882263446e-09,-0.0013196687224198,0.0013196781464981,-0.0013196679506302,0.0013196765553544,-0.0013196675409694,0.001319676965016,-0.0013196668340473,0.0013196754387369,-0.0010618272207104,0.0010618330132441,-0.0010618263510846,0.0010618321435702,0.39678962402156,125301,3014,0.0042923936193849,0.0042923936193822,0.0042923936194042,30.578608663049,0.00015982886930439,0.00015982886930439,0.00015982886930439,3965287.0068237,0.012961907115964
15419200,0.99843948667025,0.015101674333178,0.0050338914443877,0.0050338914443855,0.0050338914444046,-0.0010239573470041,0.0010239679790322,3.8912852651709e-09,3.8912874228991e-09,3.5859177204692e-09,3.8477997552705e-09,-0.0013131388367507,0.0013131499499461,-0.0013131374621221,0.0013131485752902,-0.0013131375280279,0.0013131487583441,-0.0013131361873589,0.0013131474176385,-0.00105378238455,0.0010537907647764,-0.0010537831985624,0.0010537915788339,3.5859180467871e-09,3.8478112564835e-09,3.3174849066446e-09,4.4650997039192e-09,-0.0010239573469973,0.0010239679790377,-0.0013131389145326,0.0013131497443851,-0.0013131373843276,0.0013131487808568,-0.0013131376227886,0.0013131485697641,-0.0013131360925783,0.0013131476062319,-0.0010537828581414,0.0010537900657552,-0.0010537827249557,0.0010537922778686,-0.0010537824205819,0.0010537905060654,-0.0010537832096216,0.0010537917856415,4.0262881663956e-09,4.0262904797367e-09,-0.0010239572105456,0.0010239681154998,4.2580356417281e-09,3.4017018683429e-09,-0.0013131386285981,0.0013131503082007,-0.0013131374483906,0.0013131486946977,-0.0013131372317588,0.0013131489113298,-0.0013131361231526,0.0013131473694249,-0.0010537832347967,0.0010537915350826,-0.0010537823647577,0.0010537906649955,0.48651353790675,125301,3014,0.0042581608170902,0.0042581608170873,0.0042581608171089,27.069526341507,0.00013175621073205,0.00013175621073205,0.00013175621073205,3939741.6190389,0.012857908741369
15919200,0.99867032792175,0.015104757578208,0.0050349191927309,0.0050349191927288,0.0050349191927479,-0.0010171029534025,0.0010171101299697,2.5708247873321e-09,2.5708270926441e-09,2.3120048749557e-09,2.5352492852864e-09,-0.0013111668861056,0.0013111749443681,-0.0013111657902057,0.0013111738484408,-0.0013111658339126,0.0013111740078772,-0.0013111647666567,0.0013111729405846,-0.001047420633196,0.0010474261877904,-0.0010474214625033,0.0010474270171438,2.3120053611157e-09,2.5352606447555e-09,2.0636333390021e-09,3.078030381853e-09,-0.0010171029533956,0.0010171101299752,-0.0013111669636616,0.0013111747639285,-0.0013111657126366,0.0013111740288854,-0.0013111659257899,0.0013111738417611,-0.0013111646747595,0.0013111731067138,-0.0010474210541097,0.0010474255742606,-0.001047421041575,0.0010474276306872,-0.0010474206667516,0.0010474259661643,-0.0010474214634238,0.0010474272004352,2.6840940027412e-09,2.6840964178145e-09,-0.0010171028381774,0.0010171102452039,2.8936135632243e-09,2.1344411927279e-09,-0.0013111666984673,0.0013111752560562,-0.0013111657740521,0.0013111739502482,-0.0013111655833717,0.0013111741409293,-0.0013111647194698,0.0013111728956315,-0.0010474215023742,0.0010474269731432,-0.0010474206243614,0.0010474260950819,0.59571470761932,125301,3014,0.0042297512831742,0.0042297512831714,0.0042297512831933,25.353383786391,0.00011802707029113,0.00011802707029113,0.00011802707029113,3818128.5579966,0.012771655175314
16419200,0.99885764254668,0.015106863500625,0.0050356211668702,0.0050356211668681,0.0050356211668872,-0.0010105923115948,0.0010105979811358,1.9901077742794e-09,1.990110181e-09,1.7512997345541e-09,1.9582928666148e-09,-0.0013096943548179,0.0013097010752564,-0.0013096933792922,0.0013097000997034,-0.0013096934133692,0.0013097002490767,-0.0013096924644556,0.0013096993001266,-0.0010415816000085,0.0010415859185843,-0.0010415824348982,0.0010415867535201,1.7513001874012e-09,1.9583039634835e-09,1.4497543657741e-09,2.5304753339581e-09,-0.0010105923115881,0.0010105979811412,-0.0013096944517849,0.0013097008848076,-0.0013096932823122,0.0013097002901573,-0.0013096935236418,0.0013097000719353,-0.0013096923541634,0.0013096994772808,-0.0010415820584866,0.0010415852808671,-0.0010415819764057,0.001041587391251,-0.0010415816131285,0.0010415857345001,-0.0010415824097397,0.0010415869469906,2.0797700308649e-09,2.0797725315238e-09,-0.0010105922196776,0.0010105980730621,2.3391497510072e-09,1.5004215311816e-09,-0.0013096941690062,0.0013097013730151,-0.001309693395718,0.0013097001605932,-0.0013096931761672,0.0013097003801448,-0.0013096924583439,0.0013096992231847,-0.0010415825107214,0.0010415866745574,-0.0010415816307239,0.0010415857945106,0.50210013400473,125301,3014,0.0042027723195773,0.0042027723195747,0.0042027723195964,24.411765700843,0.00011049412560675,0.00011049412560675,0.00011049412560675,3680277.8225531,0.01268975170443
16919200,0.99901331832693,0.015109158787963,0.0050363862626495,0.0050363862626473,0.0050363862626665,-0.0010090737890965,0.0010090788720232,1.7653473101162e-09,1.7653494890202e-09,1.5249749934137e-09,1.7335732275279e-09,-0.0013043987233692,0.0013044049898436,-0.0013043977836277,0.0013044040500746,-0.0013043978171811,0.0013044042007355,-0.001304396903595,0.0013044032871127,-0.0010401857624313,0.0010401895994198,-0.0010401865998937,0.0010401904369276,1.5249752519806e-09,1.7335846149318e-09,1.1604749092697e-09,2.3702338208315e-09,-0.0010090737890897,0.0010090788720288,-0.0013043988435647,0.0013044047781845,-0.0013043976634193,0.0013044042617391,-0.0013043979504536,0.0013044040021556,-0.0013043967703026,0.0013044034857059,-0.001040186285066,0.0010401889001744,-0.0010401860772442,0.0010401911361867,-0.0010401857560023,0.0010401894321479,-0.0010401865537018,0.0010401906524834,1.8830296527661e-09,1.8830319369022e-09,-0.001009073669774,0.001009078991355,2.2109316055424e-09,1.2396272186364e-09,-0.0013043984900399,0.001304405336394,-0.0013043977966329,0.0013044041144578,-0.0013043975323844,0.001304404378707,-0.0013043968946046,0.001304403212395,-0.001040186670401,0.0010401903633467,-0.0010401857865127,0.00104018947941,0.65164127745866,125301,3014,0.004196435375456,0.0041964353754533,0.0041964353754752,23.779588566197,0.00010543670852957,0.00010543670852957,0.00010543670852957,3760746.8047136,0.012670435643761
17419200,0.99913543779329,0.015110771093455,0.0050369236978135,0.0050369236978114,0.0050369236978305,-0.0010008816691535,0.0010008889787525,2.6033285888633e-09,2.6033309105865e-09,2.347895483787e-09,2.5690735501548e-09,-0.001302934259058,0.0013029423730227,-0.0013029331588899,0.0013029412728273,-0.0013029332007236,0.0013029414293661,-0.0013029321288975,0.0013029403575035,-0.0010323510258304,0.0010323566765905,-0.0010323518638966,0.0010323575147029,2.3478960083515e-09,2.569084939419e-09,2.0500216646447e-09,3.156649808465e-09,-0.0010008816691467,0.0010008889787581,-0.001302934352297,0.001302942177667,-0.0013029330656376,0.0013029414681886,-0.0013029333081331,0.001302941248183,-0.001302932021468,0.0013029405386999,-0.0010323514932323,0.0010323560191548,-0.0010323513964801,0.0010323581721528,-0.0010323510441277,0.0010323564778153,-0.0010323518447497,0.001032357712147,2.6874599606488e-09,2.687462497336e-09,-0.0010008815829021,0.0010008890650131,2.9429987821132e-09,2.0924319894626e-09,-0.0013029340822533,0.0013029426695753,-0.0013029331853234,0.001302941330497,-0.0013029329642653,0.0013029415515559,-0.0013029321258773,0.0013029402710166,-0.0010323519479816,0.0010323574265512,-0.0010323510627348,0.001032356541255,0.58772740813402,125301,3014,0.0041624992429795,0.0041624992429769,0.0041624992429985,21.982398242601,9.1059185940811e-05,9.1059185940811e-05,9.1059185940811e-05,3588345.0289071,0.012567445538933
17919200,0.99922873569363,0.015111802881353,0.0050372676271127,0.0050372676271106,0.0050372676271297,-0.00099464582021605,0.00099465448592763,3.1126016959489e-09,3.1126038315895e-09,2.8337923349423e-09,3.0744633860481e-09,-0.0012944095331268,0.0012944188703904,-0.0012944083179156,0.0012944176551519,-0.001294408369502,0.001294417822589,-0.0012944071841442,0.0012944166371946,-0.0010264142774935,0.0010264210245659,-0.0010264151227302,0.0010264218698482,2.8337929229585e-09,3.0744748668334e-09,2.6784232063042e-09,3.5467946800743e-09,-0.00099464582020909,0.00099465448593329,-0.0012944095799383,0.0012944187140166,-0.0012944082710908,0.0012944178115311,-0.0012944084312396,0.0012944176811436,-0.0012944071223866,0.0012944167786536,-0.0010264146242089,0.0010264204774124,-0.0010264147759994,0.0010264224170157,-0.0010264143479873,0.0010264207548955,-0.0010264151588052,0.0010264220283727,3.2328222132652e-09,3.2328246184858e-09,-0.00099464569834973,0.00099465460780323,3.3555580650633e-09,2.7540816119766e-09,-0.0012944093720237,0.0012944191643513,-0.0012944082728221,0.0012944177929727,-0.0012944081367496,0.0012944179290457,-0.0012944071010046,0.0012944166211208,-0.0010264151308556,0.0010264218569232,-0.0010264142338814,0.0010264209599002,0.4915601615792,125301,3014,0.0041366038336304,0.0041366038336277,0.0041366038336498,19.502019860483,7.1216158883861e-05,7.1216158883861e-05,7.1216158883861e-05,3638521.4524155,0.012488743711168
18419200,0.99930290095279,0.015112661684167,0.0050375538947174,0.0050375538947152,0.0050375538947343,-0.00099178713259419,0.00099179498589604,2.8117682818208e-09,2.8117702704071e-09,2.5346410971602e-09,2.7741403399757e-09,-0.0012875398014408,0.001287548516118,-0.0012875386396683,0.001287547354318,-0.0012875386887704,0.0012875475216288,-0.0012875375558735,0.0012875463886952,-0.001023372667135,0.0010233787543092,-0.0010233735236798,0.001023379610899,2.5346414287602e-09,2.7741515882295e-09,2.461151258603e-09,3.1623992296855e-09,-0.00099178713258739,0.00099179498590155,-0.0012875398247556,0.0012875483879661,-0.0012875386163403,0.0012875474824754,-0.0012875387265223,0.001287547407916,-0.0012875375181015,0.001287546502421,-0.00102337293391,0.0010233782926769,-0.0010233732568898,0.0010233800725449,-0.0010233727651485,0.0010233784554824,-0.0010233735863873,0.0010233797426175,2.9680515387099e-09,2.9680537991997e-09,-0.00099178697526339,0.00099179514323611,3.0162993453902e-09,2.5741880913061e-09,-0.0012875396326671,0.0012875488180093,-0.0012875385341427,0.0012875475509138,-0.0012875384498732,0.001287547635184,-0.0012875374145312,0.0012875464312678,-0.0010233734700191,0.001023379660722,-0.001023372560556,0.0010233787512104,0.51421839069127,125301,3014,0.0041247054389202,0.0041247054389175,0.0041247054389395,17.478872668072,5.5030981344575e-05,5.5030981344575e-05,5.5030981344575e-05,3742126.9377962,0.01245255360347
18919200,0.99936762917099,0.015113517604426,0.0050378392014702,0.0050378392014681,0.0050378392014872,-0.0009898886768477,0.00098989380768565,1.7847751584911e-09,1.7847772408686e-09,1.5445154741713e-09,1.7533267813645e-09,-0.0012873154950964,0.0012873218236644,-0.0012873145546289,0.0012873208831696,-0.0012873145867384,0.0012873210328097,-0.0012873136716578,0.0012873201176925,-0.0010213834434929,0.0010213873199313,-0.0010213843028421,0.0010213881793258,1.5445157674233e-09,1.7533380365115e-09,1.3557056429224e-09,2.2138586684157e-09,-0.00098988867684091,0.00098989380769112,-0.0012873155594147,0.0012873216711748,-0.0012873144902975,0.0012873210356644,-0.0012873146637495,0.001287320893015,-0.0012873135946266,0.0012873202575002,-0.0010213837954759,0.0010213867951581,-0.0010213839508446,0.0010213887041129,-0.0010213834958592,0.0010213870939999,-0.001021384314655,0.0010213883364593,1.9166083839295e-09,1.9166107368576e-09,-0.00098988854372323,0.00098989394081942,2.0735974695207e-09,1.4499335236585e-09,-0.0012873153065456,0.0012873221251221,-0.0012873144968574,0.0012873210170371,-0.001287314347675,0.0012873211662202,-0.0012873135929654,0.0012873201131107,-0.0010213843021059,0.0010213881783987,-0.0010213833956982,0.0010213872719422,0.5877987766322,125301,3014,0.0041168337565042,0.0041168337565014,0.0041168337565235,16.874846119693,5.0198768957545e-05,5.0198768957545e-05,5.0198768957545e-05,3698901.4725427,0.012428677820768
19419200,0.99942868023966,0.01511442171977,0.0050381405732518,0.0050381405732497,0.0050381405732688,-0.00098885030369932,0.00098885297236268,8.5064986952451e-10,8.5065204089936e-10,6.4133613332724e-10,8.2474536271294e-10,-0.0012897406925332,0.0012897448685318,-0.0012897399471059,0.0012897441230771,-0.001289739964951,0.0012897442583041,-0.0012897392424379,0.0012897435357545,-0.0010206491640491,0.0010206510348256,-0.0010206500234652,0.0010206518942874,6.413364572034e-10,8.2475691836177e-10,2.2665198271187e-10,1.4746619948888e-09,-0.00098885030369249,0.00098885297236824,-0.001289740832395,0.0012897446522153,-0.0012897398072311,0.0012897443393986,-0.0012897401162692,0.0012897440534465,-0.0012897390910997,0.0012897437406253,-0.0010206497129473,0.0010206503294041,-0.0010206494745518,0.0010206525997227,-0.0010206491366679,0.0010206509135222,-0.0010206499487559,0.0010206521154844,9.4402140476468e-10,9.4402388039493e-10,-0.00098885020871636,0.00098885306735484,1.3172957367548e-09,2.8676368443393e-10,-0.0012897404614894,0.0012897451945364,-0.0012897399884608,0.0012897441457792,-0.0012897397006125,0.0012897444336281,-0.0012897392754904,0.0012897434327744,-0.00102065012729,0.0010206517899397,-0.0010206492262217,0.0010206508888221,0.65664642788028,125301,3014,0.0041125473478468,0.0041125473478442,0.004112547347866,17.545969304904,5.5567754439236e-05,5.5567754439236e-05,5.5567754439236e-05,3597616.1664914,0.012415708268295
19919200,0.99948755096271,0.015115272272683,0.0050384240908894,0.0050384240908873,0.0050384240909064,-0.00098824683834159,0.00098824860156653,5.0675149076628e-10,5.067536991694e-10,3.0828818368408e-10,4.8294862886854e-10,-0.0012920104451189,0.0012920138357175,-0.0012920097700934,0.0012920131606649,-0.0012920097830514,0.0012920132911313,-0.0012920091304811,0.0012920126385246,-0.0010204498416249,0.0010204509747562,-0.0010204507019737,0.0010204518351511,3.0828841173988e-10,4.8296003375727e-10,-3.1188847102819e-10,1.3254056760718e-09,-0.00098824683833476,0.00098824860157206,-0.0012920106517503,0.0012920135547267,-0.0012920095634491,0.0012920134416606,-0.0012920100009096,0.00129201302137,-0.0012920089126027,0.0012920129082991,-0.0010204505824257,0.0010204500808509,-0.001020449961158,0.0010204527290703,-0.0010204497453154,0.0010204509325363,-0.0010204505546274,0.0010204521205597,5.7282316532197e-10,5.7282568112747e-10,-0.00098824677055456,0.00098824866936269,1.1445899030347e-09,-2.7813826387578e-10,-0.0012920101705536,0.0012920141981822,-0.0012920099007109,0.0012920130903634,-0.0012920094817389,0.0012920135093363,-0.0012920092571773,0.0012920124467958,-0.0010204508977161,0.0010204516389356,-0.0010204499979791,0.0010204507391487,0.63949909152816,125301,3014,0.004110063196401,0.0041100631963983,0.00411006319642,18.682176551232,6.4657412409857e-05,6.4657412409857e-05,6.4657412409857e-05,3503959.3646759,0.012408198990584
20419200,0.9995401171667,0.015116095106525,0.0050386983688367,0.0050386983688346,0.0050386983688537,-0.00098666279885097,0.0009866668973891,1.3883678728145e-09,1.3883700128374e-09,1.1627616368419e-09,1.3600749475851e-09,-0.0012899171768302,0.0012899225767188,-0.0012899163217456,0.0012899217216069,-0.0012899163476225,0.001289921864721,-0.0012899155179913,0.0012899210350532,-0.0010190716593869,0.0010190746966937,-0.0010190725148183,0.001019075552171,1.1627619218611e-09,1.3600863516081e-09,4.9587032911947e-10,2.2808794513466e-09,-0.00098666279884419,0.00098666689739461,-0.001289917394815,0.0012899222698759,-0.0012899161037478,0.0012899220284551,-0.0012899165783334,0.0012899215706064,-0.0012899152872604,0.001289921329181,-0.0010190724656664,0.0010190737183895,-0.001019071708524,0.0010190765304891,-0.0010190715530995,0.0010190746460931,-0.0010190723611472,0.0010190758621506,1.4571626143294e-09,1.4571650514609e-09,-0.00098666272860238,0.00098666696764689,2.0757655319055e-09,5.2743068817805e-10,-0.0012899168881781,0.0012899229672163,-0.0012899164749006,0.0012899216401559,-0.0012899160180251,0.0012899220970321,-0.0012899156558183,0.0012899208210393,-0.0010190727297763,0.0010190753349054,-0.0010190718311398,0.0010190744362196,0.69004788769245,125301,3014,0.0041034873415444,0.0041034873415418,0.0041034873415636,18.601887938053,6.4015103504426e-05,6.4015103504426e-05,6.4015103504426e-05,3501561.3729272,0.012388213661665
20919200,0.99958383645432,0.015116733087433,0.0050389110291393,0.0050389110291372,0.0050389110291563,-0.00098156541984976,0.00098157195561301,2.3077561186053e-09,2.3077582838038e-09,2.0570083403072e-09,2.275061109386e-09,-0.001287082467575,0.0012870899558494,-0.0012870814266278,0.0012870889148748,-0.0012870814646931,0.0012870890690918,-0.0012870804518861,0.0012870880562485,-0.0010141804914634,0.0010141855113147,-0.0010141813545584,0.0010141863744559,2.0570087024993e-09,2.2750726453938e-09,1.4701121609498e-09,3.1454145713893e-09,-0.00098156541984285,0.0009815719556187,-0.0012870826553388,0.0012870896661769,-0.0012870812388507,0.0012870892045528,-0.0012870816665265,0.0012870887934912,-0.0012870802500325,0.0012870883318625,-0.0010141812376615,0.0010141845755896,-0.0010141806083448,0.0010141873101955,-0.0010141804164331,0.0010141854125755,-0.0010141812365716,0.0010141866658636,2.3737940608385e-09,2.3737965459097e-09,-0.00098156535232566,0.00098157202314613,2.912808479568e-09,1.4943659637926e-09,-0.0012870822116856,0.0012870903264212,-0.0012870815644035,0.0012870888591552,-0.0012870811544276,0.0012870892691319,-0.0012870805634896,0.001287087858207,-0.0010141815516358,0.0010141861739125,-0.0010141806420329,0.0010141852642598,0.64466974006305,125301,3014,0.0040823554038839,0.0040823554038814,0.0040823554039028,17.277088666457,5.3416709331658e-05,5.3416709331658e-05,5.3416709331658e-05,3438815.8649679,0.012324068695146
21419200,0.9996189228882,0.015117243138726,0.0050390810462371,0.005039081046235,0.0050390810462541,-0.00097672806849756,0.0009767360575467,2.8567981579243e-09,2.8568002509192e-09,2.5851832438088e-09,2.8206135491922e-09,-0.0012807309949226,0.0012807397736044,-0.001280729836203,0.0012807386148574,-0.0012807298831582,0.0012807387786775,-0.0012807287541107,0.0012807376495936,-0.001009489114984,0.001009495314406,-0.0010094899874798,0.0010094961869476,2.5851834689732e-09,2.8206249087864e-09,2.1473541868321e-09,3.5662561454584e-09,-0.00097672806849072,0.0009767360575522,-0.0012807311332172,0.0012807395259387,-0.0012807296978954,0.0012807388625285,-0.0012807300362882,0.0012807385458494,-0.0012807286009606,0.0012807378824347,-0.0010094897316451,0.0010094944977458,-0.0010094893708035,0.0010094970036214,-0.0010094890935977,0.0010094951457732,-0.0010094899263109,0.0010094964362172,2.9478363176828e-09,2.9478386837576e-09,-0.0009767279762793,0.00097673614977415,3.3446834090119e-09,2.1938872718527e-09,-0.0012807307672668,0.0012807401274711,-0.0012807299091374,0.0012807386317807,-0.0012807295903729,0.0012807389505461,-0.0012807287930097,0.0012807375156184,-0.0010094901163439,0.0010094960540505,-0.0010094891935684,0.001009495131226,0.64095610021346,125301,3014,0.0040622691168198,0.004062269116817,0.004062269116839,15.230920882901,3.7047367063207e-05,3.7047367063207e-05,3.7047367063207e-05,3474393.0401085,0.012263045704241
21919200,0.9996487600876,0.015117664113558,0.0050392213711811,0.005039221371179,0.0050392213711981,-0.00097343688763188,0.00097344333245946,2.2748731187466e-09,2.2748752107121e-09,2.0211592017091e-09,2.2417267422868e-09,-0.0012776355160651,0.0012776429687515,-0.0012776344784916,0.0012776419311508,-0.0012776345165119,0.0012776420864171,-0.0012776335064656,0.0012776410763342,-0.001006216150889,0.0010062210932452,-0.0010062170302567,0.0010062219726587,2.0211595336692e-09,2.2417382025066e-09,1.6038645011866e-09,2.9458958451628e-09,-0.00097343688762503,0.000973443332465,-0.0012776356507478,0.0012776427349431,-0.0012776343437958,0.0012776421649645,-0.0012776346649577,0.0012776418663739,-0.0012776333579998,0.0012776412963906,-0.0010062167347839,0.001006220322389,-0.0010062164463472,0.0010062227435289,-0.0010062161327946,0.0010062209332218,-0.0010062169699116,0.0010062222091521,2.3687330600663e-09,2.3687354359349e-09,-0.00097343679262969,0.00097344342747079,2.7459203598855e-09,1.6565559885281e-09,-0.0012776352899815,0.0012776433116344,-0.0012776345360365,0.0012776419556645,-0.00127763423504,0.0012776422566617,-0.0012776335378255,0.0012776409574192,-0.0010062171456118,0.0010062218548705,-0.0010062162182514,0.0010062209274608,0.62311101531201,125301,3014,0.0040486073870964,0.0040486073870936,0.0040486073871154,13.995749721558,2.7165997772462e-05,2.7165997772462e-05,2.7165997772462e-05,3467464.5002162,0.012221566491829
22419200,0.99967770960068,0.015118091305427,0.0050393637684708,0.0050393637684687,0.0050393637684878,-0.00097491681263941,0.00097491917484649,7.3181969188134e-10,7.3182176831791e-10,5.2490046694516e-10,7.0704827021951e-10,-0.0012785606964149,0.0012785646105728,-0.0012785599753074,0.001278563889438,-0.0012785599927942,0.001278564024949,-0.0012785592971098,0.001278563329228,-0.0010077007483996,0.0010077023723168,-0.001007701617029,0.0010077032409919,5.2490082602415e-10,7.0705958589404e-10,-8.2254038920343e-10,2.2861936944441e-09,-0.00097491681263264,0.00097491917485198,-0.0012785611345132,0.0012785640833974,-0.001278559537196,0.0012785644166187,-0.0012785604436037,0.0012785635104867,-0.0012785588462805,0.0012785638437033,-0.0010077022029166,0.0010077007455672,-0.0010077001624974,0.0010077048677551,-0.0010077004160351,0.0010077025652796,-0.0010077012310295,0.0010077037702055,7.4371811818671e-10,7.4372045682114e-10,-0.00097491679968578,0.00097491918780933,2.023085652622e-09,-8.480363854676e-10,-0.0012785602345391,0.0012785651612282,-0.0012785603995262,0.0012785635312219,-0.0012785595020455,0.0012785644287034,-0.0012785597134824,0.0012785628451438,-0.0010077021079369,0.0010077027476095,-0.0010077011998755,0.001007701839499,0.65096373206224,125301,3014,0.0040547346415113,0.0040547346415086,0.0040547346415305,14.850174803652,3.4001398429213e-05,3.4001398429213e-05,3.4001398429213e-05,3468096.5220672,0.012240167293853
22919200,0.99970508863572,0.015118455133648,0.0050394850445445,0.0050394850445424,0.0050394850445615,-0.00097478447500412,0.00097478749027498,9.7728728189732e-10,9.7728940777355e-10,7.6394434808338e-10,9.5125442418325e-10,-0.0012798240004798,0.0012798284747884,-0.0012798232289842,0.0012798277032655,-0.0012798232496936,0.0012798278416241,-0.0012798225044936,0.0012798270963876,-0.0010076475643722,0.0010076497171074,-0.0010076484353365,0.0010076505881176,7.6394479186379e-10,9.5126582112001e-10,-6.0273322080814e-10,2.5573218729233e-09,-0.00097478447499729,0.00097478749028053,-0.0012798244431588,0.0012798279388009,-0.0012798227862922,0.0012798282392584,-0.00127982370552,0.0012798273187861,-0.0012798220486473,0.0012798276192389,-0.0010076490416818,0.0010076480612814,-0.0010076469580122,0.0010076522439575,-0.0010076472271148,0.0010076499105712,-0.0010076480460735,0.0010076511254771,9.8217535512886e-10,9.8217774037952e-10,-0.00097478446901798,0.00097478749627031,2.2791080765039e-09,-6.3690440124303e-10,-0.0012798235399369,0.0012798290271221,-0.0012798236679685,0.001279827333089,-0.0012798227569522,0.0012798282441061,-0.0012798229327661,0.0012798265978522,-0.0010076489409425,0.0010076500800644,-0.0010076480298174,0.0010076491688898,0.58748017292924,125301,3014,0.0040541972042582,0.0040541972042555,0.0040541972042774,15.357556231003,3.8060449848025e-05,3.8060449848025e-05,3.8060449848025e-05,3422594.044546,0.012238557338478
23419200,0.99973066457856,0.015118805804503,0.0050396019348294,0.0050396019348273,0.0050396019348464,-0.0009761411762293,0.0009761445021135,1.0948312609212e-09,1.094833274742e-09,8.7569760277463e-10,1.0677469293878e-09,-0.0012787967620722,0.0012788015172278,-0.0012787959646893,0.0012788007198174,-0.0012787959877884,0.0012788008610227,-0.0012787952171732,0.0012788000903709,-0.0010090000633451,0.0010090024686551,-0.0010090009347824,0.0010090033401381,8.7569799197461e-10,1.067758242226e-09,-4.868066193253e-10,2.6764831477044e-09,-0.00097614117622247,0.00097614450211903,-0.001278797203225,0.0012788009804844,-0.0012787955235233,0.0012788012565661,-0.0012787964423247,0.0012788003376649,-0.001278794762617,0.001278800613742,-0.001009001540923,0.0010090008091862,-0.0010089994571897,0.0010090049996207,-0.0010089997286577,0.0010090026545663,-0.0010090005491915,0.0010090038782816,1.108969670326e-09,1.1089719755203e-09,-0.00097614116120909,0.00097614451714295,2.4034983400697e-09,-5.1270745938905e-10,-0.001278796294888,0.0012788020794299,-0.0012787963959865,0.0012788003595515,-0.001278795485514,0.0012788012700247,-0.0012787956356566,0.0012787995991872,-0.0010090014315378,0.0010090028407029,-0.0010090005187595,0.0010090019278756,0.60459639632209,125301,3014,0.004059807790189,0.0040598077901863,0.0040598077902082,15.705825723814,4.0846605790511e-05,4.0846605790511e-05,4.0846605790511e-05,3474632.053964,0.012255560626115
23919200,0.99975587119326,0.015119213365804,0.0050397377885965,0.0050397377885944,0.0050397377886135,-0.00097829988095691,0.00097830135093829,3.9108594226939e-10,3.9108800188294e-10,1.9479315737922e-10,3.6787860664932e-10,-0.0012820218104942,0.0012820249484655,-0.0012820211583508,0.0012820242962948,-0.0012820211709014,0.001282024426785,-0.0012820205433924,0.0012820237992394,-0.0010110863902163,0.0010110872814351,-0.0010110872614671,0.0010110881527317,1.9479355626803e-10,3.6788993921489e-10,-1.2843629983443e-09,2.0665490378051e-09,-0.00097829988095007,0.00097830135094386,-0.0012820222920284,0.0012820243815194,-0.0012820206768037,0.0012820248632462,-0.001282021664752,0.0012820238721578,-0.0012820200495216,0.0012820243538798,-0.001011087964652,0.0010110855384342,-0.0010110856870164,0.0010110898957468,-0.0010110860126315,0.001011087526916,-0.0010110868293606,0.0010110887217225,3.9050888283933e-10,3.9051125109051e-10,-0.00097829988053836,0.00097830135136609,1.7974753819492e-09,-1.321540841055e-09,-0.0012820213155958,0.0012820255258303,-0.0012820216339375,0.0012820238825813,-0.0012820206531581,0.0012820248633615,-0.001282021015463,0.0012820232640725,-0.0010110878056703,0.0010110876071469,-0.0010110868965979,0.0010110866980254,0.71228945632067,125301,3014,0.0040687699895767,0.004068769989574,0.004068769989596,17.00481784537,5.1238542762959e-05,5.1238542762959e-05,5.1238542762959e-05,3437433.4501697,0.012282796420012
24419200,0.99977990778106,0.015119583599348,0.0050398611997776,0.0050398611997755,0.0050398611997946,-0.0009772469544066,0.00097724925554032,7.0661478146229e-10,7.0661693492592e-10,5.0300041850602e-10,6.8248251439237e-10,-0.0012853094059609,0.0012853132562337,-0.0012853086911972,0.0012853125414426,-0.001285308707491,0.0012853126753056,-0.0012853080185069,0.001285311986285,-0.0010103407253944,0.0010103422966742,-0.0010103415978164,0.0010103431691428,5.0300041430786e-10,6.8249383768248e-10,-1.0113872276665e-09,2.4246306930587e-09,-0.00097724695439993,0.00097724925554579,-0.0012853098966357,0.0012853126745685,-0.0012853082005095,0.0012853131231129,-0.0012853092110548,0.0012853121065322,-0.0012853075149228,0.0012853125550714,-0.0010103423391944,0.0010103405078456,-0.001010339984002,0.0010103449579853,-0.0010103403381968,0.0010103425490265,-0.0010103411557122,0.0010103437519114,6.9012676904211e-10,6.9012929408261e-10,-0.00097724696969712,0.00097724924025898,2.1289085295116e-09,-1.0659437948841e-09,-0.001285308915566,0.0012853138322545,-0.0012853091950846,0.0012853121028189,-0.0012853081906234,0.0012853131072808,-0.0012853085155854,0.0012853114232855,-0.0010103421706863,0.0010103425941355,-0.001010341260079,0.0010103416834784,0.6789410524186,125301,3014,0.0040644378170855,0.004064437817083,0.0040644378171046,17.882022086512,5.8256176692093e-05,5.8256176692093e-05,5.8256176692093e-05,3314381.2527715,0.012269701744202
24919200,0.99980216980977,0.015119891160848,0.0050399637202776,0.0050399637202755,0.0050399637202946,-0.00097739563524281,0.00097739872968547,1.005772367874e-09,1.0057744407518e-09,7.9157330768469e-10,9.7979568026747e-10,-0.0012843402360139,0.001284344776529,-0.0012843394596744,0.0012843440001621,-0.0012843394806517,0.0012843441388746,-0.0012843387310429,0.0012843433892293,-0.0010106960174952,0.0010106982342147,-0.0010106968921651,0.0010106991089306,7.915736816654e-10,9.7980718673948e-10,-7.0833443221353e-10,2.7198932031081e-09,-0.00097739563523599,0.00097739872969106,-0.0012843407210863,0.0012843441957892,-0.0012843389745888,0.0012843445809073,-0.001284339979089,0.0012843435715021,-0.0012843382325855,0.0012843439566151,-0.0010106976250947,0.0010106964450899,-0.0010106952845509,0.0010107008980691,-0.0010106956372439,0.001010698471726,-0.00101069645867,0.0010106996904786,9.9645041232978e-10,9.9645283696159e-10,-0.00097739564353378,0.00097739872140372,2.4226067217335e-09,-7.5748788119166e-10,-0.0012843397449909,0.0012843453586577,-0.0012843399560248,0.0012843435732377,-0.0012843389578137,0.0012843445714495,-0.0012843392164508,0.0012843428336293,-0.0010106974559362,0.0010106985425163,-0.0010106965413864,0.001010697627917,0.60789483588396,125301,3014,0.0040650450914674,0.0040650450914648,0.0040650450914866,18.352085386216,6.2016683089727e-05,6.2016683089727e-05,6.2016683089727e-05,3327666.6413632,0.012271521737106
25419200,0.9998240354048,0.015120258839642,0.0050400862798757,0.0050400862798736,0.0050400862798927,-0.00098149449046316,0.00098149541766668,1.8429131714441e-10,1.842932929664e-10,-5.9802299257278e-12,1.621873300531e-10,-0.0012857014661711,0.0012857041302624,-0.0012857008576702,0.001285703521734,-0.0012857008673041,0.0012857036494555,-0.0012857002831081,0.001285703065223,-0.0010146292690521,0.001014629718237,-0.0010146301409327,0.0010146305901631,-5.9797879958835e-12,1.6219860385575e-10,-1.6406244857871e-09,2.0092210284376e-09,-0.00098149449045634,0.00098149541767221,-0.001285701998568,0.0012857035138006,-0.0012857003252601,0.0012857041382013,-0.0012857014118531,0.0012857030451479,-0.0012856997385392,0.0012857036695437,-0.0010146309906486,0.0010146278298887,-0.0010146284193212,0.0010146324785251,-0.0010146288395442,0.0010146300209822,-0.0010146296549625,0.0010146312085072,1.7173154786615e-10,1.7173388458889e-10,-0.00098149450215247,0.00098149540598658,1.7304710702966e-09,-1.6894462392683e-09,-0.0012857009304108,0.0012857047443233,-0.0012857013938678,0.0012857030452258,-0.0012857003126064,0.0012857041264877,-0.0012857008183797,0.0012857024697034,-0.0010146307468986,0.0010146299829567,-0.0010146298383357,0.0010146290743445,0.7372586897946,125301,3014,0.0040820256800535,0.0040820256800508,0.0040820256800727,19.920521567177,7.4564172537418e-05,7.4564172537418e-05,7.4564172537418e-05,3382272.3058242,0.012323052403229
25919200,0.99984438539701,0.015120596235371,0.0050401987451188,0.0050401987451167,0.0050401987451358,-0.00098031083809845,0.00098031325900014,7.5121882989805e-10,7.5122098106763e-10,5.4650342798953e-10,7.2709957643057e-10,-0.0012896936451833,0.0012896975969857,-0.0012896929223327,0.0012896968741076,-0.0012896929391069,0.0012896970085052,-0.0012896922424812,0.0012896963118432,-0.0010135823750379,0.0010135840448256,-0.001013583249109,0.0010135849189432,5.4650386630241e-10,7.2711100945998e-10,-1.0899636020968e-09,2.5924152419203e-09,-0.00098031083809166,0.00098031325900568,-0.0012896941746526,0.0012896969741891,-0.0012896923928501,0.0012896974969092,-0.0012896934816886,0.0012896963988232,-0.0012896916998798,0.0012896969215386,-0.0010135841085122,0.0010135821334708,-0.0010135815156204,0.0010135868303121,-0.0010135819484761,0.0010135843372989,-0.0010135827665327,0.0010135855423529,7.225989000702e-10,7.2260142543423e-10,-0.0009803108655987,0.000980313231509,2.2797563754341e-09,-1.1573819429085e-09,-0.0012896931261486,0.0012896982013047,-0.0012896934781059,0.0012896963843513,-0.0012896923936665,0.0012896974687915,-0.0012896927910211,0.0012896956972322,-0.0010135838744357,0.0010135842912121,-0.0010135829623713,0.0010135833790976,0.72914636768882,125301,3014,0.0040771586580717,0.0040771586580691,0.0040771586580907,20.734676954174,8.1077415633391e-05,8.1077415633391e-05,8.1077415633391e-05,3240794.5747253,0.012308350615296
26419200,0.99986205033891,0.015120916133522,0.0050403053778358,0.0050403053778336,0.0050403053778527,-0.00097828287092308,0.00097828755815836,1.6070408580343e-09,1.6070429409413e-09,1.3758894846383e-09,1.5783529539595e-09,-0.0012875243886514,0.001287530298713,-0.0012875234915126,0.0012875294015469,-0.0012875235204399,0.001287529547811,-0.00128752265195,0.0012875286792846,-0.001011854141609,0.0010118576560887,-0.0010118550221995,0.0010118585367253,1.3758898356498e-09,1.5783643344593e-09,-1.3488032267428e-10,3.3489760665458e-09,-0.00097828287091627,0.00097828755816389,-0.0012875248742656,0.001287529707979,-0.0012875230058853,0.0012875299922861,-0.0012875240203782,0.0012875289714033,-0.0012875221519917,0.0012875292557055,-0.001011855772038,0.0010118558318487,-0.0010118533917557,0.0010118603609791,-0.0010118537616253,0.0010118578829912,-0.0010118545906569,0.0010118591271736,1.5914063918036e-09,1.591408852052e-09,-0.00097828288556198,0.00097828754352863,3.0271112811518e-09,-1.9349149004133e-10,-0.0012875239024276,0.0012875308841979,-0.0012875240028899,0.0012875289666181,-0.0012875229938847,0.001287529975624,-0.0012875231453247,0.0012875281090187,-0.0010118555997017,0.0010118579556147,-0.0010118546771756,0.0010118570330388,0.7920419595447,125301,3014,0.004068744743484,0.0040687447434813,0.0040687447435031,20.398800517945,7.839040414356e-05,7.839040414356e-05,7.839040414356e-05,3233004.6505836,0.012282788742837
26919200,0.99987849749644,0.015121196598229,0.0050403988660713,0.0050403988660692,0.0050403988660883,-0.0009779252977532,0.00097792760089762,7.0460943360664e-10,7.0461157180603e-10,5.007758589942e-10,6.806284528562e-10,-0.0012893951434244,0.0012893990001675,-0.001289394430236,0.0012893982869518,-0.0012893944458555,0.0012893984203546,-0.0012893937583584,0.001289397732821,-0.0010116605075794,0.0010116620738193,-0.0010116613967328,0.0010116629630191,5.0077603914655e-10,6.8063993778476e-10,-1.0605468453992e-09,2.469779662576e-09,-0.00097792529774642,0.00097792760090309,-0.0012893956494604,0.0012893984030868,-0.0012893939241868,0.0012893988840375,-0.0012893949647369,0.0012893978361215,-0.0012893932394571,0.0012893983170674,-0.0010116621674031,0.0010116602380552,-0.0010116597368946,0.0010116647987974,-0.0010116601059564,0.0010116623413291,-0.0010116609392056,0.0010116635609926,6.8143465208031e-10,6.8143716582705e-10,-0.00097792531983816,0.00097792757882196,2.1661173309848e-09,-1.1219802199509e-09,-0.0012893946436586,0.0012893995843486,-0.0012893949559304,0.0012893978262447,-0.0012893939207585,0.0012893988614175,-0.0012893942778041,0.001289397148084,-0.0010116619921422,0.0010116623661435,-0.0010116610649097,0.001011661438861,0.74688297492095,125301,3014,0.0040672723118439,0.0040672723118412,0.0040672723118633,21.287339873848,8.5498718990781e-05,8.5498718990781e-05,8.5498718990781e-05,3160210.4647406,0.012278349255044
27419200,0.99989376511635,0.015121450090056,0.0050404833633469,0.0050404833633448,0.0050404833633639,-0.00097944139665926,0.00097944351800507,6.3534177562722e-10,6.3534383362318e-10,4.3240425602326e-10,6.1156529786465e-10,-0.0012892846374688,0.0012892883365318,-0.0012892839387271,0.001289287637763,-0.0012892839537956,0.0012892877708662,-0.0012892832806316,0.0012892870976656,-0.001013247249868,0.0010132486715797,-0.0010132481314634,0.0010132495532214,4.3240455013418e-10,6.1157676579556e-10,-1.1693921282491e-09,2.4400897586875e-09,-0.00097944139665244,0.00097944351801063,-0.001289285157097,0.0012892877263289,-0.0012892834190859,0.0012892882479712,-0.0012892844862123,0.0012892871734539,-0.0012892827481949,0.0012892876950912,-0.0010132489488582,0.0010132467977833,-0.0010132464324583,0.0010132514270316,-0.0010132468348719,0.0010132489533429,-0.0010132476596812,0.0010132501644279,6.1477881901732e-10,6.1478123241418e-10,-0.00097944141629597,0.00097944349837755,2.1401502135271e-09,-1.2281023183907e-09,-0.0012892841217463,0.0012892889361341,-0.0012892844754402,0.0012892871656905,-0.0012892834133874,0.0012892882277441,-0.0012892838115839,0.0012892865017999,-0.0010132487375257,0.0010132489453941,-0.0010132478178802,0.0010132480256989,0.72588280929977,125301,3014,0.0040735470517777,0.0040735470517751,0.0040735470517969,22.251334729247,9.3210677833974e-05,9.3210677833974e-05,9.3210677833974e-05,3182390.607422,0.012297377451161
27919200,0.99990760289898,0.015121692377645,0.0050405641258768,0.0050405641258747,0.0050405641258938,-0.00098059131306492,0.00098059402105871,8.5707173075283e-10,8.5707376819058e-10,6.4715920155415e-10,8.3212251866942e-10,-0.0012897849836655,0.001289789192251,-0.0012897842394314,0.0012897884479895,-0.0012897842577368,0.0012897885843226,-0.0012897835398267,0.001289787866376,-0.0010143185131955,0.0010143204130405,-0.0010143193960053,0.0010143212958965,6.4715956060143e-10,8.3213401178155e-10,-9.505883305099e-10,2.6647458798594e-09,-0.00098059131305806,0.00098059402106428,-0.0012897855009582,0.0012897885807602,-0.0012897837221255,0.0012897890594856,-0.0012897847881911,0.0012897879859958,-0.0012897830093522,0.0012897884647162,-0.0010143202132817,0.0010143185333807,-0.0010143176959043,0.0010143231755702,-0.001014318101047,0.0010143206872029,-0.0010143189279836,0.001014321908087,8.3785070750072e-10,8.3785309575129e-10,-0.00098059133143981,0.00098059400269296,2.3593026587321e-09,-1.0092213744504e-09,-0.0012897844690424,0.001289789794362,-0.0012897847759744,0.0012897879789551,-0.0012897837148209,0.0012897890401094,-0.0012897840677326,0.001289787270679,-0.0010143200010624,0.0010143206886418,-0.0010143190791761,0.0010143197667059,0.76533978020323,125301,3014,0.0040783126571741,0.0040783126571714,0.0040783126571932,22.918808326767,9.8550466614138e-05,9.8550466614138e-05,9.8550466614138e-05,3187457.1367882,0.012311844367414
28419200,0.99991997891856,0.015121926249859,0.0050406420832813,0.0050406420832792,0.0050406420832983,-0.00098042299263094,0.00098042600093163,9.7083357602419e-10,9.708356734307e-10,7.58600362662e-10,9.4557502550851e-10,-0.0012911885976912,0.0012911930631801,-0.0012911878314032,0.001291192296865,-0.0012911878507903,0.001291192434084,-0.0012911871110863,0.0012911916943435,-0.0010142116206221,0.001014213765062,-0.0010142125071371,0.0010142146516233,7.5860067591112e-10,9.4558652340358e-10,-8.2395695749074e-10,2.7656380304705e-09,-0.00098042299262416,0.00098042600093719,-0.0012911891094478,0.0012911924559073,-0.0012911873196336,0.0012911929041428,-0.0012911883758385,0.0012911918401051,-0.001291186586018,0.0012911922883355,-0.001014213307538,0.0010142118968725,-0.0010142108202067,0.0010142165198268,-0.0010142112140668,0.0010142140325608,-0.0010142120448605,0.0010142152593882,9.4851387364048e-10,9.4851629959578e-10,-0.00098042301404786,0.0009804259795239,2.4543121764771e-09,-8.8605483138311e-10,-0.001291188091361,0.001291193658007,-0.0012911883663952,0.0012911918302891,-0.001291187315035,0.0012911928816498,-0.0012911876364613,0.001291191100321,-0.0010142131107276,0.0010142140458367,-0.0010142121849547,0.0010142131200142,0.82558911402084,125301,3014,0.0040776267334022,0.0040776267333996,0.0040776267334213,23.441644491202,0.00010273315592962,0.00010273315592962,0.00010273315592962,3137499.0067085,0.012309786605888
28919200,0.99993100955442,0.015122119121067,0.0050407063736841,0.005040706373682,0.0050407063737011,-0.00097957898732387,0.00097958196366241,9.5808693883697e-10,9.5808907733047e-10,7.4716604879597e-10,9.3318411489527e-10,-0.0012924502242612,0.0012924546572608,-0.0012924494618775,0.0012924538948501,-0.0012924494805309,0.0012924540312246,-0.0012924487445614,0.0012924532952185,-0.0010135942027717,0.0010135963205285,-0.0010135950921463,0.0010135972099498,7.4716644489238e-10,9.3319562261908e-10,-8.2764373265916e-10,2.7438320220072e-09,-0.000979578987317,0.00097958196366804,-0.0012924507335529,0.0012924540531397,-0.0012924489525729,0.0012924544989767,-0.0012924500030293,0.0012924534403123,-0.0012924482220429,0.0012924538861441,-0.0010135958812691,0.0010135944617814,-0.0010135934136337,0.0010135990687108,-0.0010135937987282,0.0010135965871193,-0.0010135946316958,0.0010135978145216,9.3234010756146e-10,9.3234257972124e-10,-0.00097957901210793,0.00097958193888736,2.4300201711842e-09,-8.9284270650348e-10,-0.0012924497234919,0.0012924552455146,-0.0012924499968995,0.0012924534275973,-0.001292448951253,0.0012924544732448,-0.0012924492705981,0.0012924527012617,-0.001013595696248,0.0010135966038652,-0.0010135947679646,0.0010135956755317,0.76400561131051,125301,3014,0.0040741408526424,0.0040741408526398,0.0040741408526612,23.983925178832,0.00010707140143066,0.00010707140143066,0.00010707140143066,3070713.3317074,0.012299229318719
29419200,0.99994092431125,0.015122260583374,0.0050407535277863,0.0050407535277841,0.0050407535278032,-0.00098118346688858,0.00098118592461213,7.6125142223277e-10,7.6125346708207e-10,5.5430187675227e-10,7.3693444645263e-10,-0.0012919448525558,0.0012919488448173,-0.0012919441292237,0.0012919481214579,-0.0012919441456729,0.0012919482560572,-0.0012919434481928,0.0012919475585407,-0.0010152571217853,0.0010152588160806,-0.0010152580097264,0.0010152597040679,5.5430212738072e-10,7.3694598779858e-10,-1.0397349286885e-09,2.5622518363831e-09,-0.00098118346688174,0.00098118592461769,-0.001291945369307,0.0012919482358811,-0.0012919436124593,0.0012919487303993,-0.0012919446753498,0.001291947660049,-0.0012919429184958,0.0012919481545622,-0.0010152588163471,0.0010152569444584,-0.0010152563151498,0.0010152615757041,-0.0010152567106851,0.0010152590917335,-0.0010152575416769,0.0010152603138564,7.4122428469514e-10,7.4122664691709e-10,-0.00098118348612441,0.0009811859053855,2.2592671764533e-09,-1.0985412483631e-09,-0.0012919443393908,0.0012919494434044,-0.0012919446643407,0.0012919476523132,-0.001291943606336,0.0012919487103185,-0.0012919439762764,0.0012919469642148,-0.0010152586138559,0.0010152590982258,-0.0010152576872601,0.0010152581715803,0.62417410960896,125301,3014,0.0040807781593433,0.0040807781593406,0.0040807781593625,24.778817260324,0.00011343053808259,0.00011343053808259,0.00011343053808259,3108230.2905235,0.012319352353657
29919200,0.99994972174091,0.015122398981094,0.0050407996603598,0.0050407996603576,0.0050407996603767,-0.00098517860127754,0.00098518125307761,8.345156914714e-10,8.3451754979698e-10,6.2235125821391e-10,8.0915121375055e-10,-0.0012907423098599,0.0012907464827785,-0.0012907415689432,0.0012907457418345,-0.0012907415874981,0.0012907458791879,-0.0012907408728462,0.0012907451644995,-0.0010189738980003,0.0010189757504201,-0.0010189747822087,0.0010189766346741,6.2235181359738e-10,8.0916267052372e-10,-9.703258715673e-10,2.63937118183e-09,-0.00098517860127062,0.00098518125308324,-0.0012907428262284,0.0012907458723284,-0.0012907410525612,0.0012907463522901,-0.0012907421169989,0.0012907452818721,-0.0012907403433253,0.0012907457618287,-0.0010189755951235,0.0010189738733576,-0.0010189730850708,0.0010189785117506,-0.0010189734882877,0.0010189760195467,-0.0010189743168456,0.0010189772461893,8.277710942201e-10,8.2777333059296e-10,-0.00098517860756173,0.00098518124680267,2.3466720885432e-09,-1.0168069231435e-09,-0.0012907417853174,0.0012907470959176,-0.0012907420935738,0.0012907452851882,-0.0012907410340968,0.0012907463446659,-0.0012907413885925,0.0012907445801725,-0.0010189753743084,0.0010189760405051,-0.0010189744501456,0.0010189751162932,0.68688558505508,125301,3014,0.0040973140553417,0.004097314055339,0.004097314055361,25.465406053859,0.00011892324843087,0.00011892324843087,0.00011892324843087,3235132.4689986,0.012369504265785
30419200,0.99995746891698,0.015122498139545,0.0050408327131767,0.0050408327131746,0.0050408327131937,-0.00098579936611979,0.00098580208461313,8.6174053468289e-10,8.6174253850403e-10,6.5194252054469e-10,8.3686196929423e-10,-0.0012944870711904,0.0012944912933428,-0.0012944863272904,0.0012944905494156,-0.0012944863452326,0.0012944906854934,-0.0012944856276009,0.0012944899678252,-0.0010193911562691,0.0010193930649541,-0.0010193920431871,0.0010193939519181,6.5194291810247e-10,8.3687329531587e-10,-9.4384867465314e-10,2.6673436957973e-09,-0.00098579936611298,0.00098580208461866,-0.0012944875878232,0.0012944906826595,-0.0012944858106444,0.0012944911601042,-0.0012944868749993,0.0012944900879461,-0.0012944850978142,0.0012944905653857,-0.001019392854344,0.0010193911872883,-0.0010193903450974,0.0010193958295978,-0.0010193907449951,0.0010193933384795,-0.0010193915758825,0.0010193945633758,8.4270364174691e-10,8.4270604617345e-10,-0.00098579938443247,0.00098580206630966,2.3619720586396e-09,-1.0023401351087e-09,-0.0012944865571172,0.0012944918946102,-0.0012944868629957,0.0012944900809754,-0.0012944858032549,0.0012944911407168,-0.0012944861549261,0.0012944893728716,-0.0010193926474845,0.0010193933456847,-0.0010193917213906,0.001019392419541,0.56251928746541,125301,3014,0.0040999150360897,0.0040999150360871,0.0040999150361089,26.130709217903,0.00012424567374322,0.00012424567374322,0.00012424567374322,3155228.9807224,0.012377456631629
30919200,0.99996435875272,0.015122604769353,0.0050408682564459,0.0050408682564438,0.0050408682564629,-0.00099037740835612,0.00099037943639288,5.9839781721038e-10,5.9839964741918e-10,3.9421926501912e-10,5.7423357938185e-10,-0.0012943866976831,0.0012943903225622,-0.0012943860056636,0.0012943896305154,-0.0012943860207813,0.0012943897642219,-0.0012943853543474,0.0012943890977514,-0.0010239029133495,0.0010239042575398,-0.001023903793813,0.0010239051380487,3.9421968970326e-10,5.7424501400679e-10,-1.2441800435953e-09,2.4409896305691e-09,-0.00099037740834924,0.00099037943639847,-0.0012943872296409,0.0012943896998632,-0.0012943854736927,0.0012943902532195,-0.0012943865655313,0.0012943891543177,-0.001294384809577,0.001294389707669,-0.0010239046490054,0.0010239023462138,-0.0010239020581424,0.0010239070493887,-0.0010239024865224,0.0010239045489995,-0.0010239033109394,0.0010239057621156,5.889109468807e-10,5.8891320813515e-10,-0.00099037741738715,0.00099037942737111,2.1520198379623e-09,-1.292377871199e-09,-0.0012943861596766,0.001294390945133,-0.0012943865452453,0.0012943891558227,-0.0012943854578217,0.001294390243247,-0.0012943858880567,0.0012943884985997,-0.0010239044016766,0.0010239045284937,-0.0010239034823794,0.0010239036091475,0.67617106509292,125301,3014,0.0041188748469416,0.0041188748469389,0.0041188748469609,27.11998179849,0.00013215985438792,0.00013215985438792,0.00013215985438792,3270460.7760264,0.012434973982457
31419200,0.99997052272211,0.015122703101696,0.0050409010338936,0.0050409010338915,0.0050409010339106,-0.00099122600575009,0.00099122738932605,3.5452521429218e-10,3.5452723425988e-10,1.6071997196812e-10,3.3232366047558e-10,-0.0013002489839868,0.001300252042566,-0.0013002483425173,0.0013002514010691,-0.0013002483533354,0.0013002515298687,-0.0013002477367956,0.0013002509132922,-0.0010246994913799,0.0010247003092292,-0.0010247003740937,0.0010247011919892,1.6072042344601e-10,3.3233494533304e-10,-1.547866719646e-09,2.2569311270414e-09,-0.00099122600574329,0.00099122738933159,-0.001300249538726,0.0013002514002223,-0.001300247787765,0.0013002520434181,-0.0013002489205392,0.0013002508999916,-0.0013002471695719,0.0013002515431823,-0.0010247012874096,0.0010246983422164,-0.0010246985780494,0.0010247031590159,-0.001024699039733,0.0010247006348359,-0.0010246998639268,0.001024701835434,3.2295179213267e-10,3.2295425820439e-10,-0.0009912260364922,0.00099122735859314,1.9511429863476e-09,-1.6166933171436e-09,-0.0013002484423686,0.0013002526627176,-0.0013002489215457,0.0013002508831394,-0.001300247792184,0.0013002520125018,-0.0013002483137454,0.0013002502753049,-0.0010247010239788,0.0010247005408402,-0.0010247001045994,0.0010246996214109,0.69952705654839,125301,3014,0.0041224358462885,0.0041224358462859,0.0041224358463077,28.437316163414,0.00014269852930731,0.00014269852930731,0.00014269852930731,3138199.9335943,0.012445866086637
31919200,0.99997583177477,0.015122790557495,0.0050409301858268,0.0050409301858247,0.0050409301858438,-0.00099176750650802,0.00099176986427862,7.246972449378e-10,7.2469926293497e-10,5.1988637012238e-10,7.0078419487683e-10,-0.0013018189287365,0.0013018228308733,-0.0013018182131886,0.001301822115298,-0.0013018182291313,0.001301822249244,-0.0013018175397278,0.001301821559804,-0.0010255208351919,0.0010255224504651,-0.0010255217190685,0.0010255233343878,5.1988690578765e-10,7.0079553066288e-10,-1.1857384692045e-09,2.6351468445697e-09,-0.0009917675065012,0.00099176986428415,-0.0013018194808149,0.0013018221853088,-0.001301817661097,0.0013018227608676,-0.0013018187942817,0.0013018216167536,-0.0013018169745575,0.0013018221923074,-0.0010255226364275,0.0010255204708325,-0.0010255199178182,0.0010255253140342,-0.0010255203868808,0.0010255227657611,-0.001025521213262,0.001025523980462,6.9210028616428e-10,6.921027630592e-10,-0.0009917675382746,0.00099176983252134,2.3173050223193e-09,-1.2574223812123e-09,-0.0013018183905347,0.001301823453169,-0.0013018187957705,0.0013018215983923,-0.0013018176657801,0.0013018227283834,-0.0013018181157311,0.0013018209183188,-0.0010255223715403,0.0010255226798666,-0.0010255214496421,0.0010255217579182,0.71926751588325,125301,3014,0.0041246939608337,0.004124693960831,0.0041246939608531,29.269440244782,0.00014935552195826,0.00014935552195826,0.00014935552195826,3102018.6146373,0.012452731756152
32419200,0.99998019091335,0.015122869507708,0.0050409565025642,0.0050409565025621,0.0050409565025812,-0.0009906866996283,0.00099069069570874,1.3457812720706e-09,1.3457832937147e-09,1.1224122997806e-09,1.3188995553769e-09,-0.0013016502297035,0.0013016555491983,-0.0013016493891835,0.0013016547086511,-0.0013016494135603,0.0013016548509884,-0.0013016486009402,0.0013016540383319,-0.0010245842842563,0.0010245872368483,-0.0010245851729216,0.0010245881255598,1.1224127527711e-09,1.318910851995e-09,-4.9221698671095e-10,3.1837935184124e-09,-0.00099068669962148,0.00099069069571428,-0.0013016507499179,0.0013016549270149,-0.0013016488689559,0.0013016553308399,-0.0013016499477245,0.0013016542427568,-0.0013016480667561,0.0013016546465767,-0.0010245860104678,0.001024585321033,-0.0010245834466953,0.0010245900413888,-0.0010245838697511,0.0010245875055638,-0.0010245847034775,0.0010245887476201,1.3194401512444e-09,1.3194426250217e-09,-0.00099068672515917,0.00099069067018704,2.8559742988721e-09,-5.6034678243749e-10,-0.0013016497181294,0.0013016561545673,-0.0013016499420538,0.001301654228788,-0.0013016488672178,0.0013016553036247,-0.0013016491397763,0.0013016534264763,-0.0010245857936407,0.0010245875019136,-0.0010245848643375,0.0010245865725604,0.78912843059547,125301,3014,0.0041202189365325,0.0041202189365298,0.0041202189365516,29.299129211659,0.00014959303369328,0.00014959303369328,0.00014959303369328,3073574.3319065,0.012439149173215
32919200,0.99998374232899,0.015122925733188,0.0050409752443911,0.005040975244389,0.0050409752444081,-0.0009883381961215,0.00098834251952716,1.4679194841556e-09,1.4679215452985e-09,1.2425043941378e-09,1.4406407502375e-09,-0.0013017764450398,0.0013017820377571,-0.0013017755814966,0.0013017811741866,-0.0013017756067676,0.0013017813169192,-0.0013017747710888,0.001301780481204,-0.0010224480218978,0.0010224512387482,-0.0010224489168156,0.0010224521337125,1.2425047507643e-09,1.4406521476412e-09,-2.9339564686971e-10,3.229248645967e-09,-0.00098833819611467,0.00098834251953269,-0.0013017769395833,0.0013017814412474,-0.0013017750869401,0.0013017817707015,-0.001301776115243,0.0013017807343437,-0.0013017742625934,0.0013017810637927,-0.0010224496730918,0.0010224493978143,-0.0010224472656068,0.0010224539746604,-0.0010224476337042,0.0010224514799074,-0.0010224484742223,0.0010224527300154,1.4435746505206e-09,1.4435771889431e-09,-0.00098833821957702,0.00098834249608077,2.903034423644e-09,-3.5963282014068e-10,-0.0013017759578288,0.0013017826197225,-0.0013017761072185,0.0013017807219794,-0.0013017750836679,0.0013017817455306,-0.0013017752819307,0.0013017798966576,-0.0010224495101601,0.0010224515377665,-0.0010224485743598,0.0010224506019159,0.69092321609739,125301,3014,0.0041104936137158,0.0041104936137131,0.0041104936137349,29.174576829239,0.00014859661463391,0.00014859661463391,0.00014859661463391,3003921.2578817,0.012409644428304
33419200,0.99998667709442,0.015122978120611,0.0050409927068654,0.0050409927068633,0.0050409927068824,-0.00098933745118116,0.00098934123550692,1.2630998083444e-09,1.2631017535496e-09,1.0397400109505e-09,1.236072699004e-09,-0.0012994444324587,0.0012994495827859,-0.0012994436063468,0.0012994487566466,-0.0012994436299331,0.0012994488985886,-0.0012994428310486,0.0012994480996677,-0.0010234552701159,0.0010234580449596,-0.001023456164825,0.0010234589397146,1.0397403650993e-09,1.2360841377023e-09,-4.4929108445337e-10,2.9755046802735e-09,-0.0009893374511743,0.00098934123551248,-0.0012994449135324,0.0012994490027859,-0.0012994431252599,0.0012994493366519,-0.0012994441246202,0.0012994483322043,-0.0012994423363414,0.0012994486660652,-0.0010234568745182,0.0010234562543836,-0.0010234545604079,0.0010234607303046,-0.0010234548971719,0.0010234582706689,-0.001023455737212,0.0010234595201817,1.2544852841004e-09,1.2544876662041e-09,-0.00098933745914986,0.00098934122754742,2.671039039282e-09,-4.9903857258181e-10,-0.0012994439453357,0.0012994501639977,-0.001299444101858,0.0012994483333407,-0.0012994431082843,0.0012994493269151,-0.0012994433131863,0.0012994475446348,-0.0010234567272027,0.001023458375029,-0.0010234557912318,0.0010234574390085,0.77567308772676,125301,3014,0.0041146090743841,0.0041146090743814,0.0041146090744033,29.316142638731,0.00014972914110985,0.00014972914110985,0.00014972914110985,3079061.9685557,0.012422091517616
33919200,0.9999891708076,0.015123021773608,0.0050410072578643,0.0050410072578621,0.0050410072578813,-0.00098918168940523,0.00098918423481838,7.9411733984861e-10,7.9411939213885e-10,5.8769986729012e-10,7.7006857652182e-10,-0.0013023903061695,0.0013023943721691,-0.001302389578337,0.0013023936443094,-0.0013023895941786,0.0013023937781352,-0.0013023888919294,0.0013023930758495,-0.0010232766892903,0.001023278453523,-0.001023277585065,0.0010232793493441,5.877003945255e-10,7.7007985760918e-10,-9.3750431095347e-10,2.5257530338381e-09,-0.00098918168939838,0.00098918423482383,-0.0013023908006753,0.0013023937865682,-0.001302389083818,0.0013023942299153,-0.001302390101476,0.0013023932053279,-0.001302388384612,0.0013023936486696,-0.0010232783165297,0.0010232766506128,-0.0010232759578111,0.0010232811522681,-0.0010232763011367,0.0010232787072696,-0.0010232771394292,0.0010232799358665,7.7329720688938e-10,7.7329970578363e-10,-0.00098918170937895,0.00098918421485383,2.223278863048e-09,-9.9664685947551e-10,-0.001302389816394,0.0013023949467641,-0.0013023900910864,0.0013023931969082,-0.0013023890788278,0.001302394209167,-0.0013023893981098,0.0013023925038975,-0.0010232781672254,0.0010232787659946,-0.0010232772329324,0.0010232778316512,0.76303060755973,125301,3014,0.0041139846104247,0.0041139846104218,0.0041139846104439,30.069974333544,0.00015575979466835,0.00015575979466835,0.00015575979466835,2992387.8396014,0.012420244994797
34419200,0.99999133705914,0.015123058016729,0.0050410193389047,0.0050410193389026,0.0050410193389217,-0.00099145788382758,0.0009914590662316,2.7779674838238e-10,2.7779877217349e-10,8.6216489821888e-11,2.5630711964049e-10,-0.0013041858419277,0.0013041887287693,-0.0013041852192716,0.0013041881060859,-0.0013041852280766,0.0013041882332045,-0.0013041846295717,0.0013041876346631,-0.0010256758957587,0.0010256765496612,-0.0010256767860123,0.0010256774399612,8.6216901978731e-11,2.5631845303875e-10,-1.5391064289029e-09,2.0947136944866e-09,-0.0009914578838208,0.00099145906623708,-0.0013041863710065,0.0013041881154101,-0.0013041846901797,0.0013041887194502,-0.0013041857692308,0.001304187631923,-0.0013041840883976,0.0013041882359577,-0.001025677609904,0.0010256746690185,-0.0010256750718525,0.0010256793206176,-0.0010256754718347,0.0010256768498237,-0.0010256763017695,0.0010256780547879,2.5164852225156e-10,2.5165097382373e-10,-0.00099145790918582,0.00099145904088254,1.7997955212911e-09,-1.6013057323414e-09,-0.0013041853220253,0.0013041893254135,-0.0013041857651837,0.0013041876195842,-0.0013041846907056,0.0013041886940628,-0.0013041851751526,0.001304187029519,-0.0010256774030018,0.0010256768224005,-0.0010256764763582,0.001025675895707,0.72790058071019,125301,3014,0.0041234218965953,0.0041234218965926,0.0041234218966145,31.479763041574,0.00016703810433259,0.00016703810433259,0.00016703810433259,2987071.978889,0.012448897498729
34919200,0.99999324380231,0.015123091271798,0.0050410304239277,0.0050410304239256,0.0050410304239447,-0.00099593006098142,0.00099592979303626,-2.7193201095784e-10,-2.7193003813576e-10,-4.4682828882014e-10,-2.9068110592116e-10,-0.0013074080287962,0.0013074096518539,-0.0013074075190728,0.0013074091421031,-0.0013074075203095,0.0013074092617124,-0.0013074070333585,0.0013074087747251,-0.0010300647561413,0.0010300642283541,-0.0010300656390758,0.0010300651113351,-4.4682778419663e-10,-2.9066970428234e-10,-2.2379881437006e-09,1.6941383275766e-09,-0.00099593006097451,0.00099592979304185,-0.0013074086134889,0.0013074089894805,-0.0013074069343668,0.0013074098044819,-0.0013074081163883,0.0013074086107273,-0.0013074064372595,0.0013074094257232,-0.0010300666195998,0.0010300622071009,-0.0010300637756026,0.0010300671326024,-0.0010300642742296,0.0010300645985135,-0.0010300650942035,0.0010300657755766,-3.0945692730329e-10,-3.0945450270089e-10,-0.00099593009777677,0.00099592975625009,1.4003193703809e-09,-2.3094733886291e-09,-0.0013074074626805,0.0013074102854991,-0.0013074081248285,0.0013074085893561,-0.001307406945699,0.0013074097684864,-0.0013074076454825,0.0013074081099759,-0.00103006631795,0.0010300644324836,-0.0010300654011512,0.0010300635156349,0.75808686568768,125301,3014,0.0041419645328379,0.0041419645328351,0.004141964532857,33.573327316694,0.00018378661853356,0.00018378661853356,0.00018378661853356,3001006.4546171,0.012505201577115
35419200,0.99999489232976,0.015123116770225,0.0050410389234033,0.0050410389234011,0.0050410389234202,-0.0010000510074705,0.0010000501639611,-4.8990800941131e-10,-4.899059918847e-10,-6.5827013500511e-10,-5.073966134994e-10,-0.0013125444654118,0.0013125455922636,-0.001312543998859,0.0013125451256836,-0.0013125439973291,0.0013125452426581,-0.0013125435534203,0.0013125447987131,-0.0010341360978035,0.0010341351007747,-0.0010341369780538,0.0010341359810714,-6.5826990635028e-10,-5.0738521680344e-10,-2.6108784257444e-09,1.6310762885863e-09,-0.0010000510074637,0.0010000501639666,-0.0013125451022884,0.0013125448783056,-0.0013125433619697,0.0013125458396469,-0.0013125446455272,0.0013125445400244,-0.0013125429052021,0.0013125455013602,-0.0010341381133598,0.0010341329285752,-0.0010341349624824,0.001034138153285,-0.0010341355619322,0.0010341355309176,-0.0010341363771096,0.0010341366965792,-5.4475900822153e-10,-5.4475655141423e-10,-0.0010000510615406,0.0010000501099002,1.3209510197501e-09,-2.6993252611426e-09,-0.0013125438615224,0.0013125462595813,-0.001312544671468,0.0013125445040367,-0.0013125433887388,0.0013125457867668,-0.0013125442348834,0.0013125440674177,-0.0010341377254708,0.0010341352335594,-0.0010341368127225,0.0010341343207611,0.67379056419234,125301,3014,0.0041590707136983,0.0041590707136956,0.0041590707137173,35.92937069561,0.00020263496556488,0.00020263496556488,0.00020263496556488,2957381.0631342,0.012557179513119
35919200,0.9999962257122,0.015123138926224,0.0050410463087364,0.0050410463087343,0.0050410463087534,-0.0010045196899626,0.0010045203544776,7.9920738241013e-11,7.9922662711633e-11,-1.0587311717836e-10,5.9308037797803e-11,-0.0013140963370467,0.0013140987616166,-0.0013140957549058,0.0013140981794483,-0.0013140957618725,0.001314098304663,-0.0013140952044671,0.0013140977472211,-0.0010385216585348,0.0010385218919679,-0.0010385225386013,0.0010385227720802,-1.058727436938e-10,5.9319577320279e-11,-2.1079867598678e-09,2.2678421969442e-09,-0.0010045196899557,0.0010045203544832,-0.0013140969870677,0.0013140980244647,-0.0013140951048716,0.0013140989166055,-0.0013140964242611,0.0013140975798811,-0.0013140945420584,0.0013140984720165,-0.0010385237347334,0.0010385196457919,-0.0010385204623877,0.0010385250182703,-0.0010385211096251,0.0010385223230169,-0.0010385219276204,0.0010385235098162,2.4130696235559e-11,2.4133047369616e-11,-0.001004519745125,0.0010045202993242,1.9382425458736e-09,-2.2009541780224e-09,-0.0013140957202734,0.001314099450781,-0.0013140964507796,0.0013140975420423,-0.0013140951311731,0.0013140988616495,-0.0013140959016949,0.0013140969929236,-0.0010385233072507,0.0010385220019536,-0.0010385223923274,0.0010385210869803,0.72183945217264,125301,3014,0.0041775915826306,0.0041775915826279,0.0041775915826496,37.536299913323,0.00021549039930659,0.00021549039930659,0.00021549039930659,3018473.803456,0.012613398432415
36419200,0.99999720906386,0.015123154836371,0.0050410516121189,0.0050410516121168,0.0050410516121359,-0.0010035870980148,0.0010035912533377,1.4057068355917e-09,1.4057088430598e-09,1.1806964189172e-09,1.3784885570914e-09,-0.0013152316678794,0.0013152371293034,-0.0013152308157994,0.0013152362771962,-0.0013152308413644,0.0013152364205398,-0.0013152300181121,0.0013152355972511,-0.0010375388366063,0.001037541922104,-0.0010375397266911,0.0010375428122352,1.1806967588458e-09,1.378499987347e-09,-6.7765428049868e-10,3.4890818881603e-09,-0.001003587098008,0.0010035912533432,-0.0013152322653732,0.0013152364250802,-0.0013152302182924,0.0013152369814246,-0.0013152314532719,0.0013152357307326,-0.0013152294061846,0.0013152362870717,-0.0010375408011354,0.001037539762386,-0.0010375377621471,0.0010375449719669,-0.0010375383430918,0.0010375422713208,-0.0010375391766363,0.0010375435151462,1.3562427253628e-09,1.3562451517592e-09,-0.0010035871468154,0.0010035912045463,3.1291052962017e-09,-7.7081513877368e-10,-0.0013152310981581,0.001315237792293,-0.0013152314712315,0.0013152356963233,-0.0013152302367257,0.0013152369308297,-0.0013152306584518,0.0013152348835094,-0.0010375404507997,0.001037542084387,-0.0010375395204644,0.0010375411540018,0.70447270805609,125301,3014,0.0041737458265532,0.0041737458265506,0.0041737458265725,37.488410552096,0.00021510728441677,0.00021510728441677,0.00021510728441677,2966323.8068974,0.012601750005957
36919200,0.99999791747743,0.015123165373349,0.0050410551244446,0.0050410551244424,0.0050410551244615,-0.0010021363764562,0.0010021417673466,1.8737491928072e-09,1.8737511718055e-09,1.6330467581013e-09,1.8440181659814e-09,-0.0013134497423132,0.0013134562876539,-0.0013134487936693,0.0013134553389826,-0.0013134488256653,0.0013134554892613,-0.0013134479068732,0.0013134545704326,-0.0010361980572894,0.0010362021456435,-0.0010361989598699,0.0010362030482703,1.6330471147437e-09,1.8440296025291e-09,-3.465415106052e-11,3.7821665898451e-09,-0.0010021363764494,0.0010021417673521,-0.0013134502770254,0.0013134556412732,-0.0013134482589439,0.0013134559853687,-0.0013134493753032,0.0013134548578084,-0.0013134473572152,0.0013134552018987,-0.0010361998476166,0.0010362001525443,-0.0010361971695278,0.0010362050413835,-0.0010361976297932,0.0010362024163042,-0.0010361984788633,0.0010362036934292,1.842616846379e-09,1.8426192507761e-09,-0.0010021364069888,0.0010021417368233,3.4307294058216e-09,-1.1107578441691e-10,-0.0013134492200836,0.0013134569117411,-0.0013134493743181,0.001313454838446,-0.0013134482605692,0.0013134559521956,-0.0013134484667403,0.0013134539308342,-0.001036199607121,0.001036202397241,-0.0010361986615827,0.0010362014516528,0.64727478642577,125301,3014,0.0041677260610973,0.0041677260610946,0.0041677260611166,36.861660018745,0.00021009328014996,0.00021009328014996,0.00021009328014996,2974923.9055063,0.012583456757155
37419200,0.99999846423015,0.015123173601566,0.0050410578671836,0.0050410578671814,0.0050410578672005,-0.0010047366347963,0.0010047390230983,7.3434976194238e-10,7.3435169144226e-10,5.2748289828895e-10,7.1010819756436e-10,-0.0013142192901657,0.0013142232300584,-0.0013142185732473,0.0013142225131127,-0.0013142185891155,0.0013142226474825,-0.0013142178981866,0.0013142219565172,-0.0010387017348008,0.0010387033707135,-0.0010387026310421,0.0010387042670006,5.2748323607825e-10,7.101196409519e-10,-1.1667279908086e-09,2.6354414371729e-09,-0.0010047366347894,0.0010047390231039,-0.0013142198391524,0.0013142225879096,-0.0013142180242474,0.001314223155267,-0.0013142191510967,0.0013142220183304,-0.0013142173361854,0.0013142225856827,-0.0010387035266796,0.0010387013997768,-0.0010387008391486,0.0010387062379514,-0.0010387012913907,0.0010387036792752,-0.0010387021300862,0.0010387049098166,7.074831295525e-10,7.0748548753929e-10,-0.001004736661108,0.0010047389967957,2.3230391846446e-09,-1.2329653473285e-09,-0.001314218750374,0.0013142238542148,-0.0013142191477963,0.0013142220044274,-0.0013142180242073,0.0013142231280171,-0.0013142184661644,0.0013142213227612,-0.0010387032751556,0.0010387036214533,-0.0010387023402912,0.0010387026865391,0.65462458225499,125301,3014,0.0041784939949518,0.0041784939949492,0.0041784939949709,37.673961257466,0.00021659169005972,0.00021659169005972,0.00021659169005972,3016627.0214292,0.012616142196407
37919200,0.99999886747929,0.015123179252136,0.0050410597507071,0.005041059750705,0.0050410597507241,-0.0010047051216588,0.001004709188017,1.3728665506928e-09,1.3728685159563e-09,1.1472847373564e-09,1.3456416666884e-09,-0.0013148589884325,0.001314864384965,-0.0013148581426559,0.0013148635391612,-0.001314858167449,0.0013148636823286,-0.0013148573496136,0.0013148628644568,-0.0010385954040351,0.0010385984150101,-0.0010385962978313,0.0010385993088524,1.1472850981193e-09,1.3456531043813e-09,-4.5994921427945e-10,3.2056962778809e-09,-0.0010047051216519,0.0010047091880226,-0.0013148595063935,0.0013148637645725,-0.0013148576246817,0.001314864159559,-0.0013148586993804,0.0013148630759087,-0.0013148568176621,0.00131486347089,-0.0010385971249519,0.0010385965039081,-0.0010385945768997,0.0010386012199683,-0.001038594993106,0.0010385986789472,-0.0010385958313507,0.0010385999290961,1.3504099020809e-09,1.3504122913315e-09,-0.0010047051435349,0.0010047091661501,2.8806039969958e-09,-5.2460920907818e-10,-0.0013148584759024,0.0013148649920539,-0.0013148586905448,0.0013148630648598,-0.0013148576196424,0.0013148641357628,-0.0013148578830462,0.001314862257327,-0.0010385969131205,0.0010385986906993,-0.0010385959781481,0.0010385977556771,0.61069305856341,125301,3014,0.0041783722432166,0.0041783722432139,0.0041783722432358,37.676476874277,0.00021661181499421,0.00021661181499421,0.00021661181499421,3001341.3933584,0.012615784975197
38419200,0.9999991590111,0.015123183927404,0.0050410613091297,0.0050410613091276,0.0050410613091467,-0.0010044933473911,0.0010044984306614,1.7599201400595e-09,1.7599220667654e-09,1.5206932448064e-09,1.7303810832222e-09,-0.0013134273656729,0.0013134336619832,-0.0013134264391797,0.0013134327354627,-0.0013134264697714,0.001313432884957,-0.0013134255722251,0.0013134319873741,-0.0010383638003174,0.0010383676395808,-0.0010383646999873,0.0010383685392966,1.5206936369149e-09,1.7303926075539e-09,5.5867614339716e-11,3.4639866899853e-09,-0.0010044933473842,0.001004498430667,-0.0013134278365187,0.0013134330839647,-0.0013134259683206,0.0013134333134866,-0.0013134269550904,0.0013134323214139,-0.0013134250868859,0.0013134325509306,-0.0010383653925096,0.0010383658503956,-0.00103836310778,0.0010383703284959,-0.0010383634390267,0.001038367842945,-0.0010383642857517,0.0010383691171498,1.7540993364693e-09,1.7541016856917e-09,-0.0010044933527327,0.001004498425329,3.1467029930306e-09,6.1961799609554e-12,-0.0013134268861537,0.0013134342437975,-0.0013134269292313,0.0013134323240469,-0.001313425947833,0.0013134333054458,-0.0013134260427067,0.001313431437488,-0.0010383652554165,0.0010383679806705,-0.0010383643121577,0.001038367037362,0.69725492786578,125301,3014,0.0041774862179214,0.0041774862179188,0.0041774862179406,37.197998772945,0.00021278399018356,0.00021278399018356,0.00021278399018356,3036809.897347,0.012613076023793
38880000,0.99999936259649,0.01512318731465,0.0050410624382118,0.0050410624382097,0.0050410624382288,-0.0010028785703153,0.0010028826753379,1.3871700541423e-09,1.3871721053738e-09,1.1631050160872e-09,1.3602003310783e-09,-0.0013151634556665,0.0013151688768827,-0.0013151626095433,0.0013151680307322,-0.001315162633259,0.0013151681724603,-0.0013151618143444,0.0013151673535094,-0.001036851186284,0.001036854224998,-0.0010368520883258,0.0010368551270863,1.1631053451173e-09,1.3602117916179e-09,-2.6640042843562e-10,3.0407545558274e-09,-0.0010028785703085,0.0010028826753435,-0.0013151639169176,0.0013151683166425,-0.0013151621482791,0.0013151685909776,-0.0013151631081141,0.0013151676258265,-0.0013151613394692,0.0013151679001564,-0.0010368527332002,0.0010368524917374,-0.0010368505413948,0.0010368568603607,-0.0010368508332039,0.0010368544311305,-0.0010368516806457,0.001036855687758,1.3751509141423e-09,1.3751533662733e-09,-0.0010028785816154,0.001002882664047,2.731961453747e-09,-3.194318994718e-10,-0.0013151629916365,0.00131516943504,-0.001315163088414,0.0013151676240467,-0.0013151621345445,0.0013151685779169,-0.0013151622796385,0.0013151668152371,-0.0010368526345171,0.0010368545790455,-0.001036851691293,0.0010368536357713,0.72416034322609,125301,3014,0.0041708120227444,0.0041708120227418,0.0041708120227636,37.193675266746,0.00021274940213396,0.00021274940213396,0.00021274940213396,2951284.3342251,0.012592850773261
