time,ASR_ext,ASR_strain,ASR_strain_xx,ASR_strain_yy,ASR_strain_zz,disp_x_101,disp_x_102,disp_x_103,disp_x_104,disp_x_105,disp_x_106,disp_x_p1_neg,disp_x_p1_pos,disp_x_p2_neg,disp_x_p2_pos,disp_x_p3_neg,disp_x_p3_pos,disp_x_p4_neg,disp_x_p4_pos,disp_x_p5_neg,disp_x_p5_pos,disp_x_p6_neg,disp_x_p6_pos,disp_y_101,disp_y_102,disp_y_103,disp_y_104,disp_y_105,disp_y_106,disp_y_p1_neg,disp_y_p1_pos,disp_y_p2_neg,disp_y_p2_pos,disp_y_p3_neg,disp_y_p3_pos,disp_y_p4_neg,disp_y_p4_pos,disp_y_p5_neg,disp_y_p5_pos,disp_y_p6_neg,disp_y_p6_pos,disp_y_p7_neg,disp_y_p7_pos,disp_y_p8_neg,disp_y_p8_pos,disp_z_101,disp_z_102,disp_z_103,disp_z_104,disp_z_105,disp_z_106,disp_z_p1_neg,disp_z_p1_pos,disp_z_p2_neg,disp_z_p2_pos,disp_z_p3_neg,disp_z_p3_pos,disp_z_p4_neg,disp_z_p4_pos,disp_z_p5_neg,disp_z_p5_pos,disp_z_p6_neg,disp_z_p6_pos,humidity,ndof,nelem,strain_xx,strain_yy,strain_zz,temp,thermal_strain_xx,thermal_strain_yy,thermal_strain_zz,vonmises,vstrain
2419200,0,0,0,0,0,0,0,0,0,0,0,0,0,0,0,0,0,0,0,0,0,0,0,0,0,0,0,0,0,0,0,0,0,0,0,0,0,0,0,0,0,0,0,0,0,0,0,0,0,0,0,0,0,0,0,0,0,0,0,0,0,0,0,0,0,0,0,0,0,0,0,0,0,0,0
2919200,0.076550563897368,0.0015987278190686,0.00053290927302287,0.00053290927302287,0.00053290927302287,-0.00015920416709914,0.00015918197536765,-8.483615698691e-09,-8.4836155882834e-09,-6.8989156374474e-09,-1.0004664927552e-08,-0.0001606409078095,0.00016062314278184,-0.00016064267276618,0.00016062490773838,-0.00016064195508074,0.00016062209056769,-0.0001606436892175,0.00016062382470428,-0.0001619538146443,0.00016193493540007,-0.00016195464823754,0.00016193576899502,-9.4119351164016e-10,1.9687206529575e-09,-1.0994668017424e-09,2.085305305619e-09,-0.00017588440940693,0.00017588539905279,-0.00017543519996201,0.00017543397509787,-0.00017543589335553,0.00017543696651588,-0.00017543598571489,0.00017543687076042,-0.00017543667910818,0.00017543986217833,-0.00017465768131381,0.00017465658199726,-0.00017465573620389,0.00017466080735448,-0.00017465749536943,0.00017465677149937,-0.00017465580125428,0.0001746607400247,-8.5047324125761e-09,-8.5047324470331e-09,-0.00015920418831114,0.00015918195415568,-6.8011347036871e-09,-1.0148947423553e-08,-0.00016064087069744,0.00016062315813891,-0.00016064203314976,0.00016062203380432,-0.00016064263859895,0.00016062492604043,-0.00016064376479032,0.00016062376544486,-0.0001619547136908,0.00016193570711814,-0.00016195388603649,0.00016193487946509,0.83502648770561,122718,2924,0.00066308467125484,0.00073258361250598,0.0006630846712549,32.427600494353,0.00017462080395483,0.00017462080395483,0.00017462080395483,1636422.9748385,0.0020608760589429
3419200,0.15555900476933,0.0031059226181033,0.0010077359798476,0.0010904506584085,0.0010077359798472,-0.00026074757115382,0.00026072921421658,-7.1906218457556e-09,-7.1906862597595e-09,-7.5620172691602e-09,-7.1995541291736e-09,-0.00027057229071452,0.00027055610463885,-0.00027057444183974,0.00027055825552993,-0.00027057219870607,0.00027055623112881,-0.00027057432722917,0.00027055835941439,-0.00026449581011819,0.00026448083371837,-0.00026449708473949,0.0002644821081268,1.0566717724909e-10,-4.556342241578e-10,3.485420072221e-10,-7.0396420093571e-10,-0.00031538640673758,0.00031538605347895,-0.00031876958449153,0.00031876970803301,-0.00031877287607671,0.00031877236095213,-0.00031877272195531,0.00031877252587635,-0.00031877601378569,0.00031877517902504,-0.00030787434733163,0.00030787489923538,-0.00030787860256193,0.00030787703877417,-0.00030787466375107,0.00030787457339755,-0.00030787844510398,0.00030787720242464,-7.1439603497883e-09,-7.1440249624858e-09,-0.00026074752399235,0.00026072926137799,-7.7565961099823e-09,-6.9022380725856e-09,-0.00027057232908257,0.00027055606952655,-0.00027057206919796,0.00027055635870662,-0.00027057447853275,0.00027055821874182,-0.00027057419806934,0.00027055848734148,-0.00026449695534349,0.00026448223703735,-0.00026449568103536,0.00026448096294416,0.77960726241633,122718,2924,0.0010858290059889,0.0013132355563778,0.0010858290059888,31.910878415692,0.00017048702732554,0.00017048702732554,0.00017048702732554,2690755.3195305,0.0034909806269636
3919200,0.24219059460252,0.0046536942323044,0.0014574821770586,0.0017387298781871,0.0014574821770588,-0.00035876363536866,0.00035875642160685,-2.5161540547511e-09,-2.5162081940315e-09,-5.3513195307762e-09,5.5984995683576e-10,-0.00037830669331458,0.0003782991756053,-0.00037830787754274,0.00037830035960918,-0.00037830479266412,0.00037830116656706,-0.00037830596369106,0.00037830233736624,-0.00036148011958351,0.00036147633680415,-0.00036148092199252,0.0003614771390058,1.6012854653429e-09,-4.3746279517219e-09,2.6439187700817e-09,-5.3227520362555e-09,-0.00047851431247093,0.00047851162213025,-0.00049628370812729,0.00049628564563813,-0.00049628761394058,0.00049628428501059,-0.00049628695789363,0.0004962849629688,-0.00049629086390229,0.00049628360252383,-0.0004540027177068,0.00045400590292296,-0.00045401156201639,0.00045399908476767,-0.00045400404538109,0.00045400454551174,-0.0004540109777823,0.00045399968937838,-2.3652024429839e-09,-2.3652567889404e-09,-0.00035876348372618,0.00035875657324949,-6.133208480588e-09,1.6806058039648e-09,-0.00037830689596298,0.00037829901784178,-0.00037830429990128,0.00037830161924196,-0.00037830807127099,0.00037830019292423,-0.00037830547505114,0.00037830279416551,-0.00036148044693755,0.00036147760831303,-0.00036147963219075,0.00036147679377527,0.74640349119053,122718,2924,0.0014937575441545,0.0019917851402743,0.0014937575441549,32.496913952868,0.00017517531162294,0.00017517531162294,0.00017517531162294,3716057.3714846,0.0049917354484574
4419200,0.33711010612296,0.0063176246743172,0.0019174889017683,0.0024826468707804,0.0019174889017686,-0.00045923711633682,0.00045923454764487,-3.8719170923645e-10,-3.8724822050605e-10,-3.9225833257812e-09,2.5850005532281e-09,-0.0004898932868712,0.00048989026072015,-0.00048989375419641,0.0004898907278425,-0.00048989114917869,0.00048989245725321,-0.00048989161524266,0.00048989292310998,-0.00046041336021576,0.00046041433544692,-0.00046041354109365,0.00046041451611466,1.0285698155158e-09,-5.4596893061806e-09,2.1388306866613e-09,-6.4462697654718e-09,-0.00066644091260772,0.00066643658571975,-0.00070471822132911,0.00070471891297948,-0.00070472173019183,0.00070471673426976,-0.0007047210192707,0.00070471745143681,-0.00070472452833354,0.00070471527291195,-0.0006188855987972,0.00061888759107943,-0.00061889594633413,0.00061888105566596,-0.0006188870413863,0.00061888612911429,-0.00061889533503253,0.00061888168071767,-2.7840951208015e-10,-2.784661628564e-10,-0.00045923700823606,0.00045923465574588,-4.784342138323e-09,3.7013638253561e-09,-0.00048989352721125,0.00048989004676682,-0.00048989070696641,0.00048989287837328,-0.00048989398788913,0.00048989050724038,-0.00048989117438305,0.00048989334558441,-0.00046041309886755,0.00046041495455339,-0.00046041290642822,0.00046041476232535,0.74424082049435,122718,2924,0.0019117691404999,0.002772902705011,0.0019117691405005,33.599134661832,0.00018399307729466,0.00018399307729466,0.00018399307729466,4553430.641444,0.0066182857504675
4919200,0.44029636414215,0.0081114080482617,0.0023867076320026,0.0033379927842559,0.0023867076320032,-0.0005610033319055,0.00056100280780632,4.5548026981321e-10,4.5541916499414e-10,-3.1557471616446e-09,3.425569524026e-09,-0.00060545581197895,0.00060545487758873,-0.0006054559708124,0.00060545503619832,-0.00060545363367003,0.00060545709484401,-0.00060545379451936,0.00060545725546612,-0.00056002900628631,0.00056003176885299,-0.00056002919352488,0.00056003195586761,1.1367080139387e-09,-5.3945885871981e-09,2.3267856619717e-09,-6.4583380618819e-09,-0.00088395184636914,0.00088394769953905,-0.00094798679359996,0.00094798774506072,-0.00094798989592521,0.00094798503861133,-0.00094798913349587,0.00094798580544247,-0.00094799223598317,0.00094798309914046,-0.00080713859665275,0.00080714094968777,-0.00080714908441328,0.00080713415272198,-0.00080714015177832,0.00080713938077221,-0.00080714842077772,0.00080713482603134,5.461186017264e-10,5.4605746764502e-10,-0.00056100324328495,0.00056100289642731,-4.1132853705436e-09,4.5988284133885e-09,-0.00060545609077045,0.00060545461624501,-0.00060545319245734,0.00060545752215945,-0.00060545624482161,0.00060545477007096,-0.00060545335453873,0.0006054576840152,-0.00056002874548514,0.00056003240209457,-0.0005600285457004,0.00056003220253488,0.74696695512676,122718,2924,0.0023350473769216,0.0036762076469957,0.0023350473769225,35.344330652458,0.00019795464521967,0.00019795464521967,0.00019795464521967,5139176.8875882,0.0083813136430702
5419200,0.54102599201542,0.0098114553111912,0.0028102746159464,0.0041909060792975,0.0028102746159473,-0.00064845157912993,0.00064845349524687,1.4818867147659e-09,1.4818335976768e-09,-2.5160662881649e-09,4.5659321342898e-09,-0.00070831030651078,0.00070831152343959,-0.00070831022212612,0.00070831143885583,-0.00070830795033511,0.00070831390571132,-0.00070830787002444,0.0007083138251977,-0.00064416641576812,0.00064417148255989,-0.00064416669603664,0.00064417176260282,1.1158897816273e-09,-5.8854939551702e-09,2.4022805816831e-09,-7.0375464281403e-09,-0.0011004872333313,0.0011004825839019,-0.0011934653680009,0.0011934662033661,-0.0011934685087513,0.0011934630913006,-0.0011934676843768,0.0011934639209411,-0.0011934708252863,0.0011934608090201,-0.0009910425637275,0.00099104489876064,-0.00099105399048893,0.00099103775635946,-0.00099104424534106,0.00099104320072516,-0.00099105327207851,0.00099103848597213,1.5772056591952e-09,1.5771524999083e-09,-0.00064845148553622,0.00064845358884114,-3.5529094671134e-09,5.8328148768954e-09,-0.00070831060470138,0.00070831123692979,-0.00070830748204801,0.00070831436751942,-0.00070831051462237,0.00070831114665048,-0.00070830740223066,0.00070831428750058,-0.00064416621370115,0.00064417224254641,-0.00064416591970929,0.00064417194878128,0.73229095938567,122718,2924,0.0026987277420609,0.0045746255398607,0.0026987277420621,36.27332771291,0.00020538662170328,0.00020538662170328,0.00020538662170328,5482313.6026976,0.010022113872216
5919200,0.63242223031923,0.011139046598544,0.0031260840132809,0.0048868785719814,0.003126084013282,-0.00070866400102223,0.00070866809867592,2.3334231861741e-09,2.3333657969375e-09,-1.8054926841823e-09,5.6387433142329e-09,-0.00078358153774402,0.00078358472105449,-0.00078358129910267,0.00078358448219468,-0.00078357905279215,0.00078358722407582,-0.00078357882092702,0.00078358699198931,-0.00069787785407177,0.00069788483381151,-0.00069787827292288,0.00069788525243356,1.2107841364934e-09,-6.1199539520194e-09,2.5595768400963e-09,-7.3276670528603e-09,-0.001278616243139,0.0012786114620012,-0.0014045446932389,0.0014045456742273,-0.0014045476283856,0.0014045420429797,-0.0014045467620378,0.0014045429123104,-0.001404549697329,0.0014045392811929,-0.0011339889745231,0.0011339915014127,-0.0011340005876906,0.0011339836710999,-0.001133990738257,0.001133989722091,-0.0011339998343603,0.0011339844349903,2.4255491885049e-09,2.4254914129684e-09,-0.00070866391109766,0.00070866818860106,-2.9006190044922e-09,6.9583434239266e-09,-0.0007835818562701,0.00078358441094786,-0.00078357857220679,0.00078358770100678,-0.0007835816125197,0.00078358416697755,-0.00078357834068701,0.00078358746926654,-0.00069787777589597,0.00069788574821955,-0.00069787734270985,0.0006978853152649,0.6360792580923,122718,2924,0.0029491774898237,0.0053130965029128,0.002949177489825,36.779296595068,0.00020943437276054,0.00020943437276054,0.00020943437276054,5599342.2308396,0.011274738578091
6419200,0.70986814247946,0.012186239960591,0.0033741445536459,0.0054379508532979,0.0033741445536471,-0.0007529413267107,0.00075294746524154,3.145406248046e-09,3.1453487306288e-09,-1.359642293409e-09,6.7923170156717e-09,-0.00083836663700608,0.0008383715578385,-0.00083836624167472,0.00083837116229275,-0.00083836391571164,0.00083837429828421,-0.00083836352889182,0.00083837391124701,-0.00073643430103285,0.00073644324399335,-0.00073643481153665,0.00073644375426718,1.3629696056847e-09,-6.643882758354e-09,2.8575651774042e-09,-7.9861768627788e-09,-0.0014187864865886,0.001418781344977,-0.0015753299479768,0.0015753311251931,-0.0015753329207063,0.0015753268861994,-0.0015753319622813,0.0015753278510954,-0.0015753349351513,0.0015753236122279,-0.0012428660996597,0.0012428689780533,-0.0012428786472081,0.0012428602053709,-0.0012428680508318,0.0012428670068743,-0.001242877810366,0.0012428610557082,3.2531666859099e-09,3.2531087718827e-09,-0.00075294122116822,0.00075294757078468,-2.5704997711141e-09,8.2647021490096e-09,-0.00083836698733465,0.00083837121816537,-0.00083836337467982,0.00083837483439576,-0.00083836658590482,0.00083837081651986,-0.00083836298822482,0.00083837444772432,-0.00073643425363224,0.00073644431067238,-0.00073643372747408,0.00073644378474634,0.59525943091212,122718,2924,0.0031333667836207,0.0058938488073271,0.0031333667836222,36.741504282879,0.00020913203426303,0.00020913203426303,0.00020913203426303,5709941.6188744,0.012235078804571
6919200,0.77965395559553,0.013208538038033,0.0036215017280056,0.0059655345820209,0.0036215017280068,-0.00079839292057696,0.00079839676235293,2.2721559395891e-09,2.2720981178143e-09,-2.1046048326567e-09,5.7771629142562e-09,-0.00089433879260331,0.00089434191340763,-0.00089433858185539,0.00089434170244536,-0.00089433615967687,0.00089434456117269,-0.00089433595364486,0.00089434435492385,-0.00077898020530157,0.00077898723192979,-0.00077898085420638,0.00077898788060297,1.2329695146277e-09,-6.5193036803947e-09,2.7741625055338e-09,-7.9099044369079e-09,-0.0015598980209848,0.0015598928728852,-0.0017404328128714,0.0017404338216193,-0.0017404358190917,0.0017404297472053,-0.001740434828157,0.0017404307439414,-0.001740437834513,0.0017404266696492,-0.001358349938884,0.0013583527493138,-0.0013583624559709,0.0013583442459208,-0.0013583519550907,0.0013583507125301,-0.0013583615872677,0.0013583451284651,2.3802193668642e-09,2.3801612262989e-09,-0.00079839281483839,0.00079839686809236,-3.3614557134236e-09,7.298110225018e-09,-0.00089433915502937,0.00089434155686677,-0.00089433560719148,0.00089434511399336,-0.00089433893846665,0.00089434134008848,-0.00089433540075628,0.00089434490734178,-0.000778980281029,0.00077898845318302,-0.00077897961717598,0.00077898778956196,0.64378173705164,122718,2924,0.0033224266616578,0.0064781103186517,0.0033224266616597,38.625168727819,0.00022420134982255,0.00022420134982255,0.00022420134982255,5632908.32284,0.013209774447724
7419200,0.83980516711809,0.013970075541646,0.0038019647311043,0.0063661460794359,0.0038019647311057,-0.0008248822832456,0.00082488535819961,1.9439245742033e-09,1.9438665457352e-09,-2.2175348425993e-09,5.2142163774159e-09,-0.0009343817170757,0.0009343842991984,-0.00093438157228375,0.00093438415419203,-0.00093437922890582,0.00093438679513789,-0.00093437908777679,0.00093438665379173,-0.00080159926050717,0.00080160547148349,-0.00080159997979712,0.00080160619054287,1.093445608399e-09,-6.2149774398818e-09,2.6487740119486e-09,-7.6256394551256e-09,-0.0016738166524676,0.001673811664471,-0.0018753503498768,0.001875351233176,-0.001875353316697,0.0018753473931202,-0.0018753523139595,0.0018753484007504,-0.0018753552809115,0.0018753445608123,-0.0014492780602084,0.0014492807778763,-0.00144929026897,0.0014492727666351,-0.0014492800987886,0.0014492787187035,-0.0014492893857319,0.0014492736637359,2.0492502848619e-09,2.049192260607e-09,-0.00082488218034378,0.00082488546110219,-3.4955227218273e-09,6.7516327071818e-09,-0.00093438208528137,0.0009343839321744,-0.00093437867679084,0.00093438735243687,-0.00093438193522979,0.00093438378190747,-0.00093437853455755,0.00093438720998741,-0.00080159940388931,0.00080160676664693,-0.00080159867072492,0.000801606033714,0.55664260548471,122718,2924,0.0034327440030006,0.0069494628297855,0.0034327440030023,40.764009888843,0.00024131207911075,0.00024131207911075,0.00024131207911075,5265892.3032474,0.01391122472587
7919200,0.88499577094817,0.014493974809681,0.0039286238580658,0.0066367270935482,0.0039286238580672,-0.00083901769421344,0.00083902446906387,3.3433965786839e-09,3.3433383642704e-09,-9.9929825544961e-10,6.8105808139017e-09,-0.00095502424841907,0.00095502992847548,-0.00095502383384968,0.00095502951369176,-0.00095502162857906,0.00095503255312992,-0.000955021222246,0.00095503214657954,-0.00081264256558263,0.00081265188764825,-0.00081264333005496,0.00081265265188968,1.2074038815226e-09,-6.4411032470113e-09,2.7792915416688e-09,-7.8633562396292e-09,-0.0017472030224569,0.00174719792743,-0.0019668807078006,0.001966881757093,-0.0019668835049264,0.0019668774663616,-0.0019668824920481,0.0019668784838388,-0.0019668852893036,0.0019668741932229,-0.0015038021156044,0.0015038049626952,-0.0015038145857082,0.0015037965023252,-0.0015038041740509,0.0015038028836352,-0.0015038136959897,0.0015037974058577,3.4492331165386e-09,3.4491747349384e-09,-0.00083901759092179,0.00083902457235626,-2.2883187504918e-09,8.3607162781702e-09,-0.00095502462156195,0.00095502955758151,-0.00095502107121873,0.00095503311463431,-0.0009550242016152,0.00095502913741917,-0.00095502066387164,0.00095503270707096,-0.00081264274942066,0.00081265323263163,-0.00081264197042686,0.00081265245387011,0.5070717593097,122718,2924,0.0034916728347877,0.0072530466204451,0.0034916728347893,40.956193977897,0.00024284955182318,0.00024284955182318,0.00024284955182318,5099764.3646121,0.014338661377873
8419200,0.91864642507858,0.014865738274011,0.0040204816915232,0.0068247748909634,0.0040204816915247,-0.000847186891009,0.00084719345686434,3.2662493357587e-09,3.2661909733006e-09,-1.1647524659536e-09,6.8343821767276e-09,-0.00096922501961359,0.0009692304961877,-0.00096922463438023,0.00096923011073972,-0.00096922233900617,0.00096923318333345,-0.0009692219610665,0.00096923280517667,-0.00081868830606969,0.00081869752907712,-0.00081868911803862,0.00081869834081477,1.2678947570384e-09,-6.5687787031431e-09,2.8707259273523e-09,-8.0191220398556e-09,-0.0018014379999443,0.0018014328406505,-0.0020333761854988,0.0020333773112509,-0.0020333790562931,0.0020333729347644,-0.002033378023708,0.00203337397237,-0.0020333808946304,0.0020333695959973,-0.0015451275482039,0.001545130513332,-0.0015451402685262,0.0015451218151626,-0.0015451296460925,0.0015451283940351,-0.0015451393615963,0.0015451227364332,3.3739591584777e-09,3.3739006913189e-09,-0.00084718678590856,0.00084719356196557,-2.4795211838887e-09,8.4152002123741e-09,-0.00096922540126575,0.00096923011735198,-0.00096922177010806,0.00096923375595091,-0.00096922501052972,0.00096922972640018,-0.00096922139113736,0.00096923337676375,-0.00081868852602191,0.00081869893301833,-0.00081868769917797,0.0008186981064061,0.48138031764921,122718,2924,0.0035257811187471,0.0074773118997162,0.0035257811187489,41.432570280387,0.00024666056224309,0.00024666056224309,0.00024666056224309,4865374.1666708,0.01463542335304
8919200,0.9431802005606,0.015109045908564,0.0040813491772051,0.006946347554152,0.0040813491772066,-0.00084997389598109,0.00084998068656618,3.3511605710489e-09,3.3511021510256e-09,-1.1450079961465e-09,6.9986137022437e-09,-0.00097755682414715,0.00097756246305773,-0.0009775564331723,0.00097756207186764,-0.00097755409614008,0.00097756519826823,-0.00097755371223082,0.00097756481414068,-0.00081988870851212,0.0008198981627779,-0.00081988955305006,0.00081989900708665,1.3146898110111e-09,-6.662352747638e-09,2.9520326854278e-09,-8.1452829936663e-09,-0.0018389180496742,0.0018389128455851,-0.0020791910536167,0.0020791922511302,-0.0020791939603447,0.0020791877724742,-0.0020791929057818,0.0020791888327887,-0.0020791958126374,0.0020791843542431,-0.0015736508443256,0.0015736539217638,-0.0015736637516581,0.0015736450029729,-0.0015736529863834,0.0015736517572051,-0.0015736628244314,0.0015736459453049,3.4612370994575e-09,3.4611784917227e-09,-0.00084997378855132,0.00084998079399648,-2.4892734966681e-09,8.6150174089994e-09,-0.00097755721500525,0.00097756207538622,-0.00097755351398951,0.00097756578395188,-0.00097755681839736,0.00097756167856265,-0.00097755312899557,0.00097756539873994,-0.00081988894776407,0.00081989961261993,-0.0008198880881463,0.00081989875323642,0.43063171924148,122718,2924,0.0035375079524257,0.0076322343540042,0.0035375079524269,41.891585243424,0.00025033268194739,0.00025033268194739,0.00025033268194739,4610578.3274297,0.014816463845604
9419200,0.95997386859447,0.015267360665719,0.0041218459852588,0.0070236686952002,0.0041218459852603,-0.00084911629525295,0.00084912586960001,4.4167436260802e-09,4.4166850421612e-09,-2.9108885821644e-10,8.3088124872172e-09,-0.00097943075388094,0.00097943870799584,-0.0009794301628223,0.00097943811672222,-0.00097942787142708,0.00097944159814829,-0.00097942729056387,0.00097944101706783,-0.0008180983904901,0.00081811025927915,-0.00081809929141835,0.00081811115997486,1.4414646936548e-09,-6.9606005049619e-09,3.128541361856e-09,-8.4874780188432e-09,-0.0018606225159806,0.0018606171459779,-0.0021069992529423,0.0021070006245345,-0.002107002072171,0.0021069956888911,-0.0021070009869146,0.0021069967811853,-0.0021070038062687,0.0021069918456533,-0.0015889033608436,0.0015889066317818,-0.0015889166683343,0.0015888971043893,-0.001588905565018,0.0015889044035002,-0.0015889157144027,0.001588898074535,4.5314990257749e-09,4.5314402817574e-09,-0.00084911618318595,0.00084912598166796,-1.673820545843e-09,9.9749661088016e-09,-0.00097943115705579,0.00097943831024507,-0.0009794272685543,0.00097944220258787,-0.00097943055993454,0.00097943771290762,-0.00097942668676588,0.00097944162058241,-0.00081809866638471,0.0008181117850321,-0.0008180977496163,0.00081811086849562,0.40723906797413,122718,2924,0.0035340530931825,0.0077219518124992,0.0035340530931846,41.150847612004,0.00024440678089603,0.00024440678089603,0.00024440678089603,4463613.8594748,0.01490052210183
9919200,0.97127008273123,0.015373501421536,0.0041495086316757,0.0070744841581832,0.0041495086316771,-0.00084612366189485,0.00084613474401596,4.9987352622308e-09,4.9986765732911e-09,5.4666594151382e-11,9.1588715510257e-09,-0.00097935385536302,0.00097936297769646,-0.00097935316425235,0.00097936228637107,-0.00097935080734079,0.00097936603721979,-0.00097935012726225,0.00097936535692365,-0.0008146029148095,0.00081461618484109,-0.00081460385702185,0.00081461712682203,1.5935360003337e-09,-7.29625420656e-09,3.3517449731977e-09,-8.8877884072238e-09,-0.0018745349766937,0.0018745294291917,-0.0021241158128633,0.0021241173863868,-0.0021241186897319,0.0021241120855911,-0.0021241175602057,0.0021241132240819,-0.0021241204371998,0.0021241079233977,-0.0015991848747204,0.0015991884149555,-0.0015991987201589,0.0015991782054492,-0.0015991871683038,0.0015991860949032,-0.001599197726675,0.0015991792168,5.1197547088756e-09,5.1196959269839e-09,-0.00084612354357627,0.00084613486233523,-1.3853890165812e-09,1.0897532248612e-08,-0.00097935427680212,0.00097936256458837,-0.00097935017481112,0.00097936666880916,-0.00097935357903908,0.00097936186660913,-0.00097934949399657,0.00097936598777733,-0.00081460320363955,0.00081461778001038,-0.0008146022447419,0.00081461682134489,0.40432824355073,122718,2924,0.0035217112997265,0.0077794232012908,0.0035217112997281,39.827521772916,0.00023382017418332,0.00023382017418332,0.00023382017418332,4322482.1017369,0.014933820116521
10419200,0.97886105649553,0.015449385654367,0.004169662985264,0.0071100596838378,0.0041696629852655,-0.00084187234926664,0.00084188448936793,5.4059284136216e-09,5.4058697172505e-09,2.3524639172245e-10,9.824819218164e-09,-0.00097808748319584,0.00097809736348619,-0.00097808672707588,0.00097809660715141,-0.0009780842773539,0.0009781005854162,-0.00097808353228037,0.00097809984012501,-0.00081022554153617,0.00081023983831127,-0.00081022651433358,0.00081024081087779,1.748773935392e-09,-7.6156952349735e-09,3.5982905082832e-09,-9.2923156029015e-09,-0.0018836151368978,0.0018836094309718,-0.0021346107090563,0.0021346125026113,-0.0021346136941615,0.0021346068748054,-0.0021346125074456,0.0021346080730479,-0.002134615492676,0.0021346024453531,-0.0016062972684544,0.0016063011302793,-0.0016063116870359,0.0016062902177529,-0.0016062996775636,0.0016062986915892,-0.001606310640963,0.0016062912838853,5.5346733981041e-09,5.5346145562964e-09,-0.00084187222320618,0.00084188461542897,-1.2806213142803e-09,1.1658161307746e-08,-0.0009780879282935,0.00097809692970455,-0.00097808360704864,0.00097810125232296,-0.00097808716483909,0.00097809616603411,-0.00097808286139353,0.00097810050645131,-0.00081022582436855,0.00081024150045372,-0.00081022483410113,0.00081024051041893,0.42845224819223,122718,2924,0.003504131043548,0.0078168987493363,0.0035041310435494,38.099198347853,0.00021999358678282,0.00021999358678282,0.00021999358678282,4192012.5937669,0.014936189892195
10919200,0.98442767344932,0.015500878993916,0.0041833606899812,0.0071341576139517,0.0041833606899826,-0.00083980837887153,0.00083981711301819,4.1052985129043e-09,4.1052398155472e-09,-1.0165495270564e-09,8.4517238241387e-09,-0.00097956284244659,0.00097956976712733,-0.00097956234334977,0.00097956926781556,-0.0009795596851924,0.0009795729445621,-0.00097955919197196,0.00097957245112421,-0.00080810367022889,0.00080811516506026,-0.0008081045970502,0.0008081160916508,1.7390523683204e-09,-7.5404754474746e-09,3.6779372262483e-09,-9.3076868132628e-09,-0.00189297247063,0.0018929668289735,-0.0021442940126563,0.0021442958361306,-0.0021442973270112,0.0021442905126459,-0.0021442960828421,0.0021442917710598,-0.002144299397322,0.0021442864476857,-0.0016146891077613,0.0016146931686394,-0.0016147037311156,0.0016146822592533,-0.0016146916331596,0.0016146906103079,-0.0016147026272107,0.0016146833856073,4.2408699645873e-09,4.2408111105604e-09,-0.00083980824592444,0.00083981724596611,-2.6137002557513e-09,1.0383528937126e-08,-0.00097956331081279,0.00097956930989947,-0.00097955897917398,0.00097957364791881,-0.00097956280405665,0.00097956880292734,-0.00097955848513855,0.00097957315366655,-0.00080810387044498,0.00080811681811672,-0.00080810292636719,0.00080811587427093,0.39597081456719,122718,2924,0.0034956209870766,0.0078555005887385,0.0034956209870785,37.946160435117,0.00021876928348094,0.00021876928348094,0.00021876928348094,4032669.224573,0.014958115712921
11419200,0.98848366943236,0.015538386906221,0.0041934705548291,0.0071514457965614,0.0041934705548306,-0.00083867672892587,0.0008386858350986,4.2437662946174e-09,4.2437075193748e-09,-8.6522367287468e-10,8.5789566459692e-09,-0.00097860144004622,0.0009786087045156,-0.00097860091270173,0.00097860817695625,-0.00097859828939829,0.00097861187450529,-0.0009785977682922,0.00097861135318158,-0.00080691468376598,0.00080692646962724,-0.00080691561977656,0.00080692740540651,1.7208199257795e-09,-7.5283708694964e-09,3.7193941145923e-09,-9.3553255954013e-09,-0.0018974693061086,0.0018974636583544,-0.0021506194873236,0.0021506213284246,-0.0021506227923848,0.0021506159331913,-0.0021506215104582,0.002150617231611,-0.0021506248156441,0.0021506118364881,-0.0016171578343914,0.0016171619853966,-0.0016171725308769,0.001617150975254,-0.001617160437234,0.0016171593469642,-0.0016171713887902,0.0016171521416692,4.3862987564846e-09,4.386239809278e-09,-0.00083867658902638,0.00083868597499892,-2.5132158514221e-09,1.0578412678029e-08,-0.00097860192145288,0.00097860823428157,-0.00097859755769827,0.00097861260395835,-0.00097860138614356,0.00097860769875594,-0.00097859703563377,0.00097861208167707,-0.00080691486658457,0.00080692815851267,-0.00080691391327031,0.00080692720543076,0.39457194111806,122718,2924,0.0034909493667728,0.0078740947501224,0.0034909493667747,37.628393470448,0.00021622714776358,0.00021622714776358,0.00021622714776358,3996477.8364666,0.014967505423591
11919200,0.99142319295126,0.015567734919251,0.004201468609418,0.0071647977004131,0.0042014686094195,-0.00083687908099048,0.00083688867677653,4.428321237212e-09,4.4282624584008e-09,-6.9642474799795e-10,8.7903616046634e-09,-0.00097828706446958,0.00097829473606757,-0.00097828650436269,0.0009782941757458,-0.00097828389884083,0.00097829792074236,-0.00097828334535688,0.00097829736704098,-0.00080505982749049,0.0008050720217775,-0.00080506077808763,0.00080507297214347,1.7386045187666e-09,-7.5483521749048e-09,3.787441254446e-09,-9.4252290070765e-09,-0.001901561274726,0.0019015556251115,-0.0021550946999766,0.0021550966016624,-0.0021550980023722,0.0021550911085895,-0.0021550966883773,0.0021550924405506,-0.0021550999908975,0.0021550869475881,-0.0016205954874969,0.0016205997580132,-0.0016206102914557,0.0016205885861054,-0.0016205981552547,0.0016205970528639,-0.0016206091175705,0.0016205897856087,4.5745547635564e-09,4.574495800508e-09,-0.00083687893736353,0.00083688882040418,-2.3893581814536e-09,1.0844088412121e-08,-0.00097828755908324,0.00097829425288766,-0.0009782831472147,0.00097829867015802,-0.00097828699079404,0.00097829368438229,-0.00097828259269219,0.00097829811541852,-0.00080506000466898,0.00080507374548773,-0.00080505903676959,0.0008050727778205,0.42516298576731,122718,2924,0.003483518334808,0.0078909760688956,0.0034835183348097,37.104865429106,0.00021203892343285,0.00021203892343285,0.00021203892343285,3926297.4562566,0.01496956521442
12419200,0.99358732244443,0.015590468618701,0.0042077047012562,0.0071750592161874,0.0042077047012576,-0.000834751406865,0.00083476052717066,4.2441020384067e-09,4.2440432848894e-09,-8.5862148159834e-10,8.5874260170887e-09,-0.00097879494884013,0.00097880220123447,-0.00097879442788422,0.00097880168006357,-0.00097879179765348,0.00097880537164823,-0.00097879128250767,0.0009788048562848,-0.00080301839912159,0.00080303019057239,-0.00080301934721169,0.00080303113843175,1.7415127072175e-09,-7.5101176997065e-09,3.8356324312974e-09,-9.4330082021333e-09,-0.0019061024904967,0.001906096881317,-0.0021590400734404,0.0021590420165644,-0.0021590434341368,0.0021590365506155,-0.0021590420908522,0.0021590379129894,-0.0021590454516731,0.0021590324471506,-0.0016252617593224,0.0016252661388751,-0.001625276622479,0.0016252549140851,-0.0016252644859888,0.0016252633733842,-0.0016252754190385,0.0016252561441685,4.3920195878164e-09,4.3919606570354e-09,-0.00083475126149223,0.00083476067254414,-2.594869540252e-09,1.0689346327146e-08,-0.00097879545693387,0.00097880170437681,-0.00097879102950245,0.00097880613800144,-0.00097879492769564,0.00097880117492259,-0.00097879051320268,0.00097880562148479,-0.00080301855690664,0.00080303192872161,-0.00080301759171983,0.00080303096376713,0.44663644431852,122718,2924,0.0034747258875341,0.0079096804039274,0.0034747258875357,36.802336001742,0.00020961868801394,0.00020961868801394,0.00020961868801394,3814957.1055238,0.014970717573711
12919200,0.99516176811056,0.015605989206746,0.0042119627163223,0.0071820637740994,0.0042119627163238,-0.00083171010064525,0.0008317200328963,4.5477143550805e-09,4.5476556135286e-09,-5.8199870686474e-10,8.9359125355059e-09,-0.00097753569242873,0.00097754361198398,-0.00097753511564341,0.00097754303498385,-0.00097753251623905,0.00097754680708744,-0.00097753194605047,0.00097754623668133,-0.00080007440053331,0.00080008686753631,-0.00080007536786202,0.00080008783463431,1.7688232471934e-09,-7.5466214547771e-09,3.8981929809391e-09,-9.5039258032964e-09,-0.0019084478515838,0.0019084422340043,-0.0021613400417523,0.0021613420492005,-0.0021613433686261,0.0021613364540543,-0.0021613420030116,0.0021613378397768,-0.00216134533001,0.0021613322447408,-0.0016272534134135,0.0016272578917834,-0.0016272683625246,0.0016272464938037,-0.001627256185289,0.0016272550798485,-0.0016272671372833,0.0016272477465513,4.6974917255545e-09,4.6974327861455e-09,-0.00083170995337674,0.00083172018016551,-2.3500069472832e-09,1.1074663123591e-08,-0.00097753621053457,0.00097754310549535,-0.00097753173473522,0.00097754758658461,-0.00097753562531898,0.00097754252006377,-0.00097753116336831,0.0009775470150009,-0.00080007456420627,0.00080008863822551,-0.00080007357974596,0.0008000876539973,0.41875849256559,122718,2924,0.0034621342679131,0.0079193306466271,0.0034621342679148,36.136611121694,0.00020429288897355,0.00020429288897355,0.00020429288897355,3731889.4551006,0.014954961907712
13419200,0.99628350435903,0.015616804114053,0.0042149441238326,0.0071869158663861,0.0042149441238341,-0.00082833308944659,0.00082834455884358,5.1302631728088e-09,5.1302043569988e-09,-1.1535722196569e-10,9.6543905961708e-09,-0.00097348533535041,0.00097349452243036,-0.00097348464591435,0.00097349383277948,-0.00097348207456447,0.00097349780313043,-0.00097348139324325,0.00097349712159172,-0.00079666880957586,0.00079668260330329,-0.00079666980870604,0.00079668360220232,1.8353229450262e-09,-7.7155106232113e-09,4.0061092744057e-09,-9.7106569545663e-09,-0.0019070663219472,0.0019070606053597,-0.0021613526099752,0.0021613547153189,-0.002161355894788,0.0021613488561898,-0.0021613545038856,0.0021613502688824,-0.0021613577888229,0.0021613444098635,-0.0016244433689643,0.0016244479743458,-0.0016244585663364,0.0016244362120534,-0.0016244461928992,0.0016244451084704,-0.0016244573178746,0.0016244374893245,5.2854853085244e-09,5.2854263013523e-09,-0.00082833293675867,0.00082834471153226,-1.9145641891135e-09,1.1837319214895e-08,-0.00097348586221436,0.00097349400881098,-0.00097348127442438,0.00097349859993857,-0.00097348516394909,0.00097349331032978,-0.00097348059202206,0.00097349791731938,-0.00079666898683406,0.00079668442385641,-0.00079666797003408,0.00079668340728881,0.40900439415344,122718,2924,0.0034481214360295,0.0079136425310566,0.0034481214360313,34.795555489414,0.00019356444391531,0.00019356444391531,0.00019356444391531,3739311.4635522,0.014920739768322
13919200,0.99710953209317,0.015624601399292,0.0042170938595884,0.0071904136801139,0.0042170938595899,-0.00082576080283586,0.0008257714837315,4.8338958591379e-09,4.833837034856e-09,-4.5172790642327e-10,9.3899888429629e-09,-0.00097111329461086,0.00097112178122163,-0.00097111266397123,0.00097112115036706,-0.00097111001303879,0.00097112508494935,-0.00097110938914227,0.00097112446083527,-0.00079401358926434,0.00079402677322757,-0.0007940145775876,0.00079402776131984,1.8614913590109e-09,-7.7684745330826e-09,4.0730845058878e-09,-9.8033280567042e-09,-0.0019066703263641,0.001906664583984,-0.0021614394922895,0.0021614416414667,-0.0021614428995683,0.0021614358090255,-0.0021614414828615,0.0021614372488397,-0.0021614448902647,0.0021614314165085,-0.0016235285832957,0.0016235332969125,-0.0016235439699756,0.001623521406491,-0.0016235314596594,0.0016235303770744,-0.0016235426965594,0.0016235227098054,4.992831401257e-09,4.9927723773754e-09,-0.00082576064642908,0.00082577164013899,-2.2860442307709e-09,1.1617099651221e-08,-0.00097111383171365,0.00097112125804902,-0.00097110919590425,0.0009711258983234,-0.00097111319199696,0.00097112061811641,-0.00097110857091705,0.00097112527311939,-0.00079401373873782,0.00079402859996851,-0.00079401273257018,0.00079402759403317,0.40047476240274,122718,2924,0.0034374479499514,0.0079120030622819,0.0034374479499531,33.82878736338,0.00018583029890704,0.00018583029890704,0.00018583029890704,3723028.4069519,0.014897413093276
14419200,0.99771872692521,0.015630087950867,0.0042186049849931,0.007192877980879,0.0042186049849946,-0.00082275564792129,0.0008227668209685,5.0205239771483e-09,5.0204651328152e-09,-3.1552163295165e-10,9.6361868793113e-09,-0.00096833668590418,0.0009683455653592,-0.00096833602082371,0.00096834490006389,-0.00096833336787217,0.0009683489062393,-0.00096833270985427,0.00096834824800386,-0.00079098240571149,0.00079099602401557,-0.00079098340562991,0.00079099702370298,1.8950648356583e-09,-7.8398776524722e-09,4.145857477547e-09,-9.9125447437388e-09,-0.0019055409666133,0.0019055351877025,-0.0021606516610139,0.0021606538727178,-0.0021606550807645,0.0021606479287678,-0.0021606536393694,0.0021606493945174,-0.0021606570592444,0.0021606434506774,-0.0016220026260497,0.0016220074456621,-0.0016220181681957,0.0016219953548175,-0.0016220055525573,0.0016220044742088,-0.0016220168710092,0.0016219966829471,5.1830239402885e-09,5.1829649075515e-09,-0.00082275548794264,0.00082276698094789,-2.1831467668943e-09,1.1905313201277e-08,-0.00096833723276933,0.00096834503317526,-0.00096833253447714,0.00096834973536913,-0.00096833655836152,0.00096834435855153,-0.00096833187537265,0.00096834907604782,-0.00079098255058716,0.00079099787850083,-0.00079098153263526,0.00079099686078129,0.38210045494667,122718,2924,0.0034249790783867,0.0079073300701713,0.0034249790783884,32.642599138427,0.00017634079310741,0.00017634079310741,0.00017634079310741,3710338.7868111,0.014867363820233
14919200,0.99815568592728,0.015634178357411,0.0042197376734506,0.0071947030105084,0.0042197376734521,-0.00081818250314611,0.00081819562785093,5.7625046361227e-09,5.7624457804694e-09,2.6705403854273e-10,1.0566857795189e-08,-0.00096354517371613,0.00096355564482,-0.00096354436815487,0.00096355483904386,-0.000963541739192,0.00096355910372593,-0.0009635409425613,0.00096355830687774,-0.00078639824646805,0.0007864135602927,-0.00078639928525569,0.00078641459884933,1.9956990661752e-09,-8.0669125081249e-09,4.2996165737827e-09,-1.0188221423417e-08,-0.0019022177660897,0.0019022118649764,-0.0021579043373331,0.0021579066954972,-0.0021579077161581,0.0021579004095267,-0.0021579062419209,0.0021579019098372,-0.0021579096208702,0.0021578956239767,-0.0016180925551199,0.0016180975594264,-0.0016181084363811,0.0016180849712873,-0.0016180955484088,0.0016180945192072,-0.001618107109288,0.0016180863307169,5.9305294431023e-09,5.9304703777022e-09,-0.00081818233764884,0.0008181957933489,-1.6426533542147e-09,1.2891290434365e-08,-0.00096354573336134,0.00096355510201498,-0.0009635408829124,0.000963559953917,-0.00096354491799286,0.00096355428643054,-0.00096354008533943,0.00096355915612719,-0.00078639840814721,0.00078641547550127,-0.00078639735070414,0.00078641441829072,0.39678962402156,122718,2924,0.0034059972987619,0.007893599810557,0.0034059972987636,30.579151407512,0.00015983321126009,0.00015983321126009,0.00015983321126009,3722505.0236035,0.014814902307542
15419200,0.99845341363027,0.015637600979956,0.0042206962865522,0.0071962084068504,0.0042206962865537,-0.00080984136250438,0.00080985763357344,6.9570157878292e-09,6.9569569629514e-09,1.1671104696039e-09,1.2116990850041e-08,-0.00095664419774553,0.00095665716731216,-0.00095664317348605,0.00095665614283791,-0.00095664054745469,0.00095666084558858,-0.00095663953476191,0.00095665983267819,-0.00077812011750291,0.00077813819291508,-0.00077812121901841,0.00077813929419964,2.2073828080881e-09,-8.4742525005207e-09,4.5935540953108e-09,-1.0669838605108e-08,-0.0018973741303991,0.0018973680410043,-0.0021526234533526,0.0021526261114259,-0.0021526267965123,0.0021526192514486,-0.0021526252711139,0.0021526208049176,-0.0021526286143978,0.0021526139450502,-0.001613451927559,0.0016134572904666,-0.0016134684189698,0.0016134438004629,-0.0016134550236802,0.0016134541450528,-0.0016134670464717,0.001613445206947,7.130129059401e-09,7.1300700291198e-09,-0.00080984119186511,0.00080985780421339,-8.111298950679e-10,1.4522740572768e-08,-0.00095664478081584,0.0009566566048915,-0.00095663965837107,0.00095666172515205,-0.00095664374606305,0.0009566555699227,-0.00095663864504428,0.00095666071160838,-0.00077812031117978,0.00077814020117018,-0.00077811919006057,0.00077813908028327,0.48651353790675,122718,2924,0.0033713895283036,0.0078735376051739,0.0033713895283053,27.070436426313,0.0001317634914105,0.0001317634914105,0.0001317634914105,3690611.3041499,0.014724316301807
15919200,0.99868220463663,0.015640826546583,0.0042216062203757,0.0071976141058302,0.0042216062203772,-0.00080345457070835,0.00080346694806026,5.476627583805e-09,5.4765688070503e-09,-2.7538500083534e-10,1.0568493176553e-08,-0.0009545339197635,0.00095454348995492,-0.00095453318989403,0.0009545427598706,-0.00095453031424339,0.00095454712790004,-0.00095452959040788,0.00095454640384697,-0.00077201910541016,0.00077203399519044,-0.00077202013877427,0.00077203502832394,2.2321051944244e-09,-8.3879786177169e-09,4.7036072876731e-09,-1.0670469898999e-08,-0.0018980886306089,0.0018980826505261,-0.0021511050184402,0.0021511077585843,-0.0021511087539171,0.002151101260735,-0.0021511071728142,0.0021511028715422,-0.0021511109084154,0.0021510963738029,-0.0016157003937764,0.0016157060103994,-0.0016157171237348,0.0016156925246631,-0.0016157036010288,0.0016157027517468,-0.0016157156955296,0.0016156939883531,5.650161991891e-09,5.6501030684916e-09,-0.0008034543994719,0.00080346711929747,-2.338577462652e-09,1.306222914251e-08,-0.00095453453098721,0.00095454289905169,-0.00095452939618287,0.00095454803704849,-0.0009545337905132,0.00095454215836158,-0.00095452867154551,0.00095454731219428,-0.00077201920168794,0.00077203596469559,-0.00077201814920284,0.00077203491244173,0.59571470761932,122718,2924,0.0033449155780355,0.0078763717092162,0.0033449155780374,25.353837351787,0.00011803069881429,0.00011803069881429,0.00011803069881429,3540018.2342704,0.014673492350404
16419200,0.99886785176435,0.015643032287561,0.0042222230022304,0.0071985862830986,0.0042222230022319,-0.00079773640773308,0.00079774704776069,4.8061610037109e-09,4.806102292153e-09,-7.9204101955634e-10,9.7286785022851e-09,-0.00095290644210453,0.0009529145811936,-0.00095290583956927,0.00095291397844339,-0.0009529029443835,0.00095291810963742,-0.0009529023460551,0.00095291751109137,-0.00076667413475469,0.00076668749743155,-0.00076667514273553,0.0007666885051825,2.1573998635033e-09,-8.151802407385e-09,4.6858030500509e-09,-1.0495639608885e-08,-0.0019001954300975,0.0019001896073113,-0.0021514761020466,0.0021514788160669,-0.0021514799273198,0.0021514725517558,-0.0021514783085805,0.0021514742014317,-0.0021514821339779,0.0021514679372303,-0.0016187372945294,0.0016187429883563,-0.0016187538897175,0.001618729739139,-0.0016187405774604,0.0016187396524302,-0.0016187524210365,0.0016187312444169,4.9788789068913e-09,4.9788200393983e-09,-0.00079773623715788,0.00079774721833658,-2.9165940844645e-09,1.2283864491188e-08,-0.00095290707293759,0.00095291396879305,-0.0009529020082782,0.00095291903888367,-0.00095290645993392,0.00095291335557343,-0.00095290140884655,0.00095291843923521,-0.00076667418629522,0.00076668946108017,-0.00076667316001137,0.00076668843502781,0.50210013400473,122718,2924,0.0033212284297843,0.0078849665648296,0.003321228429786,24.41201283568,0.00011049610268544,0.00011049610268544,0.00011049610268544,3372487.3276917,0.014634167641569
16919200,0.99902213990246,0.015645424060205,0.0042229089162958,0.0071996062276123,0.0042229089162973,-0.00079625913266617,0.00079626913278296,4.5651090600518e-09,4.5650502090878e-09,-9.1098557662625e-10,9.3307557388465e-09,-0.00094719730874684,0.00094720504736097,-0.00094719673973356,0.00094720447813301,-0.00094719390240285,0.00094720848316868,-0.00094719333714081,0.00094720791768928,-0.00076505595420825,0.0007650687112396,-0.00076505695069091,0.00076506970749145,2.0167924355519e-09,-8.0189659240955e-09,4.5622094684559e-09,-1.0381488252366e-08,-0.0018966244286113,0.0018966185966989,-0.0021518078269287,0.0021518103598186,-0.0021518116263678,0.0021518042312912,-0.0021518099987044,0.0021518058932234,-0.0021518137982675,0.0021517997648057,-0.0016116085320287,0.0016116140752317,-0.0016116249568228,0.0016116011201925,-0.0016116118376953,0.0016116107130301,-0.0016116234761638,0.001611602639893,4.7500267679171e-09,4.749967740411e-09,-0.00079625895003346,0.00079626931541647,-3.0383607448119e-09,1.1916902097248e-08,-0.00094719793285628,0.00094720444107433,-0.00094719295104713,0.00094720942883978,-0.0009471973530255,0.00094720386102761,-0.00094719238446673,0.00094720886204254,-0.00076505597686327,0.00076507068095328,-0.0007650549618898,0.00076506966621168,0.65164127745866,122718,2924,0.0033150630324689,0.0078703306380543,0.0033150630324708,23.779753005191,0.00010543802404153,0.00010543802404153,0.00010543802404153,3471408.882252,0.014606776007136
17419200,0.99914317207677,0.015647110336562,0.0042233848082393,0.0072003407200823,0.0042233848082408,-0.00078877421849953,0.00078878664059303,5.4647944775795e-09,5.4647357410829e-09,-3.7397929864502e-11,1.0326273177502e-08,-0.00094553780989825,0.00094554750929275,-0.0009455370803197,0.00094554677949938,-0.0009455343582163,0.0009455509873217,-0.00094553363507876,0.0009455502639667,-0.00075765128049002,0.00075766601061104,-0.00075765233742747,0.00075766706731868,2.1015196160771e-09,-8.0379442730258e-09,4.6632219018895e-09,-1.0417358856602e-08,-0.0018984962375387,0.0018984904707491,-0.002150499893904,0.0021505025928336,-0.0021505035140126,0.0021504961718382,-0.0021505018737978,0.0021504978442599,-0.0021505054940304,0.0021504914233742,-0.0016159664204975,0.0016159721202241,-0.0016159828265521,0.0016159588878156,-0.0016159697476047,0.0016159687387196,-0.0016159813343199,0.001615960417658,5.6388591844046e-09,5.6388003684164e-09,-0.00078877404655331,0.00078878681254003,-2.1943731033786e-09,1.2918052895882e-08,-0.00094553844997639,0.00094554688649198,-0.00094553341066841,0.00094555192932473,-0.0009455377099768,0.00094554614627647,-0.0009455326862214,0.000945551204661,-0.00075765136840379,0.00075766803584836,-0.00075765029356168,0.00075766696123756,0.58772740813402,122718,2924,0.0032840538300467,0.0078779051419866,0.0032840538300486,21.98285295169,9.1062823613519e-05,9.1062823613519e-05,9.1062823613519e-05,3265463.3953657,0.0145515796213
17919200,0.9992356395971,0.015648189401713,0.0042236891015129,0.0072008111986853,0.0042236891015144,-0.00078259977352628,0.00078261374332884,6.0489842306913e-09,6.0489253700061e-09,4.007854057056e-10,1.1069065893429e-08,-0.00093654554557888,0.0009365565365122,-0.0009365446965444,0.00093655568726299,-0.00093654199275372,0.00093656011805889,-0.00093654115164088,0.00093655927672864,-0.00075146986782439,0.00075148594850896,-0.00075147096125823,0.00075148704171218,2.1614836398056e-09,-8.2616752033171e-09,4.7508496967441e-09,-1.0663279827239e-08,-0.0018925064796209,0.0018925005542697,-0.0021475831264043,0.002147585887401,-0.0021475867019558,0.0021475791869148,-0.0021475850469487,0.0021475808769443,-0.002147588622624,0.0021475741765677,-0.0016070312097533,0.0016070369796049,-0.0016070478962615,0.0016070233775078,-0.0016070345699988,0.0016070335619424,-0.0016070463916603,0.0016070249217583,6.2331970205637e-09,6.2331381016591e-09,-0.00078259959154761,0.00078261392530819,-1.7663211268667e-09,1.3694569057481e-08,-0.00093654618544938,0.00093655591637943,-0.00093654102713853,0.00093656107613491,-0.00093654532537072,0.00093655505608501,-0.00093654018487323,0.00093656023365303,-0.00075146997453513,0.00075148802777041,-0.00075146886218399,0.00075148691565082,0.4915601615792,122718,2924,0.0032584032098845,0.0078532283199732,0.0032584032098862,19.502646164851,7.1221169318812e-05,7.1221169318812e-05,7.1221169318812e-05,3326819.7830872,0.014474477262533
18419200,0.99930914387676,0.015649086863523,0.0042239433727596,0.0072012001180028,0.004223943372761,-0.00077925995965789,0.00077927307605658,5.7414415556883e-09,5.7413825295911e-09,1.7841645729382e-11,1.0803073134178e-08,-0.00092918035720031,0.000929190661819,-0.00092917956049133,0.00092918986489533,-0.00092917676883393,0.00092919428206011,-0.000929175978832,0.00092919349184085,-0.00074783045213639,0.00074784590108733,-0.00074783153232459,0.00074784698104437,2.160341202118e-09,-8.3844969718435e-09,4.7794086922275e-09,-1.0813239432134e-08,-0.0018864597819914,0.0018864537351859,-0.0021446575376298,0.0021446602689099,-0.0021446612469284,0.0021446535931298,-0.0021446595746619,0.0021446553028795,-0.0021446632840844,0.0021446486272092,-0.0015984024349907,0.0015984082219226,-0.0015984193734246,0.0015983945168061,-0.0015984058327501,0.001598404764134,-0.0015984178525556,0.0015983960791881,5.9370449313794e-09,5.9369859324869e-09,-0.00077925976647772,0.00077927326923757,-2.1628976159625e-09,1.3467806071978e-08,-0.00092918099617577,0.00092919004401253,-0.00092917578352026,0.00092919525891588,-0.00092918018788411,0.00092918923550525,-0.0009291749923921,0.00092919446757103,-0.00074783052545836,0.00074784798736067,-0.0007478294255811,0.00074784688771565,0.51421839069127,122718,2924,0.0032444915622119,0.0078283485710714,0.0032444915622139,17.479387926929,5.5035103415428e-05,5.5035103415428e-05,5.5035103415428e-05,3451341.8200363,0.014420990860846
18919200,0.99937329361728,0.015649981460124,0.0042241970937936,0.0072015872725349,0.0042241970937951,-0.00077743493999692,0.00077744498773048,4.5863359307454e-09,4.586276975936e-09,-9.7814537846614e-10,9.4485694324837e-09,-0.00092889517574611,0.00092890291381507,-0.00092889460826159,0.00092890234611582,-0.00092889170978761,0.00092890641107847,-0.00092889114546071,0.00092890584653406,-0.00074584442779474,0.00074585728780672,-0.00074584544478429,0.00074585830456538,2.0750083338609e-09,-8.1456381035238e-09,4.7047931933857e-09,-1.05907021962e-08,-0.0018868121426507,0.0018868062440543,-0.0021439851011751,0.0021439877432957,-0.0021439890061375,0.0021439814900458,-0.0021439873247624,0.0021439832081179,-0.0021439912298488,0.0021439769549777,-0.0015997886929573,0.0015997944544382,-0.0015998054629466,0.0015997811525405,-0.0015997921073114,0.0015997909807221,-0.001599803930134,0.0015997827265018,4.7782509788633e-09,4.7781920736347e-09,-0.0007774347504389,0.00077744517728908,-3.1791519911772e-09,1.2125301196859e-08,-0.00092889582154298,0.0009289022868788,-0.00092889072430258,0.00092890739036149,-0.0009288952428056,0.00092890170792566,-0.00092889015857157,0.00092890682441389,-0.00074584443661577,0.00074585931251482,-0.0007458434008026,0.00074585827693332,0.5877987766322,122718,2924,0.0032369171212401,0.0078297625011372,0.0032369171212416,16.875005743633,5.0200045949064e-05,5.0200045949064e-05,5.0200045949064e-05,3400675.1444144,0.014407071812001
19419200,0.99943379779757,0.015650925281127,0.0042244660683255,0.0072019931444749,0.004224466068327,-0.00077695205472229,0.00077695929712464,3.5203001469565e-09,3.5202412840303e-09,-1.7571405217011e-09,8.0518353476042e-09,-0.00093148133514202,0.0009314868286607,-0.00093148096946682,0.00093148646277066,-0.00093147807330888,0.00093149011731214,-0.0009314777085503,0.00093148975233608,-0.00074557315081925,0.00074558353280601,-0.00074557411217544,0.00074558449393172,1.9019703814045e-09,-7.7292690491361e-09,4.5052201323234e-09,-1.0156493872202e-08,-0.0018906125497011,0.0018906068863048,-0.0021458875707734,0.0021458900187724,-0.0021458915295801,0.0021458842612371,-0.0021458898624326,0.0021458859632741,-0.0021458938213632,0.0021458802058484,-0.0016050430107676,0.0016050485889765,-0.0016050592726503,0.001605036013864,-0.0016050463948094,0.0016050451473761,-0.0016050577487054,0.0016050375777387,3.7039596839069e-09,3.7039008493715e-09,-0.00077695187330981,0.00077695947853756,-3.94920755692e-09,1.0701066603047e-08,-0.00093148197922762,0.00093148619941327,-0.00093147710459343,0.00093149108352065,-0.00093148160301458,0.00093148582298439,-0.00093147673804277,0.00093149071675346,-0.00074557311892726,0.00074558548729974,-0.00074557214011897,0.00074558450872269,0.65664642788028,122718,2924,0.0032349425176924,0.0078453847367029,0.0032349425176936,17.545804794317,5.5566438354539e-05,5.5566438354539e-05,5.5566438354539e-05,3279871.6830267,0.014418931968114
19919200,0.99949214072842,0.01565181265594,0.0042247193419338,0.0072023739720709,0.0042247193419353,-0.00077706755302363,0.00077707373554483,3.1136110779824e-09,3.1135522485242e-09,-1.9035891407154e-09,7.3620321702942e-09,-0.00093385280720876,0.00093385756056848,-0.0009338525135567,0.00093385726670167,-0.00093384972131194,0.00093386066753398,-0.00093384942854001,0.00093386037454465,-0.00074591873797815,0.000745928074817,-0.00074591968167549,0.0007459290182842,1.7293331352363e-09,-7.3677856462648e-09,4.2722173111643e-09,-9.7419882672397e-09,-0.0018948251205331,0.0018948196392153,-0.0021490781451777,0.0021490803781416,-0.0021490819895111,0.0021490749391177,-0.0021490803591928,0.0021490766022701,-0.0021490842036501,0.0021490711633558,-0.0016098201949993,0.0016098254983539,-0.0016098358708499,0.0016098136064865,-0.0016098235042237,0.0016098221338413,-0.001609834378598,0.0016098151370724,3.2893752534046e-09,3.2893165031346e-09,-0.00077706737946756,0.00077707390910146,-4.0514941496054e-09,9.9488405582869e-09,-0.00093385343797716,0.00093385694101991,-0.00093384878044285,0.00093386160908591,-0.00093385313451045,0.00093385663733738,-0.00093384848558471,0.00093386131401122,-0.00074591871463196,0.00074592998569547,-0.00074591775457276,0.00074592902586743,0.63949909152815,122718,2924,0.0032354547846959,0.0078627350360741,0.0032354547846973,18.681890351502,6.4655122812013e-05,6.4655122812013e-05,6.4655122812013e-05,3169403.9069231,0.014437583665772
20419200,0.99954423652754,0.015652669507796,0.0042249661416599,0.0072027372244746,0.0042249661416613,-0.00077578899856203,0.00077579776034249,4.0800300503275e-09,4.0799711566249e-09,-9.0470232445213e-10,8.3344451464218e-09,-0.00093158317641619,0.00093159015165481,-0.00093158269669149,0.00093158967171539,-0.00093158009243472,0.00093159325263536,-0.00093157961693311,0.00093159277691656,-0.00074462443147245,0.00074463583265998,-0.00074462542994398,0.00074463683090122,1.7022012737431e-09,-7.3455817939302e-09,4.1831283516532e-09,-9.6582085904161e-09,-0.0018945130423566,0.0018945075558809,-0.0021501895232393,0.0021501917048309,-0.0021501930717012,0.0021501860569866,-0.0021501914816247,0.0021501876788341,-0.0021501950302104,0.0021501820310994,-0.001608070322997,0.0016080754574904,-0.0016080857169245,0.0016080636345991,-0.0016080735518127,0.0016080721747635,-0.0016080842638878,0.0016080651249681,4.2537427558664e-09,4.2536839609488e-09,-0.00077578882714918,0.00077579793175609,-2.9935213806825e-09,1.0856613169884e-08,-0.00093158378813691,0.00093158955052302,-0.00093157917456726,0.00093159417156883,-0.00093158329882955,0.00093158906099986,-0.00093157869699541,0.00093159369378063,-0.00074462448565142,0.00074463777554704,-0.00074462347080819,0.00074463676093512,0.69004788769245,122718,2924,0.0032301512361252,0.0078614768409123,0.003230151236127,18.601902918777,6.4015223350214e-05,6.4015223350214e-05,6.4015223350214e-05,3167460.7846576,0.014425538684879
20919200,0.99958756527865,0.015653334695061,0.00422515674354,0.0072030212079797,0.0042251567435415,-0.00077108779141467,0.00077109926125403,5.0966619562478e-09,5.096603116616e-09,-2.4688807360279e-11,9.5457059001784e-09,-0.00092855967804618,0.00092856885742065,-0.00092855900962013,0.00092856818877983,-0.00092855648131438,0.00092857207113452,-0.000928555819984,0.00092857140958669,-0.00073991770910186,0.00073993139712586,-0.00073991877311875,0.00073993246091257,1.8115244865234e-09,-7.5403341860842e-09,4.2552332311928e-09,-9.8119860177389e-09,-0.0018938483793682,0.0018938428109711,-0.0021490535743142,0.0021490558746719,-0.002149056943679,0.0021490498729474,-0.0021490553776448,0.0021490514688664,-0.0021490587471334,0.0021490454672514,-0.0016076417470059,0.0016076469113376,-0.0016076572283993,0.0016076347430907,-0.0016076449259182,0.0016076436807245,-0.0016076558023037,0.0016076362049513,5.2644569849712e-09,5.2643982141021e-09,-0.00077108762593116,0.00077109942673814,-2.0806797545441e-09,1.2020949131407e-08,-0.00092856028350175,0.00092856826383643,-0.00092855558056659,0.0009285729712816,-0.00092855960562314,0.00092856758574209,-0.00092855491741981,0.00092857230791827,-0.0007399178476522,0.00073993338649872,-0.00073991676689435,0.00073993230597165,0.64466974006305,122718,2924,0.0032106578333385,0.0078586834570972,0.0032106578333399,17.27741929118,5.3419354329442e-05,5.3419354329442e-05,5.3419354329442e-05,3095337.9157932,0.014383168765346
21419200,0.99962233856533,0.015653866052936,0.0042253095881384,0.0072032468766581,0.0042253095881399,-0.00076620137557065,0.00076621449805203,5.7231189628574e-09,5.7230600262568e-09,3.8544347125514e-10,1.0413039820311e-08,-0.00092184456404365,0.00092185505584294,-0.00092184377469201,0.00092185426627648,-0.00092184121676224,0.0009218584234591,-0.00092184043594578,0.00092185764242518,-0.00073497093128944,0.00073498610790695,-0.00073497203590938,0.00073498721229649,1.9429411433053e-09,-7.8474912451763e-09,4.3850714701943e-09,-1.0111033004353e-08,-0.0018892965452222,0.0018892908071986,-0.0021464704471073,0.0021464728803981,-0.0021464737979309,0.0021464665621806,-0.002146472234883,0.0021464681557302,-0.0021464755858303,0.0021464618376222,-0.001601244005609,0.0016012492713717,-0.0016012598469863,0.0016012366261582,-0.0016012471794131,0.0016012460453226,-0.0016012584280136,0.0016012380812269,5.8944362300395e-09,5.8943773934201e-09,-0.00076620120666365,0.00076621466695977,-1.6589254497015e-09,1.2884396453417e-08,-0.00092184516611699,0.00092185446838145,-0.00092184031311595,0.00092185932385205,-0.00092184436692955,0.00092185366897841,-0.00092183953077822,0.00092185854129785,-0.00073497110904713,0.00073498813905794,-0.00073496998668303,0.00073498701692511,0.64095610021346,122718,2924,0.0031903578202144,0.0078399213552964,0.0031903578202162,15.231436914869,3.7051495318956e-05,3.7051495318956e-05,3.7051495318956e-05,3137605.1331872,0.014322942597616
21919200,0.99965190902478,0.015654304960091,0.004225435425861,0.0072034341083676,0.0042254354258625,-0.00076295181804739,0.0007629632419647,5.0896858005116e-09,5.0896268622632e-09,-3.0169435030131e-10,9.8086830597302e-09,-0.00091854203199281,0.00091855104179966,-0.00091854136756349,0.00091855037715563,-0.00091853866271326,0.00091855443492694,-0.00091853800441544,0.00091855377641173,-0.00073160936925258,0.00073162321373826,-0.00073161043938993,0.00073162428364519,1.9763691843957e-09,-7.9132107246089e-09,4.4332210178469e-09,-1.0190195188002e-08,-0.0018874160566788,0.001887410287502,-0.002144989247246,0.0021449917053223,-0.002144992799381,0.0021449855233351,-0.00214499122702,0.0021449871265255,-0.0021449947792788,0.0021449809446478,-0.0015990145499635,0.001599019883711,-0.0015990305943836,0.0015990071838612,-0.0015990177424084,0.0015990166386456,-0.0015990291673438,0.0015990086472749,5.2621701991737e-09,5.2621113653906e-09,-0.00076295164799256,0.00076296341202022,-2.3583545586812e-09,1.2295065544655e-08,-0.00091854263816357,0.0009185504509331,-0.00091853775288025,0.00091855534089447,-0.00091854196377399,0.00091854977632789,-0.00091853709310576,0.00091855468090352,-0.00073160950671887,0.00073162521626791,-0.00073160841861832,0.00073162412839859,0.62311101531201,122718,2924,0.003176859981294,0.0078321507745889,0.0031768599812957,13.996066801078,2.7168534408621e-05,2.7168534408621e-05,2.7168534408621e-05,3130325.7997457,0.014287681043216
22419200,0.99968059878975,0.015654750067557,0.0042255634248506,0.0072036232178543,0.0042255634248521,-0.00076454429214286,0.00076455115365331,3.3711346933385e-09,3.371075746174e-09,-1.7496979149794e-09,7.7359818629172e-09,-0.00091946169632779,0.00091946697075463,-0.00091946135753049,0.00091946663174262,-0.00091945853852201,0.0009194701512097,-0.00091945820109465,0.00091946981356496,-0.00073314280102962,0.00073315276455192,-0.00073314376596077,0.00073315372925258,1.781942234535e-09,-7.5283950885213e-09,4.2202234330122e-09,-9.7945664524828e-09,-0.0018888550105579,0.0018888494245317,-0.0021469816846252,0.0021469838892435,-0.0021469854669058,0.0021469783824439,-0.00214698390495,0.0021469799750996,-0.0021469876873543,0.0021469744684094,-0.0016000001283857,0.001600005254958,-0.0016000157843883,0.0015999933443713,-0.0016000033003988,0.0016000020304112,-0.0016000143624345,0.0015999948026848,3.5435367530041e-09,3.5434779086969e-09,-0.00076454412219656,0.00076455132360032,-3.794907657823e-09,1.021052027882e-08,-0.00091946229571367,0.00091946638335586,-0.00091945763571237,0.00091947105348787,-0.00091946194732789,0.00091946603475445,-0.00091945729641971,0.00091947071397878,-0.00073314283793639,0.00073315465771696,-0.00073314185594119,0.00073315367595299,0.65096373206224,122718,2924,0.0031834582215137,0.0078381194786055,0.0031834582215154,14.849967328853,3.3999738630828e-05,3.3999738630828e-05,3.3999738630828e-05,3131165.6335552,0.014307116528212
22919200,0.99970773229798,0.015655129614929,0.0042256719210127,0.0072037857729024,0.0042256719210142,-0.00076471527401075,0.00076472282329421,3.6237420175107e-09,3.623683127157e-09,-1.3531978376706e-09,7.8533040289821e-09,-0.00092078626960544,0.000920792219774,-0.00092078587911298,0.00092079182906684,-0.00092078319876217,0.00092079530825141,-0.00092078281126761,0.0009207949205395,-0.00073332364002269,0.00073333405453812,-0.00073332462306349,0.00073333503734866,1.6922879119424e-09,-7.3327726997098e-09,4.0856369638305e-09,-9.5582824399737e-09,-0.0018908701568412,0.0018908646728627,-0.0021483485328374,0.0021483506324491,-0.0021483521290419,0.0021483451737916,-0.002148350594542,0.0021483467371882,-0.0021483541908702,0.0021483412786401,-0.0016025423120995,0.0016025472671813,-0.0016025575717672,0.001602535692844,-0.0016025454278497,0.0016025441008864,-0.001602556174386,0.001602537125221,3.7903533846717e-09,3.7902945734757e-09,-0.00076471510984368,0.000764722987462,-3.3644979464855e-09,1.0280164748565e-08,-0.00092078685905716,0.00092079164014175,-0.0009207823164675,0.00092079619185802,-0.00092078645945594,0.0009207912403249,-0.00092078192695216,0.00092079580212624,-0.00073332371473213,0.00073333594623373,-0.00073332271528474,0.00073333494701744,0.58748017292924,122718,2924,0.0031841830934219,0.0078464173818691,0.0031841830934236,15.357426046943,3.8059408375543e-05,3.8059408375543e-05,3.8059408375543e-05,3078670.9013961,0.014317011741013
23419200,0.99973307894203,0.015655494979313,0.0042257770078751,0.0072039409635616,0.0042257770078766,-0.00076592926632546,0.0007659371561244,3.752035001465e-09,3.7519760433431e-09,-1.1605937978547e-09,7.9129024728787e-09,-0.00091964455936017,0.00091965085826011,-0.0009196441406857,0.00091965043937094,-0.00091964152994202,0.00091965390301766,-0.00091964111505664,0.00091965348791494,-0.00073448401661672,0.00073449466287164,-0.00073448500511999,0.00073449565114424,1.6352787077697e-09,-7.2533452731632e-09,3.9762243261351e-09,-9.427989612389e-09,-0.0018901178827561,0.001890112419838,-0.0021493317333393,0.0021493337349892,-0.0021493352209605,0.0021493283206791,-0.0021493337201761,0.0021493298494756,-0.002149337207921,0.002149324435275,-0.0016002884372085,0.0016002932211608,-0.0016003034601478,0.0016002818828807,-0.0016002914856394,0.0016002901232991,-0.0016003020949409,0.0016002832822903,3.918093944698e-09,3.9180350511355e-09,-0.0007659291028145,0.00076593731963604,-3.121932910769e-09,1.0287517524475e-08,-0.00091964513153562,0.00091965029493498,-0.00091964066606362,0.00091965476902215,-0.00091964470395334,0.0009196498671371,-0.00091964024911151,0.0009196543518536,-0.00073448411456178,0.00073449654237336,-0.00073448310970893,0.00073449553775196,0.60459639632209,122718,2924,0.0031892040373634,0.007843375603091,0.0031892040373651,15.705736597042,4.0845892776335e-05,4.0845892776335e-05,4.0845892776335e-05,3138734.0574917,0.014324096586906
23919200,0.99975805923435,0.015655919324271,0.0042258996457848,0.0072041200326998,0.0042258996457863,-0.00076831349072868,0.00076831929483418,2.9629781759918e-09,2.9629192597783e-09,-1.7822969760747e-09,6.9222362700218e-09,-0.00092300241763489,0.00092300702356598,-0.00092300214817702,0.00092300675389343,-0.00092299951145205,0.00092300994323377,-0.00092299924396086,0.00092300967552526,-0.00073678598859994,0.00073679482694852,-0.00073678693150529,0.00073679576962338,1.5278180932648e-09,-7.013594747083e-09,3.8105031172748e-09,-9.1349203336896e-09,-0.001893354664053,0.0018933493287989,-0.0021518082647465,0.0021518101083924,-0.0021518117984172,0.0021518050612044,-0.0021518103333021,0.0021518065520506,-0.0021518138670965,0.002151801504972,-0.0016042720830304,0.0016042766657667,-0.0016042867449831,0.0016042658601459,-0.0016042750584019,0.0016042736435347,-0.0016042854124477,0.001604267225108,3.1219273366029e-09,3.1218684991913e-09,-0.0007683133343184,0.0007683194512451,-3.6988501066682e-09,9.2350203709834e-09,-0.00092300297681289,0.00092300647086413,-0.00092299867353481,0.00092301078523887,-0.00092300269901286,0.00092300619284848,-0.00092299840382359,0.0009230105153112,-0.00073678606615754,0.00073679663586304,-0.0007367851076074,0.00073679567754402,0.71228945632067,122718,2924,0.0031991082797116,0.0078567292134477,0.0031991082797131,17.004492370301,5.1235938962407e-05,5.1235938962407e-05,5.1235938962407e-05,3095813.5028631,0.014357742057586
24419200,0.9997818801715,0.015656304975612,0.0042260107486857,0.0072042834782391,0.0042260107486872,-0.00076799562257176,0.00076800231836164,3.294513596349e-09,3.2944547241665e-09,-1.3814338841835e-09,7.2044711564398e-09,-0.00092652896241287,0.00092653436959127,-0.00092652862931999,0.00092653403628355,-0.00092652609148272,0.00092653725080327,-0.00092652576207547,0.00092653692117862,-0.00073670384518321,0.0007367133533737,-0.00073670481527677,0.00073671432323753,1.493800861115e-09,-6.9193956199782e-09,3.7180822354928e-09,-8.984486012296e-09,-0.0018978969180047,0.0018978916409387,-0.0021539037887179,0.0021539055787566,-0.0021539071581366,0.0021539005158778,-0.0021539057291117,0.0021539019678816,-0.0021539090986541,0.002153896905112,-0.001610721214171,0.0016107256549667,-0.0016107355898434,0.0016107150449398,-0.0016107241149948,0.0016107227103486,-0.0016107342922948,0.0016107163727619,3.4438409944241e-09,3.4437823070805e-09,-0.00076799547572775,0.00076800246520644,-3.2535344923134e-09,9.4502860890512e-09,-0.00092652951120421,0.0009265338259849,-0.00092652528147033,0.00092653806564691,-0.00092652917031239,0.00092653348487746,-0.00092652494984755,0.0009265377338078,-0.00073670397817731,0.0007367151611871,-0.00073670299293745,0.00073671417617802,0.6789410524186,122718,2924,0.0031978348974828,0.0078753943532619,0.0031978348974846,17.881797575101,5.8254380600808e-05,5.8254380600808e-05,5.8254380600808e-05,2953904.9872055,0.014374115749549
24919200,0.99980394261236,0.015656625190202,0.0042261031503656,0.0072044188894693,0.0042261031503671,-0.00076837150599107,0.0007683790831441,3.6262012051048e-09,3.626142286394e-09,-1.0624032369942e-09,7.5590137272017e-09,-0.00092548237547366,0.00092548853482995,-0.00092548197826401,0.00092548813740563,-0.00092547949080138,0.00092549142874562,-0.00092547909842897,0.0009254910361558,-0.00073712678718161,0.00073713701942457,-0.00073712777592405,0.00073713800793678,1.4970551486987e-09,-6.9431688511929e-09,3.6712092487834e-09,-8.9575250392882e-09,-0.0018980978473918,0.0018980925504195,-0.0021556108173069,0.0021556125814225,-0.0021556140819687,0.0021556074531697,-0.0021556126855679,0.0021556088715805,-0.0021556159503534,0.0021556037434369,-0.0016094211190156,0.0016094254550233,-0.0016094353915365,0.0016094148906002,-0.0016094239544339,0.0016094225770585,-0.0016094341266471,0.0016094161848372,3.773689024955e-09,3.7736302860564e-09,-0.00076837136105567,0.00076837922808024,-2.8863383160516e-09,9.7517066853781e-09,-0.00092548290920369,0.00092548800618476,-0.00092547869933311,0.0009254922249252,-0.00092548250434447,0.00092548760111003,-0.00092547830481598,0.00092549183019172,-0.00073712695751177,0.00073713882718756,-0.00073712595348389,0.00073713782339051,0.60789483588396,122718,2924,0.0031993933569917,0.0078762677716532,0.0031993933569935,18.351964207587,6.2015713660696e-05,6.2015713660696e-05,6.2015713660696e-05,2969262.6065617,0.014378150915029
25419200,0.99982561186014,0.015657007208129,0.0042262145681854,0.0072045780717568,0.0042262145681869,-0.00077235928039316,0.00077236444862489,2.7192161348945e-09,2.719157112171e-09,-1.8384115986718e-09,6.4731060202603e-09,-0.00092677693579418,0.00092678111534917,-0.00092677670924359,0.00092678088858395,-0.00092677415644566,0.00092678390343575,-0.00092677393222812,0.00092678367900089,-0.00074090438713539,0.00074091257917055,-0.00074090531684208,0.00074091350864658,1.3996800500294e-09,-6.7554629994778e-09,3.5187381132601e-09,-8.7183396996479e-09,-0.0018994442705228,0.0018994390605092,-0.0021588656402939,0.0021588672444249,-0.0021588690057928,0.0021588624983832,-0.0021588676441227,0.0021588638808892,-0.0021588710097453,0.0021588591349567,-0.0016092246462147,0.0016092287871755,-0.0016092386521426,0.0016092187160229,-0.0016092274119244,0.0016092259803876,-0.0016092374193881,0.0016092199770916,2.8646211646317e-09,2.8645623819155e-09,-0.00077235913762154,0.00077236459139739,-3.6135118127828e-09,8.6112134239806e-09,-0.00092677745276575,0.00092678060164181,-0.00092677338565633,0.00092678468054291,-0.00092677721890849,0.00092678036756905,-0.00092677315916583,0.00092678445383604,-0.00074090451806827,0.00074091430853075,-0.00074090357341023,0.00074091336410375,0.7372586897946,122718,2924,0.0032159212893299,0.0078819138736947,0.0032159212893319,19.920128336412,7.4561026691297e-05,7.4561026691297e-05,7.4561026691297e-05,3031674.7349491,0.014417393752361
25919200,0.99984577935766,0.015657358307732,0.0042263163198386,0.0072047256680538,0.0042263163198401,-0.00077192525994965,0.0007719320623681,3.3309126339275e-09,3.3308537380187e-09,-1.2196410170946e-09,7.114094016017e-09,-0.00093101216719593,0.00093101774561366,-0.00093101182487357,0.00093101740307643,-0.00093100937622975,0.00093102054297039,-0.00093100903864649,0.00093102020516977,-0.00074055492803162,0.00074056443329214,-0.00074055590426928,0.00074056540929976,1.407504834517e-09,-6.7528570626756e-09,3.478371342202e-09,-8.6679712656042e-09,-0.0019044396990769,0.0019044344991208,-0.0021607390849469,0.0021607406886819,-0.002160742264541,0.002160735798071,-0.002160740932685,0.0021607371481618,-0.0021607441124025,0.00216073225766,-0.0016168668429135,0.0016168708965664,-0.0016168806735721,0.0016168608361218,-0.0016168695465401,0.0016168681547373,-0.0016168794708323,0.0016168620651778,3.4675129242427e-09,3.4674543320391e-09,-0.00077192512593174,0.00077193219638651,-2.9579808239222e-09,9.1947359783627e-09,-0.00093101267663634,0.00093101723903189,-0.00093100862895077,0.00093102129647489,-0.00093101232742091,0.00093101688960094,-0.00093100828917796,0.0009310209564857,-0.00074055512992085,0.00074056618463328,-0.00074055413899902,0.00074056519394208,0.72914636768882,122718,2924,0.0032141696643487,0.0079024292585266,0.0032141696643499,20.734466330864,8.1075730646909e-05,8.1075730646909e-05,8.1075730646909e-05,2870521.7250676,0.014434683127205
26419200,0.9998632861722,0.01565769032741,0.0042264135599904,0.0072048632074282,0.0042264135599919,-0.0007701865864056,0.00077019591496122,4.282069407934e-09,4.2820104412156e-09,-4.2013998352477e-10,8.2629995765055e-09,-0.00092875402467831,0.00092876166453014,-0.00092875350410164,0.00092876114373874,-0.00092875111547162,0.00092876458063615,-0.00092875060223005,0.00092876406717719,-0.00073894271100549,0.00073895436928751,-0.00073894374549505,0.00073895540354689,1.5134535770909e-09,-6.9716587359641e-09,3.5619587654283e-09,-8.8599766955584e-09,-0.0019037947908991,0.00190378948225,-0.002161032714576,0.0021610344322677,-0.0021610357489154,0.0021610291906448,-0.0021610344324458,0.0021610305247688,-0.0021610374669088,0.0021610252832551,-0.0016151598827055,0.00161516398214,-0.0016151738709963,0.0016151535477678,-0.001615162555186,0.0016151612722228,-0.0016151726865283,0.0016151547579612,4.4176005923701e-09,4.4175419444113e-09,-0.00077018645349819,0.00077019604786946,-2.133612879797e-09,1.0315927251968e-08,-0.0009287545279727,0.00092876116572445,-0.00092875037634852,0.00092876532420867,-0.00092875400041015,0.00092876063794634,-0.00092874986115672,0.0009287648088006,-0.00073894298060977,0.00073895616919478,-0.00073894193087224,0.00073895511968778,0.7920419595447,122718,2924,0.0032069603398249,0.0078997787832494,0.0032069603398268,20.398880726162,7.8391045809298e-05,7.8391045809298e-05,7.8391045809298e-05,2861997.4979478,0.014417361051754
26919200,0.99987958582396,0.015657981681928,0.0042264985782108,0.0072049845255053,0.0042264985782123,-0.00077042365663552,0.00077043034867769,3.2919456733708e-09,3.291886759327e-09,-1.3720371711934e-09,7.192713733268e-09,-0.00093069370495217,0.00093069911792027,-0.00093069337353667,0.00093069878629002,-0.00093069084034595,0.00093070199164712,-0.00093069051325218,0.00093070166433597,-0.00073920806693203,0.00073921756473969,-0.00073920904522083,0.00073921854279861,1.487526395325e-09,-6.9046109342872e-09,3.5225763195938e-09,-8.7807640305098e-09,-0.0019070336074416,0.0019070283386524,-0.0021634751934202,0.0021634768543315,-0.0021634784346813,0.0021634719242421,-0.0021634771262959,0.0021634732496942,-0.0021634803676806,0.002163468319714,-0.0016189556207148,0.0016189596841256,-0.0016189696105406,0.0016189494733955,-0.0016189582764589,0.001618956991606,-0.0016189684336676,0.0016189506755297,3.4252739748728e-09,3.4252153444489e-09,-0.00077042352592232,0.00077043047939157,-3.0759747097605e-09,9.2309719788686e-09,-0.0009306942059322,0.00093069862089859,-0.00093069010757418,0.00093070272927514,-0.0009306938676898,0.00093069828244055,-0.00093068977849447,0.00093070239997909,-0.00073920828664191,0.00073921930227401,-0.00073920729328698,0.0007392183091496,0.74688297492095,122718,2924,0.0032079625643308,0.0079131193973604,0.0032079625643324,21.287118468748,8.5496947749983e-05,8.5496947749983e-05,8.5496947749983e-05,2780251.9335797,0.014432938493155
27419200,0.99989471651575,0.015658244823078,0.0042265756126366,0.0072050935978028,0.0042265756126381,-0.0007721120678704,0.00077211855124968,3.2120052548303e-09,3.2119462607079e-09,-1.4041767412137e-09,7.0549556624472e-09,-0.00093052245781392,0.00093052772681675,-0.00093052213945301,0.00093052740824109,-0.00093051962740343,0.0009305305651902,-0.00093051931329577,0.00093053025086519,-0.00074081698415967,0.00074082627921633,-0.00074081795486977,0.00074082724969631,1.4479270682926e-09,-6.8407299383961e-09,3.4631096706709e-09,-8.6982028592263e-09,-0.0019079435430766,0.0019079382975011,-0.0021661002453717,0.002166101847122,-0.0021661034608491,0.0021660969862579,-0.0021661021652086,0.0021660982987477,-0.0021661053808096,0.0021660934379928,-0.0016183034535856,0.0016183074354448,-0.0016183173212398,0.0016182973807602,-0.0016183060841392,0.0016183047684407,-0.0016183161560177,0.0016182985710023,3.3452474940294e-09,3.3451888000716e-09,-0.0007721119372845,0.0007721186818363,-3.0895359042106e-09,9.0741321472306e-09,-0.00093052295200143,0.00093052723586995,-0.00093051890167194,0.00093053129644353,-0.0009305226269224,0.00093052691057548,-0.0009305185855217,0.00093053098007696,-0.00074081720278721,0.00074082800275297,-0.00074081621709861,0.00074082701729511,0.72588280929977,122718,2924,0.0032149612753997,0.0079169373658169,0.0032149612754014,22.251088102487,9.3208704819898e-05,9.3208704819898e-05,9.3208704819898e-05,2805372.8887825,0.014450997672955
27919200,0.99990843026766,0.015658496288922,0.0042266493584939,0.007205197571933,0.0042266493584954,-0.00077334515498735,0.00077335228541237,3.454766349583e-09,3.454707335644e-09,-1.1649171386472e-09,7.310633183498e-09,-0.00093097942480214,0.0009309852480056,-0.0009309790596476,0.00093098488263637,-0.00093097658732544,0.00093098809254521,-0.00093097622727904,0.00093098773228144,-0.00074189427377911,0.00074190409418387,-0.00074189526034776,0.00074190508052224,1.4496221104514e-09,-6.8491105622561e-09,3.4464937318646e-09,-8.688160557247e-09,-0.0019089853172111,0.00190898006508,-0.0021678418937653,0.0021678434905056,-0.0021678450400256,0.0021678385709452,-0.0021678437560977,0.0021678398711449,-0.0021678469024816,0.0021678349516938,-0.001618805986624,0.0016188099298912,-0.0016188198016133,0.0016187998776872,-0.001618808593416,0.0016188072873426,-0.0016188186481387,0.001618801055696,3.5867354341532e-09,3.5866767342722e-09,-0.00077334502570053,0.00077335241469997,-2.8335864240857e-09,9.3098407764625e-09,-0.00093097991405331,0.0009309847618865,-0.00093097586888676,0.00093098881650798,-0.00093097954226463,0.00093098438988236,-0.00093097550682024,0.00093098845422518,-0.00074189451564007,0.00074190582618905,-0.0007418935140676,0.00074190482484732,0.76533978020323,122718,2924,0.0032200751873171,0.0079212684913622,0.0032200751873189,22.918635439048,9.8549083512386e-05,9.8549083512386e-05,9.8549083512386e-05,2811323.9875235,0.014465763752174
28419200,0.99992069539495,0.015658738943914,0.0042267206491053,0.007205297645702,0.0042267206491068,-0.00077352410195145,0.00077353156302788,3.5789798179542e-09,3.5789208382449e-09,-1.0623680391375e-09,7.4671124251352e-09,-0.00093245968726029,0.00093246577450738,-0.00093245930034872,0.00093246538738107,-0.00093245683169852,0.00093246863728022,-0.00093245645025301,0.00093246825561734,-0.00074207512532328,0.00074208522842108,-0.00074207612302025,0.00074208622588796,1.4691420294842e-09,-6.8803739253583e-09,3.4546872483818e-09,-8.7075759441791e-09,-0.0019111001957002,0.0019110949323049,-0.0021691768040096,0.002169178418399,-0.0021691799277021,0.0021691734548863,-0.0021691786509007,0.002169174747344,-0.0021691817747168,0.0021691697839404,-0.0016215830308879,0.0016215869720355,-0.0016215968527598,0.0016215768739636,-0.0016215856227643,0.0016215843450789,-0.0016215957069587,0.0016215780438285,3.7090230397561e-09,3.708964394657e-09,-0.00077352397458642,0.00077353169039378,-2.7216926451873e-09,9.4523942768515e-09,-0.00093246017469753,0.00093246529038622,-0.0009324561185737,0.00093246935562994,-0.00093245978121913,0.00093246489669236,-0.00093245573515599,0.00093246897199594,-0.00074207538404459,0.00074208696578823,-0.0007420743713235,0.00074208595329772,0.82558911402084,122718,2924,0.0032208330371882,0.0079299732142578,0.0032208330371902,23.441509126577,0.00010273207301262,0.00010273207301262,0.00010273207301262,2755640.6851157,0.014476141344266
28919200,0.99993162719952,0.015658939122487,0.0042267793378964,0.0072053804466932,0.0042267793378979,-0.00077321600870045,0.00077322343186131,3.5639143874519e-09,3.5638554649155e-09,-1.0898377581347e-09,7.4689719756507e-09,-0.00093382257127258,0.00093382861132115,-0.00093382218904289,0.00093382822887686,-0.00093381970646822,0.00093383148372107,-0.0009338193296138,0.00093383110664939,-0.0007418927436664,0.0007419028244717,-0.00074189374360875,0.00074190382418436,1.4822028538379e-09,-6.897015831783e-09,3.4620532321208e-09,-8.7182444980268e-09,-0.0019135425968374,0.0019135373301102,-0.0021707408300874,0.0021707424561326,-0.0021707439623675,0.0021707374899699,-0.0021707426891173,0.0021707387785269,-0.0021707458215208,0.0021707338124733,-0.0016246293284321,0.001624633274361,-0.0016246431637606,0.0016246231541975,-0.0016246319127792,0.0016246306553074,-0.0016246420218544,0.0016246243199037,3.6926510678038e-09,3.6925924494484e-09,-0.00077321588263339,0.00077322355792915,-2.7448226667575e-09,9.446902564694e-09,-0.00093382305815566,0.00093382812785233,-0.00093381899627906,0.00093383219896208,-0.00093382266940899,0.00093382773889018,-0.00093381861747728,0.000933831819944,-0.0007418930078423,0.00074190456086803,-0.00074189199288687,0.00074190354614286,0.76400561131051,122718,2924,0.0032195765394598,0.0079400201030342,0.0032195765394616,23.983785234752,0.00010707028187802,0.00010707028187802,0.00010707028187802,2681385.9446476,0.014483794165021
29419200,0.99994145309986,0.015659086101079,0.0042268222249263,0.0072054416512252,0.0042268222249278,-0.00077486806168543,0.00077487491466581,3.3501737053349e-09,3.3501147122844e-09,-1.284552576602e-09,7.2193867233971e-09,-0.00093324984995129,0.00093325542445051,-0.00093324950640593,0.00093325508069055,-0.00093324700404052,0.00093325827795603,-0.00093324666526437,0.00093325793896264,-0.00074347736135448,0.00074348696818768,-0.00074347834500735,0.0007434879516103,1.4604068157507e-09,-6.8693016630201e-09,3.4331007305998e-09,-8.6837686915331e-09,-0.0019138198963519,0.0019138146351949,-0.0021729024357234,0.0021729040247795,-0.0021729056019281,0.0021728991397848,-0.0021729043334369,0.0021729004237176,-0.0021729074997651,0.002172895538832,-0.0016232049982316,0.001623208905892,-0.0016232188073511,0.0016231988815232,-0.0016232075735541,0.0016232062957821,-0.0016232176697201,0.0016232000429936,3.4797811675611e-09,3.479722451069e-09,-0.00077486793478193,0.00077487504156996,-2.931725548591e-09,9.1913649205842e-09,-0.00093325033344873,0.00093325494405615,-0.00093324629572519,0.0009332589916497,-0.00093324998340153,0.00093325459379342,-0.00093324595497136,0.0009332586506796,-0.00074347761073557,0.00074348868685334,-0.00074347661204378,0.00074348768839236,0.62417410960896,122718,2924,0.0032264191660121,0.0079412329326225,0.0032264191660137,24.778612521924,0.00011342890017539,0.00011342890017539,0.00011342890017539,2722937.3276117,0.014498892317857
29919200,0.99995017171161,0.015659229705814,0.0042268644129607,0.0072055008798913,0.0042268644129622,-0.00077818147657187,0.00077818855403563,3.4361397212001e-09,3.436080664925e-09,-1.2007099912093e-09,7.2993242368903e-09,-0.00093181657311076,0.00093182235513744,-0.00093181620962892,0.00093182199144097,-0.00093181372760408,0.00093182520762565,-0.00093181336920708,0.00093182484901144,-0.00074653755210204,0.00074654734275919,-0.00074653853488863,0.00074654832531496,1.4487919037548e-09,-6.874666033554e-09,3.4123852009745e-09,-8.6798142717497e-09,-0.0019121301403715,0.0019121248624835,-0.0021743163674585,0.0021743179326226,-0.0021743195069037,0.0021743130343774,-0.0021743182446056,0.0021743143122532,-0.0021743213841744,0.0021743094141173,-0.0016190319980877,0.0016190358659832,-0.0016190457894157,0.0016190258728779,-0.0016190345616311,0.0016190332676133,-0.0016190446577996,0.00161902702835,3.5674842905179e-09,3.5674254175039e-09,-0.00077818134799963,0.00077818868260862,-2.836662576876e-09,9.263663427624e-09,-0.00093181705169934,0.00093182187953879,-0.00093181302112102,0.00093182591963633,-0.00093181668168049,0.00093182150930446,-0.00093181266074573,0.0009318255590448,-0.0007465378020675,0.00074654905912545,-0.00074653680407702,0.00074654806136607,0.68688558505508,122718,2924,0.0032401273980253,0.0079343862130152,0.003240127398027,25.46522725504,0.00011892181804032,0.00011892181804032,0.00011892181804032,2863819.056332,0.014519732782914
30419200,0.99995784949225,0.015659332940903,0.0042268942719964,0.0072055443969085,0.0042268942719979,-0.00077910196823471,0.00077910910948408,3.4598275053873e-09,3.4597685963459e-09,-1.1739185963261e-09,7.3307391041877e-09,-0.00093578321763496,0.00093578904378112,-0.00093578285286146,0.000935788678793,-0.00093578037060715,0.00093579189787128,-0.00093578001103033,0.00093579153807721,-0.00074731272895218,0.00074732256815922,-0.00074731371871707,0.00074732355769402,1.4581785674692e-09,-6.8695950332343e-09,3.4154734163963e-09,-8.6688032612462e-09,-0.001915312193223,0.0019153069294178,-0.0021751030258915,0.0021751046041944,-0.0021751061554117,0.0021750997005846,-0.0021751048965934,0.0021751009742346,-0.0021751080262371,0.002175096070734,-0.0016245210639953,0.0016245249364227,-0.0016245348306272,0.0016245149349876,-0.0016245236194808,0.0016245223468473,-0.0016245337026718,0.0016245160863134,3.5882657566832e-09,3.5882069600557e-09,-0.00077910184252548,0.00077910923519411,-2.8075001139163e-09,9.2860140804427e-09,-0.00093578369710894,0.00093578856729039,-0.00093577966844711,0.00093579260544494,-0.00093578332590257,0.00093578819586854,-0.00093577930690823,0.00093579224368957,-0.00074731299066994,0.00074732428670972,-0.00074731198585435,0.00074732328212465,0.56251928746541,122718,2924,0.0032439706834862,0.0079474526590164,0.0032439706834881,26.130535815747,0.00012424428652597,0.00012424428652597,0.00012424428652597,2775550.0952662,0.014540810158004
30919200,0.99996467759446,0.015659443598314,0.0042269267674765,0.0072055900633596,0.004226926767478,-0.00078308007766702,0.00078308645991867,3.1740001651318e-09,3.1739411073729e-09,-1.417382290762e-09,6.9799002476033e-09,-0.0009356012165559,0.00093560642236793,-0.00093560090306674,0.0009356061086642,-0.00093559840582773,0.00093560923983526,-0.00093559809669058,0.00093560893048087,-0.00075131476449611,0.00075132396076768,-0.00075131572803867,0.00075132492407952,1.4185955514679e-09,-6.80987452789e-09,3.364615931234e-09,-8.5987854697122e-09,-0.0019142816441354,0.0019142763995741,-0.0021765767872426,0.0021765783048273,-0.0021765799515903,0.0021765735231541,-0.0021765787001192,0.002176574789571,-0.0021765818645904,0.002176570008007,-0.0016213980579661,0.0016214018664767,-0.001621411752249,0.0016213920267384,-0.0016214005993809,0.0016213992909313,-0.0016214106306666,0.0016213931717013,3.3039025331668e-09,3.3038436375088e-09,-0.00078307995054728,0.00078308658703916,-3.038950362476e-09,8.9261910241431e-09,-0.00093560169057574,0.00093560595073323,-0.00093559770652061,0.00093560994518397,-0.00093560137067795,0.00093560563061985,-0.00093559739536754,0.00093560963381451,-0.00075131500216041,0.00075132565101617,-0.00075131402356705,0.00075132467265423,0.67617106509292,122718,2924,0.0032604466607142,0.007943309000645,0.0032604466607159,27.119724642116,0.00013215779713693,0.00013215779713693,0.00013215779713693,2903711.286655,0.014570010063897
31419200,0.99997078632394,0.015659545816381,0.0042269566019475,0.0072056326124844,0.004226956601949,-0.00078457754389912,0.00078458318961469,2.8927360342675e-09,2.8926771282454e-09,-1.6180040800621e-09,6.6151401403919e-09,-0.00094186403219292,0.00094186864724883,-0.00094186377259973,0.00094186838744086,-0.0009418612758907,0.00094187140944313,-0.00094186102017849,0.00094187115351345,-0.00075282270446682,0.00075283124249093,-0.0007528236586735,0.0007528321964679,1.376425538027e-09,-6.6949434924248e-09,3.3048943084533e-09,-8.4687993191117e-09,-0.0019197624647876,0.0019197572906243,-0.0021785116503224,0.0021785131172364,-0.0021785148171439,0.0021785084690201,-0.0021785135758782,0.0021785097241469,-0.0021785167428233,0.0021785050760399,-0.0016300275288144,0.0016300312755743,-0.0016300410526371,0.0016300216359894,-0.0016300300485523,0.0016300287228093,-0.0016300399399683,0.0016300227713001,3.0182572037655e-09,3.0181984847069e-09,-0.00078457742110001,0.00078458331241453,-3.2295659550946e-09,8.5413559091413e-09,-0.00094186450459118,0.00094186817631016,-0.00094186058610523,0.00094187210599976,-0.00094186423885715,0.00094186791036057,-0.00094186032830474,0.00094187184798305,-0.00075282294231026,0.00075283291395844,-0.00075282197351549,0.00075283194539432,0.69952705654839,122718,2924,0.0032667050833656,0.007965827497715,0.0032667050833672,28.436971334335,0.00014269577067468,0.00014269577067468,0.00014269577067468,2755560.8609446,0.014605588569022
31919200,0.99997604784699,0.015659636548512,0.0042269832691378,0.0072056700102346,0.0042269832691393,-0.00078549275937382,0.00078549947715554,3.2966389923608e-09,3.2965800790607e-09,-1.2222295939455e-09,7.0454165767127e-09,-0.00094358078990877,0.00094358632003343,-0.00094358045413699,0.00094358598404696,-0.00094357801969482,0.0009435890949067,-0.00094357768915926,0.00094358876415376,-0.00075397034810987,0.00075397976196048,-0.00075397132871064,0.00075398074233126,1.3836022588419e-09,-6.7115785627055e-09,3.295812657068e-09,-8.468911875379e-09,-0.001921871391132,0.0019218662077883,-0.0021802244244446,0.0021802258981489,-0.0021802274888939,0.0021802211423821,-0.002180226258094,0.0021802223865342,-0.0021802293226668,0.0021802176308765,-0.0016322623195268,0.0016322660363035,-0.0016322757884294,0.0016322563640871,-0.0016322648180221,0.0016322635053818,-0.0016322746863011,0.0016322574884206,3.4206818572664e-09,3.4206231351757e-09,-0.00078549263805609,0.000785499598474,-2.8191719302621e-09,8.9534453922394e-09,-0.0009435812582674,0.00094358585310603,-0.00094357733665242,0.00094358978463642,-0.00094358091643427,0.00094358551105728,-0.00094357700406167,0.00094358945182924,-0.00075397061926347,0.00075398145286077,-0.00075396962407838,0.00075398045790628,0.71926751588325,122718,2924,0.0032705237635033,0.007974519710345,0.003270523763505,29.269218376956,0.00014935374701565,0.00014935374701565,0.00014935374701565,2714460.9359669,0.014622158129784
32419200,0.9999803680121,0.015659718365891,0.0042270074396988,0.0072057034864918,0.0042270074397003,-0.00078470127186713,0.00078470981414846,3.9855250855951e-09,3.9854661691564e-09,-6.4702937874074e-10,7.8830942722635e-09,-0.00094340878257282,0.00094341580072673,-0.0009434083193907,0.00094341533732994,-0.00094340592371333,0.00094341866479977,-0.00094340546760481,0.00094341820847392,-0.00075323300692848,0.00075324398073527,-0.00075323403129102,0.00075324500486789,1.4637845359166e-09,-6.8750348378167e-09,3.3758537066336e-09,-8.6290363736267e-09,-0.0019225076932666,0.0019225024296379,-0.0021807536526759,0.0021807552232384,-0.0021807566258973,0.0021807502007327,-0.0021807553958131,0.0021807514440328,-0.0021807583691579,0.0021807464216362,-0.0016328460024566,0.0016328497879435,-0.0016328596231906,0.0016328398029127,-0.0016328484992622,0.0016328472589028,-0.0016328585239719,0.0016328409241809,4.1092672466806e-09,4.1092085266463e-09,-0.00078470115085599,0.00078470993516031,-2.2414653510957e-09,9.7878778755873e-09,-0.00094340925147677,0.00094341533455107,-0.00094340524067371,0.0009434193531865,-0.0009434087821152,0.00094341486497395,-0.00094340478267111,0.00094341889496755,-0.00075323332283069,0.00075324571423836,-0.0007532322835055,0.00075324467514364,0.78912843059547,122718,2924,0.0032672528420861,0.0079771329850291,0.0032672528420878,29.299117507155,0.00014959294005724,0.00014959294005724,0.00014959294005724,2682815.5700271,0.014618174863537
32919200,0.99998388768315,0.015659776702663,0.0042270245803744,0.0072057275419124,0.0042270245803759,-0.00078286799695203,0.00078287691344555,4.1264526746757e-09,4.1263937825358e-09,-6.0941982940356e-10,8.1446846750033e-09,-0.00094356080271886,0.00094356805997436,-0.00094356031752293,0.00094356757456379,-0.00094355787155313,0.000943570998713,-0.00094355739336167,0.00094357052030422,-0.00075150202574331,0.00075151337519108,-0.0007515030631469,0.00075151441236486,1.5425139280819e-09,-7.0178281394617e-09,3.4720435188656e-09,-8.7864579945631e-09,-0.0019238913314606,0.0019238860063711,-0.0021811448540417,0.0021811465217728,-0.0021811478739053,0.002181141377086,-0.0021811466331148,0.002181142631421,-0.0021811496531017,0.0021811374868433,-0.0016349107248056,0.0016349146239114,-0.0016349245665952,0.001634904362777,-0.0016349132428666,0.0016349120732236,-0.0016349234588541,0.0016349054928342,4.2507904306084e-09,4.2507317630165e-09,-0.0007828678753307,0.00078287703506768,-2.2178669026003e-09,1.0065115749865e-08,-0.0009435612772301,0.00094356758950871,-0.00094355718180416,0.00094357169253828,-0.00094356078568436,0.0009435670977474,-0.00094355670184262,0.00094357121236038,-0.00075150234889238,0.00075151512742532,-0.0007515012962129,0.00075151407497616,0.69092321609739,122718,2924,0.0032596671792558,0.0079827952120789,0.0032596671792576,29.174608891313,0.00014859687113051,0.00014859687113051,0.00014859687113051,2605892.8403108,0.014608538930713
33419200,0.99998679620543,0.015659830930515,0.0042270406738207,0.0072057495828725,0.0042270406738222,-0.00078366177129332,0.00078367011358664,3.9132570461687e-09,3.9131980466709e-09,-8.7640264959255e-10,7.9652493773344e-09,-0.00094105257414523,0.00094105933399383,-0.00094105212574128,0.00094105888537522,-0.00094104961626909,0.00094106230128435,-0.00094104917403557,0.00094106185883348,-0.00075218715704351,0.00075219807919144,-0.00075218817807015,0.00075219909998784,1.5617108645698e-09,-7.090280800965e-09,3.515129769022e-09,-8.8810307095492e-09,-0.0019221733208793,0.0019221679442026,-0.0021820818810415,0.0021820835674159,-0.002182084998561,0.0021820784356784,-0.0021820837432152,0.0021820797057001,-0.0021820868608581,0.0021820745740719,-0.0016308433426008,0.0016308472975975,-0.001630857362202,0.0016308369405236,-0.0016308458910314,0.0016308447153357,-0.0016308562408611,0.0016308380849982,4.0413429922071e-09,4.0412841981015e-09,-0.00078366164595281,0.00078367023892783,-2.5024538130479e-09,9.9121445180344e-09,-0.00094105305302508,0.00094105885989326,-0.00094104891538404,0.00094106300571033,-0.00094105259803695,0.0009410584046897,-0.0009410484714165,0.00094106256152646,-0.00075218745264924,0.00075219982617572,-0.00075218641599987,0.00075219878975725,0.77567308772676,122718,2924,0.0032629343413775,0.0079757919721899,0.0032629343413791,29.316106526632,0.00014972885221305,0.00014972885221305,0.00014972885221305,2688999.3139162,0.014608040347717
33919200,0.99998926760186,0.015659876188924,0.0042270540280814,0.0072057681327597,0.0042270540280828,-0.00078401183770552,0.00078401879608462,3.3908122227274e-09,3.3907533064704e-09,-1.3403134024706e-09,7.3685826595636e-09,-0.0009441358355549,0.00094414143148551,-0.00094413548893495,0.00094414108465076,-0.00094413292382994,0.00094414435303364,-0.00094413258177456,0.00094414401076081,-0.00075248540747875,0.00075249516675214,-0.00075248640016873,0.00075249615921228,1.5330743971589e-09,-7.0002645356648e-09,3.501466623657e-09,-8.8079842416569e-09,-0.0019256144979128,0.0019256091807039,-0.002183669961281,0.0021836716247682,-0.0021836731788782,0.0021836666644378,-0.0021836719132895,0.0021836679449137,-0.0021836751310101,0.0021836629846924,-0.0016359358598789,0.0016359398334316,-0.0016359498434615,0.0016359296053287,-0.0016359384285074,0.0016359372306216,-0.0016359487108532,0.0016359307613526,3.5186177019809e-09,3.5185590092601e-09,-0.00078401171260469,0.00078401892118629,-2.9833165572858e-09,9.3321501069131e-09,-0.00094413631974224,0.00094414095144393,-0.00094413221811496,0.00094414506297613,-0.00094413596659464,0.00094414059808083,-0.00094413187421576,0.00094414471886058,-0.00075248566955459,0.00075249689072028,-0.00075248466156948,0.00075249588296551,0.76303060755973,122718,2924,0.0032644103619832,0.0079899380758352,0.0032644103619851,30.069777667929,0.00015575822134344,0.00015575822134344,0.00015575822134344,2593587.8785542,0.014625408332523
34419200,0.99999141445498,0.015659913737357,0.0042270651331425,0.0072057834710703,0.004227065133144,-0.00078655694193345,0.00078656237692875,2.8157764244851e-09,2.81571748737e-09,-1.7869281571817e-09,6.6327853767244e-09,-0.00094602402244061,0.00094602839957981,-0.00094602378222681,0.00094602815915136,-0.00094602120704817,0.00094603122337048,-0.00094602096998024,0.00094603098608527,-0.00075507389004769,0.00075508232554772,-0.00075507484500766,0.00075508328027788,1.4396693597952e-09,-6.8194794213495e-09,3.4034113994709e-09,-8.6260755689596e-09,-0.0019279840956771,0.0019279788625802,-0.002186678034179,0.0021866795846746,-0.0021866813035003,0.0021866748746262,-0.0021866800403353,0.0021866761528317,-0.00218668330978,0.0021866714428923,-0.0016376662965611,0.0016376701750306,-0.0016376800791125,0.001637660289973,-0.0016376688608275,0.0016376675764017,-0.0016376789463215,0.0016376614463153,2.9439285216727e-09,2.9438697977529e-09,-0.00078655681649032,0.00078656250237271,-3.4279523258507e-09,8.5952224022416e-09,-0.00094602450434845,0.00094602792025266,-0.00094602050302892,0.00094603193321147,-0.00094602425776408,0.0009460276734528,-0.00094602026393115,0.00094603169389739,-0.000755074114885,0.00075508401148131,-0.00075507314504575,0.00075508304187245,0.72790058071019,122718,2924,0.0032749746076602,0.0079997517370864,0.0032749746076621,31.479390813078,0.00016703512650462,0.00016703512650462,0.00016703512650462,2587325.4669038,0.014656797091735
34919200,0.99999330411733,0.015659948172062,0.004227075345738,0.0072057974805848,0.0042270753457395,-0.00079114359770414,0.00079114740201911,2.1987858270435e-09,2.1987268558381e-09,-2.212378500179e-09,5.7889339311597e-09,-0.00094934989040951,0.00094935298707148,-0.00094934976449623,0.00094935286094359,-0.00094934721294064,0.00094935566996783,-0.00094934708885199,0.00094935554566186,-0.00075954622722657,0.00075955320779018,-0.00075954713979647,0.00075955412013004,1.3066678410767e-09,-6.551251707522e-09,3.2395430658889e-09,-8.3323458810235e-09,-0.0019311886053523,0.0019311835025065,-0.0021907483113424,0.0021907496938211,-0.002190751586611,0.0021907453056624,-0.0021907503421844,0.0021907465644564,-0.0021907536175764,0.0021907421764066,-0.0016401850258103,0.0016401887228647,-0.0016401984365712,0.0016401793590804,-0.001640187552547,0.0016401861625457,-0.0016401973186562,0.0016401805000166,2.3251246658684e-09,2.3250659166176e-09,-0.00079114347409177,0.00079114752563225,-3.8296745466302e-09,7.7231169457699e-09,-0.00094935036317245,0.00094935251440998,-0.0009493465214296,0.0009493563696626,-0.00094935023124738,0.00094935238226936,-0.00094934639506962,0.00094935624308628,-0.00075954642060165,0.00075955484066449,-0.00075954549380829,0.00075955391410166,0.75808686568768,122718,2924,0.0032940047713971,0.0080130352619296,0.0032940047713989,33.572768469269,0.00018378214775415,0.00018378214775415,0.00018378214775415,2602041.791363,0.014708886641531
35419200,0.99999493788466,0.01565997461059,0.0042270831434088,0.0072058083237714,0.0042270831434103,-0.00079565448528544,0.00079565762607348,1.9450769383009e-09,1.9450180210235e-09,-2.3074410759888e-09,5.3600944145597e-09,-0.00095472094624322,0.00095472358121195,-0.00095472086413668,0.00095472349889068,-0.00095471837687791,0.00095472615259705,-0.00095471829660898,0.00095472607211088,-0.00076401143717143,0.00076401776529503,-0.000764012335569,0.00076401866346264,1.1980851530269e-09,-6.3322523353907e-09,3.0849964704166e-09,-8.071869425871e-09,-0.0019362514603842,0.0019362464638092,-0.002195092642072,0.0021950938816626,-0.0021950958428505,0.0021950896960328,-0.002195094626747,0.0021950909250335,-0.0021950978276492,0.002195086739513,-0.0016459386051859,0.0016459421106377,-0.0016459516399465,0.0016459331845493,-0.0016459410744388,0.0016459396094598,-0.0016459505472357,0.0016459342991392,2.0671109005964e-09,2.0670521721993e-09,-0.00079565436598201,0.00079565774537764,-3.8882480529263e-09,7.2473353238843e-09,-0.00095472140735584,0.00095472311807757,-0.00095471770487594,0.00095472683463698,-0.00095472131966877,0.00095472303017479,-0.00095471762217338,0.00095472675171806,-0.00076401163492498,0.00076401936561181,-0.00076401072291359,0.00076401845383051,0.67379056419234,122718,2924,0.0033127415833772,0.0080339371080974,0.0033127415833789,35.928733243597,0.00020262986594877,0.00020262986594877,0.00020262986594877,2553657.9437167,0.014768128381184
35919200,0.99999625935135,0.015659997549246,0.0042270899547335,0.0072058176397778,0.004227089954735,-0.00079992173114959,0.00079992652366205,2.5637621915639e-09,2.56370321279e-09,-1.6545390806047e-09,5.9670132059601e-09,-0.00095629725114391,0.00095630131602396,-0.00095629704969605,0.00095630111436144,-0.00095629469191571,0.00095630387382017,-0.00095629449456607,0.00095630367625334,-0.00076819255942659,0.00076820020090149,-0.00076819349410749,0.00076820113535212,1.1810524753046e-09,-6.2884283012437e-09,3.0146263351171e-09,-7.9756323558474e-09,-0.0019375094685912,0.001937504497991,-0.0021981344776685,0.0021981356859323,-0.0021981374727921,0.0021981313864532,-0.0021981362906281,0.0021981325799199,-0.0021981392858751,0.0021981282805499,-0.0016457192097025,0.0016457225910039,-0.0016457320151248,0.0016457137701501,-0.0016457216101722,0.0016457201605355,-0.0016457309555024,0.0016457148502778,2.681836462384e-09,2.6817776544255e-09,-0.00079992161584703,0.00079992663896539,-3.188044477606e-09,7.7970242366073e-09,-0.00095629769793956,0.00095630086633029,-0.00095629404150055,0.00095630453483927,-0.00095629749120675,0.000956300659382,-0.00095629384173183,0.00095630433485429,-0.00076819281489758,0.00076820181605639,-0.00076819186673142,0.00076820086812095,0.72183945217264,122718,2924,0.00333043744319,0.0080392147171641,0.0033304374431917,37.535857666788,0.00021548686133431,0.00021548686133431,0.00021548686133431,2619872.3790598,0.014809381210228
36419200,0.99999723393887,0.015660014041002,0.004227094831092,0.0072058243788166,0.0042270948310934,-0.00079922121426462,0.00079922988562151,4.0277518651273e-09,4.0276929604142e-09,-3.9289075785777e-10,7.7069769069987e-09,-0.00095750457476049,0.00095751184829959,-0.00095750409830066,0.00095751137162513,-0.00095750185244433,0.00095751456955998,-0.00095750138433455,0.0009575141012329,-0.00076744975729736,0.00076746068275408,-0.00076745079227031,0.00076746171749718,1.3213954048068e-09,-6.5908114711749e-09,3.1346063535746e-09,-8.2518063040993e-09,-0.0019387353955294,0.0019387302683866,-0.0021979983177731,0.0021979996849593,-0.0021980010763883,0.0021979948496118,-0.0021979999082013,0.0021979960280211,-0.0021980026669398,0.0021979911927826,-0.0016481871342758,0.0016481905877877,-0.0016482001528201,0.0016481812178197,-0.0016481895056754,0.0016481881876488,-0.0016481991112785,0.0016481822789633,4.1430336975137e-09,4.1429749338342e-09,-0.00079922110176602,0.00079922999812085,-1.9040239411403e-09,9.5077420904017e-09,-0.0009575050178461,0.00095751140469374,-0.00095750121078406,0.00095751521922269,-0.00095750453598873,0.00095751092262085,-0.00095750074059162,0.00095751474881395,-0.0007674501239339,0.00076746238695227,-0.00076744907480826,0.00076746133805728,0.70447270805609,122718,2924,0.0033275523432174,0.0080442270350425,0.003327552343219,37.488415197334,0.00021510732157867,0.00021510732157867,0.00021510732157867,2563119.7389666,0.014808626242884
36919200,0.99999793604331,0.015660024962886,0.004227098058707,0.0072058288454707,0.0042270980587085,-0.00079775316973824,0.00079776324846176,4.5637716468427e-09,4.5637127225889e-09,-8.8796233532709e-11,8.5039308383091e-09,-0.00095566527941079,0.00095567362036405,-0.00095566470534347,0.00095567304608212,-0.00095566239583872,0.00095567650688571,-0.00095566183106948,0.00095567594189918,-0.00076604854585864,0.00076606077737573,-0.00076604961484265,0.00076606184612975,1.4756637670143e-09,-6.9110263540065e-09,3.3050466772103e-09,-8.5817712850721e-09,-0.0019373892656806,0.0019373839785494,-0.0021970517792603,0.0021970533204151,-0.0021970545698247,0.0021970481755507,-0.0021970533925364,0.0021970493633412,-0.0021970561832243,0.002197044218586,-0.0016464140023717,0.00164641762646,-0.0016464274505829,0.001646407707664,-0.0016464163918661,0.0016464152079672,-0.0016464264045479,0.0016464087734406,4.6802476461268e-09,4.680188858704e-09,-0.00079775305605764,0.00079776336214315,-1.6093276049993e-09,1.0316890683855e-08,-0.00095566572751179,0.00095567317454212,-0.00095566174696594,0.00095567716099919,-0.00095566514769865,0.00095567259451347,-0.00095566118042475,0.00095567659424168,-0.00076604894118378,0.00076606252063123,-0.00076604785720651,0.00076606143688454,0.64727478642577,122718,2924,0.0033214589478282,0.008038672941686,0.00332145894783,36.861827582266,0.00021009462065813,0.00021009462065813,0.00021009462065813,2572602.1169386,0.014790619498298
37419200,0.99999847791704,0.015660033488551,0.0042271005825548,0.0072058323234396,0.0042271005825562,-0.00080016099112558,0.00080016776780105,3.3224872666605e-09,3.3224282912888e-09,-1.3198496819008e-09,7.1967697508007e-09,-0.00095642453092223,0.00095643004082881,-0.00095642419380429,0.00095642970349619,-0.00095642168068224,0.00095643289812551,-0.00095642134859731,0.00095643256582329,-0.00076837496462457,0.00076838451649697,-0.00076837595000901,0.00076838550165119,1.4601918893166e-09,-6.8831344359089e-09,3.3135233384894e-09,-8.5781032138939e-09,-0.0019378145016273,0.0019378092265831,-0.0021985079724752,0.0021985094779656,-0.0021985110750302,0.0021985046770303,-0.0021985098824308,0.0021985058810379,-0.0021985129851093,0.0021985010802117,-0.0016460190114017,0.0016460226794339,-0.0016460326110074,0.0016460128881148,-0.0016460214322624,0.0016460202285526,-0.001646031549678,0.0016460139698961,3.4415527263494e-09,3.4414938977532e-09,-0.00080016087485528,0.00080016788407209,-2.8614189606149e-09,9.0370456473053e-09,-0.00095642498463471,0.00095642958947324,-0.00095642102149287,0.00095643356265212,-0.00095642464163971,0.0009564292462627,-0.00095642068759287,0.00095643322853572,-0.00076837526574769,0.00076838618687839,-0.00076837426531258,0.00076838518667409,0.65462458225499,122718,2924,0.0033314324464233,0.008040478273042,0.003331432446425,37.673746648499,0.00021658997318799,0.00021658997318799,0.00021658997318799,2617988.1699107,0.014812683517051
37919200,0.99999887757232,0.015660039349497,0.0042271023102168,0.0072058347290618,0.0042271023102183,-0.00080015007165362,0.00080015870556109,4.022707649765e-09,4.0226487002883e-09,-7.0008615981713e-10,8.0107912824722e-09,-0.00095709590146837,0.00095710295795809,-0.00095709543206927,0.00095710248834438,-0.00095709298413864,0.00095710588204776,-0.00095709252179409,0.00095710541948593,-0.00076831700979989,0.00076832812115062,-0.00076831804133787,0.00076832915245858,1.5179642054708e-09,-7.0011753029591e-09,3.3953662450684e-09,-8.7180435291074e-09,-0.0019382404026488,0.001938235069378,-0.0021983598277142,0.0021983614247291,-0.0021983628273066,0.0021983563563916,-0.0021983616197795,0.0021983575759769,-0.0021983646194952,0.0021983525077484,-0.0016470153669301,0.0016470191297477,-0.0016470290996943,0.001647009043491,-0.0016470178178658,0.0016470166480091,-0.0016470280248875,0.001647010139308,4.1435690241194e-09,4.1435102178626e-09,-0.00080014995357621,0.00080015882363929,-2.2613548078688e-09,9.8751925536718e-09,-0.00095709636167234,0.00095710250116121,-0.00095709231515749,0.00095710655544468,-0.00095709588619165,0.00095710202546495,-0.00095709185107373,0.00095710609114461,-0.00076831734780703,0.00076832984682078,-0.00076831630096983,0.00076832880021436,0.61069305856341,122718,2924,0.0033313944649356,0.0080422191049832,0.0033313944649375,37.676472218614,0.00021661177774891,0.00021661177774891,0.00021661177774891,2601467.0001267,0.014814378671603
38419200,0.99999916650749,0.015660044191419,0.0042271037472979,0.0072058366968213,0.0042271037472994,-0.00079969044743863,0.0007997002338665,4.4621286378511e-09,4.4620696593749e-09,-3.9429955751109e-10,8.6012955670011e-09,-0.00095558806744352,0.00095559604584608,-0.00095558751537885,0.00095559549356688,-0.00095558505593892,0.00095559906597291,-0.00095558451189829,0.00095559852171501,-0.00076785769675085,0.00076786983815876,-0.00076785875438664,0.00076787089556438,1.6006296792738e-09,-7.1903861780497e-09,3.5140271147073e-09,-8.9394823188926e-09,-0.0019366016614552,0.0019365962251608,-0.002197383948818,0.0021973856557181,-0.0021973869516872,0.0021973803561345,-0.0021973857220331,0.0021973815989746,-0.0021973887250258,0.0021973762995001,-0.0016448227949831,0.0016448266952784,-0.0016448368167309,0.0016448162338463,-0.0016448252909141,0.0016448241672676,-0.0016448357223171,0.0016448173501552,4.5865291697667e-09,4.5864703296084e-09,-0.00079969032582567,0.00079970035548016,-1.9837284212525e-09,1.0502363108978e-08,-0.00095558853656632,0.00095559558187826,-0.00095558437157311,0.0009555997532205,-0.00095558797806754,0.00095559502316387,-0.00095558382593185,0.00095559920736287,-0.00076785804624177,0.00076787160436606,-0.00076785697278146,0.00076787053113667,0.69725492786578,122718,2924,0.0033294773650223,0.0080354750470436,0.003329477365024,37.198126696999,0.00021278501357599,0.00021278501357599,0.00021278501357599,2640623.5793751,0.014803637025602
38880000,0.9999993682782,0.015660047701053,0.0042271047870464,0.0072058381269583,0.0042271047870479,-0.00079851841514049,0.00079852711794399,4.0523935431718e-09,4.0523346741267e-09,-8.3054855659112e-10,8.2156343453926e-09,-0.00095747617675253,0.00095748317263119,-0.00095747570932753,0.00095748270499156,-0.00095747315248502,0.00095748620808255,-0.00095747269126363,0.00095748574664385,-0.00076679742408082,0.0007668087069487,-0.00076679845902153,0.00076680974165964,1.6348175246233e-09,-7.2169523494126e-09,3.5887334897141e-09,-9.0061285018387e-09,-0.0019386306768112,0.0019386252484544,-0.0021972818002419,0.0021972835681478,-0.0021972849502562,0.0021972783360607,-0.0021972836946229,0.0021972796059223,-0.0021972868447606,0.0021972743739443,-0.0016486324711693,0.0016486365026856,-0.001648646657826,0.00164862592371,-0.0016486350191838,0.001648633921283,-0.0016486455381233,0.0016486270662493,4.1789982091112e-09,4.1789394415742e-09,-0.00079851829127665,0.00079852724180858,-2.4573632798857e-09,1.0159838568747e-08,-0.0009574766576941,0.00095748269742231,-0.00095747245222576,0.00095748691085756,-0.00095747618364523,0.00095748222315785,-0.00095747198938182,0.00095748644779722,-0.00076679773518903,0.000766810466198,-0.00076679668442819,0.00076680941566764,0.72416034322607,122718,2924,0.0033246389315642,0.0080437724018661,0.003324638931566,37.193679086011,0.00021274943268809,0.00021274943268809,0.00021274943268809,2546471.6413249,0.014802257123318
