time,ASR_ext,ASR_strain,ASR_strain_xx,ASR_strain_yy,ASR_strain_zz,disp_x_101,disp_x_102,disp_x_103,disp_x_104,disp_x_105,disp_x_106,disp_x_p1_neg,disp_x_p1_pos,disp_x_p2_neg,disp_x_p2_pos,disp_x_p3_neg,disp_x_p3_pos,disp_x_p4_neg,disp_x_p4_pos,disp_x_p5_neg,disp_x_p5_pos,disp_x_p6_neg,disp_x_p6_pos,disp_y_101,disp_y_102,disp_y_103,disp_y_104,disp_y_105,disp_y_106,disp_y_p1_neg,disp_y_p1_pos,disp_y_p2_neg,disp_y_p2_pos,disp_y_p3_neg,disp_y_p3_pos,disp_y_p4_neg,disp_y_p4_pos,disp_y_p5_neg,disp_y_p5_pos,disp_y_p6_neg,disp_y_p6_pos,disp_y_p7_neg,disp_y_p7_pos,disp_y_p8_neg,disp_y_p8_pos,disp_z_101,disp_z_102,disp_z_103,disp_z_104,disp_z_105,disp_z_106,disp_z_p1_neg,disp_z_p1_pos,disp_z_p2_neg,disp_z_p2_pos,disp_z_p3_neg,disp_z_p3_pos,disp_z_p4_neg,disp_z_p4_pos,disp_z_p5_neg,disp_z_p5_pos,disp_z_p6_neg,disp_z_p6_pos,humidity,ndof,nelem,strain_xx,strain_yy,strain_zz,temp,thermal_strain_xx,thermal_strain_yy,thermal_strain_zz,vonmises,vstrain
2419200,0,0,0,0,0,0,0,0,0,0,0,0,0,0,0,0,0,0,0,0,0,0,0,0,0,0,0,0,0,0,0,0,0,0,0,0,0,0,0,0,0,0,0,0,0,0,0,0,0,0,0,0,0,0,0,0,0,0,0,0,0,0,0,0,0,0,0,0,0,0,0,0,0,0,0
2619200,0.021299044861353,0.00043663704593094,0.00014554568197698,0.00014554568197698,0.00014554568197698,-3.8302324799743e-05,3.8302810282305e-05,2.4029546625185e-10,2.4118525526129e-10,-9.3080467689601e-10,1.4449785176004e-09,-3.8710843713919e-05,3.8710549621342e-05,-3.8710825341538e-05,3.8710533466198e-05,-3.8710096212819e-05,3.8711353914842e-05,-3.8710085543279e-05,3.8711341828172e-05,-3.8996479273867e-05,3.8997755044434e-05,-3.8996444535725e-05,3.8997718335188e-05,1.2843298324729e-10,-2.5673402814101e-10,-1.9030429836777e-09,1.7880691764843e-09,-4.2030709198163e-05,4.2030589559535e-05,-4.198155159814e-05,4.1980356209669e-05,-4.1980368428733e-05,4.1981586956623e-05,-4.198167520213e-05,4.1980230797416e-05,-4.1980493146945e-05,4.1981459571736e-05,-4.1788795502786e-05,4.1784940127965e-05,-4.1785153517212e-05,4.1788559542262e-05,-4.1786163175835e-05,4.178764079136e-05,-4.1786572154237e-05,4.1787293130771e-05,-5.4179640247044e-10,-5.4252792359617e-10,-3.8303116940064e-05,3.8302019931793e-05,2.130150618359e-09,-3.2938555170408e-09,-3.8710321771082e-05,3.8711028185577e-05,-3.8712133314383e-05,3.8709245525955e-05,-3.8710325972154e-05,3.8711031555704e-05,-3.8712144215905e-05,3.8709252860591e-05,-3.8998601585821e-05,3.8995718713807e-05,-3.8998565656598e-05,3.8995676511915e-05,0.81993057728591,128566,2924,0.00015958132167778,0.00017511229925013,0.00015958132540675,32.69565436973,2.3965234957842e-05,2.3965234957842e-05,2.3965234957842e-05,684402.46263305,0.00049439724473545
2819200,0.043214026315791,0.00087552375916814,0.000288687787064,0.00029814818124988,0.00028868779085426,-7.1019157260693e-05,7.1019179472935e-05,1.0471547607613e-11,1.6252698205643e-11,-3.7305050839473e-10,4.0406501634111e-10,-7.2352684566378e-05,7.235245621927e-05,-7.2352667909157e-05,7.2352443622651e-05,-7.235246882652e-05,7.2352738590621e-05,-7.2352444807556e-05,7.2352716989563e-05,-7.2463689494728e-05,7.2463982070721e-05,-7.2463715618154e-05,7.2464019490531e-05,-1.8499661821192e-10,4.2311962749685e-10,-1.4211486384876e-09,1.6497195175798e-09,-8.0324926391979e-05,8.0325144343699e-05,-8.0462997210737e-05,8.0461994612021e-05,-8.0462007802466e-05,8.0463006529089e-05,-8.0462793428006e-05,8.0462211130041e-05,-8.0461805101685e-05,8.0463223067497e-05,-7.9552475698117e-05,7.9549903265881e-05,-7.9549502138991e-05,7.9552958881331e-05,-7.955084735082e-05,7.9551513392455e-05,-7.9550269133556e-05,7.955212812198e-05,-2.6256598080089e-10,-2.594160985239e-10,-7.1019422433126e-05,7.1018914458253e-05,1.7642202901819e-09,-2.3410826835987e-09,-7.2352143186685e-05,7.2353012623086e-05,-7.2353516112541e-05,7.2351671086676e-05,-7.2352142654281e-05,7.2353013770217e-05,-7.2353534624505e-05,7.2351688860427e-05,-7.2464797802467e-05,7.2462879951937e-05,-7.2464785989588e-05,7.2462865374873e-05,0.82138593752801,128566,2924,0.0002958696614978,0.00033463126682224,0.00029586966182519,32.941299853099,2.5930398824789e-05,2.5930398824789e-05,2.5930398824789e-05,1162542.7469105,0.00092680040894969
3019200,0.06521705138296,0.0013073451711389,0.00042650619280645,0.00045433278733744,0.00042650619099505,-0.00010186820624349,0.00010186803715064,-8.8772803730321e-11,-7.4803772756266e-11,7.2753141813011e-11,-2.4994580754774e-10,-0.00010443889359614,0.00010443882996094,-0.00010443888089445,0.0001044388250599,-0.00010443902471094,0.00010443875130603,-0.00010443900037881,0.00010443873687652,-0.00010407938642851,0.00010407912785427,-0.00010407941973877,0.00010407917530832,-5.2846398341306e-10,1.0985098522781e-09,-6.3386457300843e-10,1.1770637399409e-09,-0.0001188286172075,0.00011882915397895,-0.00011942114902004,0.00011942053830487,-0.00011942056641075,0.00011942112362516,-0.00011942060988161,0.00011942110112755,-0.00011942002754766,0.00011942168788405,-0.00011716755256774,0.00011716688141902,-0.00011716581554451,0.0001171686716601,-0.0001171674066737,0.00011716697101568,-0.00011716583346913,0.0001171685993559,-7.8482326819753e-11,-6.8146247624742e-11,-0.0001018681837058,0.00010186805713769,1.1964374527269e-09,-1.3698174799801e-09,-0.00010443849868102,0.00010443923875614,-0.00010443936482548,0.00010443840312259,-0.00010443849508114,0.00010443923979354,-0.00010443938090801,0.00010443842529251,-0.00010407977709203,0.00010407873422595,-0.00010407976919637,0.00010407872308029,0.82013449294825,128566,2924,0.00042436128224902,0.00049499671055061,0.0004243612769343,32.856769600748,2.5254156805983e-05,2.5254156805983e-05,2.5254156805983e-05,1582449.7063426,0.0013446241098603
3219200,0.086539470159722,0.0017123905171451,0.00055310999652022,0.00060617052796325,0.00055310999266159,-0.00012922406064213,0.00012922376153627,-1.4206276295235e-10,-1.4814482921067e-10,4.7698300570408e-10,-7.9738837713758e-10,-0.00013337441389908,0.00013337453337315,-0.00013337440914813,0.00013337452657894,-0.00013337484802517,0.0001333741459481,-0.00013337482206054,0.00013337411147856,-0.00013198401224316,0.00013198331454566,-0.00013198406871729,0.00013198339026321,-8.076061846266e-10,1.7112227125561e-09,5.3496060441634e-10,3.2311364938657e-10,-0.00015529598976358,0.00015529683683784,-0.00015678733251393,0.00015678738113493,-0.00015678739213888,0.00015678728635692,-0.00015678649871667,0.00015678824543068,-0.00015678656560702,0.00015678814205634,-0.00015222138380082,0.00015222329056991,-0.00015222159656082,0.00015222312010455,-0.0001522231065057,0.00015222145165817,-0.00015222063838692,0.00015222398741599,7.369054655025e-11,6.301750224218e-11,-0.00012922382596826,0.00012922399180361,5.2443737569154e-10,-3.8527573681233e-10,-0.00013337424287692,0.00013337473460011,-0.0001333745589411,0.00013337444375721,-0.00013337424190853,0.00013337472866259,-0.00013337458484373,0.0001333744567003,-0.00013198375851614,0.0001319835504187,-0.00013198375474822,0.00013198354476554,0.80676032660604,128566,2924,0.00053829012306062,0.00064685678151311,0.00053829011387797,32.290494330474,2.0723954643791e-05,2.0723954643791e-05,2.0723954643791e-05,1904954.1730485,0.0017249260562374
3419200,0.10528631312289,0.0020545643707133,0.00065789158278254,0.00073878121071346,0.00065789157721729,-0.00014911856989256,0.00014911808964151,-2.4265923398579e-10,-2.2500372669407e-10,9.9200193090155e-10,-1.5136917824095e-09,-0.00015496899799195,0.00015496932939619,-0.00015496897765572,0.00015496933249633,-0.00015496981885222,0.00015496853418744,-0.00015496979143192,0.00015496850380989,-0.00015207731393533,0.0001520760310021,-0.00015207738940702,0.00015207613066159,-1.2212377009015e-09,2.5609538377579e-09,2.2842354248669e-09,-1.0113115418545e-09,-0.00018439560717721,0.00018439686941498,-0.00018723159546213,0.00018723265150932,-0.00018723264125981,0.00018723152421849,-0.00018723035633924,0.00018723393430189,-0.00018723141354652,0.00018723279776276,-0.00017945903123695,0.00017946482921905,-0.00017946229113184,0.0001794615925341,-0.00017946355012507,0.00017946008160716,-0.00017945986441089,0.00017946384743181,3.4994901649744e-10,3.6219681037216e-10,-0.00014911795106945,0.00014911870223792,-8.274827831381e-10,1.5967192690833e-09,-0.00015496920914749,0.00015496916267842,-0.00015496841376352,0.00015496998303258,-0.00015496919559808,0.00015496916923332,-0.00015496843603675,0.00015496999732784,-0.00015207591910897,0.00015207738257245,-0.00015207592551418,0.0001520773894536,0.78590062983208,128566,2924,0.00062113739283232,0.00076801869794638,0.00062113737985419,30.38917957922,5.5134366337626e-06,5.5134366337626e-06,5.5134366337626e-06,2107826.161836,0.0020123198648926
3619200,0.12322230107982,0.0023719334553576,0.00075378527005505,0.00086436292145577,0.00075378526384678,-0.00016911107504735,0.00016911066530121,-2.0068331628358e-10,-2.0750266727068e-10,1.0123038946046e-09,-1.4753921737671e-09,-0.00017674497097829,0.00017674539602552,-0.00017674498436001,0.00017674539805489,-0.00017674579589152,0.00017674459861991,-0.00017674577520693,0.00017674457981732,-0.00017207437051584,0.00017207314339586,-0.00017207436916511,0.00017207316415929,-1.1751516872094e-09,2.5441694060402e-09,2.6662780271394e-09,-1.355319690855e-09,-0.000214138307826,0.00021413961930828,-0.00021870424410766,0.00021870564222121,-0.00021870555714309,0.000218704269933,-0.00021870303092657,0.00021870689462438,-0.00021870433636281,0.00021870553062302,-0.00020691872924553,0.00020692519974181,-0.00020692255276945,0.00020692117367414,-0.00020692374092799,0.00020692007457911,-0.00020692011954179,0.00020692383579429,3.6449843721265e-10,3.5139862271779e-10,-0.00016911050346465,0.00016911123496992,-1.0557514465989e-09,1.857801760268e-09,-0.00017674530146432,0.00017674505137915,-0.00017674435117115,0.00017674602095233,-0.00017674530315892,0.00017674503700461,-0.00017674436951909,0.00017674603563955,-0.00017207292709254,0.00017207459585359,-0.00017207291441362,0.00017207457049946,0.7701203525297,128566,2924,0.00070438720948045,0.00089184166861152,0.00070438720550081,29.682228718907,-1.4217024874037e-07,-1.4217024874037e-07,-1.4217024874037e-07,2332192.6985399,0.0023032703861283
3819200,0.14068726726741,0.0026781166538737,0.000845304859355,0.00098750694481141,0.00084530484970726,-0.00018853670680588,0.00018853641542174,-1.407144209861e-10,-1.4859497208234e-10,9.200240347231e-10,-1.2572843049084e-09,-0.00019792436505061,0.00019792480466479,-0.00019792437660587,0.00019792480004443,-0.00019792509244596,0.00019792410869511,-0.00019792506680759,0.00019792408756953,-0.00019154587952091,0.0001915448718017,-0.00019154589228696,0.00019154491758719,-1.0360412672166e-09,2.3601873230518e-09,2.580046228719e-09,-1.3127412470237e-09,-0.0002438066600134,0.00024380792400419,-0.00025033993757083,0.00025034134939615,-0.00025034121285359,0.00025034001887296,-0.00025033882943342,0.00025034248790737,-0.00025034009161287,0.00025034117137248,-0.00023405116833161,0.00023405737043288,-0.00023405491110668,0.0002340535216427,-0.00023405587306199,0.00023405253081585,-0.00023405254868161,0.00023405595615673,2.8573164665361e-10,2.7062537327673e-10,-0.00018853627096469,0.00018853684501701,-1.0737788139193e-09,1.7062982769625e-09,-0.00019792476044958,0.00019792441151682,-0.00019792385789865,0.00019792533532476,-0.00019792476671913,0.00019792439604605,-0.00019792387618255,0.00019792535199943,-0.00019154463947586,0.00019154609473225,-0.00019154463585411,0.00019154607443852,0.77140880019456,128566,2924,0.00078527110733697,0.0010153387028222,0.00078527109432776,29.2334237726,-3.7326098192023e-06,-3.7326098192023e-06,-3.7326098192023e-06,2550587.2597487,0.0025892349134351
4019200,0.15995995268727,0.0030138737951337,0.00094467009528834,0.0011245336162592,0.00094467008358615,-0.00021285047433347,0.00021285041784046,-1.1305348706563e-11,-4.9916521000865e-11,5.2120161110903e-10,-6.1075829571654e-10,-0.00022429313690922,0.00022429349637838,-0.00022429317550379,0.00022429346281216,-0.00022429353693779,0.00022429312362262,-0.00022429350891281,0.00022429311584695,-0.00021597465624724,0.00021597419458751,-0.00021597461180205,0.00021597423004342,-5.8973070094072e-10,1.697834001719e-09,1.1990153416691e-09,-1.3218428827249e-10,-0.00028043970475591,0.00028044077191295,-0.00028927445040872,0.0002892752232609,-0.00028927493606363,0.00028927473451822,-0.00028927371319938,0.00028927597024142,-0.00028927414848269,0.00028927553185206,-0.00026769488846409,0.00026769794582219,-0.00026769604151211,0.00026769665327446,-0.00026769726638608,0.00026769559022269,-0.00026769497538285,0.00026769797441407,2.0289443222907e-13,-4.6571604118382e-11,-0.00021285046487055,0.00021285042215948,-4.7241001378659e-11,4.2103967914446e-11,-0.00022429332459416,0.00022429327315063,-0.00022429332928325,0.0002242932853914,-0.00022429335975565,0.00022429322900368,-0.00022429333825207,0.00022429330812275,-0.00021597442188328,0.00021597442576094,-0.00021597443463997,0.0002159743670602,0.77300335732374,128566,2924,0.00088650001473113,0.0011678046768792,0.00088650000403522,30.537807626827,6.7024610146139e-06,6.7024610146139e-06,6.7024610146139e-06,2824773.9341738,0.0029451437050001
4219200,0.18104825491881,0.0033786904031662,0.0010510966334758,0.0012764971494696,0.0010510966202208,-0.00023856606072975,0.00023856614342889,5.1779566332016e-11,2.8061081431634e-11,2.122551860039e-10,-1.4611505643238e-10,-0.00025249253645764,0.00025249276175078,-0.00025249255390941,0.00025249273445004,-0.00025249267913988,0.00025249265473103,-0.00025249265178557,0.00025249263800881,-0.00024186508481585,0.00024186503181793,-0.00024186507661859,0.00024186508957966,-2.910997136918e-10,1.2285534131983e-09,5.8045071248211e-11,8.4327834560186e-10,-0.00032073816434453,0.00032073905931339,-0.0003322282737121,0.00033222842019604,-0.00033222807337857,0.00033222864512079,-0.00033222777634892,0.00033222891638634,-0.00033222754029207,0.00033222917646192,-0.00030457684606598,0.00030457745051374,-0.00030457603783008,0.00030457828391766,-0.00030457732702067,0.00030457698515765,-0.00030457580505213,0.00030457856117401,-1.9399850666123e-10,-2.2691994112472e-10,-0.00023856630402804,0.00023856588887324,7.3704585519623e-10,-1.1675361708766e-09,-0.0002524925151941,0.00025249276319081,-0.00025249317614641,0.0002524921234382,-0.00025249253841901,0.00025249273429369,-0.0002524931914875,0.00025249214192691,-0.0002418655704764,0.0002418645093419,-0.00024186557924516,0.00024186446990359,0.77489565327024,128566,2924,0.00099355620153241,0.0013354976603955,0.00099355617808684,31.780978231543,1.6647825852346e-05,1.6647825852346e-05,1.6647825852346e-05,3089204.5054018,0.0033281506685827
4419200,0.20246704709465,0.0037465307226836,0.0011567723073749,0.0014329861237682,0.0011567722915404,-0.00026213171245723,0.00026213174042783,4.8048211378874e-11,-2.1103576970806e-11,2.173404828092e-10,-2.0200303194603e-10,-0.00027879836989221,0.00027879860657811,-0.00027879842853327,0.00027879852781631,-0.00027879856733907,0.0002787984480034,-0.00027879852347363,0.00027879844683191,-0.00026562182845017,0.00026562166202222,-0.00026562178964019,0.00026562176806498,-3.2539597658216e-10,1.1819491798962e-09,5.5745643288275e-11,7.6444469878331e-10,-0.0003601838626435,0.00036018467584928,-0.0003744936175804,0.00037449373920619,-0.00037449346163491,0.00037449390741087,-0.00037449315823632,0.0003744942001598,-0.00037449290498039,0.00037449446778725,-0.00034041512772311,0.0003404156484005,-0.000340414361491,0.0003404165127114,-0.00034041562805761,0.00034041510669162,-0.00034041402479964,0.00034041673418261,-1.2588334778764e-10,-2.0520448885098e-10,-0.00026213188167768,0.00026213155894437,7.9029276646611e-10,-1.148616697101e-09,-0.00027879828163738,0.00027879868906488,-0.00027879898353741,0.00027879801208941,-0.00027879835266099,0.00027879861448532,-0.00027879898369387,0.00027879804654542,-0.00026562220657563,0.00026562124690951,-0.00026562225742155,0.00026562117772385,0.77613010201694,128566,2924,0.0010916549297576,0.0014996126568499,0.0010916549042085,31.981020511961,1.824816409569e-05,1.824816409569e-05,1.824816409569e-05,3299093.9134306,0.003689732556478
4619200,0.22543009751598,0.0041386128319136,0.0012680022605155,0.0016026083282751,0.001268002243123,-0.00028839946452483,0.00028839950168851,7.296259358421e-11,-3.8690260188566e-11,1.123004801067e-10,-8.9687507917021e-11,-0.00030815786688832,0.00030815808475073,-0.00030815796840501,0.00030815797109099,-0.00030815801604416,0.00030815796737382,-0.00030815796747268,0.00030815798242893,-0.00029217840876243,0.00029217827562747,-0.00029217830431501,0.00029217840253798,-2.2714562593058e-10,9.8897322384099e-10,-4.9821671049795e-10,1.2324875896002e-09,-0.00040453669661202,0.00040453742689098,-0.00042196446671144,0.00042196430707994,-0.0004219640182303,0.00042196478303117,-0.00042196412950528,0.0004219646433865,-0.00042196352719818,0.00042196527081724,-0.00038076329591098,0.00038076254245323,-0.00038076137022901,0.00038076443352052,-0.00038076299457596,0.00038076293025789,-0.00038076161258975,0.00038076437142027,-1.6229718649853e-10,-2.8489855261647e-10,-0.00028839970090925,0.00028839925732287,1.2676175200814e-09,-1.734932224196e-09,-0.00030815762469417,0.00030815829082513,-0.00030815870262013,0.00030815722926182,-0.00030815773195737,0.00030815817381206,-0.00030815868930498,0.00030815727106784,-0.000292179005813,0.00029217765514624,-0.0002921790988004,0.00029217753211993,0.7769460945315,128566,2924,0.0012009934918153,0.0016841092830403,0.0012009934752274,33.012889258048,2.6503114064386e-05,2.6503114064386e-05,2.6503114064386e-05,3530622.6686095,0.0040944824022959
4819200,0.25069068805427,0.0045672436362132,0.0013879269876723,0.0017913896748277,0.0013879269737133,-0.00031740247451005,0.00031740254746338,8.6529384617027e-11,-1.7193664952786e-11,-3.6125627091853e-11,9.7028056580063e-11,-0.00034071580987126,0.00034071595025487,-0.000340715905359,0.00034071584374491,-0.0003407158450248,0.00034071594208597,-0.00034071580294554,0.00034071596088002,-0.00032158011309476,0.00032158013604821,-0.00032158001692458,0.00032158025229876,-1.0127815224256e-10,7.7905911433765e-10,-1.2511544926038e-09,1.9073025141292e-09,-0.00045451006842203,0.00045451072287143,-0.00047551951273358,0.00047551893217446,-0.00047551861190285,0.00047551988193713,-0.00047551928792341,0.00047551915265947,-0.00047551822933316,0.00047552025695931,-0.00042613135801864,0.00042612903976598,-0.00042612804723481,0.00042613229216104,-0.00042612993694579,0.00042613061527749,-0.00042612891539485,0.00042613170331962,-2.5251562783515e-10,-3.6804867522751e-10,-0.00031740281481862,0.00031740219745748,1.8693159146673e-09,-2.5222257966825e-09,-0.00034071538031969,0.00034071632591974,-0.00034071691276773,0.00034071480666828,-0.0003407154808526,0.0003407162145522,-0.00034071690032008,0.00034071484617271,-0.00032158110310312,0.00032157910573276,-0.00032158118839378,0.00032157899222673,0.77793123197613,128566,2924,0.0013217079966318,0.0018919411370563,0.00132170797647,34.501031194078,3.8408249552627e-05,3.8408249552627e-05,3.8408249552627e-05,3772450.8666472,0.0045456934813308
5019200,0.27801290350251,0.0050264756882754,0.0015145595383353,0.001997356625179,0.0015145595247611,-0.00034753916299567,0.00034753922675222,1.0090314410137e-10,-3.8803943048469e-11,-9.6452226455285e-11,1.5522302505784e-10,-0.00037488572899063,0.00037488585076501,-0.00037488585426352,0.00037488570708515,-0.00037488574726369,0.0003748858602359,-0.00037488568967622,0.00037488587911779,-0.00035220794159086,0.00035220794866049,-0.00035220782320672,0.00035220814111271,-3.3313159805835e-11,6.6462919684308e-10,-1.6745529590419e-09,2.2843918318829e-09,-0.00050837110216315,0.00050837170624083,-0.00053348748697212,0.00053348666578835,-0.00053348634523244,0.00053348785909134,-0.00053348734032796,0.00053348680422348,-0.0005334860014146,0.00053348818970985,-0.00047471432062898,0.00047471104561064,-0.00047471020437588,0.00047471521715244,-0.0004747122304606,0.00047471326287372,-0.00047471131186422,0.00047471422992641,-2.5209601035041e-10,-4.0461790407255e-10,-0.00034753951444241,0.00034753886133772,2.2183556068031e-09,-2.9375969949289e-09,-0.00037488516383709,0.00037488637352036,-0.00037488696900592,0.00037488457448846,-0.00037488529583933,0.00037488622685682,-0.00037488694846264,0.00037488462086051,-0.0003522090447722,0.00035220681002787,-0.00035220917952058,0.00035220665523706,0.77678229378357,128566,2924,0.0014471324803372,0.0021158861113278,0.0014471324512419,35.810737421784,4.8885899374273e-05,4.8885899374273e-05,4.8885899374273e-05,3996308.4592934,0.0050227712662367
5219200,0.30676647270202,0.0055074977176313,0.0016456066947034,0.0022162843456511,0.0016456066772768,-0.00037794198766377,0.00037794201727715,8.735741133149e-11,-5.7910601184965e-11,-8.6373564777032e-11,1.1540865015378e-10,-0.00040966952035441,0.00040966962964056,-0.00040966964964615,0.00040966947535541,-0.00040966956378247,0.00040966961906729,-0.00040966949813996,0.00040966963538395,-0.00038325827169993,0.00038325821932566,-0.00038325815493866,0.00038325843170836,-5.0908880842165e-11,6.7550694752056e-10,-1.7079662325393e-09,2.308228552158e-09,-0.00056469348202247,0.00056469407273608,-0.0005943713462544,0.00059437048807609,-0.00059437018825781,0.00059437168950383,-0.0005943712035199,0.00059437062300856,-0.00059436982829781,0.00059437203770493,-0.00052518130456325,0.00052517796860856,-0.0005251771871911,0.00052518226483432,-0.00052517916093244,0.00052518017107787,-0.000525178194569,0.00052518115969216,-2.045613903745e-10,-3.636246915934e-10,-0.00037794227604716,0.00037794171271803,2.2634937917007e-09,-2.9217829365964e-09,-0.00040966889809568,0.00040967023168343,-0.00040967071862924,0.00040966841817199,-0.00040966903794986,0.00040967007799128,-0.00040967069676267,0.00040966846775492,-0.00038325931070922,0.00038325715222414,-0.0003832594542714,0.00038325699642245,0.7785640021106,128566,2924,0.0015736578573016,0.0023500015757244,0.001573657823575,36.763223841496,5.650579073197e-05,5.650579073197e-05,5.650579073197e-05,4192817.6450842,0.0055125196423208
5419200,0.33663077119978,0.0059981221821588,0.0017777388966283,0.0024426444099653,0.0017777388755652,-0.00040826902062889,0.00040826902059935,6.7900702062514e-11,-6.7841073435512e-11,-5.6497678381214e-11,5.454428935646e-11,-0.00044486485341282,0.00044486495394073,-0.00044486497501701,0.00044486481077642,-0.00044486492202481,0.00044486492197601,-0.00044486486086,0.00044486493447705,-0.00041428064142523,0.00041428054275904,-0.00041428053031828,0.00041428073236156,-1.0733970063994e-10,7.2131988555498e-10,-1.6131356120791e-09,2.2022150124901e-09,-0.00062269055276812,0.00062269113159254,-0.00065740658364423,0.00065740574021544,-0.00065740547906149,0.00065740687975176,-0.00065740640362863,0.00065740591495894,-0.0006574050952601,0.00065740725550286,-0.00057671748850918,0.00057671440774306,-0.00057671360578825,0.00057671846686931,-0.00057671553684539,0.00057671639972676,-0.00057671450749122,0.00057671745318911,-1.6325043945452e-10,-3.1364614693075e-10,-0.00040826924928496,0.00040826877821951,2.2121494193243e-09,-2.7790567032773e-09,-0.00044486422072663,0.00044486557713633,-0.0004448659707181,0.00044486383473755,-0.00044486435129396,0.00044486543242817,-0.00044486595380829,0.00044486388038244,-0.00041428159193331,0.00041427957525441,-0.00041428171906658,0.00041427943291263,0.76958753769364,128566,2924,0.0016998624631741,0.0025910090047204,0.0016998624345732,37.574422603621,6.2995380828966e-05,6.2995380828966e-05,6.2995380828966e-05,4350955.6411694,0.0060087978430471
5619200,0.36634418002292,0.0064611765952397,0.0019007110284274,0.0026597545584239,0.0019007110083884,-0.00043533923456784,0.00043533917526886,3.5784268985183e-11,-9.3424855367386e-11,6.5668427778101e-11,-1.2414195741606e-10,-0.0004775175185976,0.00047751764842191,-0.00047751762864056,0.00047751750813262,-0.00047751768512708,0.0004775175283957,-0.00047751761822922,0.00047751752665694,-0.00044168303087037,0.00044168278155068,-0.00044168293338715,0.00044168296893934,-2.5693471261501e-10,8.8538592321486e-10,-1.0650686887062e-09,1.6629366229865e-09,-0.00067767807961968,0.0006776786620266,-0.00071796992624019,0.00071796931920666,-0.00071796915639575,0.00071797010605677,-0.00071796963644661,0.00071796960803853,-0.00071796868219071,0.00071797057746684,-0.00062469680726816,0.0006246949418016,-0.00062469410768149,0.00062469798669437,-0.00062469571055963,0.00062469595344527,-0.00062469438687636,0.00062469726974433,-5.8350306764468e-11,-2.0320850273439e-10,-0.0004353393267312,0.00043533907134448,1.7771187498597e-09,-2.1544556718466e-09,-0.00047751698086911,0.00047751821337006,-0.00047751837749334,0.00047751682579684,-0.00047751710468187,0.00047751807634156,-0.00047751836734959,0.00047751686872674,-0.00044168363999814,0.00044168217367096,-0.00044168375394734,0.00044168204603608,0.73637637847375,128566,2924,0.0018125140617915,0.0028194430765854,0.00181251403721,37.741622968551,6.4332983748406e-05,6.4332983748406e-05,6.4332983748406e-05,4452181.4257232,0.0064653846166455
5819200,0.39352853233761,0.0068676155166936,0.0020076932220154,0.0028522290875443,0.0020076932071338,-0.00045627867013315,0.0004562784895055,-2.6819797133166e-11,-1.4927502600588e-10,3.3817926793914e-10,-5.1238534686172e-10,-0.0005041388590699,0.00050413906842076,-0.00050413894902551,0.00050413892929264,-0.00050413924454507,0.00050413875118459,-0.000504139164972,0.00050413872123433,-0.00046258076147322,0.00046258018878722,-0.000462580672861,0.00046258035198293,-5.7010102804022e-10,1.2540739232848e-09,2.5553244124756e-10,3.8525007510995e-10,-0.0007244639900158,0.00072446460413385,-0.00077034047832951,0.00077034049546918,-0.00077034052034347,0.00077034042963368,-0.00077033995843304,0.00077034102446872,-0.00077033984064097,0.00077034111709843,-0.0006646684104184,0.00066466940853344,-0.00066466847012945,0.00066467003500454,-0.00066466934193994,0.00066466815077767,-0.00066466735020071,0.00066467006922472,1.7485068168905e-10,3.5522685886753e-11,-0.00045627847268759,0.00045627868462078,7.219260362875e-10,-6.8357844816786e-10,-0.00050413856831352,0.00050413945517048,-0.00050413912800015,0.0005041389107856,-0.0005041386827273,0.00050413933043773,-0.00050413913044842,0.00050413894916025,-0.00046258059066682,0.00046258041147614,-0.00046258067785098,0.00046258031213097,0.71318193445619,128566,2924,0.0018996590829873,0.0030137532439074,0.0018996590779333,36.554569574959,5.4836556599673e-05,5.4836556599673e-05,5.4836556599673e-05,4496280.1238106,0.0068364559459331
6019200,0.41917092819477,0.007243044778614,0.0021061873151204,0.0030306701470398,0.0021061873164537,-0.00047617507774249,0.0004761748544159,-5.9816924978671e-11,-1.6027067435878e-10,4.2411583424265e-10,-6.6747435914591e-10,-0.00052979406179606,0.00052979427488546,-0.00052979412719053,0.00052979420249961,-0.00052979448883629,0.00052979391681829,-0.00052979445705324,0.00052979387666279,-0.00048234607036108,0.00048234548539842,-0.00048234604880934,0.00048234550558502,-7.3749237205545e-10,1.4164165043598e-09,8.6395387527274e-10,-2.2088095312085e-10,-0.00076924327822415,0.00076924390493286,-0.00082055516125042,0.00082055546495359,-0.00082055554578595,0.00082055501964005,-0.00082055449739866,0.00082055615015101,-0.00082055480611296,0.0008205557819479,-0.00070291696180185,0.00070291937857313,-0.00070291805764156,0.0007029183754146,-0.00070291897955876,0.0007029171493759,-0.00070291684828425,0.00070291932370595,2.4692660655983e-10,1.2962509863229e-10,-0.00047617477866777,0.00047617517022504,3.9311512397046e-10,-4.9724257019661e-11,-0.00052979387636488,0.00052979452900353,-0.00052979408065551,0.00052979433887805,-0.00052979394342065,0.00052979444691708,-0.00052979411007157,0.00052979434710251,-0.00048234570332385,0.00048234590623246,-0.00048234568307472,0.00048234588559577,0.70262235507356,128566,2924,0.0019824636656695,0.0031996865473142,0.0019824637005713,35.890619798471,4.952495838777e-05,4.952495838777e-05,4.952495838777e-05,4537085.8160983,0.0071904860051496
6219200,0.44413311805638,0.0076105771769704,0.0022027105881301,0.0032051559940722,0.0022027105947681,-0.00049647705421891,0.00049647683863243,-5.1114630557572e-11,-1.5984349609723e-10,4.2685825053356e-10,-6.7271814718708e-10,-0.00055581515517418,0.00055581539636528,-0.00055581524581097,0.00055581531485077,-0.0005558155942962,0.00055581502037132,-0.00055581555784018,0.00055581500096947,-0.00050259459820903,0.00050259397495269,-0.00050259455862092,0.0005025940718729,-7.2486290990626e-10,1.4080672649528e-09,8.2351471686715e-10,-1.720747770278e-10,-0.00081417447035414,0.00081417511074216,-0.00087080870063597,0.0008708090116615,-0.00087080906272171,0.0008708085772766,-0.00087080804384381,0.00087080969000727,-0.00087080832547109,0.00087080933989787,-0.00074156682428626,0.00074156910781092,-0.00074156766982194,0.00074156812516673,-0.00074156879674845,0.00074156698018688,-0.00074156666398648,0.00074156920865057,2.2981497374505e-10,1.0338491883541e-10,-0.00049647677228917,0.00049647713471455,4.1494145732331e-10,-4.0015275980823e-11,-0.00055581499217993,0.00055581562099578,-0.00055581521898496,0.00055581540331922,-0.00055581507410873,0.00055581551837912,-0.00055581523367626,0.00055581542240031,-0.00050259419810715,0.00050259439095086,-0.00050259423378976,0.00050259432456628,0.70746296856978,128566,2924,0.0020669547900017,0.0033862090362375,0.0020669548195451,35.771015939946,4.8568127519572e-05,4.8568127519572e-05,4.8568127519572e-05,4577540.3717599,0.0075486366322603
6419200,0.46883489322313,0.0079713359902826,0.0022972886075803,0.0033767587712144,0.0022972886114878,-0.00051682096198602,0.00051682077415636,-3.4213383289001e-11,-1.4968640727572e-10,3.8333007183642e-10,-6.0162046117259e-10,-0.00058201316869708,0.00058201342152169,-0.00058201327935507,0.00058201331630733,-0.00058201358524931,0.00058201306031496,-0.00058201353248544,0.0005820130603117,-0.00052291480893094,0.00052291419604102,-0.00052291472973562,0.00052291436174385,-6.4339992127994e-10,1.3340924822434e-09,5.2155367168746e-10,1.3837168628114e-10,-0.00085908413424034,0.00085908478440759,-0.0009210677634457,0.00092106795685968,-0.00092106795429313,0.00092106770302466,-0.00092106717579697,0.00092106856220489,-0.00092106724405389,0.00092106843475301,-0.00078028466684068,0.00078028622583079,-0.00078028482498013,0.00078028592951154,-0.00078028614160958,0.00078028461683999,-0.00078028408225171,0.00078028677209583,1.7719675376448e-10,4.3044522934353e-11,-0.00051682074828608,0.00051682099656044,6.0034353753467e-10,-3.3276158565609e-10,-0.0005820129752415,0.00058201366769903,-0.0005820133807514,0.00058201326899439,-0.00058201307957593,0.00058201354295921,-0.00058201337716775,0.00058201330489937,-0.00052291451778805,0.00052291448808705,-0.00052291461183366,0.0005229143730074,0.70211761025067,128566,2924,0.0021516209510769,0.0035725983699789,0.0021516209692482,35.957601056747,5.0060808453976e-05,5.0060808453976e-05,5.0060808453976e-05,4617540.5563583,0.0079071369349346
6619200,0.49406901796015,0.0083631251314478,0.002401332882513,0.0035604593649333,0.0024013328840015,-0.00053985912937544,0.00053985897884464,-1.9489879592042e-11,-1.3147221365318e-10,2.6633074063255e-10,-4.580611354585e-10,-0.00061053114348183,0.00061053134428281,-0.00061053124965722,0.00061053125599241,-0.0006105314560454,0.00061053106964563,-0.00061053142523675,0.00061053107714945,-0.00054613045465189,0.00054612999168224,-0.00054613040796529,0.0005461301343869,-5.3145810111394e-10,1.189757161853e-09,-7.4134480507214e-11,7.1049520488861e-10,-0.00090726177926052,0.00090726241646706,-0.00097470875496635,0.00097470865201231,-0.00097470856814233,0.00097470878686499,-0.00097470824741422,0.00097470917561302,-0.0009747079455577,0.00097470943005521,-0.00082223387113256,0.00082223417068698,-0.00082223270832834,0.00082223482593958,-0.00082223447966264,0.00082223356902969,-0.00082223271649073,0.00082223549219326,8.7975596989541e-11,-4.3109422836356e-11,-0.00053985902128678,0.00053985909704464,1.1413792338538e-09,-9.733167630308e-10,-0.00061053081696238,0.00061053168175662,-0.00061053160000525,0.00061053090093393,-0.00061053091015506,0.00061053156705102,-0.00061053160046698,0.00061053092786497,-0.00054613053076207,0.00054612990242343,-0.00054613060058487,0.00054612980045625,0.74071518033079,128566,2924,0.002247493468697,0.003772507538949,0.0022474934899546,36.730257927662,5.6242063421296e-05,5.6242063421296e-05,5.6242063421296e-05,4672878.1480658,0.0083020004849841
6819200,0.52072696138284,0.0088100701861079,0.0025212907292021,0.0037674887236566,0.0025212907332492,-0.00056716873176857,0.00056716862582045,6.0544959400403e-13,-1.0993832117612e-10,1.1231645811077e-10,-2.659473832547e-10,-0.00064274700219566,0.00064274713334963,-0.0006427471094234,0.00064274705512828,-0.00064274718715139,0.00064274696739513,-0.00064274717259979,0.00064274698660485,-0.00057416307625721,0.00057416278455154,-0.00057416306639724,0.00057416294343611,-3.8024888156945e-10,9.9539060632377e-10,-9.4116357156952e-10,1.5437039790501e-09,-0.00096115392292598,0.00096115453652313,-0.0010342305586397,0.001034230000441,-0.0010342298247724,0.0010342307044359,-0.0010342301579566,0.0010342304129348,-0.0010342293184006,0.0010342312280099,-0.00086960318870306,0.00086960167491731,-0.00086960023296136,0.00086960385262949,-0.00086960252621149,0.00086960249063854,-0.00086960113814495,0.00086960408346063,-2.7425556008163e-11,-1.5761903962732e-10,-0.00056716875351039,0.00056716860510185,1.9040686168343e-09,-1.9070972211843e-09,-0.00064274646637989,0.00064274763660342,-0.00064274780273781,0.00064274629668709,-0.00064274655408221,0.00064274752552925,-0.00064274780223364,0.00064274631968244,-0.00057416362335502,0.00057416217981997,-0.00057416369209351,0.00057416208186987,0.79222279287356,128566,2924,0.0023611312667762,0.0039960731304731,0.0023611312691709,38.162496112034,6.7699968896274e-05,6.7699968896274e-05,6.7699968896274e-05,4767861.2495794,0.0087567288924562
7019200,0.54914989921214,0.0092474558005452,0.00263634689209,0.0039747620134452,0.0026363468950101,-0.00059445681371931,0.00059445675476329,2.6156328184775e-11,-8.9373337279941e-11,-1.2367706384618e-12,-9.6667039800054e-11,-0.00067621707964723,0.00067621718059539,-0.00067621719803632,0.0006762170756529,-0.0006762171842136,0.00067621708472007,-0.00067621715255013,0.00067621711951045,-0.00060176073582713,0.00060176053328325,-0.00060176069127955,0.00060176075798314,-2.332521686593e-10,8.2795251288377e-10,-1.747700649886e-09,2.3304521906382e-09,-0.0010174768733916,0.0010174774662456,-0.0010964925842886,0.0010964915973852,-0.0010964913623928,0.0010964928271062,-0.0010964922979637,0.0010964918865465,-0.0010964909385627,0.0010964932589223,-0.0009188872602203,0.00091888401438548,-0.00091888277933457,0.00091888789811364,-0.00091888536248768,0.00091888609833891,-0.00091888421687028,0.00091888741271983,-1.394248997845e-10,-2.7617949424794e-10,-0.00059445697114846,0.00059445658471942,2.4960066467985e-09,-2.7830876742644e-09,-0.00067621638028205,0.00067621782821557,-0.00067621821791012,0.00067621598593629,-0.00067621648840504,0.00067621769899839,-0.00067621820160542,0.00067621602471602,-0.00060176165299857,0.00060175953516838,-0.00060176177282917,0.00060175939677903,0.73336568062396,128566,2924,0.0024746830894128,0.0042296472743798,0.0024746830632971,39.889947562563,8.1519580500508e-05,8.1519580500508e-05,8.1519580500508e-05,4801906.3517467,0.0092215941747189
7219200,0.57777349684323,0.0096699535058762,0.0027467208127232,0.0041765118820625,0.0027467208110905,-0.00061934456660585,0.00061934452128531,3.1531271296453e-11,-7.9393722353452e-11,1.7246210860685e-11,-7.8434059952131e-11,-0.00070765039051722,0.00070765048645955,-0.00070765047801893,0.00070765037049682,-0.00070765049389449,0.00070765040310301,-0.00070765044805519,0.00070765040791448,-0.00062656897473988,0.00062656879849411,-0.00062656892999828,0.00062656898805202,-2.2330070637552e-10,8.4495284909399e-10,-1.724193035351e-09,2.3209567252476e-09,-0.0010711957406878,0.0010711963308774,-0.0011565491132728,0.0011565480944868,-0.0011565479011961,0.0011565493422588,-0.0011565488184652,0.0011565483855513,-0.001156547475585,0.0011565497678921,-0.00096541004569256,0.00096540688964588,-0.00096540598257557,0.00096541108721186,-0.00096540807768222,0.00096540885463748,-0.00096540689462511,0.00096541008835486,-1.5887732520457e-10,-2.9416608115011e-10,-0.00061934475810682,0.00061934431161569,2.3862027839958e-09,-2.8930908412808e-09,-0.00070764971213329,0.00070765114362068,-0.00070765154185876,0.00070764931634912,-0.00070764981497631,0.00070765102696979,-0.00070765154033449,0.00070764934865977,-0.00062656994371779,0.00062656777557129,-0.00062657002761794,0.00062656767804661,0.70719547523774,128566,2924,0.0025782532621464,0.004452357510635,0.0025782532241616,40.741468886278,8.8331751090221e-05,8.8331751090221e-05,8.8331751090221e-05,4826745.8381056,0.0096555499242834
7419200,0.60593834556021,0.010070354606623,0.002850778089417,0.0043687984244732,0.0028507780927333,-0.0006422855784113,0.00064228552024147,2.3675634348784e-11,-8.6118926522078e-11,6.7090425556714e-11,-1.3446776124926e-10,-0.00073753473584943,0.00073753485416393,-0.00073753482094845,0.00073753473023032,-0.00073753488386065,0.00073753473772313,-0.00073753482554146,0.00073753473598436,-0.00064910550819059,0.00064910527350646,-0.00064910541765656,0.0006491054273772,-2.7826091605531e-10,8.9282715112575e-10,-1.4745172872737e-09,2.0617233737073e-09,-0.0011224030546902,0.0011224036316427,-0.0012142330282617,0.0012142321237374,-0.0012142319797349,0.0012142332098516,-0.001214232698808,0.001214232447976,-0.0012142315203534,0.0012142336674051,-0.0010095086174822,0.0010095059851505,-0.0010095051041197,0.0010095097298787,-0.0010095070531331,0.001009507551184,-0.0010095057549834,0.0010095088716576,-1.1479051708879e-10,-2.5072217754616e-10,-0.00064228573441873,0.000642285363307,2.149543927585e-09,-2.6119770197534e-09,-0.00073753411622408,0.00073753546866749,-0.00073753578062648,0.00073753381145601,-0.00073753422348119,0.00073753534997643,-0.00073753577877414,0.00073753384789432,-0.00064910632464254,0.00064910443368136,-0.00064910640371994,0.00064910432797831,0.68502083636525,128566,2924,0.0026737249707871,0.0046646024462429,0.0026737249688025,41.272756990532,9.2582055924254e-05,9.2582055924254e-05,9.2582055924254e-05,4849405.4563469,0.010062763071467
7619200,0.63245446747732,0.010438493521518,0.0029460374772964,0.0045464185555011,0.0029460374887202,-0.00066192645729835,0.00066192636915419,8.2993219007511e-12,-9.9784333151574e-11,1.7284356309706e-10,-2.6478000415263e-10,-0.00076381222542149,0.00076381239121639,-0.00076381230925723,0.00076381226148606,-0.00076381245928368,0.00076381220044667,-0.00076381238867253,0.00076381219139934,-0.00066807020068314,0.00066806985062513,-0.00066807008488165,0.00066806999101603,-3.8730951519547e-10,1.0180309897932e-09,-8.5121361194963e-10,1.4479958057809e-09,-0.0011686543780506,0.0011686549583853,-0.0012667380654961,0.0012667374823532,-0.0012667374115768,0.0012667381588585,-0.001266737662002,0.0012667378829388,-0.0012667368754647,0.0012667386952394,-0.0010490262434248,0.0010490249132285,-0.0010490240487517,0.0010490275552273,-0.0010490255939432,0.0010490254673993,-0.0010490240469353,0.0010490270024268,-2.8611663089582e-11,-1.6506672106854e-10,-0.00066192651790675,0.00066192631546573,1.5939498196624e-09,-1.9315271789017e-09,-0.00076381175315351,0.00076381288416802,-0.00076381301403048,0.00076381163396194,-0.0007638118644239,0.00076381276309212,-0.00076381301257549,0.00076381167277971,-0.00066807067654727,0.00066806937770391,-0.00066807075230284,0.00066806927314096,0.67223853498851,128566,2924,0.0027554706222932,0.0048562594054153,0.0027554706365187,41.070703558102,9.0965628464813e-05,9.0965628464813e-05,9.0965628464813e-05,4853939.1009094,0.010421597559567
7819200,0.65750405443428,0.010782265142188,0.0030348595297353,0.0047125460630964,0.0030348595493565,-0.00068026594864933,0.00068026582701331,-9.7632203175269e-12,-1.1729585104547e-10,2.2706528540331e-10,-3.6904920741769e-10,-0.00078827929597014,0.00078827948590904,-0.00078827939123651,0.0007882793729121,-0.00078827957727284,0.00078827924412083,-0.00078827952149701,0.00078827924623046,-0.0006857015556257,0.00068570113388811,-0.00068570143875381,0.00068570124844947,-4.8246771453074e-10,1.0840898753867e-09,-4.3256251668851e-10,1.0075949181963e-09,-0.0012122856703136,0.0012122862401637,-0.0013163636890261,0.0013163633408215,-0.0013163632982352,0.0013163637176006,-0.0013163632345772,0.0013163638010577,-0.0013163627171838,0.0013163643084928,-0.0010862158935657,0.0010862154311396,-0.001086214311397,0.0010862169852226,-0.0010862159443178,0.0010862153467047,-0.0010862142772238,0.0010862170789168,5.1456758891631e-11,-8.4886791202919e-11,-0.00068026591153099,0.00068026588119947,1.3134881357802e-09,-1.3707711661042e-09,-0.00078827890272109,0.00078827988312934,-0.0007882798821754,0.00078827891168672,-0.00078827900910723,0.000788279762859,-0.00078827987920824,0.00078827894723073,-0.00068570179431523,0.00068570092829329,-0.00068570186237553,0.00068570082000054,0.6665568402007,128566,2924,0.0028318000255758,0.0050370206124085,0.0028318000611594,40.971923801903,9.0175390415221e-05,9.0175390415221e-05,9.0175390415221e-05,4856351.9372215,0.01075859632547
8019200,0.68124648801914,0.011104541843039,0.0031179560442809,0.0048686297352179,0.0031179560635397,-0.00069754631269508,0.00069754617587543,-1.6715517137352e-11,-1.2263815460491e-10,2.6044933255829e-10,-4.2295080943721e-10,-0.00081131726086205,0.0008113174714781,-0.00081131736868606,0.00081131735849502,-0.00081131757646333,0.0008113171942344,-0.00081131751894096,0.00081131720839469,-0.00070237461591731,0.00070237413387499,-0.00070237451727412,0.0007023743069563,-5.1726619393167e-10,1.1237472030002e-09,-2.1340846251796e-10,7.9400917238834e-10,-0.0012535638235605,0.0012535643996531,-0.0013634002600923,0.0013634000397758,-0.0013634000053124,0.0013634002575404,-0.0013633997883667,0.0013634005202075,-0.0013633993961226,0.0013634008801352,-0.0011213473407303,0.0011213473069372,-0.0011213460929469,0.0011213484012478,-0.0011213477150329,0.0011213468879107,-0.0011213459654664,0.0011213487293447,8.5689666386571e-11,-5.0459737141322e-11,-0.00069754622219356,0.00069754627753351,1.1287181000251e-09,-1.0673145345351e-09,-0.00081131691808516,0.00081131782446949,-0.00081131774310673,0.00081131700567415,-0.00081131702982577,0.00081131769537888,-0.00081131773202413,0.00081131704594243,-0.00070237469179072,0.0007023740674437,-0.00070237478988624,0.00070237394912197,0.660978423659,128566,2924,0.0029037220547244,0.0052079971811382,0.0029037220779826,40.977140741267,9.0217125930137e-05,9.0217125930137e-05,9.0217125930137e-05,4861608.6868885,0.011076901514845
8219200,0.7038011335719,0.011407569266421,0.0031959567057399,0.0050156558370531,0.0031959567236281,-0.00071387613854083,0.0007138759953507,-2.0121710277181e-11,-1.255096117738e-10,2.6398751431485e-10,-4.3884754503815e-10,-0.00083307955722253,0.00083307976465412,-0.00083307966374014,0.00083307966240082,-0.00083307987224794,0.00083307948554349,-0.00083307982394146,0.00083307949869784,-0.00071820812626961,0.00071820765500204,-0.00071820805095219,0.00071820781015597,-5.3194362089929e-10,1.1363143200246e-09,-1.1606046549127e-10,6.9591307845079e-10,-0.0012926861790503,0.0012926867570313,-0.0014080822204383,0.001408082054902,-0.0014080820175542,0.0014080822067778,-0.0014080817370749,0.0014080825499711,-0.0014080814062465,0.0014080828349616,-0.0011546181213708,0.0011546183006278,-0.0011546170189254,0.001154619120328,-0.0011546186397708,0.0011546177319731,-0.001154616891211,0.0011546195963441,1.0312502025951e-10,-3.37312331599e-11,-0.00071387602546701,0.00071387611975593,1.088482517371e-09,-9.5629077062458e-10,-0.00083307922537025,0.000833080103307,-0.00083307999305139,0.0008330793397176,-0.0008330793310157,0.00083307997917374,-0.00083307998648964,0.00083307937371392,-0.00071820818115663,0.00071820761756032,-0.00071820825739257,0.00071820751701509,0.65549730669174,128566,2924,0.0029716884243515,0.0053700123042713,0.0029716884480269,41.071287043789,9.0970296350316e-05,9.0970296350316e-05,9.0970296350316e-05,4869368.9482496,0.011378241679061
8419200,0.72524817428259,0.011694756394973,0.0032698718913306,0.0051550125964027,0.0032698719072396,-0.00072940599793133,0.0007294058540617,-2.1027620572831e-11,-1.2517742166403e-10,2.5463742972742e-10,-4.3344777652678e-10,-0.00085371891335756,0.00085371911660681,-0.00085371902261898,0.00085371901739463,-0.00085371922298619,0.00085371884174516,-0.00085371917636446,0.00085371885832457,-0.00073335882019756,0.0007333583540122,-0.00073335874941549,0.00073335851436899,-5.2500378537709e-10,1.127716902611e-09,-1.27446805117e-10,7.0660913628181e-10,-0.0013298951910916,0.0013298957703614,-0.0014506305625429,0.0014506303972323,-0.0014506303482271,0.0014506305535204,-0.0014506300843947,0.0014506308886003,-0.0014506297440479,0.001450631176726,-0.0011862512250175,0.0011862513782293,-0.0011862500694093,0.001186252181422,-0.0011862517185497,0.0011862508319881,-0.0011862499928881,0.0011862526868081,1.0529056934979e-10,-3.1760628782386e-11,-0.00072940588044924,0.00072940598210057,1.1127285533477e-09,-9.5516689986109e-10,-0.00085371857401182,0.00085371946114739,-0.00085371934911317,0.00085371868912925,-0.00085371867941255,0.00085371933591097,-0.00085371934118778,0.00085371872272706,-0.00073335888059241,0.00073335831033688,-0.00073335895758187,0.00073335821051879,0.65381527640994,128566,2924,0.0030363253440772,0.005524075130109,0.0030363253661729,41.234123451606,9.2272987612845e-05,9.2272987612845e-05,9.2272987612845e-05,4878466.8394234,0.011664889099669
8619200,0.74607854843078,0.011973084903945,0.0033415051078115,0.0052900746742115,0.0033415051219225,-0.00074521212106633,0.00074521198558018,-1.5699494530925e-11,-1.2207949663913e-10,2.0526627341617e-10,-3.8280957407734e-10,-0.00087451732894333,0.00087451749104418,-0.00087451742305602,0.0008745174143937,-0.00087451758156892,0.0008745172642569,-0.00087451756322325,0.00087451726991497,-0.00074888755950325,0.00074888720755246,-0.00074888756524304,0.00074888731445164,-5.003369581082e-10,1.0818172724602e-09,-3.4189486246429e-10,9.0528058335841e-10,-0.0013668117401242,0.0013668123104761,-0.001492776014739,0.0014927757184163,-0.0014927756434847,0.0014927760274551,-0.0014927755404561,0.0014927762059172,-0.0014927750829112,0.001492776607578,-0.0012177445566599,0.0012177443234242,-0.0012177429267412,0.0012177453230363,-0.0012177447782136,0.0012177441269015,-0.0012177431987896,0.0012177458716298,8.1341575555996e-11,-5.8723241689577e-11,-0.00074521202782706,0.00074521208827727,1.4021806714606e-09,-1.2325823969828e-09,-0.00087451690706783,0.00087451790346742,-0.00087451784758663,0.0008745169641435,-0.00087451699321093,0.00087451779646926,-0.00087451785697609,0.00087451697705015,-0.00074888782460392,0.00074888694059384,-0.00074888783861445,0.00074888689544681,0.65261451030358,128566,2924,0.0031021070645965,0.0056769011257272,0.0031021070845676,41.856244462875,9.7249955703004e-05,9.7249955703004e-05,9.7249955703004e-05,4898982.4200814,0.011952683579944
8819200,0.76571886010787,0.01222473777829,0.003405614109208,0.0054135095492971,0.0034056141197846,-0.00075865660337411,0.00075865648297041,-8.5413235132826e-12,-1.1080215662793e-10,2.1133021322028e-10,-3.5525138934332e-10,-0.00089286016295023,0.00089286033166178,-0.0008928602533459,0.00089286023579401,-0.00089286042329473,0.00089286010968071,-0.00089286037889399,0.00089286010793106,-0.00076192125568531,0.00076192088141967,-0.00076192121771611,0.00076192102524629,-4.5926484895059e-10,1.0873448754781e-09,-3.7452194190587e-10,9.7209779837365e-10,-0.0014001730624655,0.0014001736507803,-0.0015311807847623,0.0015311804632757,-0.0015311803931991,0.001531180814491,-0.0015311803221036,0.0015311809335737,-0.0015311798366185,0.0015311813839529,-0.0012459691901094,0.0012459688772512,-0.0012459677529251,0.0012459703147787,-0.0012459692462553,0.0012459686979642,-0.0012459676473637,0.0012459703710296,5.7305530274504e-11,-8.2035114805888e-11,-0.00075865654433957,0.00075865654314294,1.3223849536356e-09,-1.3457183648826e-09,-0.00089285975433646,0.00089286075874673,-0.00089286072037935,0.00089285979838381,-0.00089285985126559,0.00089286064426655,-0.00089286072610228,0.00089285982045964,-0.00076192151172026,0.00076192060868271,-0.00076192155451196,0.0007619205506506,0.62942560850866,128566,2924,0.0031580695519787,0.0058149811336905,0.0031580695542498,41.997051372453,9.8376410979622e-05,9.8376410979622e-05,9.8376410979622e-05,4908435.1633466,0.012205754633018
9019200,0.78410153247834,0.012460320872837,0.0034657217457714,0.0055288773681916,0.0034657217588745,-0.00077098083410719,0.00077098071739349,-8.3164170513001e-12,-1.1046839334184e-10,2.0246930656564e-10,-3.4385069277384e-10,-0.00090967375195533,0.00090967391752345,-0.00090967384068437,0.00090967382226356,-0.00090967400322337,0.00090967370273713,-0.00090967395957303,0.00090967370015995,-0.00077389055181217,0.0007738901921794,-0.0007738904919068,0.00077389030131275,-4.5743439334034e-10,1.0715432573831e-09,-3.7791843320422e-10,9.6375300147794e-10,-0.0014311584234886,0.001431159002881,-0.0015669272610087,0.0015669269447845,-0.0015669268754452,0.0015669272981818,-0.0015669268013453,0.0015669274115442,-0.0015669263261155,0.0015669278588935,-0.0012720587302028,0.0012720584113333,-0.0012720572780893,0.0012720598061008,-0.001272058799974,0.0012720582544355,-0.0012720572197997,0.0012720599093948,6.1368886048024e-11,-7.9138709956348e-11,-0.000770980782482,0.00077098077583473,1.3358192886671e-09,-1.3485446078176e-09,-0.00090967334092804,0.00090967433384899,-0.00090967431199794,0.0009096733683957,-0.00090967343735516,0.00090967422162993,-0.00090967431868979,0.00090967339036022,-0.00077389082569398,0.00077388992195744,-0.00077389085687392,0.00077388986091972,0.6297808584786,128566,2924,0.0032093697666212,0.0059432096527359,0.0032093697808344,42.046785014814,9.8774280118515e-05,9.8774280118515e-05,9.8774280118515e-05,4913674.2974359,0.012439471320036
9219200,0.8010946195612,0.012675410500805,0.0035204810229485,0.0056344484407317,0.0035204810371246,-0.00078182028920296,0.00078182017553685,-7.8314948193855e-12,-1.0770411368603e-10,2.0648111087909e-10,-3.4166892930756e-10,-0.00092469647281604,0.00092469664206095,-0.00092469656154766,0.0009246965431646,-0.00092469672841999,0.00092469642587949,-0.0009246966792009,0.00092469642318134,-0.00078434602726374,0.00078434565869,-0.00078434595911646,0.00078434577839838,-4.5238195898286e-10,1.072848612329e-09,-3.2415265482949e-10,9.1423930914608e-10,-0.0014592241705973,0.0014592247513299,-0.0015994325429064,0.0015994322615116,-0.0015994321946746,0.0015994325804494,-0.0015994320854869,0.0015994327247699,-0.0015994316438134,0.0015994331411041,-0.0012955788386791,0.0012955786165762,-0.0012955775220725,0.001295579967621,-0.0012955789633995,0.0012955783889269,-0.0012955773739088,0.0012955800397116,6.1166914607819e-11,-7.8944456853882e-11,-0.00078182023915458,0.00078182023123309,1.2593144380142e-09,-1.2928695482494e-09,-0.00092469608405596,0.00092469704320297,-0.00092469701473554,0.00092469611941953,-0.00092469618328094,0.00092469692852174,-0.00092469701987402,0.00092469614336561,-0.00078434626662025,0.00078434541873047,-0.00078434630627383,0.00078434535505597,0.62301124905836,128566,2924,0.003254494066587,0.0060593383688543,0.0032544940783003,41.89664656421,9.7573172513678e-05,9.7573172513678e-05,9.7573172513678e-05,4913359.0397866,0.012648478925038
9419200,0.81651794750403,0.01286826508856,0.0035694991639604,0.0057292667451984,0.0035694991794014,-0.00079084649793327,0.00079084638527527,-6.9380589147097e-12,-1.0751364739938e-10,2.1779977108341e-10,-3.4966822940503e-10,-0.00093751000967629,0.00093751017932972,-0.00093751009151777,0.00093751008552291,-0.0009375102671248,0.00093750996444778,-0.00093751022113894,0.00093750995197746,-0.00079296825888022,0.00079296790285522,-0.00079296819386751,0.00079296799035671,-4.6174985409421e-10,1.089606937903e-09,-1.6783140704219e-10,7.6257909167338e-10,-0.0014838154683744,0.001483816050628,-0.0016280946016558,0.0016280944041943,-0.001628094348606,0.0016280946293474,-0.0016280941293127,0.0016280948822279,-0.0016280937951133,0.0016280951916502,-0.0013160288500889,0.0013160289616726,-0.0013160278981275,0.0013160300393906,-0.0013160291781858,0.0013160285021889,-0.0013160275783516,0.0013160301514631,7.1830770560443e-11,-7.0842434851306e-11,-0.00079084644233342,0.0007908464472446,1.124547909745e-09,-1.163533449407e-09,-0.00093750966083432,0.00093751054440474,-0.00093751049807353,0.00093750971443012,-0.0009375097549842,0.00093751043568119,-0.00093751051117805,0.00093750973169913,-0.00079296846337264,0.00079296771020149,-0.00079296847813641,0.00079296766444955,0.61621359289712,128566,2924,0.0032920762497247,0.0061610765113413,0.0032920762628764,41.413853046502,9.371082437202e-05,9.371082437202e-05,9.371082437202e-05,4905481.5773313,0.01282767272817
9619200,0.83017223870016,0.013036956851249,0.0036123264754775,0.0058123038836054,0.0036123264921665,-0.00079771905646163,0.00079771894479048,-6.5082162060359e-12,-1.0613069443532e-10,2.460937338105e-10,-3.7120748163095e-10,-0.00094767237852752,0.00094767256177961,-0.00094767245582637,0.00094767246631318,-0.00094767265372158,0.00094767233339268,-0.00094767260375233,0.00094767231493219,-0.00079942746617115,0.00079942709472755,-0.00079942738787517,0.00079942716653739,-4.7889462592143e-10,1.123090495768e-09,8.4500967788732e-11,5.2155486779798e-10,-0.0015043248022955,0.001504325390646,-0.0016522527702674,0.0016522527149123,-0.0016522526765994,0.0016522527837478,-0.0016522522788623,0.0016522532106474,-0.0016522521073307,0.0016522533600642,-0.0013328468573718,0.001332847497915,-0.0013328465014821,0.0013328481775092,-0.0013328475262385,0.0013328466557043,-0.0013328458688494,0.001332848324789,8.6834138798724e-11,-5.7165225519358e-11,-0.00079771899004488,0.00079771901635672,8.757304790644e-10,-9.3218850569418e-10,-0.00094767210334519,0.00094767286183346,-0.00094767278071704,0.00094767219357702,-0.00094767219763119,0.00094767275451604,-0.00094767279675613,0.0009476722093434,-0.0007994275684052,0.00079942700421755,-0.00079942757639942,0.00079942696791976,0.60938555575221,128566,2924,0.0033207011185679,0.0062459158323854,0.0033207011290726,40.446236448013,8.5969891584104e-05,8.5969891584104e-05,8.5969891584104e-05,4886572.8105907,0.012971627996662
9819200,0.84253681552929,0.013190702195688,0.0036515257147055,0.0058876507478481,0.0036515257331348,-0.00080450667693915,0.00080450655582315,-1.2362579206691e-11,-1.1337954142262e-10,2.3280213142233e-10,-3.8326284502434e-10,-0.00095737320373967,0.00095737338123925,-0.00095737328592549,0.00095737329598003,-0.00095737346925244,0.00095737315148461,-0.00095737343590886,0.00095737314346587,-0.00080586946271701,0.00080586910130462,-0.00080586942303425,0.00080586917996772,-5.0284270208885e-10,1.0986404088779e-09,1.1287583936765e-10,4.5776095636406e-10,-0.0015234215567572,0.0015234221254593,-0.0016746604106631,0.0016746603886993,-0.0016746603385542,0.0016746604164967,-0.0016746599179751,0.0016746608885066,-0.0016746597747175,0.0016746609910164,-0.0013485909773204,0.0013485916762092,-0.0013485904526251,0.0013485919786939,-0.0013485917653194,0.0013485908268389,-0.0013485901466891,0.0013485925397275,1.0605870672563e-10,-3.9475230177381e-11,-0.00080450658307809,0.00080450666098705,9.1924539483124e-10,-8.058143369665e-10,-0.00095737292338224,0.00095737366416779,-0.00095737356888571,0.00095737302544288,-0.0009573730133384,0.00095737355844206,-0.00095737358364503,0.00095737303709624,-0.0008058695561936,0.00080586902886107,-0.00080586955770298,0.00080586898945255,0.61214217030349,128566,2924,0.0033489663675763,0.0063249058624151,0.0033489663912632,39.872746311789,8.1381970494309e-05,8.1381970494309e-05,8.1381970494309e-05,4876511.3614443,0.01310894637393
10019200,0.8536164527092,0.013329566856491,0.0036870566329828,0.0059554535730325,0.0036870566504757,-0.00081013183054602,0.0008101317134774,-1.2945716017262e-11,-1.0555731688917e-10,2.4477324187122e-10,-3.8075152862569e-10,-0.00096556271131184,0.00096556290205645,-0.00096556280185341,0.00096556280276674,-0.00096556299726029,0.00096556265964284,-0.00096556294249786,0.00096556266029329,-0.00081121397922212,0.00081121355640342,-0.00081121388734326,0.00081121369806646,-4.8534729150281e-10,1.111733076847e-09,1.5212502603782e-10,4.4187111131733e-10,-0.0015399578850346,0.0015399584674332,-0.001694159514798,0.0016941595208301,-0.0016941594716166,0.0016941595197047,-0.0016941590348502,0.0016941600060652,-0.0016941588955165,0.0016941601041762,-0.0013621796708646,0.0013621803904021,-0.0013621792706656,0.001362180844831,-0.0013621804436762,0.0013621794932646,-0.0013621787742583,0.0013621812236205,9.7693971126536e-11,-4.2031519814726e-11,-0.00081013174024763,0.00081013181002791,8.1116016876071e-10,-7.6851779072171e-10,-0.00096556245709935,0.00096556317897214,-0.00096556307066018,0.00096556257456478,-0.00096556255925757,0.00096556306070009,-0.00096556307313846,0.00096556259967543,-0.00081121398148735,0.00081121355869623,-0.00081121404122018,0.00081121348474991,0.61575181197794,128566,2924,0.0033723960645496,0.0063932973338577,0.0033723960774798,39.082484991017,7.5059879928134e-05,7.5059879928134e-05,7.5059879928134e-05,4860498.4088697,0.013225742323157
10219200,0.86343046346307,0.013453746315818,0.0037189637134495,0.0060158188709366,0.0037189637314316,-0.0008145571937996,0.00081455707777903,-1.0909858424549e-11,-1.0709278126077e-10,2.4636460561093e-10,-3.8211121614699e-10,-0.0009722111972354,0.00097221138567528,-0.00097221128288331,0.00097221129205933,-0.00097221147825251,0.00097221114830368,-0.00097221142880908,0.00097221114123892,-0.00081545380030699,0.00081545340659826,-0.00081545371458787,0.00081545350096204,-4.8950456044228e-10,1.1170800658531e-09,2.2121777700759e-10,3.7244615531973e-10,-0.0015538984269625,0.0015538990088194,-0.0017107075807212,0.001710707623878,-0.0017107075790156,0.0017107075848543,-0.001710707091844,0.0017107081186224,-0.001710707005917,0.0017107081665964,-0.0013735771179732,0.0013735780040863,-0.0013735769117259,0.0013735783055064,-0.0013735779929386,0.0013735769887413,-0.0013735763272043,0.0013735787007163,1.0737872849546e-10,-3.7265651640805e-11,-0.00081455710175782,0.00081455717829832,7.6949412589442e-10,-7.279255472924e-10,-0.00097221095344498,0.00097221164958491,-0.00097221153311596,0.00097221107771793,-0.0009722110517882,0.00097221153721293,-0.00097221154362677,0.00097221109687375,-0.00081545381760322,0.00081545340814294,-0.00081545384060812,0.00081545335539615,0.6200754186656,128566,2924,0.0033908349975433,0.0064509465419687,0.0033908350150977,38.042599086711,6.6740792693692e-05,6.6740792693692e-05,6.6740792693692e-05,4838047.2036809,0.013321548303599
10419200,0.87248212699175,0.013569526031364,0.0037488576571951,0.0060718106986426,0.0037488576755259,-0.00081982446100279,0.00081982433983662,-1.6031745579412e-11,-1.1025635145057e-10,2.0921974662558e-10,-3.6428417392737e-10,-0.0009795562612124,0.00097955643189358,-0.00097955635494196,0.00097955634691689,-0.00097955651979787,0.00097955620931892,-0.00097955648096884,0.00097955621515484,-0.00082067452682274,0.00082067414814819,-0.00082067448050762,0.00082067428085334,-4.8662853259707e-10,1.0619349942619e-09,5.4438958691886e-12,5.5146073313549e-10,-0.001568009617604,0.0015680101792077,-0.0017272091678571,0.0017272091065096,-0.0017272090352868,0.0017272091839277,-0.0017272087014856,0.0017272095820169,-0.0017272084822187,0.0017272097496508,-0.001385331264992,0.0013853316998871,-0.001385330394982,0.0013853321141075,-0.001385331903423,0.0013853310397339,-0.001385330319006,0.0013853327535792,1.0550565978077e-10,-3.7373952563444e-11,-0.0008198243604821,0.00081982445346711,1.0206329097476e-09,-8.4403789573544e-10,-0.00097955594845204,0.00097955674592617,-0.00097955664967065,0.00097955605038986,-0.00097955604464094,0.00097955663229721,-0.00097955665493725,0.00097955606996509,-0.00082067462257263,0.00082067406767758,-0.00082067465974824,0.00082067400236796,0.62506671211808,128566,2924,0.0034127688878614,0.0065092992110301,0.0034127689154376,37.716969710719,6.4135757685752e-05,6.4135757685752e-05,6.4135757685752e-05,4829967.5249092,0.013425159661344
10619200,0.88094765253722,0.013675725969882,0.0037761893581634,0.0061233472362571,0.0037761893754617,-0.00082505892374214,0.0008250588113891,-7.6428496246461e-12,-1.0701849139399e-10,1.7894055800349e-10,-3.2531924083815e-10,-0.00098680547491451,0.00098680562499824,-0.00098680556097002,0.00098680554612815,-0.0009868057040731,0.0009868054335205,-0.00098680567656357,0.00098680543367884,-0.0008258564491446,0.00082585614774029,-0.00082585643689272,0.00082585623898574,-4.4895258715958e-10,1.030713256594e-09,-2.3825000739052e-10,7.9698191569072e-10,-0.0015815757866308,0.0015815763486516,-0.0017430169019304,0.0017430166945568,-0.0017430166007788,0.0017430169467033,-0.001743016450247,0.0017430171546044,-0.0017430160782465,0.0017430174846321,-0.0013966600955383,0.001396660088386,-0.0013966588911,0.0013966609752051,-0.0013966603792778,0.0013966597411579,-0.0013966588823021,0.0013966613294312,7.9938972882486e-11,-6.9768663299051e-11,-0.00082505885111612,0.00082505889109013,1.242206778965e-09,-1.1583750053146e-09,-0.00098680508738598,0.00098680602283396,-0.00098680595792226,0.00098680516231725,-0.00098680518056874,0.00098680591592354,-0.00098680597438987,0.00098680517247168,-0.00082585671752908,0.00082585586678249,-0.00082585671039056,0.00082585584524802,0.61395642964396,128566,2924,0.0034345646123081,0.006565393538804,0.0034345646272232,37.647153541306,6.3577228330445e-05,6.3577228330445e-05,6.3577228330445e-05,4826404.1133243,0.01352621290646
10819200,0.88889152758461,0.013773599087813,0.0038013033652333,0.0061709923407976,0.0038013033817819,-0.00082999147770575,0.00082999137081482,-8.6139844295709e-12,-1.0075422854931e-10,1.5476890418092e-10,-2.9077145163175e-10,-0.00099362237145745,0.00099362251208736,-0.00099362246338681,0.00099362242459617,-0.00099362259230819,0.00099362233404899,-0.00099362255112949,0.00099362234037034,-0.00083070762443893,0.00083070729642189,-0.00083070755533039,0.0008307074230525,-4.1540762058234e-10,1.0042747586837e-09,-4.8727686390864e-10,1.052163154432e-09,-0.0015943168828966,0.0015943174451647,-0.0017578876607637,0.0017578873081613,-0.0017578872087897,0.0017578877197907,-0.0017578872373552,0.0017578877404195,-0.0017578866969109,0.0017578882448641,-0.0014072902044881,0.001407289632765,-0.0014072884742575,0.0014072911268049,-0.0014072900858991,0.0014072896829938,-0.0014072886238953,0.0014072912477944,6.1088649421561e-11,-8.4348430654979e-11,-0.00082999143004653,0.00082999142741075,1.4430567671357e-09,-1.4180252532201e-09,-0.00099362192079155,0.00099362297171625,-0.00099362295595682,0.00099362194870551,-0.00099362201996695,0.00099362285715845,-0.00099362296330107,0.00099362196862686,-0.00083070794653246,0.00083070698098208,-0.00083070798179274,0.00083070691733867,0.60387279504991,128566,2924,0.0034551024055671,0.0066180733570471,0.0034551024242995,37.649660533971,6.3597284271772e-05,6.3597284271772e-05,6.3597284271772e-05,4826460.341612,0.013621263615342
11019200,0.89640958027051,0.0138644141074,0.003824527067504,0.0062153599561681,0.0038245270837284,-0.00083486676150877,0.00083486666011895,-3.2484573298731e-12,-1.005996575283e-10,1.3341972103822e-10,-2.6519559754477e-10,-0.0010002851650999,0.0010002852868758,-0.00100028524554,0.0010002852073887,-0.0010002853573025,0.0010002851325988,-0.0010002853290072,0.0010002851283399,-0.00083548291240595,0.00083548265430401,-0.0008354828898609,0.00083548273733019,-3.9442771926863e-10,9.7314187871301e-10,-7.1278658197684e-10,1.2680648540186e-09,-0.001606593746112,0.0016065943019317,-0.0017722019222771,0.0017722014289916,-0.0017722013182568,0.001772202001675,-0.0017722015041855,0.0017722018548141,-0.0017722008342328,0.0017722024986342,-0.0014175615520482,0.0014175605723839,-0.001417559448859,0.0014175624390847,-0.0014175611357304,0.0014175609368595,-0.0014175597547468,0.0014175624067641,4.3053427023093e-11,-1.0887346758497e-10,-0.00083486673704263,0.00083486669216604,1.6454459849017e-09,-1.6661499445212e-09,-0.0010002846524815,0.0010002858054768,-0.001000285824344,0.0010002846443137,-0.0010002847438796,0.0010002857003295,-0.0010002858438775,0.0010002846517325,-0.00083548339029839,0.00083548217091898,-0.00083548337806932,0.00083548215240867,0.59321240902033,128566,2924,0.0034753989388278,0.0066688316779515,0.0034753989547737,37.826377452345,6.501101961876e-05,6.501101961876e-05,6.501101961876e-05,4831986.0923379,0.013713885268885
11219200,0.90349030887757,0.013949897817473,0.0038464063422095,0.0062570851171899,0.0038464063580738,-0.00083934504072672,0.00083934494723825,2.164106086574e-12,-9.6604710850616e-11,1.2926065137803e-10,-2.4789877915658e-10,-0.0010064000679091,0.0010064001818353,-0.001006400135449,0.0010064001021939,-0.0010064002464751,0.0010064000407159,-0.0010064002244286,0.0010064000282045,-0.0008398688769318,0.00083986865915163,-0.00083986887002388,0.00083986870901623,-3.7591462418392e-10,9.6486439958431e-10,-8.5311371560865e-10,1.4138655701421e-09,-0.00161799066913,0.0016179912261188,-0.0017855352708152,0.001785534680741,-0.0017855345697827,0.0017855353641261,-0.0017855348537888,0.0017855351023729,-0.0017855340992266,0.0017855358455761,-0.0014270781208933,0.0014270769005716,-0.0014270758849924,0.0014270791095317,-0.0014270775040264,0.0014270774501198,-0.0014270761582527,0.0014270788390653,2.4062390631072e-11,-1.3189885483006e-10,-0.00083934504226296,0.00083934495005014,1.7369506116158e-09,-1.8530886325806e-09,-0.0010063995252414,0.0010064007335847,-0.0010064007823504,0.0010063994922899,-0.0010063996129591,0.0010064006353517,-0.0010064008111176,0.001006399491538,-0.00083986944504658,0.0008398680617306,-0.00083986940738978,0.00083986808054363,0.59263757298325,128566,2924,0.0034940426532666,0.0067159502839364,0.0034940426623856,37.936329635674,6.5890637085389e-05,6.5890637085389e-05,6.5890637085389e-05,4837457.6779711,0.013799472229437
11419200,0.91008861508485,0.014030161700518,0.0038670038235912,0.0062961540373397,0.0038670038395874,-0.00084323036483829,0.00084323027124261,-1.2371096446495e-12,-9.4555292274836e-11,1.3561163138201e-10,-2.5175211143992e-10,-0.0010117750651385,0.0010117751856978,-0.0010117751377137,0.0010117751008234,-0.0010117752554286,0.0010117750376574,-0.0010117752235299,0.0010117750294422,-0.00084368452245783,0.00084368426214672,-0.00084368446703119,0.0008436843329198,-3.7997434257407e-10,9.7303910508797e-10,-8.7237048121003e-10,1.4365843273349e-09,-0.0016282622056859,0.0016282627628393,-0.0017976071586487,0.0017976065539387,-0.0017976064551856,0.0017976072455902,-0.0017976067436624,0.0017976069745863,-0.0017976059743516,0.0017976077357727,-0.0014356204475399,0.0014356191468088,-0.0014356181324647,0.001435621468134,-0.0014356197837679,0.0014356197359764,-0.001435618411646,0.0014356211653873,2.323843889782e-11,-1.2980079783557e-10,-0.00084323037127027,0.00084323027232058,1.7447766636529e-09,-1.8738291737232e-09,-0.0010117745223543,0.0010117757356889,-0.0010117757980116,0.0010117744775971,-0.0010117746145927,0.0010117756323617,-0.0010117758208752,0.001011774484162,-0.00084368505679457,0.00084368372364201,-0.00084368504680077,0.00084368370530121,0.59626754345895,128566,2924,0.0035102202818313,0.0067584138199883,0.0035102202974966,37.863760512011,6.5310084096086e-05,6.5310084096086e-05,6.5310084096086e-05,4837818.1742602,0.013875344452887
11619200,0.91616862301271,0.014104525652361,0.0038861297189063,0.0063322661983607,0.0038861297350943,-0.00084644726867846,0.00084644717282979,-3.3241241763911e-12,-9.4610407060298e-11,1.5376324581118e-10,-2.7126674086962e-10,-0.0010163473643035,0.0010163474985505,-0.0010163474400747,0.0010163474096503,-0.0010163475711424,0.0010163473333333,-0.0010163475323793,0.0010163473280636,-0.00084684696337869,0.00084684667224044,-0.00084684689244777,0.00084684675766766,-3.9697875263043e-10,9.9252697551161e-10,-7.8672232746704e-10,1.3523580609778e-09,-0.0016373050774807,0.0016373056355047,-0.0018082981447064,0.0018082975867578,-0.0018082975013905,0.0018082982197965,-0.0018082977210569,0.0018082980166096,-0.0018082970053747,0.0018082987249818,-0.0014430796879744,0.0014430785509776,-0.0014430775382545,0.0014430807388015,-0.0014430791560759,0.0014430790055205,-0.0014430777317342,0.0014430804828985,2.7673471342608e-11,-1.2497746770613e-10,-0.0008464472699854,0.00084644717897075,1.6568700695214e-09,-1.7843275022402e-09,-0.0010163468512743,0.0010163480207372,-0.0010163480715277,0.0010163468158925,-0.0010163469475914,0.0010163479129087,-0.0010163480899676,0.0010163468265,-0.00084684744134551,0.00084684619052797,-0.0008468474441768,0.00084684616048455,0.59873866875479,128566,2924,0.0035236187017339,0.0067957951253995,0.0035236187172466,37.583577455913,6.3068619647305e-05,6.3068619647305e-05,6.3068619647305e-05,4831940.3696896,0.01394043182192
11819200,0.92169391156541,0.014172615428447,0.0039036924816975,0.0063652304486702,0.003903692498079,-0.00084887222044835,0.00084887212152826,-7.1177150733962e-12,-9.3922554896837e-11,1.7850287314652e-10,-2.9598604556478e-10,-0.0010199745906077,0.0010199747360782,-0.0010199746622599,0.0010199746459867,-0.0010199748133152,0.001019974553679,-0.0010199747725123,0.0010199745481749,-0.0008492239954209,0.00084922367657908,-0.00084922391947009,0.0008492237650592,-4.2460455826926e-10,1.0270756381913e-09,-6.0125746458541e-10,1.1721716654308e-09,-0.001644936864003,0.0016449374259746,-0.0018174158234714,0.0018174153636338,-0.0018174152962057,0.0018174158783224,-0.0018174153785393,0.0018174158137022,-0.0018174147801649,0.001817416402473,-0.0014492869451348,0.0014492861925178,-0.0014492851791255,0.0014492880644387,-0.0014492866838651,0.0014492863683039,-0.0014492851921682,0.0014492879031812,3.672194709987e-11,-1.136412619188e-10,-0.00084887221087555,0.00084887213844255,1.4971104022755e-09,-1.6172787415019e-09,-0.0010199741283015,0.0010199752088786,-0.0010199752382662,0.0010199741146627,-0.0010199742236519,0.0010199751015375,-0.0010199752561805,0.0010199741247818,-0.00084922439024616,0.00084922327516759,-0.00084922439892315,0.00084922325048785,0.60218599509752,128566,2924,0.0035337242912725,0.0068273407429034,0.003533724306516,37.032329412303,5.8658635298422e-05,5.8658635298422e-05,5.8658635298422e-05,4819119.3967602,0.013992926189731
12019200,0.92676216994372,0.014237178403065,0.0039204917326671,0.0063961949211337,0.0039204917492639,-0.00085138740501406,0.00085138729899082,-1.0223057582314e-11,-9.9273605222453e-11,1.9188388864877e-10,-3.2457228592181e-10,-0.0010235707606872,0.0010235709162681,-0.0010235708386111,0.0010235708313983,-0.0010235709960168,0.0010235707200697,-0.0010235709597611,0.0010235707182741,-0.00085174970328761,0.00085174937188888,-0.00085174964160908,0.00085174946511395,-4.4957456962903e-10,1.0315205484024e-09,-4.9114991529546e-10,1.0475710036602e-09,-0.0016522215833544,0.0016522221374772,-0.0018260368872359,0.0018260364991543,-0.001826036436087,0.0018260369290559,-0.0018260364342243,0.0018260369596771,-0.0018260359113412,0.0018260374642454,-0.0014552738897004,0.0014552733610199,-0.0014552722422414,0.0014552748784831,-0.0014552738209084,0.0014552733725144,-0.0014552723123686,0.001455274960388,5.5683205660775e-11,-9.7760536674806e-11,-0.00085138737219228,0.00085138734135261,1.4059743500075e-09,-1.4322201048565e-09,-0.0010235703321946,0.0010235713492859,-0.0010235713514973,0.0010235703434726,-0.0010235704279478,0.0010235712407869,-0.0010235713693523,0.0010235703534079,-0.00085175003986184,0.00085174903796059,-0.00085175004340057,0.00085174900701257,0.6193037615631,128566,2924,0.0035442028988468,0.006857451021635,0.0035442029188228,36.630324159782,5.5442593278256e-05,5.5442593278256e-05,5.5442593278256e-05,4808188.1870487,0.014044723055605
12219200,0.93150626462842,0.014299740897243,0.0039369024092267,0.0064259360622587,0.0039369024257578,-0.00085443381678996,0.00085443370811931,-1.2854897021499e-11,-9.9305789312981e-11,1.8686587651361e-10,-3.2528667774469e-10,-0.0010276848519582,0.0010276850035523,-0.0010276849308037,0.0010276849219648,-0.0010276850845407,0.0010276848080358,-0.0010276850508115,0.0010276848098045,-0.00085489171490546,0.00085489138092139,-0.0008548916712715,0.00085489149585895,-4.5763960054199e-10,1.0284223228746e-09,-4.5909656973846e-10,1.008555122451e-09,-0.0016598472744007,0.0016598478251922,-0.0018348615584369,0.0018348611929037,-0.0018348611268842,0.0018348615938819,-0.0018348611043316,0.0018348616556278,-0.0018348606014624,0.001834862131109,-0.0014616858772699,0.0014616854145242,-0.0014616842272754,0.0014616867929168,-0.0014616858691499,0.0014616853889134,-0.0014616843630323,0.0014616869987415,5.8505482278559e-11,-9.3705357183675e-11,-0.00085443377486746,0.00085443375910688,1.4096002043872e-09,-1.3891448706182e-09,-0.00102768442405,0.0010276854343218,-0.0010276854290903,0.0010276844419677,-0.0010276845184574,0.0010276853253724,-0.0010276854454745,0.0010276844510833,-0.00085489204202425,0.00085489105321501,-0.00085489205313249,0.00085489102213333,0.63790520017962,128566,2924,0.0035568892278096,0.0068889685533205,0.0035568892468818,36.59086769032,5.5126941522559e-05,5.5126941522559e-05,5.5126941522559e-05,4800684.3759403,0.014102428119064
12419200,0.93598512919574,0.014356790534621,0.0039517625868901,0.0064532653445008,0.0039517626032301,-0.00085747472157118,0.00085747461465632,-1.0792953962812e-11,-9.8679764535724e-11,1.8470190379245e-10,-3.2158483227471e-10,-0.0010318617373383,0.0010318618902545,-0.0010318618183959,0.0010318618079033,-0.0010318619700707,0.0010318616966879,-0.0010318619355268,0.0010318616995134,-0.00085802459191349,0.0008580242649566,-0.00085802454413355,0.00085802437505036,-4.4273084070025e-10,1.0167268655745e-09,-4.9814096790007e-10,1.0484536771657e-09,-0.0016673544414092,0.0016673549922141,-0.0018434667621294,0.0018434663806644,-0.0018434663068509,0.0018434668075695,-0.0018434663178053,0.0018434668336606,-0.0018434657889894,0.0018434673383474,-0.0014680321319879,0.0014680315828472,-0.0014680304431059,0.0014680330604894,-0.0014680320515423,0.0014680316088264,-0.0014680305669655,0.0014680331835396,5.8746665800273e-11,-9.6837762348384e-11,-0.00085747468108057,0.0008574746624441,1.3992400311481e-09,-1.3978026735731e-09,-0.0010318613084398,0.0010318623250003,-0.0010318623151652,0.0010318613321313,-0.0010318614060261,0.0010318622144522,-0.0010318623323756,0.0010318613418855,-0.00085802492449029,0.00085802392623065,-0.00085802492953982,0.00085802389813267,0.6182714060735,128566,2924,0.0035695538700031,0.0069199915221253,0.0035695538853457,36.717529884702,5.6140239077617e-05,5.6140239077617e-05,5.6140239077617e-05,4792641.5584926,0.014159592653155
12619200,0.94015651486689,0.014406947638237,0.0039646734747329,0.0064776006725813,0.0039646734909233,-0.00085975216462836,0.00085975206174615,-9.2483380266069e-12,-9.4854372837895e-11,1.8748473502151e-10,-3.1340671549291e-10,-0.0010351702970547,0.0010351704488425,-0.0010351703735161,0.0010351703628763,-0.0010351705300935,0.0010351702580178,-0.0010351704903895,0.0010351702567071,-0.00086030076582147,0.00086030043703609,-0.00086030069878416,0.0008603005399391,-4.3252592627691e-10,1.0275923699349e-09,-4.5399724969566e-10,1.0191904013152e-09,-0.001673708676427,0.001673709234282,-0.0018508820399879,0.0018508816782559,-0.0018508816105842,0.0018508820850711,-0.001850881594589,0.0018508821312655,-0.0018508810914032,0.0018508826150372,-0.0014732946439136,0.0014732941760762,-0.0014732931207848,0.0014732956996873,-0.0014732945884035,0.001473294145276,-0.0014732930923827,0.0014732957023886,5.6942272735743e-11,-9.9198353342865e-11,-0.00085975213161726,0.00085975210095499,1.3469817876604e-09,-1.402592666993e-09,-0.0010351698786671,0.0010351708789989,-0.0010351708697312,0.0010351699034559,-0.0010351699767476,0.001035170768483,-0.0010351708883646,0.0010351699127205,-0.00086030108369324,0.00086030011238837,-0.00086030108789474,0.00086030008835104,0.58731727391419,128566,2924,0.0035790429648177,0.0069462485932202,0.0035790429777204,36.60342145202,5.5227371616163e-05,5.5227371616163e-05,5.5227371616163e-05,4784478.6917867,0.014205483252056
12819200,0.94403664052637,0.014454019294088,0.0039768335610678,0.0065003521556489,0.0039768335773716,-0.00086186111522581,0.00086186101322412,-1.0001947270906e-11,-9.3885583003928e-11,1.855915284312e-10,-3.1039459898159e-10,-0.0010381075107865,0.0010381076611795,-0.0010381075868665,0.0010381075758611,-0.0010381077416669,0.0010381074714848,-0.0010381077012452,0.0010381074706442,-0.00086237235038443,0.00086237202146485,-0.00086237228109828,0.00086237212558777,-4.3525630486572e-10,1.023982083462e-09,-4.2646680490832e-10,9.8693451747501e-10,-0.0016794677009229,0.0016794682559922,-0.001857672097956,0.0018576717557848,-0.0018576716891025,0.00185767214377,-0.001857671652892,0.0018576722080375,-0.0018576711697756,0.0018576726728375,-0.0014780403750653,0.0014780399615905,-0.0014780388935369,0.0014780414087652,-0.0014780403663453,0.0014780398991867,-0.0014780388689129,0.0014780414578329,6.0174605098664e-11,-9.5961780651762e-11,-0.00086186108030105,0.0008618610553095,1.3324424661502e-09,-1.373238572143e-09,-0.0010381070965455,0.0010381080844722,-0.0010381080727156,0.0010381071230355,-0.0010381071945002,0.0010381079741537,-0.0010381080909615,0.0010381071326106,-0.00086237265819176,0.0008623717069795,-0.00086237266400945,0.00086237168151258,0.59135073800684,128566,2924,0.0035878265299411,0.0069700495905735,0.0035878265448866,36.464433903033,5.4115471224265e-05,5.4115471224265e-05,5.4115471224265e-05,4783181.872155,0.014247450052723
13019200,0.94756651452073,0.014497008583975,0.0039879589424036,0.0065210906827928,0.0039879589587784,-0.00086304010202937,0.00086304000194663,-1.079869608335e-11,-9.0554378539009e-11,1.9441358532232e-10,-3.1040329098077e-10,-0.001040003346285,0.001040003495695,-0.0010400034148003,0.0010400034102194,-0.0010400035791289,0.0010400033059184,-0.0010400035359067,0.0010400032990853,-0.00086350469796583,0.00086350436340034,-0.00086350461942459,0.00086350445762791,-4.4047325243273e-10,1.0501219475542e-09,-2.9630688332223e-10,8.7213770761522e-10,-0.0016838389349762,0.0016838394987626,-0.0018629705142996,0.0018629702352841,-0.0018629701798752,0.0018629705500231,-0.0018629700557618,0.0018629706994089,-0.0018629696523629,0.0018629710851193,-0.0014815212102601,0.0014815210657652,-0.0014815200568307,0.0014815223755665,-0.0014815213586888,0.0014815208199814,-0.0014815198283913,0.0014815223858927,6.0773733025496e-11,-9.3919559639937e-11,-0.00086304006871221,0.00086304004125594,1.2335498995738e-09,-1.3165883085546e-09,-0.0010400029582046,0.0010400038991052,-0.0010400038785251,0.0010400029941499,-0.0010400030533762,0.0010400037915682,-0.001040003900131,0.0010400030007027,-0.00086350496870138,0.00086350408119998,-0.00086350497070575,0.00086350406871177,0.59303210599559,128566,2924,0.0035927445278081,0.0069881133260782,0.0035927445401759,35.904660458292,4.9637283666339e-05,4.9637283666339e-05,4.9637283666339e-05,4771999.5075173,0.014275756372093
13219200,0.95075478737323,0.014536030670197,0.0039980837407012,0.0065398631722121,0.0039980837572836,-0.00086374239377044,0.00086374228944012,-1.2739482234842e-11,-9.4060378449548e-11,2.0486483649046e-10,-3.3084037728887e-10,-0.0010413270431691,0.0010413272034511,-0.0010413271186803,0.0010413271191604,-0.0010413272882702,0.0010413270015176,-0.0010413272447016,0.0010413269992487,-0.00086416346915248,0.00086416311835913,-0.00086416338250052,0.00086416321307184,-4.5242289549698e-10,1.0483228632797e-09,-2.2656662007469e-10,7.918322990668e-10,-0.0016873455925406,0.0016873461503423,-0.0018673042040906,0.0018673039768886,-0.0018673039225744,0.0018673042364081,-0.0018673037459805,0.0018673044420965,-0.001867303389502,0.0018673047785907,-0.0014842396172344,0.0014842396065269,-0.001484238549466,0.0014842407002477,-0.0014842398824278,0.0014842392515158,-0.0014842383415879,0.0014842408445425,7.6696920309158e-11,-8.0736500002036e-11,-0.00086374234419175,0.0008637423471002,1.1478270531714e-09,-1.1710817398725e-09,-0.0010413266839436,0.0010413275739875,-0.0010413275315813,0.0010413267402086,-0.0010413267824765,0.0010413274634144,-0.0010413275510571,0.0010413267496433,-0.00086416368470389,0.00086416290214098,-0.00086416368662775,0.00086416287582913,0.59512913185843,128566,2924,0.0035956800972685,0.0070026032765524,0.0035956801140769,35.182355124328,4.3858840994626e-05,4.3858840994626e-05,4.3858840994626e-05,4756855.892374,0.014296415809876
13419200,0.95363892465078,0.014570754826207,0.0040070760086233,0.0065566027923203,0.0040070760252631,-0.00086422122951503,0.00086422112285097,-1.4594761220945e-11,-9.4486622948866e-11,2.0705916915363e-10,-3.372509091574e-10,-0.0010423739000821,0.0010423740604688,-0.0010423739753444,0.0010423739779868,-0.0010423741466542,0.0010423738555877,-0.0010423741056389,0.0010423738554789,-0.00086459603691038,0.00086459568325493,-0.00086459596324131,0.00086459578796985,-4.6208540760799e-10,1.0522052698513e-09,-1.6472661512675e-10,7.266007984326e-10,-0.0016903264251425,0.0016903269814092,-0.0018710267430972,0.0018710265542929,-0.0018710265007249,0.0018710267687489,-0.0018710262801486,0.0018710270251053,-0.0018710259642436,0.0018710273152886,-0.0014865142660583,0.0014865143848793,-0.0014865132851159,0.0014865153104362,-0.0014865146297906,0.0014865139421347,-0.0014865130812188,0.0014865155558925,8.2553090221525e-11,-7.5095262184486e-11,-0.00086422117082303,0.00086422118966125,1.1117372859832e-09,-1.1006845437407e-09,-0.0010423735526908,0.0010423744180485,-0.0010423743642887,0.0010423736207753,-0.0010423736503885,0.0010423743074933,-0.0010423743835199,0.0010423736289496,-0.00086459623102007,0.00086459548725145,-0.00086459623403765,0.00086459546414103,0.58608787777698,128566,2924,0.0035976857038412,0.0070149195993683,0.0035976857207831,34.451756220243,3.8014049761947e-05,3.8014049761947e-05,3.8014049761947e-05,4741111.9756652,0.014312983888001
13619200,0.95627962206004,0.014602137526559,0.0040151949988005,0.0065717475123208,0.0040151950154379,-0.00086486855558113,0.0008648684481476,-1.6113768145371e-11,-9.4180330587482e-11,1.9767049831115e-10,-3.305367238888e-10,-0.0010435274464883,0.0010435275988589,-0.0010435275209701,0.0010435275210401,-0.0010435276851501,0.0010435274011526,-0.001043527646867,0.0010435274004464,-0.0008651953008107,0.00086519495498958,-0.00086519524136199,0.00086519506666956,-4.6315176156102e-10,1.0452077590322e-09,-1.8111334852329e-10,7.3824286012855e-10,-0.0016932493429978,0.0016932498965072,-0.0018746394316115,0.0018746392326932,-0.0018746391757292,0.0018746394550464,-0.001874638969043,0.0018746397036912,-0.0018746386438297,0.0018746399972524,-0.0014887864486303,0.0014887865369616,-0.0014887853880974,0.0014887874392186,-0.00148878679391,0.0014887861294646,-0.0014887852641181,0.0014887877459107,8.2290383294836e-11,-7.5042232154701e-11,-0.00086486849475056,0.00086486851760639,1.1591869956918e-09,-1.1211425833581e-09,-0.0010435270856696,0.0010435279679556,-0.0010435279171868,0.0010435271492109,-0.001043527180421,0.0010435278589202,-0.0010435279377998,0.0010435271550411,-0.0008651955149015,0.00086519474289856,-0.00086519551594679,0.00086519472279303,0.57890326035547,128566,2924,0.0036003889194253,0.0070269980331681,0.0036003889374897,33.907204694125,3.3657637553004e-05,3.3657637553004e-05,3.3657637553004e-05,4731354.0548972,0.014330725287998
13819200,0.95872003945238,0.014631138437819,0.0040227095070391,0.0065857194071643,0.0040227095236161,-0.00086565786201078,0.00086565775539053,-1.4809299229456e-11,-9.4380965883763e-11,1.9061392377437e-10,-3.2482069768595e-10,-0.0010447704310761,0.0010447705855691,-0.0010447705116391,0.0010447705043697,-0.0010447706699298,0.0010447703879908,-0.0010447706282671,0.0010447703927119,-0.0008659451064389,0.00086594475762689,-0.00086594503607261,0.00086594487964237,-4.4683328184408e-10,1.0243133957524e-09,-2.8897262137889e-10,8.415034679408e-10,-0.0016961286020617,0.0016961291524756,-0.0018781635580073,0.0018781633072385,-0.0018781632390738,0.0018781635939831,-0.0018781631123344,0.001878163761546,-0.0018781627147776,0.0018781641296802,-0.0014910626173596,0.0014910624725209,-0.0014910613415858,0.001491063575829,-0.0014910628067824,0.0014910622173092,-0.0014910613008306,0.0014910638075601,7.9377893712408e-11,-8.0989840010834e-11,-0.00086565780470899,0.0008656578207794,1.2106875119746e-09,-1.1791355099925e-09,-0.0010447700528669,0.0010447709730612,-0.0010447709261768,0.0010447701123049,-0.0010447701536555,0.0010447708587216,-0.0010447709433301,0.0010447701220314,-0.00086594533956405,0.00086594452383502,-0.00086594534790181,0.00086594449303736,0.57842618586347,128566,2924,0.0036036801441095,0.0070388972368227,0.0036036801610616,33.507080270957,3.0456642167655e-05,3.0456642167655e-05,3.0456642167655e-05,4726065.9256068,0.014349477391743
14019200,0.96101296690203,0.014658393287509,0.0040297807932983,0.0065988316844092,0.0040297808098019,-0.00086685610501869,0.0008668560013663,-1.494445135249e-11,-9.1616471202441e-11,1.6712455970758e-10,-2.9779129862142e-10,-0.0010464199648998,0.0010464201012073,-0.0010464200400294,0.0010464200235069,-0.0010464201825366,0.0010464199229094,-0.0010464201447276,0.0010464199254944,-0.00086713093486073,0.00086713061245081,-0.00086713088084694,0.00086713073402832,-4.3455502934803e-10,1.0065001270532e-09,-4.1247197261731e-10,9.619172238538e-10,-0.0016993473417724,0.0016993478898057,-0.0018819858981362,0.0018819855712958,-0.001881985495619,0.0018819859414884,-0.0018819854582736,0.0018819860194151,-0.0018819849850221,0.001881986462785,-0.0014937078191763,0.0014937074315733,-0.0014937062843425,0.0014937087485943,-0.0014937078328965,0.0014937073709642,-0.0014937063697985,0.0014937089300056,6.7007714372087e-11,-9.2215331214894e-11,-0.00086685606061838,0.00086685605414303,1.3673923552492e-09,-1.3488650481952e-09,-0.0010464195376006,0.0010464205343942,-0.0010464205147313,0.0010464195700245,-0.001046419633843,0.0010464204236988,-0.0010464205345224,0.0010464195758794,-0.0008671312517199,0.00086713029616965,-0.00086713125442432,0.0008671302765172,0.57821464175777,128566,2924,0.0036086696796951,0.0070521999265002,0.003608669697282,33.390863838954,2.9526910711634e-05,2.9526910711634e-05,2.9526910711634e-05,4726328.7325613,0.01437309927576
14219200,0.9631629343492,0.014682970249262,0.0040361074400802,0.0066107553526875,0.0040361074564939,-0.00086784453883063,0.00086784444182967,-1.0928361752668e-11,-8.7146601692995e-11,1.596853201661e-10,-2.7904316604047e-10,-0.0010478502691861,0.0010478504022698,-0.0010478503433152,0.0010478503210156,-0.0010478504814313,0.0010478502324137,-0.0010478504378702,0.001047850232698,-0.00086809210179071,0.00086809178931316,-0.00086809203690799,0.00086809191410147,-4.0977253967137e-10,9.9691709463178e-10,-5.3519681157537e-10,1.0943658835793e-09,-0.0017022271134722,0.0017022276656816,-0.0018854339891206,0.0018854335872526,-0.0018854335072039,0.0018854340461331,-0.0018854335613872,0.0018854340214535,-0.0018854330050397,0.0018854345570534,-0.0014960480827038,0.0014960474346038,-0.0014960463766559,0.0014960490931956,-0.001496047898518,0.0014960475569385,-0.0014960464551681,0.0014960490660948,5.1707949986298e-11,-1.0927061732594e-10,-0.00086784451378956,0.00086784447215145,1.4407323036465e-09,-1.4982565994079e-09,-0.0010478498156861,0.001047850868871,-0.0010478508683972,0.0010478498291596,-0.0010478499147751,0.0010478507564519,-0.0010478508888178,0.0010478498361074,-0.00086809246633925,0.00086809140847154,-0.00086809247062873,0.00086809139155887,0.55856767674529,128566,2924,0.0036127870103551,0.0070641009465731,0.0036127870213905,33.23371959465,2.82697567572e-05,2.82697567572e-05,2.82697567572e-05,4725353.8363574,0.014393530333986
14419200,0.96516619792424,0.014706134817332,0.0040420933217316,0.0066219481574102,0.0040420933381903,-0.00086856382841948,0.00086856373262165,-1.2027474350165e-11,-8.6019922130234e-11,1.5313414214384e-10,-2.6920234602371e-10,-0.0010488979622628,0.0010488980884858,-0.0010488980314897,0.0010488980076094,-0.0010488981663989,0.0010488979251909,-0.0010488981234469,0.0010488979231265,-0.00086876143505384,0.0008687611291608,-0.00086876136018596,0.00086876123637954,-4.0680049628878e-10,9.9471153242195e-10,-5.894362147753e-10,1.148737035225e-09,-0.0017045979820635,0.0017045985340019,-0.0018883607661574,0.0018883603266046,-0.0018883602479758,0.0018883608259101,-0.00188836033773,0.0018883607608706,-0.0018883597494221,0.0018883613322839,-0.001497921093756,0.0014979203427223,-0.0014979193049006,0.0014979221289996,-0.0014979208300538,0.001497920543486,-0.0014979193959886,0.0014979220386685,4.7015658731472e-11,-1.1381964580661e-10,-0.00086856381247056,0.00086856375572837,1.5052961400303e-09,-1.5868910557578e-09,-0.0010488974875465,0.0010488985725737,-0.0010488985883088,0.0010488974850811,-0.0010488975844386,0.0010488984626387,-0.0010488986106734,0.0010488974900017,-0.00086876183541063,0.00086876072246201,-0.00086876183230228,0.00086876071008245,0.56383594339855,128566,2924,0.0036157831806702,0.007073901145126,0.0036157831955825,32.955452181883,2.6043617455062e-05,2.6043617455062e-05,2.6043617455062e-05,4725909.4613582,0.014409553831022
14619200,0.96694800350965,0.014726860648092,0.0040474604704174,0.0066319396907617,0.0040474604869126,-0.00086767560156585,0.00086767550774054,-1.0041490176868e-11,-8.3899228134787e-11,1.8539176579852e-10,-2.9050276042831e-10,-0.0010482276615615,0.0010482278059929,-0.0010482277296933,0.001048227719102,-0.0010482278894025,0.0010482276253044,-0.001048227837082,0.0010482276185445,-0.00086777931808086,0.00086777898411205,-0.00086777920738815,0.00086777907847752,-4.1061274970941e-10,1.0332145276525e-09,-4.6181201907747e-10,1.0444843076625e-09,-0.0017049365060492,0.0017049370706978,-0.0018891779545878,0.0018891775770671,-0.0018891775173571,0.0018891780048388,-0.0018891775137722,0.0018891780226275,-0.0018891770012918,0.001889178526784,-0.0014978660883264,0.0014978655843823,-0.0014978646736088,0.0014978673227829,-0.0014978659739636,0.0014978655876585,-0.0014978644736222,0.0014978670967524,5.0864365657956e-11,-1.1257765004698e-10,-0.00086767558793051,0.0008676755262069,1.3296464588899e-09,-1.4878704533722e-09,-0.0010482272370549,0.0010482282516876,-0.0010482282500432,0.0010482272534433,-0.0010482273381063,0.001048228139239,-0.0010482282735592,0.0010482272599829,-0.00086777964140582,0.00086777864586125,-0.00086777963743731,0.00086777863414084,0.56645707164408,128566,2924,0.0036120998576065,0.0070753000141263,0.0036120998674418,31.821474630317,1.697179704254e-05,1.697179704254e-05,1.697179704254e-05,4707032.7619871,0.014403501737789
14819200,0.96855324724067,0.014745672448996,0.004052350318571,0.0066409717951869,0.0040523503352386,-0.00086701631995059,0.00086701621373625,-1.9577997740167e-11,-9.2287228926384e-11,1.8344779316165e-10,-3.1632769878829e-10,-0.0010477621652562,0.0010477623083058,-0.0010477622416777,0.0010477622399827,-0.0010477623967705,0.0010477621264636,-0.0010477623563411,0.0010477621238489,-0.00086704629460908,0.00086704595045828,-0.00086704620024805,0.00086704602818745,-4.5491604580354e-10,1.0252434711628e-09,-3.886346131264e-10,9.3675780757435e-10,-0.0017053684937609,0.0017053690436875,-0.0018900276647167,0.0018900273437707,-0.0018900272844914,0.0018900277055661,-0.0018900272114554,0.0018900278102221,-0.0018900267654362,0.001890028237616,-0.001497949664271,0.0014979493574385,-0.0014979482220801,0.0014979506260139,-0.0014979497479628,0.0014979492332375,-0.0014979482440074,0.0014979508202131,7.5038035341734e-11,-8.6285991052993e-11,-0.00086701627438366,0.00086701627114446,1.350381733912e-09,-1.3327213613756e-09,-0.0010477617466158,0.0010477627313236,-0.0010477627127867,0.001047761779523,-0.001047761841489,0.0010477626240212,-0.0010477627379809,0.001047761784149,-0.0008670465948651,0.00086704566637073,-0.00086704658382523,0.00086704564660324,0.56962156661104,128566,2924,0.0036093668985175,0.0070770854288776,0.0036093669232803,30.869508947407,9.3560715792576e-06,9.3560715792576e-06,9.3560715792576e-06,4690947.3388243,0.014399769975906
15019200,0.9699706936653,0.014762226511106,0.0040566572564424,0.0066489119816387,0.0040566572730246,-0.00086556551679881,0.00086556541618035,-1.5925098534098e-11,-8.5633686069703e-11,2.0860201526339e-10,-3.2495835918636e-10,-0.0010464436946137,0.001046443847625,-0.0010464437580403,0.0010464437717335,-0.0010464439365889,0.0010464436546953,-0.0010464438944652,0.0010464436481565,-0.00086549633891136,0.00086549599812043,-0.00086549625680281,0.00086549607311766,-4.6396113642341e-10,1.0721037529074e-09,-2.1104141059448e-10,7.8372081374946e-10,-0.0017047333497498,0.0017047339150059,-0.0018897476030734,0.0018897473657995,-0.0018897473206026,0.0018897476330943,-0.0018897471273248,0.0018897478497283,-0.0018897467833545,0.0018897481814917,-0.0014970377041166,0.0014970377918134,-0.0014970368056087,0.0014970389082871,-0.0014970380306698,0.0014970373812978,-0.0014970364495161,0.0014970389607143,6.3675348541222e-11,-9.7642667564689e-11,-0.00086556548085471,0.00086556545609417,1.1836829053586e-09,-1.2771644153485e-09,-0.0010464433206681,0.0010464442428756,-0.0010464442063719,0.0010464433769825,-0.0010464434166298,0.0010464441377147,-0.0010464442355848,0.0010464433775327,-0.00086549659569093,0.00086549568857714,-0.00086549658354084,0.00086549571403131,0.56738228670354,128566,2924,0.0036033446985364,0.0070744595143011,0.0036033447066835,29.52362238115,-1.4110209507973e-06,-1.4110209507973e-06,-1.4110209507973e-06,4666016.347961,0.014384889271543
15219200,0.97113525044104,0.014775207671114,0.0040600076358622,0.0066551923827073,0.0040600076525441,-0.00086169061869406,0.00086169051032355,-1.8833266998533e-11,-9.0221937062429e-11,2.6615120267522e-10,-3.8605034469167e-10,-0.0010425221693129,0.0010425223619328,-0.0010425222370781,0.0010425222697367,-0.0010425224572422,0.0010425221191814,-0.001042522405635,0.0010425221190071,-0.00086141670323829,0.00086141628964817,-0.00086141656823026,0.00086141636648943,-4.8845631158321e-10,1.1252970511828e-09,7.9389928750996e-11,5.1276980429328e-10,-0.0017010753565036,0.0017010759302275,-0.0018863684108097,0.0018863683380407,-0.0018863683199255,0.001886368410517,-0.0018863679169652,0.0018863688364,-0.0018863677457803,0.0018863689917696,-0.0014932308195368,0.0014932314383692,-0.0014932305103082,0.001493232171867,-0.0014932315031334,0.0014932305974893,-0.0014932298215078,0.0014932322675719,9.666731355272e-11,-6.9832659015441e-11,-0.00086169055698227,0.00086169057844155,8.1643863186022e-10,-9.0548840244994e-10,-0.0010425219062717,0.0010425226444466,-0.0010425225579949,0.0010425220133096,-0.0010425220120188,0.0010425225293508,-0.0010425225802298,0.0010425220206978,-0.00086141676355765,0.00086141622172478,-0.00086141675887251,0.00086141621663907,0.54391446450589,128566,2924,0.0035872487626336,0.0070593386003957,0.0035872487756763,26.879792839332,-2.2561657285342e-05,-2.2561657285342e-05,-2.2561657285342e-05,4615229.3192561,0.014336894277465
15419200,0.97219527087544,0.01478881542506,0.0040636388293639,0.0066615377495973,0.0040636388460992,-0.00086082255734153,0.00086082244399005,-2.3592079820435e-11,-9.3593842581982e-11,2.2673139734233e-10,-3.7142384725642e-10,-0.0010416223336274,0.0010416225009403,-0.0010416224095046,0.0010416224317864,-0.001041622593995,0.0010416222827182,-0.0010416225575856,0.0010416222865747,-0.00086046379316016,0.00086046341548375,-0.00086046374335326,0.00086046354724062,-5.0572591959677e-10,1.0721352914146e-09,-2.5023111149366e-11,5.7373619298843e-10,-0.0017006446622998,0.0017006452117456,-0.0018862093170964,0.0018862092040308,-0.0018862091676984,0.0018862093182961,-0.0018862088323091,0.0018862096997098,-0.0018862086145996,0.0018862098830122,-0.0014926034001498,0.0014926038219504,-0.001492602565045,0.0014926043020595,-0.0014926040262727,0.0014926031712264,-0.0014926024395577,0.0014926048700523,1.0298680723917e-10,-6.0372645644249e-11,-0.00086082247407123,0.00086082253483659,1.0417767184069e-09,-9.1754369344205e-10,-0.0010416220157697,0.0010416228191342,-0.0010416227430221,0.00104162210555,-0.0010416221110409,0.0010416227101865,-0.0010416227666834,0.0010416221096738,-0.00086046392542099,0.00086046327973138,-0.00086046392183823,0.00086046326112427,0.61488004846469,128566,2924,0.0035836424838918,0.0070575625658617,0.0035836424999392,25.92983744023,-3.0161300478161e-05,-3.0161300478161e-05,-3.0161300478161e-05,4604329.7548397,0.014327774927055
15619200,0.97319482217431,0.014801932044269,0.0040671540134714,0.0066676240006352,0.0040671540301622,-0.00086087997619109,0.0008608798626616,-2.1359556842333e-11,-9.633927578177e-11,2.05502631157e-10,-3.5831386649263e-10,-0.0010419392001866,0.0010419393801504,-0.0010419393217186,0.0010419393107076,-0.0010419394826536,0.0010419391682074,-0.0010419394183916,0.0010419391842809,-0.00086058180765737,0.00086058136284106,-0.00086058165367688,0.00086058154910851,-4.3888179599181e-10,9.9486569259482e-10,-4.0591655411614e-10,9.4833577575772e-10,-0.0017015093132308,0.0017015098526288,-0.0018872154514137,0.0018872151621762,-0.0018872151000234,0.0018872154901924,-0.0018872150374444,0.0018872155977529,-0.0018872145766298,0.0018872160322389,-0.0014933012981196,0.001493300812333,-0.0014932995450363,0.0014933020346832,-0.0014933013164814,0.0014933007660407,-0.0014932998333711,0.001493302430001,1.1340287498398e-10,-5.5503839643501e-11,-0.00086087988933109,0.00086087996197366,1.1678134437186e-09,-9.9655422775847e-10,-0.0010419388443904,0.0010419397455614,-0.0010419396760674,0.0010419389222234,-0.0010419389613077,0.0010419396141648,-0.0010419396845399,0.0010419389516216,-0.00086058191162252,0.00086058131446034,-0.00086058195937855,0.00086058118760737,0.62695263362172,128566,2924,0.0035838896216905,0.0070611311710577,0.0035838896479043,25.55347509546,-3.3172199236321e-05,-3.3172199236321e-05,-3.3172199236321e-05,4588521.6620348,0.014331901193603
15819200,0.97411682142928,0.014814953170427,0.0040706882490412,0.0066735766556728,0.0040706882657126,-0.00086025092278585,0.00086025082754797,-1.3034558555022e-11,-8.2559701511656e-11,1.7943280448224e-10,-2.9172566024603e-10,-0.0010415378325384,0.001041537980226,-0.0010415379096769,0.0010415378938407,-0.0010415380623608,0.0010415377956667,-0.001041538010004,0.0010415378020811,-0.00086002191883739,0.00086002156673761,-0.00086002181261952,0.00086002170749998,-4.0326603026429e-10,1.0123309939242e-09,-4.4645763967263e-10,1.0205894953974e-09,-0.0017015550889539,0.0017015556480789,-0.0018873617567484,0.0018873614088829,-0.0018873613397895,0.0018873618123811,-0.0018873613321808,0.0018873618405683,-0.0018873608277169,0.0018873623323493,-0.0014932342882799,0.0014932337878543,-0.0014932328166932,0.0014932354224156,-0.00149323419824,0.0014932337916124,-0.0014932327148044,0.0014932353119794,6.3277940825138e-11,-1.05183561378e-10,-0.00086025089442865,0.00086025085791826,1.2821750164334e-09,-1.374939185241e-09,-0.0010415374204759,0.0010415384017424,-0.0010415383901348,0.0010415374492649,-0.0010415375278038,0.0010415382833649,-0.001041538409166,0.0010415374600479,-0.00086002219698104,0.00086002127117134,-0.00086002220855615,0.00086002124658375,0.6692015908619,128566,2924,0.0035812852645838,0.0070613135530377,0.0035812852686743,24.791120220252,-3.9271038237983e-05,-3.9271038237983e-05,-3.9271038237983e-05,4563306.0715308,0.014326807191116
16019200,0.97499729971589,0.014827359282213,0.0040740552486895,0.0066792487681603,0.0040740552653635,-0.00086053023747817,0.0008605301325509,-2.0984685031541e-11,-9.0789783026102e-11,1.4057254035171e-10,-2.8093598286327e-10,-0.0010422026686029,0.0010422028072497,-0.0010422027667717,0.0010422027246142,-0.0010422028873608,0.0010422026307486,-0.0010422028353394,0.0010422026546724,-0.00086046444139353,0.0008604640735187,-0.00086046431206427,0.00086046423266306,-3.8882474031814e-10,9.2687035833502e-10,-7.824378179441e-10,1.3069266765813e-09,-0.0017027604768098,0.0017027610060077,-0.0018885990122483,0.001888598508359,-0.0018885984046559,0.0018885990923061,-0.0018885986305319,0.0018885989004844,-0.0018885979198158,0.0018885995904579,-0.0014943366209918,0.0014943354006149,-0.001494334217935,0.0014943373513526,-0.0014943360888001,0.0014943359027689,-0.0014943347236372,0.0014943374207161,7.9225828249448e-11,-8.8893158494053e-11,-0.00086053019177955,0.00086053019389255,1.5247536270586e-09,-1.4451088080401e-09,-0.001042202190079,0.0010422032778367,-0.0010422032738563,0.0010422022051869,-0.0010422023034959,0.0010422031499813,-0.0010422032807973,0.0010422022268648,-0.00086046476829918,0.00086046380720961,-0.00086046479975949,0.00086046372009389,0.66743248910998,128566,2924,0.00358245903601,0.0070662841217566,0.003582459068868,24.593038840502,-4.0855689275981e-05,-4.0855689275981e-05,-4.0855689275981e-05,4541845.9486128,0.014334238194378
16219200,0.97586619352906,0.014839547355823,0.0040773614505681,0.0066848244380461,0.0040773614672086,-0.00086174363186118,0.00086174353380071,-1.7948049217799e-11,-8.6406855265373e-11,9.4148289891355e-11,-2.2990357839761e-10,-0.0010438397909334,0.0010438398914539,-0.0010438398908123,0.0010438398371945,-0.0010438399741745,0.0010438397706746,-0.0010438399292888,0.0010438397777396,-0.00086186989169704,0.00086186958759102,-0.00086186979111764,0.00086186972723439,-3.5947190043902e-10,8.9231085445708e-10,-1.0155717398628e-09,1.5386710613023e-09,-0.0017050414147284,0.0017050419415736,-0.0018909244401537,0.001890923796168,-0.0018909236805474,0.0018909245377731,-0.001890924069165,0.0018909241859813,-0.0018909232325725,0.0018909250045279,-0.0014964893039168,0.0014964876270505,-0.0014964864156306,0.0014964899475782,-0.0014964884389248,0.0014964884940342,-0.0014964871794902,0.0014964899388389,5.8305508216673e-11,-1.0907370825222e-10,-0.00086174360694337,0.00086174357223638,1.8339006054483e-09,-1.769391970686e-09,-0.0010438392169465,0.0010438404622212,-0.001043840505926,0.0010438391832167,-0.0010438393169637,0.0010438403476665,-0.0010438405283553,0.001043839196026,-0.00086187039065897,0.00086186914981328,-0.00086187039051824,0.00086186907719524,0.66426058494816,128566,2924,0.0035875134439829,0.0070757009107639,0.0035875134724605,24.945338258888,-3.8037293928899e-05,-3.8037293928899e-05,-3.8037293928899e-05,4534060.3986907,0.01435405218318
16419200,0.97666317203319,0.014849519747703,0.0040800101813255,0.0066894993684771,0.0040800101978999,-0.00086070800183891,0.00086070792745752,-1.6772295834787e-12,-6.7111886473765e-11,1.3899716426146e-10,-2.128017927866e-10,-0.0010431059007406,0.0010431060239399,-0.0010431059717741,0.0010431059272943,-0.0010431060982131,0.0010431058781142,-0.0010431060316491,0.0010431058783687,-0.00086090691763748,0.00086090660818423,-0.00086090678976845,0.00086090677155124,-3.0630998344027e-10,9.6576114783633e-10,-9.4829488506573e-10,1.5546453758862e-09,-0.001704690514575,0.0017046910861072,-0.0018906136537894,0.00189061300138,-0.0018906129113672,0.0018906137587415,-0.0018906132762115,0.0018906133815481,-0.0018906124403668,0.001890614232358,-0.0014960716222825,0.0014960700465271,-0.0014960693739838,0.0014960730153599,-0.0014960707189376,0.0014960708247528,-0.0014960693412135,0.0014960721571636,1.1290254329451e-11,-1.6050219620282e-10,-0.00086070803817529,0.00086070788260369,1.587501075373e-09,-1.9303633579634e-09,-0.0010431053774394,0.0010431065720344,-0.001043106636888,0.0010431053319478,-0.0010431054904818,0.0010431064509953,-0.001043106658483,0.0010431053449268,-0.00086090738123763,0.00086090608603625,-0.00086090739477726,0.00086090607024441,0.59982144517683,128566,2924,0.0035832225310693,0.0070742385581095,0.0035832225128967,24.072165909406,-4.5022672724748e-05,-4.5022672724748e-05,-4.5022672724748e-05,4503431.9484467,0.014343868860362
16619200,0.97742034129378,0.014860840429642,0.0040831174030337,0.006694605607025,0.0040831174195835,-0.00086078506948377,0.00086078497505634,-1.7506772667245e-11,-8.3257259893219e-11,1.1262662836874e-10,-2.3498860287713e-10,-0.0010432754727475,0.0010432755827944,-0.0010432755483257,0.0010432755017657,-0.0010432756548653,0.0010432754372987,-0.0010432756093597,0.0010432754489864,-0.00086103437573698,0.0008610340719438,-0.0008610342683562,0.00086103418903188,-3.7121249194848e-10,9.2142335438431e-10,-9.6748193562039e-10,1.4993395177952e-09,-0.0017053000581709,0.0017053005918061,-0.0018913429117789,0.0018913422762145,-0.0018913421743238,0.0018913430088396,-0.0018913425259503,0.0018913426689766,-0.0018913417049212,0.0018913434861949,-0.0014965745068388,0.0014965729632595,-0.0014965718803632,0.0014965753561705,-0.0014965737248507,0.0014965737268342,-0.0014965723896508,0.0014965751626932,4.4257946257107e-11,-1.2603990616665e-10,-0.00086078506736809,0.0008607849900234,1.7954424549066e-09,-1.8458823878432e-09,-0.0010432749052109,0.0010432761438472,-0.0010432761961268,0.0010432748664829,-0.0010432750105012,0.0010432760266008,-0.0010432762149576,0.0010432748754401,-0.00086103488849156,0.0008610335825542,-0.00086103488791642,0.00086103354921934,0.70236008950994,128566,2924,0.0035835471352495,0.0070767556091675,0.0035835471621889,23.765852974859,-4.7473176201132e-05,-4.7473176201132e-05,-4.7473176201132e-05,4498656.7867131,0.014347080812432
16819200,0.97814799684703,0.014871771324453,0.0040861167301763,0.0066995378475538,0.004086116746723,-0.00086109230659191,0.00086109220444334,-2.316461453178e-11,-8.7282475633563e-11,1.1751485792087e-10,-2.567596516983e-10,-0.0010439715242863,0.001043971643825,-0.001043971626992,0.0010439715853684,-0.0010439717338182,0.0010439715047926,-0.0010439716813345,0.0010439715171117,-0.00086152808560042,0.00086152773728394,-0.0008615279093838,0.00086152782569687,-3.7103720065645e-10,9.149409607111e-10,-1.0510353345332e-09,1.5802620783135e-09,-0.0017064858287944,0.0017064863647584,-0.001892491123298,0.0018924904565228,-0.0018924903497947,0.001892491235595,-0.0018924907468961,0.0018924908541064,-0.0018924898868493,0.0018924917208526,-0.001497706668998,0.0014977049435363,-0.0014977038229127,0.0014977074178883,-0.0014977057808287,0.0014977058021276,-0.0014977044584904,0.0014977072576697,6.3035983676321e-11,-1.0581224861506e-10,-0.00086109228318733,0.00086109224432431,1.7734622420341e-09,-1.7591154854234e-09,-0.0010439709657527,0.001043972206153,-0.0010439722354568,0.001043970954321,-0.001043971075462,0.0010439720885201,-0.0010439722567841,0.0010439709723784,-0.00086152853470035,0.00086152732914037,-0.00086152853864024,0.00086152725630591,0.70571911825231,128566,2924,0.0035848377467167,0.007081642766627,0.0035848377812323,23.643397262726,-4.8452821898189e-05,-4.8452821898189e-05,-4.8452821898189e-05,4478066.5681055,0.014354664234524
17019200,0.97884307090059,0.014882001486627,0.004088915104328,0.0067041712614437,0.0040889151208554,-0.00086115827925933,0.00086115818310806,-1.8608743923735e-11,-8.0081807185615e-11,1.4588576096294e-10,-2.6691775302234e-10,-0.0010444206811999,0.0010444208196081,-0.0010444207676685,0.0010444207312032,-0.0010444208984695,0.0010444206456002,-0.0010444208409033,0.0010444206686507,-0.00086177512822916,0.00086177476523292,-0.00086177498715114,0.00086177492609998,-3.6469005920432e-10,9.4200410518591e-10,-1.0297403104345e-09,1.5797054011432e-09,-0.0017073996093061,0.0017074001539766,-0.0018933587235299,0.0018933580493087,-0.0018933579527345,0.0018933588214321,-0.0018933583431462,0.0018933584386417,-0.001893357469954,0.0018933593168607,-0.0014985787598314,0.0014985770586872,-0.0014985760739349,0.0014985797282167,-0.0014985778745392,0.0014985778875485,-0.0014985764877374,0.0014985793414925,5.0606647828853e-11,-1.1981717966833e-10,-0.00086115826650399,0.00086115820137543,1.6259022623902e-09,-1.7132120763825e-09,-0.0010444201616559,0.0010444213396788,-0.0010444213663517,0.0010444201532032,-0.0010444202785665,0.0010444212133904,-0.0010444213774718,0.0010444201729318,-0.00086177552961948,0.00086177436300179,-0.00086177555903977,0.00086177430968825,0.692463062899,128566,2924,0.0035851265132219,0.0070854042765321,0.0035851265247518,23.41605939503,-5.0271524839761e-05,-5.0271524839761e-05,-5.0271524839761e-05,4456126.6284035,0.014359072662136
17219200,0.97949953665409,0.014891396233425,0.0040914747876362,0.0067084466416347,0.004091474804154,-0.00086084794411412,0.00086084784991292,-1.6722613361744e-11,-7.9958524848577e-11,1.5147722193992e-10,-2.6489950097267e-10,-0.0010444163430171,0.0010444164662986,-0.0010444164050426,0.0010444163851468,-0.0010444165431847,0.0010444163031037,-0.0010444164994287,0.0010444163065252,-0.00086160015133973,0.00086159984013543,-0.00086160005700084,0.00086159994257215,-3.9914511815533e-10,9.9082241646707e-10,-7.3427079435479e-10,1.294652086091e-09,-0.0017077984026424,0.001707798954134,-0.0018937312444974,0.0018937307152821,-0.0018937306419851,0.0018937313129608,-0.0018937308195633,0.0018937311456294,-0.0018937301457782,0.0018937318167066,-0.0014989420063133,0.0014989409688054,-0.0014989399920072,0.0014989430864443,-0.0014989415487927,0.0014989413580647,-0.0014989401130522,0.0014989428329306,4.0786523722124e-11,-1.3403241601475e-10,-0.00086084794552061,0.00086084785360444,1.660230355514e-09,-1.8016099946589e-09,-0.0010444158143957,0.0010444169957052,-0.0010444170377851,0.0010444157897315,-0.0010444159165369,0.0010444168833733,-0.0010444170656536,0.0010444157900177,-0.00086160063159027,0.0008615993478737,-0.00086160060983187,0.00086159935743557,0.67476321953929,128566,2924,0.0035838497368082,0.0070870390364067,0.0035838497473918,22.992697963842,-5.3658416289268e-05,-5.3658416289268e-05,-5.3658416289268e-05,4434310.4465916,0.014358145702738
17419200,0.98012621865495,0.014899967709961,0.0040937945705958,0.0067123785522482,0.0040937945871166,-0.00086080769436236,0.00086080757390577,-3.5545517390093e-11,-9.8097921959053e-11,1.3786972888949e-10,-2.9695255577385e-10,-0.0010446276805976,0.0010446278010381,-0.001044627713209,0.0010446276856353,-0.0010446278521004,0.0010446275898378,-0.0010446278361718,0.0010446276280135,-0.00086166830006072,0.00086166798745736,-0.00086166824408593,0.00086166805528187,-4.5774588447156e-10,9.7588833645767e-10,-6.1683258530558e-10,1.1167036876454e-09,-0.0017084048650285,0.0017084053821946,-0.0018943394313672,0.0018943389731319,-0.0018943388802573,0.0018943394654263,-0.0018943389915009,0.0018943393988057,-0.0018943383625239,0.001894339985556,-0.0014994985010892,0.0014994977529111,-0.0014994965762476,0.0014994993285421,-0.0014994982489778,0.0014994978833858,-0.001499496817491,0.0014994994346345,6.2872391589388e-11,-1.1419038305575e-10,-0.00086080766772086,0.0008608076228669,1.7047020461991e-09,-1.7025451285777e-09,-0.0010446271372157,0.0010446282913248,-0.0010446283201907,0.0010446271188588,-0.0010446272403494,0.0010446281717119,-0.0010446283297999,0.0010446271111434,-0.00086166879755571,0.00086166756551553,-0.00086166875572961,0.00086166759375933,0.64748128844337,128566,2924,0.0035836924215772,0.007089535000332,0.0035836924683682,22.73636524764,-5.5709078018879e-05,-5.5709078018879e-05,-5.5709078018879e-05,4420725.2002989,0.014360362072838
17619200,0.98063725456585,0.01490667750482,0.0040955984130851,0.0067154806622004,0.0040955984295347,-0.00085619945463235,0.00085619934646455,-2.6705618783001e-11,-8.4564164280716e-11,2.3704326504795e-10,-3.625279121976e-10,-0.0010399102386454,0.0010399104101466,-0.0010399103040377,0.001039910331178,-0.0010399105092238,0.0010399101892276,-0.0010399104537723,0.0010399101912139,-0.00085692485761389,0.00085692445345071,-0.00085692469365124,0.00085692450861786,-4.8068282046979e-10,1.0994370571879e-09,-1.2367780213981e-10,7.0002045026752e-10,-0.0017035244033844,0.0017035249673195,-0.0018894674187239,0.0018894672241737,-0.0018894671962628,0.0018894674300712,-0.0018894669353412,0.0018894677134707,-0.0018894666363343,0.0018894680003171,-0.0014947008792712,0.0014947010944074,-0.0014947001580752,0.0014947021397605,-0.0014947012765317,0.0014947005207024,-0.0014946996523699,0.0014947021525203,9.1006647763425e-11,-8.5090457288045e-11,-0.00085619940649416,0.00085619940386465,1.0823733352376e-09,-1.1810083174505e-09,-0.0010399098910425,0.0010399107707994,-0.0010399107172132,0.0010399099624446,-0.0010399099971856,0.001039910655342,-0.0010399107445473,0.0010399099662428,-0.00085692503350385,0.00085692429060568,-0.00085692500457006,0.00085692429137872,0.6239056070752,128566,2924,0.0035645506601355,0.0070693548359307,0.0035645506791521,19.881091265856,-7.8551269873155e-05,-7.8551269873155e-05,-7.8551269873155e-05,4360427.2282485,0.014301056007643
17819200,0.98111513526173,0.014912734039141,0.0040972234735596,0.006718287075548,0.0040972234900329,-0.00085538849268947,0.00085538837506286,-3.3668573393047e-11,-9.1230335175562e-11,2.179710366032e-10,-3.7396428717714e-10,-0.0010390807736961,0.0010390809379723,-0.0010390808511337,0.0010390808729152,-0.0010390810346963,0.0010390807164404,-0.0010390809928944,0.0010390807325167,-0.00085608865098165,0.00085608825752641,-0.00085608858354905,0.00085608839577101,-5.1297240586865e-10,1.0479446057175e-09,-1.624327636141e-10,6.8813434914446e-10,-0.0017028528035791,0.0017028533391387,-0.0018888389731881,0.0018888387855071,-0.0018888387395412,0.0018888389789461,-0.0018888384992193,0.0018888392694649,-0.0018888381880243,0.0018888395440357,-0.0014940070836761,0.0014940072408776,-0.0014940059237319,0.0014940078644007,-0.0014940075522452,0.001494006760233,-0.0014940059837577,0.0014940084628563,1.0845667141799e-10,-6.6960704214465e-11,-0.00085538840651051,0.00085538847097666,1.1785431926674e-09,-1.0117961595424e-09,-0.0010390804147936,0.0010390812876737,-0.0010390812184591,0.0010390804953134,-0.001039080517908,0.0010390811705292,-0.0010390812402605,0.0010390804999388,-0.00085608882091515,0.00085608808643112,-0.00085608881203673,0.00085608806939816,0.60341925544507,128566,2924,0.003561182549162,0.0070665772882171,0.003561182569831,19.209743526705,-8.3922051786357e-05,-8.3922051786357e-05,-8.3922051786357e-05,4350166.5396826,0.014291404321479
18019200,0.9815802191622,0.01491862385118,0.0040988058372428,0.0067210121602582,0.0040988058536793,-0.0008556896850435,0.00085568957352232,-3.0955916134188e-11,-8.6867336942057e-11,1.8992744887254e-10,-3.3748409785718e-10,-0.0010393923663372,0.0010393925150113,-0.0010393924450246,0.0010393924509996,-0.0010393926105009,0.001039392317571,-0.0010393925631967,0.0010393923306313,-0.00085637961522126,0.00085637923779357,-0.00085637951721118,0.00085637936310676,-4.7043215879694e-10,1.0212626171281e-09,-3.1762981839178e-10,8.5339530877088e-10,-0.0017034055963686,0.0017034061357919,-0.0018894776253208,0.0018894773520052,-0.0018894772917222,0.0018894776537201,-0.0018894771745029,0.0018894778133162,-0.0018894767625525,0.0018894781964691,-0.0014944919887667,0.001494491807935,-0.0014944905775499,0.0014944928262496,-0.0014944921793139,0.0014944915721772,-0.0014944906768184,0.0014944932002491,9.7511266027904e-11,-8.0270646462862e-11,-0.00085568961741442,0.00085568965121594,1.2895370939093e-09,-1.1868979195915e-09,-0.0010393919655115,0.0010393929124421,-0.0010393928663324,0.0010393920235854,-0.001039392070259,0.0010393927942255,-0.0010393928900728,0.0010393920285605,-0.00085637984927213,0.00085637901225835,-0.00085637983707223,0.00085637899196551,0.60266015887253,128566,2924,0.0035624337214757,0.0070688634042854,0.0035624337426971,19.169360091901,-8.4245119264796e-05,-8.4245119264796e-05,-8.4245119264796e-05,4357023.0691491,0.014296259843177
18219200,0.98199391301315,0.014923968338643,0.0041002470249099,0.0067234742724068,0.0041002470413262,-0.00085345978790925,0.00085345969565081,-1.9293264653641e-11,-7.1798879297394e-11,2.1919715989046e-10,-3.160356556806e-10,-0.0010370308752778,0.0010370310294731,-0.001037030943783,0.0010370309593761,-0.0010370311340552,0.0010370308416686,-0.0010370310639527,0.0010370308302289,-0.00085403325708738,0.00085403287100316,-0.00085403308177424,0.00085403296280902,-4.2566982366731e-10,1.0808906453563e-09,-1.8265091637518e-10,7.8898475541024e-10,-0.0017009903303812,0.0017009909061683,-0.0018871333559874,0.0018871331283412,-0.0018871330955202,0.0018871333865992,-0.0018871328955167,0.0018871335961,-0.0018871325598478,0.0018871339289167,-0.0014920860962613,0.0014920861336238,-0.0014920853099011,0.0014920874818942,-0.0014920863399893,0.0014920857449598,-0.001492084773134,0.0014920872864523,8.0600500823997e-11,-1.0106402229695e-10,-0.00085345975902813,0.00085345972603371,1.0714595692633e-09,-1.2495379706933e-09,-0.0010370305216605,0.0010370314147384,-0.0010370313731795,0.0010370305786386,-0.0010370306281553,0.0010370312987804,-0.0010370314083442,0.0010370305822105,-0.00085403343596427,0.00085403267103578,-0.00085403340886079,0.00085403266582388,0.6133906479268,128566,2924,0.0035531676661533,0.007058880933894,0.0035531676688611,17.682671072912,-9.6138631416703e-05,-9.6138631416703e-05,-9.6138631416703e-05,4334113.589477,0.014267333634831
18419200,0.98236763731219,0.014928835961432,0.0041015640626684,0.0067257078196388,0.0041015640791247,-0.00085159767138656,0.00085159756435241,-3.019144051229e-11,-8.2539906757687e-11,1.9681803602976e-10,-3.3040951853954e-10,-0.0010350677729177,0.0010350679231745,-0.0010350678467433,0.0010350678532246,-0.0010350680189805,0.001035067723921,-0.0010350679649234,0.0010350677349473,-0.00085208736950226,0.0008520869865464,-0.00085208724165287,0.00085208709792944,-4.5803668135262e-10,1.0287836458364e-09,-2.30518964098e-10,7.7769194039799e-10,-0.0016989767436165,0.001698977288912,-0.0018851607704023,0.0018851605486776,-0.0018851604900498,0.0018851608005912,-0.0018851603212955,0.0018851610051936,-0.0018851599595523,0.0018851613414037,-0.0014900881445583,0.0014900881192736,-0.0014900870009442,0.0014900891184563,-0.0014900884130293,0.0014900877748566,-0.0014900868948397,0.0014900893747173,1.0274804003151e-10,-7.9978729722629e-11,-0.00085159760831749,0.00085159763794596,1.1644519647624e-09,-1.1202852479214e-09,-0.0010350674016957,0.0010350682963789,-0.001035068239171,0.0010350674712457,-0.0010350675099573,0.001035068175319,-0.0010350682639711,0.0010350674754796,-0.00085208756144248,0.00085208681013738,-0.00085208754278054,0.00085208679475764,0.61738718143149,128566,2924,0.003545430348202,0.0070505578037436,0.0035454303702066,16.424168322411,-0.00010620665342071,-0.00010620665342071,-0.00010620665342071,4313182.3091182,0.014243193447908
18619200,0.9827232417531,0.01493342426807,0.0041028056196593,0.0067278130123043,0.0041028056361066,-0.0008511121240848,0.00085111201736341,-3.2362553848033e-11,-8.2026880435803e-11,1.5604605783387e-10,-2.9918460914497e-10,-0.0010345723697572,0.0010345724934817,-0.0010345724465571,0.0010345724404159,-0.0010345725877252,0.0010345723263421,-0.0010345725414377,0.0010345723366947,-0.00085158062922125,0.00085158027867596,-0.00085158053045535,0.0008515803999416,-4.5050906731606e-10,9.8596377307176e-10,-3.7692767182424e-10,9.0263046631767e-10,-0.0016985514134595,0.0016985519467252,-0.0018847724286546,0.0018847721336404,-0.0018847720562322,0.0018847724718511,-0.001884771992134,0.0018847725812767,-0.0018847715501681,0.0018847729923145,-0.0014896448245498,0.0014896445209716,-0.0014896432593601,0.0014896455737034,-0.0014896449194194,0.0014896444049434,-0.0014896434874962,0.0014896459790921,9.6107001969487e-11,-8.5842437412076e-11,-0.00085111206304559,0.00085111209070748,1.4052937016832e-09,-1.2822270105849e-09,-0.0010345719293909,0.0010345729286129,-0.0010345728972127,0.0010345719709191,-0.0010345720308416,0.0010345728129759,-0.0010345729264025,0.0010345719715716,-0.0008515809247625,0.00085158000192111,-0.0008515809016934,0.00085157998640612,0.6117894832077,128566,2924,0.00354341326363,0.0070487996932798,0.0035434132895925,15.966500333286,-0.00010986799733372,-0.00010986799733372,-0.00010986799733372,4307669.8290152,0.01423731770877
18819200,0.9830678994367,0.014938178508265,0.0041041074763948,0.0067299635390413,0.0041041074928285,-0.00085113009154501,0.00085112999030569,-2.8107298271479e-11,-7.889190096411e-11,1.4276517493992e-10,-2.7483870977784e-10,-0.001034596439419,0.0010345965664307,-0.001034596516699,0.0010345964850943,-0.0010345966508224,0.0010345963899736,-0.0010345965909512,0.0010345964123925,-0.0008515940945079,0.00085159373681618,-0.00085159397465296,0.00085159390624025,-3.9583240647405e-10,9.5018502544088e-10,-6.609498843759e-10,1.196887510614e-09,-0.0016986869093041,0.0016986874411701,-0.0018849551453565,0.0018849546880673,-0.0018849545952331,0.0018849552072005,-0.0018849547484521,0.0018849550872383,-0.0018849541007192,0.0018849557077491,-0.001489746159711,0.0014897451953226,-0.0014897440570364,0.0014897470039313,-0.0014897457717959,0.0014897455277923,-0.0014897443921402,0.0014897470371435,8.237951377049e-11,-1.0652896029308e-10,-0.00085113005302075,0.00085113003977835,1.4781595857393e-09,-1.4476695203186e-09,-0.0010345959671682,0.0010345970314365,-0.0010345970247239,0.0010345959808179,-0.0010345960833011,0.0010345968990195,-0.0010345970406441,0.0010345959900046,-0.00085159442564969,0.00085159344103645,-0.00085159442288283,0.0008515933987175,0.64923266227881,128566,2924,0.0035434879379869,0.0070493605688554,0.0035434879609946,15.790803045758,-0.00011127357563394,-0.00011127357563394,-0.00011127357563394,4308901.1170821,0.014238037429066
19019200,0.98341405957237,0.014943263560385,0.0041055132091323,0.0067322371256918,0.0041055132255611,-0.0008521005159966,0.00085210041592189,-3.1150455139684e-11,-7.7987192344496e-11,9.7673133329293e-11,-2.3665511037824e-10,-0.0010357346999312,0.001035734799133,-0.0010357347756725,0.0010357347306002,-0.0010357348782451,0.0010357346564863,-0.0010357348280154,0.0010357346804293,-0.00085265572766045,0.00085265541459148,-0.00085265561274219,0.00085265554712769,-3.7929588106531e-10,9.0009115177434e-10,-9.1131861066553e-10,1.4220223418995e-09,-0.0017000561606331,0.0017000566804033,-0.0018863199999686,0.0018863194081414,-0.0018863192899133,0.0018863200896684,-0.0018863196209796,0.0018863197924757,-0.0018863188252532,0.0018863205650888,-0.0014910752854008,0.001491073854124,-0.0014910726619023,0.0014910759657168,-0.0014910745740338,0.0014910745299422,-0.0014910732870319,0.0014910759728867,6.9292265532823e-11,-1.1798281945907e-10,-0.00085210049102806,0.00085210045665534,1.7708609259143e-09,-1.7181522442809e-09,-0.0010357341377507,0.0010357353461177,-0.0010357353757607,0.0010357341169155,-0.0010357342484909,0.0010357352204574,-0.0010357353960811,0.0010357341219418,-0.00085265620972853,0.00085265498170051,-0.00085265618831559,0.00085265495118995,0.68719399431369,128566,2924,0.0035475242030014,0.0070550167765494,0.0035475242361785,16.17265404034,-0.00010821876767728,-0.00010821876767728,-0.00010821876767728,4313714.1621536,0.014251965075553
19219200,0.98378253691997,0.014948845605723,0.0041070619176894,0.0067347217539133,0.0041070619341205,-0.00085467551978338,0.00085467542953244,-2.6728914313986e-11,-7.2031740552668e-11,5.7796364787199e-11,-1.8346294018605e-10,-0.001038676271148,0.0010386763436801,-0.0010386763433645,0.0010386762797894,-0.0010386764174594,0.0010386762367719,-0.0010386763680065,0.0010386762559834,-0.00085544140058143,0.00085544113352161,-0.00085544130051749,0.00085544126859917,-3.4330491244705e-10,8.6100478554188e-10,-1.2049148244439e-09,1.7152523698057e-09,-0.0017034384224191,0.0017034389420576,-0.0018896581392899,0.0018896573742134,-0.0018896572379735,0.0018896582583134,-0.0018896577817211,0.001889657737344,-0.0018896568010068,0.0018896587048047,-0.001494387189732,0.001494385175845,-0.0014943840121561,0.0014943878578047,-0.0014943860742229,0.0014943863044045,-0.0014943848583535,0.0014943876578229,3.7064141554153e-11,-1.5198337859391e-10,-0.00085467552990604,0.00085467543207894,2.1015988196575e-09,-2.1188387549323e-09,-0.0010386756053045,0.0010386769960444,-0.0010386770828577,0.0010386755285226,-0.0010386757140784,0.0010386768734997,-0.0010386771080236,0.0010386755301253,-0.00085544205510674,0.00085544049496485,-0.00085544203248949,0.00085544048165554,0.7067836121527,128566,2924,0.0035582317112412,0.0070689893380303,0.0035582317379928,17.487464161831,-9.7700286705354e-05,-9.7700286705354e-05,-9.7700286705354e-05,4330563.1452928,0.014287865529161
19419200,0.984159888304,0.014954431627892,0.0041086037349801,0.0067372241414983,0.0041086037514138,-0.00085621653083724,0.00085621645795974,-1.5492615702034e-11,-5.8431253614036e-11,7.1281289023197e-11,-1.5388052690847e-10,-0.0010405845623568,0.0010405846330334,-0.0010405846186728,0.0010405845568961,-0.0010405847089174,0.0010405845357615,-0.0010405846428185,0.0010405845366013,-0.00085717216991001,0.00085717191244102,-0.00085717203576094,0.00085717203970243,-2.9453603906736e-10,9.0174600004339e-10,-1.2595957975659e-09,1.8314790942179e-09,-0.0017057204412984,0.0017057209924583,-0.0018918780092483,0.001891877172252,-0.0018918770544159,0.0018918781364271,-0.0018918776500391,0.0018918775311005,-0.001891876616761,0.0018918785739642,-0.0014966305312728,0.0014966283811492,-0.0014966275630165,0.0014966316830653,-0.001496629238399,0.0014966296168258,-0.0014966279835131,0.001496630875404,-1.8264485231043e-13,-1.9395261197597e-10,-0.00085621659240069,0.00085621639691176,2.1051167512459e-09,-2.40431916914e-09,-0.0010405838804498,0.0010405853276415,-0.0010405854514069,0.0010405837699283,-0.0010405839913339,0.00104058520569,-0.0010405854849656,0.0010405837672414,-0.00085717287557131,0.00085717116111462,-0.00085717284621861,0.00085717118100492,0.69265170263262,128566,2924,0.0035646448390989,0.0070784111706727,0.0035646448399977,18.223402150458,-9.1812782796339e-05,-9.1812782796339e-05,-9.1812782796339e-05,4332966.815077,0.014310439399273
19619200,0.98453394949436,0.014959824660901,0.0041100853295338,0.0067396539853986,0.0041100853459681,-0.00085686912252443,0.000856869047407,-1.8042234858874e-11,-5.8434852906653e-11,9.2625349816864e-11,-1.7532265742493e-10,-0.0010415068381615,0.0010415069190234,-0.0010415068936128,0.0010415068435135,-0.0010415069988232,0.0010415068083098,-0.0010415069319822,0.0010415068091161,-0.00085796145964891,0.00085796117998186,-0.00085796131211065,0.00085796130050346,-3.1485479657856e-10,9.2621021079619e-10,-1.1966082974379e-09,1.770764186252e-09,-0.0017069326409657,0.00170693319448,-0.0018930508533455,0.0018930500445984,-0.0018930499403852,0.0018930509696001,-0.001893050479194,0.0018930504190511,-0.001893049488454,0.001893051421623,-0.0014978172060467,0.00149781519146,-0.0014978143831147,0.0014978183981161,-0.001497816020544,0.0014978163155658,-0.0014978147147624,0.0014978176127291,6.8198034685089e-12,-1.8836507235851e-10,-0.00085686917915476,0.00085686899230655,2.0378987442099e-09,-2.3385063085261e-09,-0.0010415061778428,0.0010415075934673,-0.0010415077048961,0.0010415060800913,-0.0010415062889429,0.0010415074716742,-0.0010415077394896,0.0010415060768788,-0.00085796212622732,0.00085796047317921,-0.00085796209462831,0.00085796049441988,0.6763936864971,128566,2924,0.0035673652366976,0.0070834118777683,0.0035673652396679,18.456503520274,-8.994797183781e-05,-8.994797183781e-05,-8.994797183781e-05,4328329.8954175,0.014321035417819
19819200,0.98490159610719,0.01496496517126,0.0041114907461964,0.0067419836624239,0.0041114907626394,-0.00085728604072835,0.00085728595204959,-2.7262747195096e-11,-6.6163109693855e-11,1.1441428091343e-10,-2.2139717776231e-10,-0.0010421252006179,0.0010421252981836,-0.0010421252562862,0.0010421252186666,-0.0010421253780109,0.0010421251551825,-0.0010421253196676,0.0010421251703797,-0.00085848042318145,0.00085848011036598,-0.00085848028682835,0.00085848023372184,-3.6102902945803e-10,9.4149400965133e-10,-1.0726424878612e-09,1.6249325231327e-09,-0.0017078139464755,0.0017078144904998,-0.0018939176129026,0.0018939168817463,-0.0018939167827584,0.0018939177093081,-0.0018939172210234,0.0018939172723212,-0.0018939163085491,0.0018939181854507,-0.0014986674663112,0.0014986657295325,-0.0014986647792442,0.0014986685129378,-0.0014986665164709,0.0014986666289438,-0.0014986651617019,0.0014986680187451,3.0860875000864e-11,-1.6579361008869e-10,-0.00085728606682331,0.00085728593290951,1.9371694990368e-09,-2.1195618743351e-09,-0.001042124577511,0.0010421259198683,-0.0010421259975713,0.0010421245137405,-0.0010421246911067,0.0010421257943275,-0.0010421260261538,0.0010421245108546,-0.00085848101555506,0.00085847950231115,-0.00085848098471875,0.00085847951945894,0.65787307864331,128566,2924,0.0035691046729607,0.0070870466791246,0.0035691046874276,18.55831021071,-8.9133518314319e-05,-8.9133518314319e-05,-8.9133518314319e-05,4324351.9930788,0.014328254230509
20019200,0.98525710812599,0.014970127959876,0.0041129112179668,0.0067443055075035,0.0041129112344053,-0.00085727104308267,0.00085727094961998,-2.9402760800767e-11,-6.7196290319286e-11,1.5634261895612e-10,-2.6976392269145e-10,-0.0010422201446807,0.0010422202692971,-0.0010422202135925,0.0010422201976566,-0.001042220362671,0.0010422201023342,-0.0010422202960998,0.0010422201166739,-0.00085852079106136,0.00085852042980099,-0.00085852062899479,0.00085852056211221,-3.8956887476182e-10,9.8114352456234e-10,-8.9861375726067e-10,1.459658688429e-09,-0.0017081137464914,0.0017081142954425,-0.0018942279926637,0.0018942273611738,-0.0018942272850677,0.001894228068795,-0.0018942275825909,0.0018942277759313,-0.0018942267878066,0.0018942285730706,-0.0014989383410272,0.0014989369426424,-0.0014989359837742,0.0014989394088305,-0.0014989376481334,0.001498937565229,-0.0014989362220326,0.001498939032774,5.6371769870096e-11,-1.4263181399746e-10,-0.00085727104229752,0.00085727095604788,1.6824704441534e-09,-1.8196207166624e-09,-0.0010422196033292,0.001042220819488,-0.0010422208494509,0.0010422195872938,-0.0010422197210192,0.0010422206911792,-0.0010422208787786,0.0010422195898196,-0.00085852123620658,0.00085851997119997,-0.00085852120776608,0.00085851996747918,0.68048789096597,128566,2924,0.0035690472392935,0.0070882805402594,0.0035690472509901,18.401039677185,-9.0391682582521e-05,-9.0391682582521e-05,-9.0391682582521e-05,4318956.0226719,0.014329390339591
20219200,0.98560328907943,0.01497530802265,0.0041143430883623,0.0067466218294944,0.0041143431047928,-0.00085743398621429,0.0008574338693119,-4.5773114762029e-11,-8.1421903378662e-11,1.7058437929188e-10,-3.1944133458062e-10,-0.0010425467571307,0.0010425468949971,-0.0010425468023996,0.0010425467886643,-0.0010425469700533,0.0010425466665355,-0.0010425469207515,0.0010425467122045,-0.00085877054425368,0.00085877014603129,-0.00085877041455619,0.00085877028797549,-4.4764732191689e-10,9.8709924208984e-10,-7.1532370211662e-10,1.2338896821642e-09,-0.001708664509079,0.0017086650340776,-0.0018947589224917,0.0018947584005733,-0.0018947583206269,0.0018947589559792,-0.0018947584935409,0.0018947588178894,-0.0018947577918695,0.0018947594853463,-0.001499469715717,0.0014994687232409,-0.0014994675970128,0.0014994706314237,-0.0014994693224464,0.0014994690180098,-0.0014994678458988,0.0014994705938328,8.3894914408026e-11,-1.1739584306818e-10,-0.00085743394999469,0.00085743392221506,1.5556901794094e-09,-1.5587014874298e-09,-0.0010425462550848,0.001042547362588,-0.0010425473583374,0.0010425462661906,-0.0010425463771013,0.0010425472235744,-0.0010425473687392,0.0010425462647642,-0.00085877090967044,0.00085876982675458,-0.00085877088685051,0.00085876983292368,0.69909044463195,128566,2924,0.0035697307030988,0.0070905498733961,0.0035697307380537,18.352337812387,-9.0781297500902e-05,-9.0781297500902e-05,-9.0781297500902e-05,4312028.7543049,0.01433308138856
20419200,0.98594701979639,0.014980459222001,0.0041157672578066,0.0067489246899677,0.0041157672742264,-0.00085812039376001,0.00085812027762557,-4.5380828518163e-11,-8.0344023435859e-11,1.7883352209138e-10,-3.2973956712374e-10,-0.0010434729193029,0.0010434730513833,-0.0010434729857099,0.0010434729898084,-0.00104347315313,0.0010434728556351,-0.001043473098637,0.0010434728744937,-0.00085958751786505,0.00085958711806567,-0.00085958737875078,0.00085958723642816,-4.6715143902067e-10,1.0086510777549e-09,-5.3060106197236e-10,1.0584110009763e-09,-0.0017098785678352,0.0017098791012,-0.0018959315318962,0.0018959311192972,-0.0018959310589142,0.0018959315574415,-0.0018959310847065,0.0018959315746687,-0.0018959305348132,0.0018959320908878,-0.001500657378434,0.0015006567816021,-0.0015006555423453,0.0015006582201677,-0.00150065727835,0.0015006568428795,-0.0015006557907327,0.0015006584684836,9.8246193287778e-11,-1.036120342653e-10,-0.00085812034101493,0.0008581203463671,1.5352111824992e-09,-1.4568623909735e-09,-0.0010434724378975,0.0010434735215841,-0.0010434735045013,0.0010434724627376,-0.0010434725485487,0.0010434733940331,-0.0010434735338776,0.0010434724571916,-0.00085958785437209,0.00085958682617386,-0.00085958781467738,0.00085958682301453,0.69998784741784,128566,2924,0.0035725910155138,0.0070955588173641,0.0035725910490712,18.616349496866,-8.8669204025075e-05,-8.8669204025075e-05,-8.8669204025075e-05,4308567.3615832,0.014343969201842
20619200,0.98627784014235,0.014984875821736,0.004116965400246,0.0067509450048468,0.0041169654166435,-0.00085790242357565,0.00085790232059333,-3.7288808264268e-11,-6.8063544789958e-11,2.1471258528085e-10,-3.4003730232912e-10,-0.001043455272483,0.001043455431375,-0.0010434553381727,0.0010434553594496,-0.0010434555326474,0.0010434552198869,-0.0010434554676581,0.0010434552423249,-0.00085945348373735,0.00085945307159541,-0.00085945331460288,0.00085945319506465,-4.5240130098021e-10,1.0542526448348e-09,-4.0580523781089e-10,9.7247007347149e-10,-0.0017100549255929,0.0017100554832916,-0.0018960676776706,0.0018960673346813,-0.0018960672837468,0.0018960677175262,-0.0018960672232589,0.0018960677942742,-0.0018960667422197,0.0018960682708275,-0.0015008275395814,0.0015008271658348,-0.0015008261999041,0.0015008286766535,-0.0015008275669251,0.0015008270162386,-0.001500826005522,0.0015008285961428,9.425834794276e-11,-1.0908624002012e-10,-0.00085790238057496,0.00085790236720199,1.2160808774169e-09,-1.2945996577129e-09,-0.0010434548728971,0.0010434558395867,-0.001043455790209,0.0010434549419079,-0.0010434549952158,0.0010434557106112,-0.0010434558208839,0.0010434549436669,-0.00085945370826297,0.00085945281638518,-0.00085945366941995,0.00085945283247534,0.63099509739981,128566,2924,0.0035716936292629,0.0070962780691139,0.0035716936366908,18.385042739472,-9.0519658084226e-05,-9.0519658084226e-05,-9.0519658084226e-05,4295402.4790886,0.014342881444464
20819200,0.9865875071866,0.01498934753474,0.0041181958515058,0.0067529558153362,0.0041181958678981,-0.00085696463934755,0.00085696453654557,-3.6350587959343e-11,-6.6802606230256e-11,2.4174973837136e-10,-3.5888218060161e-10,-0.0010424628482492,0.0010424630138278,-0.0010424629136428,0.0010424629455432,-0.0010424631248905,0.0010424627928149,-0.0010424630513327,0.0010424628017534,-0.0008584811108685,0.00085848067280089,-0.00085848093606469,0.00085848081910116,-4.6025540598387e-10,1.0832431842525e-09,-2.140155249138e-10,7.9893064809946e-10,-0.0017091352093127,0.0017091357720546,-0.0018952022348264,0.0018952019912132,-0.0018952019676567,0.0018952022484803,-0.0018952017670795,0.00189520246657,-0.0018952014151469,0.0018952028074064,-0.0014998899328596,0.0014998899130085,-0.0014998889406233,0.0014998911581493,-0.0014998902010217,0.0014998895419211,-0.0014998885988761,0.0014998911727239,1.1275833198683e-10,-9.4469443335853e-11,-0.00085696458303284,0.00085696459663029,1.0187566694478e-09,-1.0775485145057e-09,-0.0010424625105599,0.0010424633691267,-0.0010424632918466,0.0010424625996975,-0.0010424626286142,0.0010424632392506,-0.0010424633265508,0.0010424625981861,-0.00085848122988625,0.00085848054403211,-0.00085848119181992,0.00085848054689384,0.67643101334982,128566,2924,0.0035677980495415,0.0070924755214429,0.003567798057212,17.703539754633,-9.5971681962936e-05,-9.5971681962936e-05,-9.5971681962936e-05,4286096.5721143,0.014331118560518
21019200,0.98687261147665,0.014993326729222,0.0041192852672319,0.0067547561783604,0.0041192852836297,-0.00085550985179099,0.00085550974329047,-4.2590021172471e-11,-6.9286075478301e-11,2.4225918995686e-10,-3.6972949392952e-10,-0.0010410271649126,0.0010410273291675,-0.0010410272136139,0.001041027253687,-0.0010410274312422,0.0010410270953989,-0.0010410273717137,0.0010410271143968,-0.00085701182048455,0.00085701139211571,-0.00085701167353127,0.00085701151439439,-4.9288999690187e-10,1.0969829589236e-09,4.042607236418e-11,5.2943143435074e-10,-0.0017077092425356,0.0017077098025086,-0.0018937622862036,0.0018937621990769,-0.001893762169642,0.0018937622904796,-0.0018937617992208,0.0018937626879378,-0.0018937616039301,0.0018937628616938,-0.0014984907676864,0.0014984913235207,-0.0014984902948091,0.0014984919574194,-0.0014984914321484,0.0014984905498825,-0.0014984897916928,0.0014984922056541,1.1574903752356e-10,-9.1101463598943e-11,-0.00085550978736787,0.00085550981321115,9.6593617495996e-10,-9.9238018183521e-10,-0.001041026843415,0.0010410276526396,-0.0010410275653235,0.0010410269470791,-0.00104102695948,0.0010410275256498,-0.0010410275989494,0.001041026938263,-0.00085701193528694,0.00085701125175963,-0.00085701188837316,0.00085701129486633,0.6560204878266,128566,2924,0.0035617573039326,0.007086576630164,0.003561757315299,16.747155117379,-0.00010362275906097,-0.00010362275906097,-0.00010362275906097,4263322.4652849,0.014312880167135
21219200,0.98712134264066,0.014996822746059,0.0041202447437469,0.0067563332421685,0.0041202447601438,-0.00085256803575792,0.00085256792379778,-4.4733528542733e-11,-7.0144799684377e-11,2.6227242016017e-10,-3.9400665304368e-10,-0.0010379470895225,0.0010379472655164,-0.001037947146554,0.0010379471960629,-0.001037947376919,0.0010379470216506,-0.0010379473110921,0.0010379470380901,-0.00085395952811895,0.00085395906710576,-0.0008539593552336,0.0008539591927504,-5.0532584634815e-10,1.1160825925606e-09,2.0320116499095e-10,3.7149576476527e-10,-0.0017044454935367,0.0017044460548566,-0.0018905009273349,0.0018905009379987,-0.0018905009213958,0.0018905009165535,-0.0018905004321008,0.0018905014389703,-0.0018905003454774,0.0018905015003708,-0.0014952932277265,0.0014952940869081,-0.0014952930447471,0.001495294423025,-0.0014952940991034,0.0014952930821558,-0.0014952924321331,0.0014952947851712,1.4037095412584e-10,-6.9298482930661e-11,-0.00085256794912834,0.0008525680178618,7.5710478667435e-10,-7.3592908562619e-10,-0.0010379468322826,0.0010379475308371,-0.0010379474058193,0.0010379469714616,-0.0010379469496002,0.001037947401495,-0.0010379474404606,0.0010379469649362,-0.00085395952597856,0.00085395907065542,-0.00085395947787911,0.00085395909416107,0.65967492549993,128566,2924,0.0035495349086365,0.0070730842269808,0.0035495349239909,14.93292447516,-0.00011813660419872,-0.00011813660419872,-0.00011813660419872,4227513.713381,0.014274396591188
21419200,0.98734824247146,0.01500003752868,0.004121130068922,0.0067577773744416,0.004121130085316,-0.00085079725699357,0.00085079714409232,-4.6508077857205e-11,-7.1053098928674e-11,2.4167850377547e-10,-3.8297265824229e-10,-0.001036094707293,0.0010360948744698,-0.0010360947717227,0.0010360948130196,-0.0010360949838552,0.0010360946415067,-0.0010360949226805,0.0010360946638976,-0.00085213066123599,0.00085213021360915,-0.000852130516634,0.00085213036536818,-5.0232752629771e-10,1.0783751709082e-09,1.2041083817861e-10,4.3307865080332e-10,-0.0017025008367461,0.0017025013868143,-0.0018885514136777,0.0018885513960194,-0.00188855136314,0.0018885514148902,-0.0018885509338312,0.0018885518847829,-0.0018885508018364,0.0018885519866256,-0.0014933900492743,0.0014933907473612,-0.0014933895715166,0.0014933910430602,-0.001493390847008,0.0014933898846127,-0.0014933892306689,0.0014933915827944,1.4476371435834e-10,-6.5858228258779e-11,-0.00085079716023818,0.00085079724865204,8.313136788201e-10,-7.1324908867571e-10,-0.0010360944324124,0.0010360951504051,-0.0010360950253103,0.0010360945705693,-0.0010360945498672,0.0010360950202213,-0.0010360950587368,0.0010360945648506,-0.00085213067900417,0.00085213018880443,-0.00085213063851392,0.00085213020555527,0.66373849898537,128566,2924,0.0035421781350039,0.0070650444743799,0.003542178151384,13.798387177092,-0.00012721290258326,-0.00012721290258326,-0.00012721290258326,4205209.1626614,0.014251316206724
21619200,0.98756366752065,0.015003119966493,0.0041219813348372,0.0067591572804283,0.0041219813512276,-0.00085007178620058,0.00085007167662515,-4.6678719232463e-11,-6.9058383401365e-11,1.9549445401759e-10,-3.3808350804561e-10,-0.0010353604631992,0.0010353606021485,-0.0010353605251792,0.0010353605458098,-0.0010353607045897,0.0010353604008557,-0.0010353606483128,0.0010353604241643,-0.00085139438758477,0.00085139397640149,-0.00085139425446828,0.00085139412965829,-4.7558224711233e-10,1.0292414724383e-09,-6.6938520721199e-11,6.0487579834192e-10,-0.0017017669653266,0.001701767505566,-0.0018878122543515,0.001887812140323,-0.0018878120832071,0.0018878122758478,-0.0018878117962621,0.0018878126066541,-0.0018878115500133,0.0018878128202007,-0.001492672106015,0.0014926724225611,-0.0014926711951734,0.0014926729678778,-0.0014926726285871,0.0014926718517649,-0.0014926711082415,0.001492673487469,1.2987931506652e-10,-8.1562886165054e-11,-0.00085007170610718,0.00085007176729372,1.0957002383451e-09,-9.6767325700083e-10,-0.0010353601057214,0.0010353609532116,-0.0010353608675645,0.0010353602027935,-0.0010353602196232,0.0010353608253194,-0.0010353609025558,0.0010353601941114,-0.00085139453603014,0.00085139383500583,-0.00085139449158267,0.00085139385328783,0.66921249367424,128566,2924,0.0035391650880877,0.0070620093180632,0.0035391651103577,13.26839517832,-0.00013145283857344,-0.00013145283857344,-0.00013145283857344,4194898.5307235,0.014242125027745
21819200,0.9877799716476,0.015006168230085,0.0041228216924284,0.0067605248288442,0.0041228217088124,-0.0008508239320978,0.00085082383455046,-4.1235334437735e-11,-6.173994261944e-11,1.4787856439115e-10,-2.7423074135086e-10,-0.0010362102414,0.0010362103567176,-0.0010362103010377,0.0010362102917977,-0.0010362104477213,0.0010362101860492,-0.0010362103874168,0.0010362102135753,-0.00085220326570748,0.00085220289860398,-0.00085220312960995,0.00085220306424814,-4.1019622572805e-10,9.6733978719822e-10,-4.8356944863822e-10,1.0224212893785e-09,-0.0017027697624436,0.0017027703004553,-0.0018888122243449,0.0018888118741755,-0.0018888117873133,0.0018888122897069,-0.0018888118104525,0.0018888122929909,-0.001888811290334,0.0018888127941613,-0.0014936491196643,0.0014936485672032,-0.0014936474438465,0.0014936500058983,-0.0014936490198258,0.001493648634785,-0.0014936476051989,0.0014936501392585,9.8449007590102e-11,-1.1589972476944e-10,-0.00085082389046489,0.00085082388426383,1.3757041140954e-09,-1.3477678964633e-09,-0.0010362097886799,0.0010362108031753,-0.001036210771789,0.0010362098327361,-0.0010362099080974,0.0010362106709708,-0.0010362108042921,0.0010362098258555,-0.00085220357062589,0.0008522025845515,-0.0008522035295949,0.00085220260545145,0.65989249670305,128566,2924,0.0035422925579035,0.0070661521723612,0.0035422925749296,13.593881803869,-0.00012884894556905,-0.00012884894556905,-0.00012884894556905,4201151.2411966,0.014252672544527
22019200,0.98799895384322,0.015009201565427,0.004123655437493,0.0067618906740622,0.0041236554538723,-0.00085181118015428,0.00085181109145889,-3.7903263629108e-11,-5.5907077701032e-11,1.044207716274e-10,-2.184060966672e-10,-0.0010372962574098,0.001037296345823,-0.0010372963146099,0.0010372962825731,-0.001037296431939,0.0010372962114286,-0.0010372963686158,0.0010372962349324,-0.00085324343086171,0.00085324309933589,-0.00085324327457195,0.00085324325111016,-3.6011170107002e-10,9.2416700974399e-10,-8.0906709426152e-10,1.3512633315975e-09,-0.0017040366358554,0.0017040371738531,-0.0018900970317734,0.0018900964915375,-0.0018900963845788,0.0018900971284982,-0.0018900966466778,0.0018900968812982,-0.0018900959193407,0.0018900976004402,-0.00149487326321,0.0014948720369121,-0.0014948709993738,0.0014948741780636,-0.0014948726620812,0.0014948725946806,-0.0014948713393167,0.0014948739962469,7.0602687287102e-11,-1.4595533029306e-10,-0.00085181117523677,0.00085181110516307,1.6853582594621e-09,-1.7518117640875e-09,-0.001037295702844,0.0010372968971247,-0.0010372969224167,0.0010372956907082,-0.0010372958219029,0.0010372967658843,-0.0010372969582134,0.00103729568232,-0.00085324389983679,0.00085324262840355,-0.00085324385189294,0.00085324265174464,0.64982773256759,128566,2924,0.0035463962678021,0.0070713874271316,0.0035463962862008,14.05368119499,-0.00012517055044008,-0.00012517055044008,-0.00012517055044008,4211822.7038054,0.014266308366398
22219200,0.98822149817062,0.015012257924873,0.0041244940401726,0.0067632698281529,0.0041244940565476,-0.00085292173847625,0.00085292165629958,-3.5786417771561e-11,-5.1543027444491e-11,7.5446158508043e-11,-1.8108291421774e-10,-0.0010384923787379,0.0010384924482192,-0.0010384924374382,0.0010384923928385,-0.0010384925337809,0.0010384923431445,-0.0010384924688344,0.0010384923614051,-0.00085440024468343,0.00085439994157231,-0.00085440007804941,0.00085440007840431,-3.2947138052254e-10,8.937572021545e-10,-1.0675920865005e-09,1.6100057821932e-09,-0.00170543043572,0.0017054309736988,-0.0018915271132284,0.0018915264205379,-0.0018915263019013,0.001891527234486,-0.0018915267469136,0.0018915267949467,-0.001891525860254,0.0018915276840511,-0.0014962103510829,0.0014962086067162,-0.001496207610155,0.0014962112651258,-0.0014962093830039,0.0014962095494727,-0.0014962081203502,0.0014962108820623,4.9374808304454e-11,-1.6883963757967e-10,-0.0008529217597807,0.00085292164359067,1.9400185135602e-09,-2.0644407478919e-09,-0.0010384917443628,0.0010384930837317,-0.0010384931519122,0.0010384916906041,-0.0010384918622807,0.0010384929550661,-0.0010384931928382,0.0010384916805357,-0.00085440084559953,0.00085439933517238,-0.00085440078917979,0.00085439936325938,0.64497827868565,128566,2924,0.0035510116685958,0.0070771482295916,0.0035510116865606,14.583274390521,-0.00012093380487583,-0.00012093380487583,-0.00012093380487583,4225322.9682884,0.014281515063188
22419200,0.98844402817559,0.015015452581554,0.0041253762386754,0.0067647000878311,0.0041253762550474,-0.00085361944202539,0.00085361936335817,-3.4208295816662e-11,-4.7957789608626e-11,7.8637818328556e-11,-1.7494575470375e-10,-0.0010392424494605,0.0010392425211626,-0.0010392425014923,0.0010392424537728,-0.0010392426028398,0.0010392424093402,-0.0010392425335173,0.0010392424307617,-0.00085512406896393,0.00085512376339138,-0.00085512389549867,0.00085512391351318,-3.1469244012667e-10,8.9623237742195e-10,-1.2040206468781e-09,1.7567895921662e-09,-0.0017063400516347,0.0017063405930706,-0.0018924793916886,0.001892478606699,-0.0018924784892443,0.0018924795159985,-0.0018924790302721,0.0018924789703192,-0.0018924780457309,0.0018924799631672,-0.0014970690618299,0.0014970670231303,-0.0014970661178578,0.0014970700785705,-0.0014970678791541,0.0014970681585255,-0.0014970666129687,0.0014970694653796,3.6634476327189e-11,-1.8504797261137e-10,-0.00085361948094667,0.00085361933097083,1.9972652938868e-09,-2.2018148581079e-09,-0.0010392417925441,0.0010392431797442,-0.0010392432655927,0.0010392417210226,-0.0010392419147211,0.0010392430466564,-0.001039243303904,0.0010392417115768,-0.00085512470598393,0.00085512311556777,-0.00085512465071685,0.00085512314632597,0.67139744557941,128566,2924,0.0035539113494671,0.0070809079877851,0.0035539113630354,14.871702775292,-0.00011862637779766,-0.00011862637779766,-0.00011862637779766,4234220.7717154,0.014291211113969
22619200,0.98866430927316,0.015018652339184,0.0041262609144083,0.0067661304939989,0.0041262609307772,-0.00085403048849301,0.00085403040810679,-3.6459867008811e-11,-4.749250808294e-11,8.9157873841463e-11,-1.8655399366826e-10,-0.001039761779398,0.0010397618516906,-0.0010397618298449,0.0010397617929181,-0.0010397619391867,0.0010397617397999,-0.0010397618708866,0.0010397617557705,-0.00085558547578929,0.000855585163787,-0.00085558530258256,0.00085558530252614,-3.3288540152066e-10,9.1577615684349e-10,-1.1615264518701e-09,1.7164588098322e-09,-0.0017070046395277,0.0017070051841366,-0.001893146666155,0.0018931458951233,-0.0018931457888711,0.0018931467815,-0.0018931462893021,0.001893146277224,-0.001893145338257,0.001893147237153,-0.0014977046244156,0.0014977026980674,-0.0014977017718177,0.0014977056553216,-0.0014977035298257,0.0014977037582492,-0.0014977022328523,0.0014977050930695,3.5356350080789e-11,-1.8747218852842e-10,-0.00085403052811051,0.00085403037467555,2.0355638094229e-09,-2.241059068431e-09,-0.001039761114656,0.0010397625207344,-0.0010397626102634,0.0010397610399815,-0.0010397612332912,0.0010397623915157,-0.0010397626541323,0.0010397610266636,-0.00085558612741188,0.00085558449438932,-0.00085558606431923,0.00085558453657802,0.67880652981262,128566,2924,0.0035556225444923,0.0070836517576205,0.0035556225573289,15.008417258804,-0.00011753266192957,-0.00011753266192957,-0.00011753266192957,4234630.1637534,0.01429746731612
22819200,0.98888156265394,0.015021798284532,0.0041271301381634,0.0067675379918393,0.0041271301545294,-0.00085433346461264,0.00085433337851374,-4.0584888446281e-11,-4.9253388121352e-11,1.1018876375927e-10,-2.1652750014527e-10,-0.0010401839959742,0.0010401840806783,-0.0010401840436096,0.0010401840181626,-0.0010401841693671,0.001040183946745,-0.0010401841027946,0.0010401839687258,-0.00085594321852708,0.00085594288527566,-0.00085594305275785,0.00085594303576869,-3.6042919713544e-10,9.3812777495808e-10,-1.0866463684641e-09,1.6372654011364e-09,-0.0017075673663266,0.001707567908223,-0.001893701056507,0.0018937003222575,-0.0018937002265473,0.0018937011534078,-0.0018937006636485,0.0018937007177723,-0.0018936997576763,0.0018937016274838,-0.0014982447048182,0.0014982429342318,-0.0014982419687742,0.0014982457102653,-0.0014982437358623,0.0014982438545432,-0.001498242397567,0.001498245245588,4.5649252435644e-11,-1.7919203986868e-10,-0.00085433349178002,0.00085433335839277,1.9667582749142e-09,-2.1397815584234e-09,-0.0010401833543154,0.0010401847213664,-0.0010401847935376,0.0010401832960825,-0.0010401834742516,0.0010401845899697,-0.0010401848350735,0.001040183282741,-0.00085594382654315,0.00085594226792863,-0.00085594376094773,0.0008559423090427,0.67692183703,128566,2924,0.003556885402038,0.0070859735430716,0.0035568854167198,15.090360756743,-0.00011687711394605,-0.00011687711394605,-0.00011687711394605,4232642.8754817,0.01430238629896
23019200,0.98909492966036,0.015024663920033,0.0041279124803469,0.0067688389429758,0.0041279124967108,-0.00085450877920484,0.00085450868784598,-4.4056274111067e-11,-5.0772089785313e-11,1.3943713134282e-10,-2.5140142409436e-10,-0.0010404670083282,0.0010404671097037,-0.0010404670563227,0.0010404670458549,-0.0010404672037071,0.0010404669523248,-0.0010404671352806,0.0010404669767574,-0.00085616193725979,0.0008561615718109,-0.00085616176915403,0.00085616173303117,-3.8622215623706e-10,9.6789361045577e-10,-9.7131613431178e-10,1.5252626857425e-09,-0.0017079780636436,0.0017079786078181,-0.0018941082020834,0.0018941075264715,-0.0018941074461287,0.0018941082801654,-0.0018941077924166,0.0018941079387332,-0.0018941069575357,0.0018941087740133,-0.0014986334734714,0.0014986319404481,-0.0014986309539241,0.0014986345029506,-0.001498632684717,0.0014986326747614,-0.0014986312884985,0.0014986341256673,6.0375652114904e-11,-1.6688532143297e-10,-0.00085450878989014,0.00085450868390269,1.8176650373749e-09,-1.9609790116523e-09,-0.0010404664148413,0.0010404677024562,-0.0010404677467161,0.0010404663839038,-0.0010404665368007,0.0010404675685616,-0.0010404677872599,0.0010404663710214,-0.00085616246033216,0.00085616104104571,-0.00085616239682558,0.00085616108032865,0.63260384241453,128566,2924,0.0035576175801111,0.0070876670849942,0.0035576175941573,15.108106261555,-0.00011673514990756,-0.00011673514990756,-0.00011673514990756,4229894.281811,0.014305591167071
23219200,0.98930425045242,0.015027607608901,0.0041287226104099,0.0067701623717207,0.0041287226267706,-0.00085469134372938,0.0008546912475809,-4.7474580421288e-11,-5.2361346488604e-11,1.6415043431691e-10,-2.8176243820386e-10,-0.0010406312682995,0.0010406313835345,-0.0010406313143623,0.0010406313179925,-0.0010406314809073,0.0010406312057375,-0.0010406314134051,0.0010406312328694,-0.000856333175987,0.00085633278895367,-0.0008563330140563,0.00085633295335313,-4.1635970290864e-10,9.9775294292072e-10,-7.9434089013695e-10,1.3483551733809e-09,-0.0017082504177335,0.0017082509641753,-0.0018944403766315,0.0018944398002748,-0.0018944397331372,0.0018944404371281,-0.0018944399479763,0.0018944402315416,-0.0018944392243101,0.0018944409509304,-0.0014988594682859,0.0014988583125875,-0.0014988572936083,0.0014988605149115,-0.0014988589559601,0.001498858771409,-0.001498857496737,0.0014988602817549,7.1510213902861e-11,-1.5811435742815e-10,-0.00085469134077249,0.00085469125703095,1.6913971566249e-09,-1.8067078301983e-09,-0.0010406307169915,0.0010406319325548,-0.001040631954154,0.0010406307100258,-0.0010406308405053,0.0010406317971987,-0.0010406319944653,0.001040630695862,-0.00085633363497072,0.00085633231723979,-0.00085633357150239,0.00085633236553953,0.65900391768278,128566,2924,0.00355837557707,0.0070887940344758,0.0035583755906118,15.109154942049,-0.00011672676046361,-0.00011672676046361,-0.00011672676046361,4234983.8032552,0.01430827054898
23419200,0.98950887859644,0.015030453329804,0.0041295042467876,0.0067714448198707,0.0041295042631455,-0.00085475756481465,0.0008547574646103,-5.050444310371e-11,-5.3293539739801e-11,1.8695832225379e-10,-3.0931264791681e-10,-0.0010407447853101,0.0010407449120173,-0.0010407448350055,0.0010407448527348,-0.001040745017346,0.0010407447218601,-0.0010407449474743,0.001040744747077,-0.00085641311635982,0.0008564127015586,-0.0008564129408832,0.00085641286372565,-4.3701523819034e-10,1.0228539264558e-09,-6.4130411524655e-10,1.1994838875318e-09,-0.0017084665070125,0.0017084670564398,-0.0018946795561431,0.0018946790667548,-0.0018946790129312,0.0018946796014549,-0.0018946791128515,0.0018946795156113,-0.0018946784909496,0.0018946801306775,-0.0014990457373329,0.0014990448927565,-0.0014990438521186,0.0014990467948691,-0.0014990454478387,0.0014990451212721,-0.0014990439461712,0.0014990466796201,8.9579080552932e-11,-1.4194095375718e-10,-0.00085475754339064,0.00085475749291878,1.5285358810134e-09,-1.6050875043982e-09,-0.0010407442854979,0.0010407454133338,-0.0010407454038998,0.001040744308999,-0.0010407444088592,0.0010407452780759,-0.0010407454464889,0.0010407442947188,-0.00085641348373288,0.00085641232554865,-0.00085641341782138,0.00085641236929224,0.65256753561003,128566,2924,0.0035586524736973,0.007089685710946,0.0035586524880399,15.055095965305,-0.00011715923227756,-0.00011715923227756,-0.00011715923227756,4233722.2667659,0.014309737199449
23619200,0.98972216582792,0.015033491538571,0.0041303421737369,0.0067728071747434,0.004130342190091,-0.00085657795106807,0.00085657784339006,-5.5309654761837e-11,-5.8603180109329e-11,1.7293054477071e-10,-3.1848963036041e-10,-0.0010426976123993,0.0010426977424951,-0.0010426976744736,0.001042697681302,-0.0010426978434339,0.0010426975424274,-0.0010426977773212,0.0010426975858302,-0.00085831595070789,0.0008583155299788,-0.00085831579891332,0.00085831573447744,-4.4308801955339e-10,9.7926542234884e-10,-7.6387984381865e-10,1.2877376469694e-09,-0.0017107067691593,0.0017107072980146,-0.0018969586459501,0.0018969581121527,-0.0018969580403811,0.0018969586967677,-0.0018969582234044,0.0018969585415675,-0.001896957524661,0.0018969592227248,-0.0015012002830145,0.0015011991749728,-0.0015011979573907,0.001501201055361,-0.0015011998637237,0.0015011995746411,-0.0015011984117045,0.00150120116562,1.0931668615248e-10,-1.2570021482432e-10,-0.00085657790358839,0.00085657790179792,1.5456996510837e-09,-1.470645963029e-09,-0.0010426971124809,0.001042698228829,-0.0010426981997578,0.0010426971523502,-0.001042697242852,0.0010426980846619,-0.0010426982325174,0.0010426971444358,-0.00085831629509681,0.00085831520273423,-0.00085831624169194,0.00085831521776343,0.66669416826982,128566,2924,0.0035662179274653,0.0070989446500816,0.0035662179505627,16.007523403769,-0.00010953981276984,-0.00010953981276984,-0.00010953981276984,4253889.0488927,0.014334478767213
23819200,0.98994805367367,0.015036889865766,0.0041312860151195,0.0067743178191714,0.0041312860314753,-0.00085888097543764,0.00085888087341264,-5.3854138454802e-11,-5.3831147156826e-11,1.5543219485535e-10,-2.8666486129114e-10,-0.001045221969017,0.0010452220815017,-0.0010452220201306,0.0010452220200039,-0.0010452221811247,0.0010452219017728,-0.0010452221132817,0.0010452219369226,-0.00086075094898128,0.00086075054383515,-0.00086075078595845,0.00086075073148928,-4.1935908792655e-10,9.7598438564108e-10,-7.5806831476864e-10,1.2966096831113e-09,-0.0017135944456981,0.0017135949841136,-0.0018998686074214,0.0018998680722665,-0.001899867994493,0.0018998686663065,-0.0018998681880764,0.0018998684962262,-0.0018998674909318,0.0018998691769721,-0.0015039908902722,0.0015039898034904,-0.0015039886704973,0.0015039917931968,-0.0015039904415446,0.0015039902254743,-0.001503989006633,0.0015039917593092,9.3649413607786e-11,-1.4317377127606e-10,-0.00085888094875884,0.00085888090905413,1.6275378143075e-09,-1.6348655488326e-09,-0.0010452214370745,0.0010452226035176,-0.0010452225992315,0.0010452214539497,-0.0010452215642394,0.0010452224625359,-0.0010452226377832,0.0010452214396747,-0.00086075135165124,0.00086075014253336,-0.00086075129437241,0.00086075018199042,0.70079572255138,128566,2924,0.0035757910950286,0.007110876900956,0.003575791113881,17.240884541758,-9.9672923665933e-05,-9.9672923665933e-05,-9.9672923665933e-05,4276492.7383948,0.014366007690563
24019200,0.99017043569752,0.015040273395396,0.0041322256425166,0.0067758220940098,0.0041322256588696,-0.00085918222157191,0.00085918213465613,-4.5451413825066e-11,-4.0880065456429e-11,1.851232909984e-10,-2.7834298816572e-10,-0.0010457335866176,0.0010457337087752,-0.0010457336293289,0.0010457336435482,-0.0010457338155609,0.001045733531633,-0.0010457337316589,0.0010457335499353,-0.00086114956117432,0.00086114915437604,-0.00086114934609158,0.00086114930868368,-3.8989516314687e-10,1.0317440406337e-09,-5.8847847103372e-10,1.1839327491378e-09,-0.0017142947139731,0.0017142952828961,-0.0019005346860678,0.0019005342232519,-0.001900534170272,0.0019005347479819,-0.0019005342552507,0.0019005346579046,-0.0019005336571353,0.0019005352635071,-0.0015046666437665,0.001504665871292,-0.001504665074286,0.0015046679998406,-0.0015046663364221,0.0015046660652063,-0.0015046648328102,0.0015046675349984,8.3442076528677e-11,-1.5631596937135e-10,-0.00085918221966017,0.00085918213618929,1.3676603559149e-09,-1.5957049591379e-09,-0.0010457331180432,0.0010457341967269,-0.0010457341813322,0.0010457331517965,-0.0010457332477923,0.0010457340583829,-0.0010457342296672,0.0010457331358156,-0.00086114989380159,0.00086114878067994,-0.00086114981678498,0.00086114884488387,0.70866618692229,128566,2924,0.0035770503687528,0.0071137630018824,0.0035770503676019,17.343104415416,-9.885516467667e-05,-9.885516467667e-05,-9.885516467667e-05,4269405.3272689,0.014371494086818
24219200,0.99038896002768,0.015043450855956,0.0041331021005253,0.0067772466385583,0.0041331021168727,-0.000859413760062,0.00085941366894743,-5.0305920172126e-11,-4.3080504380985e-11,1.8865855191405e-10,-2.9462029017002e-10,-0.0010461718637273,0.0010461719875839,-0.0010461719155857,0.0010461719379275,-0.00104617209552,0.00104617180747,-0.0010461720163807,0.0010461718279718,-0.00086148311091034,0.0008614826967538,-0.00086148291082441,0.00086148285871258,-4.2661126484811e-10,1.0148386042596e-09,-4.8654114626666e-10,1.0427719869139e-09,-0.001714921535298,0.0017149220816457,-0.0019011173128718,0.0019011169289022,-0.001901116880363,0.0019011173617611,-0.0019011168752544,0.0019011173747599,-0.0019011163652516,0.001901117884099,-0.001505277201373,0.0015052766511916,-0.001505275689205,0.0015052783126997,-0.0015052771028973,0.0015052766863855,-0.0015052756043174,0.0015052782084581,1.0680907705969e-10,-1.3312284298494e-10,-0.00085941373154936,0.00085941370277664,1.3029723113256e-09,-1.3853333017989e-09,-0.0010461714228973,0.001046172440863,-0.0010461723951113,0.0010461714792632,-0.0010461715495294,0.0010461723052413,-0.0010461724443365,0.0010461714636143,-0.00086148339072435,0.00086148239954248,-0.00086148331481892,0.00086148245291031,0.68010475044395,128566,2924,0.003578020279554,0.0071163448592916,0.0035780202905132,17.418221804954,-9.8254225560369e-05,-9.8254225560369e-05,-9.8254225560369e-05,4260902.4824744,0.014376084778065
24419200,0.99060364821057,0.01504657012847,0.0041339627691298,0.0067786445738641,0.0041339627854756,-0.00085966175355045,0.00085966165485421,-5.4254658016998e-11,-4.8039046608501e-11,1.8816917287343e-10,-3.0833759355699e-10,-0.0010465400873451,0.001046540214658,-0.0010465401367381,0.0010465401555,-0.0010465403207915,0.0010465400209857,-0.0010465402464523,0.0010465400525369,-0.00086179215545373,0.00086179172461304,-0.00086179197035508,0.00086179191244798,-4.3887859161911e-10,1.0199168372407e-09,-3.2129359023078e-10,8.7559294576595e-10,-0.0017154674234916,0.0017154679705547,-0.0019016615794769,0.0019016613054593,-0.0019016612494265,0.0019016616192311,-0.0019016611390825,0.0019016617514303,-0.0019016607245416,0.0019016621504177,-0.0015057899884409,0.0015057897646328,-0.0015057887058471,0.0015057910239457,-0.0015057901237726,0.0015057895740698,-0.0015057886112655,0.0015057911416373,1.1664188386169e-10,-1.283707101745e-10,-0.00085966171137071,0.00085966170319363,1.2822012165741e-09,-1.303329839032e-09,-0.0010465396544864,0.0010465406474665,-0.0010465405943889,0.0010465397213024,-0.0010465397846478,0.0010465405052452,-0.0010465406385621,0.0010465397050697,-0.00086179240765487,0.00086179146247457,-0.00086179233851412,0.0008617915112497,0.67934995343252,128566,2924,0.0035790555046936,0.0071185958245314,0.0035790555175476,17.491830826925,-9.7665353384597e-05,-9.7665353384597e-05,-9.7665353384597e-05,4258285.1893443,0.014380470036277
24619200,0.9908136527488,0.01504977149711,0.004134852495775,0.0067800664892188,0.0041348525121167,-0.00085980358301503,0.00085980348364568,-5.5492149686742e-11,-4.7094758539981e-11,1.9265831610267e-10,-3.1384487084286e-10,-0.0010467802652297,0.0010467803951827,-0.0010467803157143,0.0010467803377059,-0.0010467805039877,0.0010467801990386,-0.0010467804279053,0.0010467802314754,-0.00086198459419767,0.00086198415735834,-0.00086198440154892,0.00086198434327111,-4.401081399396e-10,1.0271431613638e-09,-2.5163851308675e-10,8.1007075024758e-10,-0.0017158689088032,0.0017158694583935,-0.0019020656220565,0.00190206538865,-0.0019020653334216,0.0019020656596793,-0.0019020651793902,0.0019020658373459,-0.0019020648057881,0.0019020661945561,-0.0015061619920115,0.0015061619023777,-0.0015061608571473,0.0015061630477434,-0.0015061622114127,0.0015061616077033,-0.001506160690978,0.0015061631823089,1.2346120510964e-10,-1.240531027284e-10,-0.00085980353482978,0.00085980353756739,1.200940712115e-09,-1.2186180372797e-09,-0.0010467798556645,0.0010467808074842,-0.0010467807409903,0.0010467799365767,-0.00104677998749,0.0010467806640814,-0.0010467807860591,0.0010467799201743,-0.00086198481087283,0.00086198393142248,-0.00086198473730001,0.00086198398180698,0.7094481448456,128566,2924,0.0035796490742541,0.0071202506732545,0.0035796490861972,17.497812094157,-9.7617503246745e-05,-9.7617503246745e-05,-9.7617503246745e-05,4254858.8184025,0.014383354211255
24819200,0.9910189445605,0.015052665396527,0.0041356470920875,0.0067813711960146,0.0041356471084251,-0.00085989190532326,0.00085989180544535,-5.8113343855545e-11,-4.5114143115328e-11,1.9350449875973e-10,-3.1540922843517e-10,-0.0010470407583188,0.0010470408845448,-0.0010470408042123,0.0010470408309465,-0.0010470409945242,0.0010470406895922,-0.00104704092053,0.0010470407217172,-0.00086215226006439,0.00086215182580625,-0.00086215207369404,0.00086215200964422,-4.4223478926604e-10,1.0273371943774e-09,-2.3480450429533e-10,7.9191578992798e-10,-0.0017162946925951,0.0017162952418038,-0.0019024525553694,0.0019024523299547,-0.0019024522744263,0.0019024525922249,-0.0019024521092018,0.0019024527819174,-0.0019024517486331,0.0019024531249946,-0.0015065765414855,0.0015065764955533,-0.0015065754419717,0.0015065775910371,-0.0015065767866074,0.0015065761767397,-0.0015065752713095,0.0015065777472391,1.2806356527356e-10,-1.1931465557892e-10,-0.00085989185209016,0.00085989186470366,1.1477192804932e-09,-1.1504891056821e-09,-0.0010470403639835,0.0010470412809038,-0.0010470412060143,0.0010470404533892,-0.0010470404929922,0.0010470411401231,-0.0010470412533621,0.0010470404340278,-0.00086215245858722,0.00086215161904979,-0.0008621523782983,0.00086215167855505,0.66112596904019,128566,2924,0.0035800228069913,0.007122002790283,0.0035800228195482,17.493836537931,-9.764930769655e-05,-9.764930769655e-05,-9.764930769655e-05,4246300.2044061,0.014385892978535
25019200,0.99123126019099,0.015055622367684,0.0041364581032343,0.006782706144882,0.004136458119568,-0.00086158004184264,0.00086157992826373,-6.7331999766861e-11,-5.5367799614371e-11,1.5450671441674e-10,-3.1304053847349e-10,-0.001048864755333,0.0010488648662312,-0.0010488648146618,0.0010488648196457,-0.0010488649730287,0.0010488646777747,-0.0010488649070557,0.0010488647239163,-0.00086392694142129,0.00086392650575254,-0.00086392677507111,0.00086392672296999,-4.5111641440908e-10,9.6169734215927e-10,-4.6847484894435e-10,9.7383992244708e-10,-0.0017184326521921,0.0017184331676858,-0.0019046292353004,0.0019046288984842,-0.001904628821047,0.001904629267245,-0.0019046288123319,0.0019046293299483,-0.0019046283134976,0.0019046297862787,-0.0015086271759153,0.0015086266319836,-0.0015086252904122,0.0015086277921355,-0.001508627121616,0.0015086266481511,-0.0015086257182225,0.0015086282697931,1.5134583882675e-10,-9.9472342683157e-11,-0.00086157996057326,0.00086158002785859,1.356360915311e-09,-1.1433722503582e-09,-0.0010488643064451,0.0010488652934944,-0.001048865220441,0.0010488643837324,-0.0010488644346127,0.001048865146065,-0.0010488652596822,0.0010488643669982,-0.00086392718745333,0.0008639263460381,-0.00086392710772152,0.00086392635529908,0.6536290976165,128566,2924,0.0035870396311735,0.0071308369658108,0.0035870396697987,18.39337891758,-9.0452968659363e-05,-9.0452968659363e-05,-9.0452968659363e-05,4265005.3163212,0.014409091961808
25219200,0.99146165364198,0.015058944189213,0.0041373735948592,0.0067841969831683,0.0041373736111853,-0.00086469267556895,0.00086469257764598,-5.9969678221172e-11,-4.3966408602204e-11,1.2410125909687e-10,-2.5595658964306e-10,-0.0010521923321828,0.0010521924223268,-0.001052192381928,0.0010521923747546,-0.0010521925215569,0.0010521922668105,-0.0010521924541468,0.0010521923091275,-0.00086718045487775,0.00086718006827893,-0.00086718030064431,0.0008671802844658,-4.0212983068029e-10,9.3660133606033e-10,-6.9214845898675e-10,1.2144905599118e-09,-0.0017222344033439,0.0017222349320501,-0.0019084916380707,0.0019084911710093,-0.0019084910727187,0.0019084917085578,-0.001908491235637,0.0019084915799686,-0.001908490590803,0.0019084922001949,-0.0015122872859302,0.0015122863136821,-0.0015122851318566,0.0015122880523463,-0.0015122869094913,0.0015122866764683,-0.0015122855485424,0.0015122881657546,1.0589454647775e-10,-1.4519666538933e-10,-0.00086469264183126,0.00086469261930067,1.6035960373595e-09,-1.5534455744952e-09,-0.0010521917991418,0.0010521929412605,-0.0010521929278704,0.001052191824553,-0.0010521919287177,0.0010521927983227,-0.0010521929731674,0.0010521918049887,-0.00086718086237819,0.0008671796678819,-0.00086718078510056,0.00086717971859779,0.67455042734919,128566,2924,0.0035999752873979,0.007146548310435,0.0035999753042,20.103712455314,-7.6770300357489e-05,-7.6770300357489e-05,-7.6770300357489e-05,4301044.1309959,0.014451278309598
25419200,0.99169904317918,0.015062662644946,0.0041384089146244,0.0067858447993682,0.004138408930953,-0.00086643250161026,0.00086643242704082,-4.6051690843632e-11,-2.6431181723506e-11,1.3993474521827e-10,-2.167173431104e-10,-0.0010541480272389,0.0010541481170231,-0.001054148058557,0.0010541480544562,-0.0010541482161169,0.001054147973985,-0.0010541481302168,0.0010541479970493,-0.00086904117390981,0.00086904080364238,-0.00086904097539321,0.00086904099983429,-3.4380928456824e-10,9.794917139652e-10,-7.1460770528395e-10,1.3061825044917e-09,-0.0017245542447362,0.0017245548106794,-0.0019108372919281,0.00191083677395,-0.0019108366922677,0.0019108373830262,-0.0019108368901235,0.001910837175297,-0.0019108362110109,0.0019108378634605,-0.0015145084189596,0.0015145073739207,-0.001514506609379,0.0015145097438645,-0.0015145079035306,0.0015145078101303,-0.0015145064915959,0.0015145091711304,6.1866946323434e-11,-1.9347279154959e-10,-0.00086643252986342,0.00086643239321425,1.5690382016953e-09,-1.8533726602374e-09,-0.0010541474864849,0.0010541486739376,-0.0010541486999551,0.0010541474794241,-0.0010541476200683,0.0010541485324481,-0.0010541487545864,0.0010541474559957,-0.00086904163123887,0.00086904026907692,-0.00086904154922639,0.00086904036553518,0.72789749299515,128566,2924,0.0036072097208356,0.0071561310662003,0.0036072097089139,21.028070677773,-6.9375434577814e-05,-6.9375434577814e-05,-6.9375434577814e-05,4316124.5285461,0.014475681470919
25619200,0.9919286921351,0.015066280975423,0.0041394157176366,0.006787449523844,0.0041394157339425,-0.00086636851450568,0.00086636843420657,-5.1536217346583e-11,-2.8742096738972e-11,1.5999802517383e-10,-2.4453992788483e-10,-0.0010543306962431,0.0010543307964848,-0.0010543307316767,0.0010543307387304,-0.0010543309043382,0.0010543306409634,-0.0010543308152271,0.0010543306626739,-0.00086909284241051,0.00086909244339373,-0.00086909260278328,0.00086909260626313,-3.6526200902576e-10,1.0050345726484e-09,-6.4992920893233e-10,1.2425990800393e-09,-0.001724946226852,0.0017249467919755,-0.0019111715208793,0.0019111710300193,-0.0019111709671496,0.0019111715993165,-0.0019111711051153,0.0019111714488982,-0.0019111704713816,0.0019111720958159,-0.0015148836883538,0.0015148827726511,-0.0015148820090638,0.0015148850333682,-0.0015148832634835,0.001514883082467,-0.001514881813419,0.0015148844961606,8.5568690284513e-11,-1.7158891349238e-10,-0.00086636852539845,0.00086636842459557,1.424390483172e-09,-1.6763534420898e-09,-0.0010543301993715,0.0010543313137993,-0.001054331307609,0.0010543302233287,-0.0010543303332055,0.001054331171455,-0.0010543313635906,0.001054330200473,-0.0008690932179318,0.00086909203515986,-0.0008690931176031,0.00086909211534149,0.73244077562044,128566,2924,0.0036069541702183,0.0071577393943389,0.0036069541724986,20.943762222443,-7.0049902220459e-05,-7.0049902220459e-05,-7.0049902220459e-05,4300790.5971013,0.014476799350289
25819200,0.99214093683219,0.015069532754954,0.0041403170894428,0.0067888985597752,0.004140317105736,-0.00086498379414884,0.00086498370763028,-5.3718098750427e-11,-3.2151193466511e-11,2.0720987011967e-10,-2.9350786427151e-10,-0.0010530987093745,0.0010530988426948,-0.0010530987250746,0.0010530987477776,-0.0010530989386679,0.0010530986239491,-0.0010530988524701,0.0010530986653357,-0.00086776764972267,0.00086776721012108,-0.00086776744763347,0.0008677674195736,-4.0005761922023e-10,1.0426764610675e-09,-2.9847904084666e-10,8.9147967137856e-10,-0.0017237789121964,0.0017237794805452,-0.001909934779548,0.0019099344980418,-0.0019099344434007,0.0019099348335026,-0.0019099343449406,0.0019099349214228,-0.0019099339087708,0.0019099353573427,-0.0015137484040907,0.0015137482145905,-0.0015137474597752,0.0015137498501486,-0.0015137485014741,0.0015137480078647,-0.0015137469321303,0.0015137494772567,8.0880242072211e-11,-1.8309973323996e-10,-0.00086498380416122,0.00086498369341741,1.2827466068834e-09,-1.5683755372986e-09,-0.0010530982595072,0.0010530992956382,-0.0010530992794803,0.0010530982953543,-0.0010530984050204,0.0010530991407695,-0.0010530993223925,0.0010530982713316,-0.00086776796164185,0.00086776681557719,-0.00086776788951513,0.00086776692740771,0.71386866346411,128566,2924,0.0036012104595708,0.0071529032079954,0.0036012104504504,20.109037990131,-7.6727696078948e-05,-7.6727696078948e-05,-7.6727696078948e-05,4270566.8070535,0.014460242069373
26019200,0.99234271106861,0.01507249831526,0.004141135145079,0.0067902280088136,0.0041411351613679,-0.00086437918221252,0.00086437907414158,-7.1706684601183e-11,-4.4095614564144e-11,1.9680452563e-10,-3.3546017439253e-10,-0.0010526085976084,0.0010526087212069,-0.0010526086397574,0.0010526086738625,-0.0010526088373953,0.0010526085150183,-0.0010526087626962,0.001052608556417,-0.00086721665289296,0.00086721619468779,-0.00086721645310391,0.00086721637904293,-4.7263159360571e-10,1.0269192499689e-09,-3.4896142270337e-10,8.8392277182489e-10,-0.0017234050986728,0.00172340563377,-0.0019095238301898,0.0019095235240217,-0.0019095234758608,0.0019095238528222,-0.0019095233732956,0.0019095239846621,-0.0019095229399236,0.0019095243948525,-0.0015133795466413,0.0015133792912209,-0.0015133781212416,0.0015133804604633,-0.0015133796807826,0.0015133790951252,-0.0015133781581247,0.001513380725493,1.4484661261078e-10,-1.1438689275012e-10,-0.00086437911729806,0.00086437915307247,1.205575487614e-09,-1.1274420651265e-09,-0.0010526081903469,0.0010526091218122,-0.0010526090393869,0.0010526082824646,-0.0010526083215194,0.0010526089754391,-0.0010526090872964,0.0010526082586692,-0.00086721685490512,0.00086721602585681,-0.00086721675543692,0.00086721608337715,0.68688840712969,128566,2924,0.0035987050951475,0.0071513500561572,0.0035987051244923,19.716166466748,-7.9870668266016e-05,-7.9870668266016e-05,-7.9870668266016e-05,4254311.6261677,0.014453584920838
26219200,0.99253828465777,0.01507555263721,0.0041419860440351,0.0067915805328492,0.0041419860603255,-0.0008643415205633,0.0008643414132637,-6.8644793911901e-11,-4.3385701946052e-11,2.0746030516758e-10,-3.4471391484417e-10,-0.0010526331851524,0.0010526333163659,-0.0010526332397108,0.0010526332788581,-0.0010526334413308,0.0010526331133682,-0.0010526333594543,0.0010526331474049,-0.00086721579320627,0.00086721531774572,-0.00086721558932064,0.00086721552742522,-4.6779135517756e-10,1.0352219557975e-09,-2.4373947333816e-10,7.9091812034727e-10,-0.0017235803032515,0.0017235808452144,-0.0019097043639206,0.0019097041312132,-0.0019097040879278,0.001909704381973,-0.0019097039091545,0.001909704597501,-0.0019097035532865,0.001909704927548,-0.0015135296001722,0.0015135295348974,-0.0015135283590659,0.0015135305224117,-0.0015135298682424,0.0015135292141012,-0.0015135283398834,0.001513530858954,1.4227677358635e-10,-1.23232069724e-10,-0.00086434145768637,0.00086434148473031,1.2426906489772e-09,-1.1747462849544e-09,-0.0010526327716253,0.0010526337327839,-0.0010526336580941,0.0010526328559315,-0.0010526329053839,0.0010526335847629,-0.0010526337112931,0.0010526328338895,-0.00086721599827973,0.00086721512872908,-0.00086721590366733,0.00086721517653664,0.72525111351723,128566,2924,0.0035985523838729,0.0071520699649927,0.0035985524019096,19.62916129826,-8.0566709613921e-05,-8.0566709613921e-05,-8.0566709613921e-05,4250035.58991,0.014454005633979
26419200,0.99273230923537,0.015078673301188,0.0041428587906424,0.0067929557036124,0.0041428588069329,-0.00086493520712508,0.00086493510325072,-7.1325483248461e-11,-3.6774250418802e-11,1.9077645456836e-10,-3.2528583100585e-10,-0.0010534217021228,0.0010534218158572,-0.0010534217487345,0.0010534217892102,-0.0010534219394409,0.001053421632059,-0.0010534218636534,0.0010534216651524,-0.00086791880474948,0.00086791835687002,-0.00086791861483763,0.00086791855915688,-4.6741502338012e-10,1.0314377230503e-09,-4.1886263515166e-10,9.6338180834705e-10,-0.0017245978832484,0.001724598424827,-0.0019106776773342,0.0019106773269715,-0.0019106772820179,0.0019106777020354,-0.0019106772171316,0.0019106777992187,-0.0019106767557298,0.0019106782415432,-0.0015145253461652,0.0015145249516084,-0.0015145237777037,0.0015145262475637,-0.001514525387118,0.001514524859464,-0.001514523885009,0.0015145264836865,1.4512331451434e-10,-1.1546050212121e-10,-0.00086493514075448,0.00086493517832324,1.2098845117116e-09,-1.126262212355e-09,-0.001053421291524,0.0010534222290373,-0.0010534221462867,0.0010534213857895,-0.0010534214175193,0.0010534220900368,-0.0010534222048013,0.0010534213596354,-0.00086791901677536,0.00086791816488756,-0.00086791890664515,0.0008679182274048,0.74503107118679,128566,2924,0.0036010263542227,0.0071562674626186,0.0036010263725225,19.918842636296,-7.8249258909635e-05,-7.8249258909635e-05,-7.8249258909635e-05,4247162.8085836,0.014463286970958
26619200,0.992931262324,0.015081842176077,0.0041437435016301,0.0067943551565259,0.0041437435179207,-0.00086645556900227,0.00086645546684443,-7.0039712171267e-11,-3.7060226626531e-11,1.7184077295955e-10,-3.0409184164415e-10,-0.0010552500115284,0.0010552501215664,-0.0010552500524094,0.0010552500763646,-0.0010552502327348,0.0010552499346313,-0.0010552501583266,0.0010552499799776,-0.0008696180841144,0.00086961764356367,-0.00086961790050781,0.00086961786410655,-4.4065235584359e-10,9.9589724078761e-10,-5.2028281577594e-10,1.0569262740396e-09,-0.0017267730161892,0.0017267735546958,-0.0019127874580917,0.0019127870714012,-0.0019127870029303,0.0019127875040554,-0.0019127870239748,0.0019127875124507,-0.0019127864889863,0.0019127880272701,-0.0015166592911577,0.0015166586863522,-0.0015166575366197,0.0015166601806133,-0.0015166591803096,0.0015166587600131,-0.0015166577146895,0.0015166603260366,1.237360774827e-10,-1.4299789918789e-10,-0.00086645552632881,0.00086645551723731,1.4209964118586e-09,-1.3902863057003e-09,-0.0010552495336493,0.0010552505905344,-0.0010552505472749,0.0010552495905817,-0.0010552496684741,0.0010552504429979,-0.0010552505990758,0.0010552495649948,-0.00086961840214354,0.00086961732970427,-0.00086961830696946,0.00086961740234308,0.73848803539765,128566,2924,0.0036073531797212,0.0071652461448399,0.0036073531960097,20.758480401801,-7.153215678559e-05,-7.153215678559e-05,-7.153215678559e-05,4252342.5933842,0.014485238543936
26819200,0.9931336601606,0.015084982261175,0.0041446163524818,0.0067957495399224,0.0041446163687712,-0.00086778816210758,0.00086778807727179,-5.927601723373e-11,-2.5383720421948e-11,1.6573300755127e-10,-2.7148724083938e-10,-0.001056875233623,0.0010568753466839,-0.0010568752728034,0.0010568752929485,-0.0010568754509253,0.0010568751723802,-0.0010568753671872,0.0010568752163831,-0.00087111543833073,0.00087111502553503,-0.00087111524850501,0.00087111524984052,-4.0032346121658e-10,9.9280440121291e-10,-6.0482338294317e-10,1.1659103356513e-09,-0.0017287400480965,0.0017287406014007,-0.0019147023613481,0.0019147019249539,-0.0019147018487035,0.0019147024375994,-0.0019147019430229,0.0019147023472825,-0.0019147013432964,0.0019147029506819,-0.0015185796568908,0.0015185788653987,-0.0015185779097878,0.0015185807313966,-0.0015185793902701,0.0015185790724193,-0.001518577931513,0.0015185805408604,9.1342100662628e-11,-1.8024727767831e-10,-0.00086778815910814,0.00086778807786661,1.5065839784819e-09,-1.6439611919394e-09,-0.001056874722871,0.0010568758629281,-0.0010568758526539,0.0010568747547797,-0.0010568748670822,0.0010568757127024,-0.0010568759064805,0.0010568747318582,-0.00087111584016241,0.00087111455621277,-0.00087111574669489,0.00087111465665512,0.72122276917669,128566,2924,0.0036128998175169,0.0071733645868518,0.0036128998124949,21.496506115918,-6.5627951072655e-05,-6.5627951072655e-05,-6.5627951072655e-05,4256778.7725174,0.014504734034585
27019200,0.99333290564103,0.015087983402673,0.004145446621743,0.0067970901429011,0.0041454466380285,-0.00086822511700555,0.00086822503118428,-6.2740560048737e-11,-2.4248592501412e-11,1.6963082698842e-10,-2.6596629885331e-10,-0.0010575025136819,0.0010575026217938,-0.0010575025393153,0.0010575025559254,-0.0010575027264447,0.0010575024400032,-0.0010575026384594,0.0010575024837013,-0.00087165285365342,0.00087165242556059,-0.00087165262906927,0.00087165263116251,-3.840601401087e-10,9.9971106545436e-10,-6.2121397186899e-10,1.197145658963e-09,-0.0017296110806832,0.0017296116407187,-0.0019155471862287,0.0019155467236981,-0.001915546649776,0.001915547264399,-0.0019155467700508,0.0019155471383621,-0.0019155461438962,0.0019155477707335,-0.0015194166895203,0.001519415858263,-0.0015194150129359,0.0015194179372118,-0.0015194163595739,0.0015194161036263,-0.0015194148832235,0.001519417541682,8.825431248876e-11,-1.8480124478338e-10,-0.00086822512455158,0.00086822502380168,1.4718434598985e-09,-1.6859236467441e-09,-0.0010575020043883,0.0010575031358923,-0.0010575031296089,0.0010575020308624,-0.0010575021491565,0.0010575029830095,-0.0010575031816741,0.0010575020044121,-0.00087165324216701,0.00087165197883533,-0.00087165314837302,0.00087165208690949,0.70228869903136,128566,2924,0.0036147231167582,0.0071769553946539,0.0036147231168956,21.715129336083,-6.3878965311336e-05,-6.3878965311336e-05,-6.3878965311336e-05,4253934.4124391,0.014512079165748
27219200,0.99352668609158,0.015090808942181,0.0041462245959804,0.0067983597339367,0.0041462246122641,-0.00086834239791638,0.00086834230855899,-6.6109172470822e-11,-2.6391379569317e-11,1.66545466529e-10,-2.7134087313435e-10,-0.0010577229691582,0.001057723073605,-0.0010577229952054,0.0010577230122101,-0.0010577231794348,0.001057722892093,-0.0010577230949732,0.0010577229369025,-0.00087182163713183,0.00087182121159835,-0.00087182142257062,0.00087182141628764,-4.011980911443e-10,9.9794992978525e-10,-5.9337010989163e-10,1.1564170334887e-09,-0.0017300218256447,0.0017300223774372,-0.0019159613616267,0.0019159609170222,-0.0019159608450992,0.0019159614301496,-0.0019159609381966,0.0019159613382456,-0.0019159603357874,0.0019159619400163,-0.0015197910134842,0.0015197902448308,-0.001519789315679,0.0015197921611228,-0.0015197907412037,0.0015197904426567,-0.001519789269662,0.0015197919153023,1.0049273576958e-10,-1.7558098958131e-10,-0.00086834239357669,0.00086834231713672,1.468218560872e-09,-1.6164133316547e-09,-0.0010577224633254,0.0010577235795635,-0.0010577235624561,0.0010577224979279,-0.0010577226060547,0.001057723426379,-0.0010577236154306,0.0010577224691677,-0.00087182201710579,0.00087182079848682,-0.00087182191299247,0.00087182090237827,0.68192144429087,128566,2924,0.0036152155021407,0.0071786469879691,0.0036152155108736,21.739930402594,-6.3680556779246e-05,-6.3680556779246e-05,-6.3680556779246e-05,4250964.5657953,0.014514795121885
27419200,0.99371659279415,0.01509366984887,0.0041470166328053,0.006799636566979,0.0041470166490853,-0.00086870961480438,0.00086870951835183,-7.2054911863815e-11,-3.0280447591496e-11,1.5967459198464e-10,-2.817813154213e-10,-0.0010581386269578,0.0010581387282991,-0.0010581386608944,0.0010581386794879,-0.0010581388385931,0.0010581385501002,-0.0010581387579023,0.00105813859741,-0.0008722177391393,0.00087221730632358,-0.00087221752641021,0.00087221750618783,-4.190256954644e-10,9.8485788644407e-10,-5.8613836481647e-10,1.1283083821299e-09,-0.0017306316432998,0.0017306321844347,-0.0019166071190003,0.0019166066892223,-0.0019166066139765,0.0019166071822196,-0.0019166066949251,0.0019166071166052,-0.0019166061077498,0.0019166076942443,-0.0015203459972092,0.0015203452605103,-0.0015203442027087,0.0015203469753251,-0.0015203457703112,0.0015203454339243,-0.0015203443186804,0.0015203469431938,1.1530624994564e-10,-1.61803942661e-10,-0.0008687095916231,0.00086870955010545,1.4976183735808e-09,-1.5430093264441e-09,-0.001058138118061,0.0010581392320096,-0.0010581392033307,0.0010581381623023,-0.0010581382589156,0.0010581390797019,-0.0010581392574639,0.0010581381331505,-0.00087221811076955,0.00087221692724924,-0.00087221800146933,0.00087221702074015,0.70215250346482,128566,2924,0.0036167437975158,0.0071811645822633,0.0036167438154486,21.891966490561,-6.2464268075514e-05,-6.2464268075514e-05,-6.2464268075514e-05,4254451.8902465,0.014520449823674
27619200,0.99390532993934,0.015096558999468,0.0041478182598554,0.0068009224634798,0.0041478182761325,-0.00086948088116347,0.0008694807847922,-7.2568225868086e-11,-2.8670410059752e-11,1.5570583445908e-10,-2.7992520506537e-10,-0.0010590342494501,0.0010590343439835,-0.0010590342932983,0.0010590343128963,-0.0010590344643415,0.001059034181588,-0.0010590343793457,0.0010590342196626,-0.00087305803164423,0.00087305759500874,-0.00087305781057907,0.0008730578056879,-4.1704473674603e-10,9.8198867186132e-10,-6.3168121704301e-10,1.1758784184274e-09,-0.0017317650319362,0.0017317655716248,-0.0019177507155576,0.0019177502570021,-0.0019177501880401,0.0019177507740622,-0.0019177502916104,0.0019177506911516,-0.0019177496893348,0.0019177512827873,-0.0015214227150359,0.0015214218652085,-0.0015214207604601,0.0015214236283942,-0.0015214224174131,0.0015214221208869,-0.0015214209928383,0.0015214236456145,1.24829120284e-10,-1.5375809771432e-10,-0.00086948084944616,0.00086948082557237,1.5020691979935e-09,-1.5031629816932e-09,-0.0010590337410235,0.0010590348551607,-0.0010590348200506,0.0010590337878782,-0.0010590338773663,0.0010590347058539,-0.0010590348805018,0.0010590337587898,-0.00087305838826813,0.00087305724997152,-0.00087305827202328,0.00087305732280409,0.71253171363166,128566,2924,0.0036199526944242,0.0071858441026518,0.0036199527134228,22.281990789387,-5.9344073684904e-05,-5.9344073684904e-05,-5.9344073684904e-05,4259164.60487,0.014531710041585
27819200,0.99409020818264,0.015099437910914,0.0041486187314851,0.0068022004316693,0.0041486187477601,-0.00086984513475565,0.00086984504630146,-6.8026364058185e-11,-2.0944991482721e-11,1.704715841035e-10,-2.7356951187449e-10,-0.0010595322188665,0.0010595323180006,-0.0010595322486416,0.0010595322724318,-0.0010595324335925,0.0010595321464229,-0.0010595323440181,0.0010595321837176,-0.00087349001589154,0.00087348957960464,-0.00087348979857455,0.00087348981190929,-4.0185750405851e-10,1.0083981596578e-09,-5.9070931782406e-10,1.1629894887635e-09,-0.001732463194361,0.0017324637484629,-0.0019184421679678,0.0019184417181328,-0.0019184416577449,0.0019184422245542,-0.0019184417381613,0.0019184421507398,-0.0019184411502747,0.0019184427355927,-0.001522080832248,0.0015220800465084,-0.001522079102286,0.0015220819727686,-0.0015220805495699,0.001522080256463,-0.0015220790874902,0.0015220817492287,1.1218683282441e-10,-1.6936496254698e-10,-0.00086984512055162,0.00086984506203084,1.3983743930045e-09,-1.5212734596621e-09,-0.0010595317312399,0.0010595328135082,-0.0010595327811745,0.0010595317773933,-0.0010595318704336,0.0010595326627526,-0.0010595328422649,0.001059531746378,-0.00087349035367594,0.00087348921678116,-0.00087349023936089,0.00087348931131127,0.72383700209545,128566,2924,0.0036214716519848,0.0071887234218273,0.0036214716550658,22.443755859037,-5.8049953127702e-05,-5.8049953127702e-05,-5.8049953127702e-05,4257260.4072357,0.014537715220833
28019200,0.9942719555921,0.015102320917794,0.0041494223722091,0.0068034761571098,0.0041494223884753,-0.00087031273755561,0.0008703126341678,-7.998293002492e-11,-3.0616421547248e-11,1.6220272911576e-10,-2.9171336370992e-10,-0.0010601630716191,0.0010601631726955,-0.001060163090346,0.0010601631074704,-0.0010601632756758,0.0010601629720871,-0.0010601631977751,0.0010601630336333,-0.00087404555003029,0.00087404509748458,-0.00087404533483488,0.0008740453144065,-4.2685161256447e-10,9.8579359950574e-10,-5.7813891954698e-10,1.1116791361419e-09,-0.001733307780543,0.0017333083143786,-0.0019192651009157,0.0019192646736979,-0.0019192645972283,0.0019192651485529,-0.0019192646744512,0.001919265094922,-0.0019192640823353,0.0019192656652419,-0.0015228893846603,0.0015228886544735,-0.0015228875986893,0.0015228903670861,-0.0015228891512049,0.0015228887973097,-0.0015228876932945,0.0015228903243747,1.2686643691119e-10,-1.5696211721745e-10,-0.00087031270635689,0.00087031267766401,1.431676552117e-09,-1.464875367586e-09,-0.0010601625733031,0.0010601636499178,-0.0010601636079543,0.001060162626982,-0.0010601627181758,0.0010601634912789,-0.0010601636563576,0.0010601625950377,-0.00087404588950249,0.00087404478364602,-0.00087404577595222,0.00087404488108996,0.73612815842028,128566,2924,0.0036234209826117,0.0071922066179106,0.0036234210083216,22.670689084891,-5.6234487320875e-05,-5.6234487320875e-05,-5.6234487320875e-05,4254849.9603475,0.014545207177095
28219200,0.99445340438556,0.015105256589941,0.0041502427853586,0.0068047710029571,0.0041502428016249,-0.00087123107208358,0.00087123096897638,-8.0895665001787e-11,-3.0317995416719e-11,1.4778822674097e-10,-2.856122136841e-10,-0.0010613006286097,0.0010613007060532,-0.0010613007042759,0.0010613007354688,-0.0010613008620905,0.0010613005918719,-0.0010613007700891,0.00106130060311,-0.00087508717226908,0.00087508671422238,-0.00087508687504832,0.00087508685401024,-4.2862693868242e-10,9.8776625341899e-10,-6.0643319976437e-10,1.1521967062992e-09,-0.0017347144932271,0.0017347150361452,-0.0019206364781875,0.0019206360425361,-0.0019206359858251,0.0019206365370927,-0.0019206360450819,0.0019206365132829,-0.001920635505428,0.0019206370465916,-0.0015242518453604,0.0015242510625161,-0.0015242498520623,0.0015242526322391,-0.0015242516003645,0.0015242512833124,-0.0015242502074009,0.0015242528471296,1.5612681197167e-10,-1.2670988676814e-10,-0.00087123101432979,0.00087123104373174,1.5197190579789e-09,-1.4107973662964e-09,-0.0010613001211114,0.0010613012415532,-0.0010613011843204,0.0010613001889093,-0.0010613002465414,0.0010613011051643,-0.0010613012687562,0.0010613001569734,-0.00087508749362505,0.00087508645544849,-0.00087508734021187,0.00087508649726583,0.74949209098991,128566,2924,0.0036272444306683,0.0071980114745082,0.0036272444661997,23.164029117021,-5.2287767063832e-05,-5.2287767063832e-05,-5.2287767063832e-05,4255983.3444335,0.014558858728845
28419200,0.99462925696119,0.015108161455234,0.0041510564213305,0.0068060485963046,0.0041510564375993,-0.00087129864431743,0.00087129855594856,-7.2227322181357e-11,-1.5565790013484e-11,1.6275296734864e-10,-2.7087816847554e-10,-0.0010615713954483,0.0010615714863889,-0.0010615714195485,0.0010615714563134,-0.0010615715994339,0.0010615713287361,-0.0010615715245179,0.0010615713710259,-0.00087525917530902,0.00087525876429037,-0.00087525896046871,0.00087525895224855,-4.2191342889318e-10,1.0324348821172e-09,-5.7022671525939e-10,1.1443944917103e-09,-0.0017351776583618,0.001735178221546,-0.0019210433671852,0.001921042928929,-0.0019210428678369,0.0019210434327195,-0.0019210429182672,0.0019210433880094,-0.0019210423577442,0.0019210439582888,-0.0015247027209075,0.0015247020318669,-0.0015247011038205,0.0015247038563214,-0.0015247025037307,0.0015247021410635,-0.0015247010290143,0.0015247036368636,1.2566293135944e-10,-1.5840896616151e-10,-0.00087129861841548,0.00087129858296998,1.3078950695563e-09,-1.4168117116643e-09,-0.0010615709232535,0.0010615719626276,-0.0010615719063705,0.0010615710049045,-0.0010615710591614,0.0010615718225287,-0.001061571979041,0.0010615709663572,-0.00087525951120285,0.00087525839959901,-0.00087525935770513,0.00087525853279228,0.76402648000072,128566,2924,0.0036275341952662,0.0071999151705438,0.0036275341974865,23.176417531625,-5.2188659746996e-05,-5.2188659746996e-05,-5.2188659746996e-05,4245463.7442264,0.01456138162578
28619200,0.99480002580983,0.015111002621407,0.0041518529689552,0.0068072966672416,0.0041518529852104,-0.00087141133151737,0.00087141123801529,-7.9206905239297e-11,-1.7191020410714e-11,1.5558171820847e-10,-2.7016884299789e-10,-0.0010619071893575,0.0010619072590544,-0.0010619072028898,0.0010619072430733,-0.0010619073797167,0.0010619071122271,-0.0010619073089537,0.0010619071421162,-0.00087549363300764,0.00087549323286366,-0.00087549344300547,0.00087549341471818,-4.5046307542696e-10,1.0394371179095e-09,-5.8169331849194e-10,1.142804714571e-09,-0.0017357152731699,0.0017357158247105,-0.0019215075497431,0.0019215070795633,-0.0019215070365697,0.0019215075879205,-0.001921507080597,0.0019215075580699,-0.0019215065239328,0.0019215081095411,-0.0015252376761676,0.0015252370038586,-0.0015252359431279,0.0015252387340135,-0.0015252374765734,0.0015252371351722,-0.0015252360011865,0.0015252386839149,1.4363002255802e-10,-1.3986268250613e-10,-0.00087141128738289,0.00087141129012541,1.261409815796e-09,-1.2712176401424e-09,-0.0010619067360009,0.0010619077146294,-0.0010619076407327,0.001061906824335,-0.001061906856945,0.0010619075806139,-0.0010619077196172,0.0010619067747386,-0.00087549393996286,0.00087549293932292,-0.00087549376967599,0.00087549307581686,0.76896223761334,128566,2924,0.0036280121909244,0.0072021253839241,0.0036280122075607,23.222816195717,-5.1817470434261e-05,-5.1817470434261e-05,-5.1817470434261e-05,4234043.7829356,0.014564598019193
28819200,0.99497228484163,0.015113791056,0.0041526319274571,0.0068085271848329,0.0041526319437099,-0.00087262565756053,0.00087262555674189,-8.2172071034194e-11,-2.3967408132704e-11,1.576910012658e-10,-2.9013274870251e-10,-0.0010634131561574,0.0010634132485309,-0.0010634131888711,0.001063413217086,-0.0010634133665082,0.0010634130745413,-0.0010634132877835,0.0010634131270297,-0.00087687893050233,0.00087687848209125,-0.0008768787263269,0.00087687871599631,-4.3768115602347e-10,9.8831692541987e-10,-5.8183515398249e-10,1.1154385657057e-09,-0.0017375433539092,0.0017375438911182,-0.0019232641610973,0.0019232637458238,-0.0019232636732703,0.0019232642155952,-0.0019232637305237,0.001923264185446,-0.0019232631672056,0.0019232647328953,-0.0015270313993824,0.0015270306887215,-0.0015270295272915,0.0015270322555634,-0.0015270312107767,0.0015270308448489,-0.0015270297712688,0.001527032392077,1.3789450935673e-10,-1.5234747398805e-10,-0.00087262561422363,0.00087262560959431,1.4539861951904e-09,-1.4097955853486e-09,-0.0010634126558104,0.0010634137393121,-0.0010634136873409,0.0010634127223645,-0.001063412795869,0.0010634135869412,-0.0010634137502434,0.0010634126869779,-0.00087687927317198,0.00087687815146014,-0.00087687914533579,0.00087687825120567,0.74978589899799,128566,2924,0.0036330678909822,0.007209668312011,0.0036330679110342,23.911269463216,-4.6309844294271e-05,-4.6309844294271e-05,-4.6309844294271e-05,4235755.8990669,0.014582515165829
29019200,0.99513549433811,0.015116283417589,0.0041533220232896,0.0068096393547579,0.0041533220395415,-0.00087204964688029,0.00087204956554844,-6.984878817482e-11,-8.0098612706024e-12,1.9254729087677e-10,-2.7578853637893e-10,-0.001062980153064,0.00106298025338,-0.0010629801707079,0.0010629802134724,-0.0010629803773651,0.0010629800821014,-0.0010629802791386,0.0010629801117362,-0.00087636477423602,0.00087636432974947,-0.00087636453429225,0.00087636455489737,-4.0269158646022e-10,1.0614827766063e-09,-4.3280506257302e-10,1.0415429490484e-09,-0.0017372404088122,0.0017372409827175,-0.0019229163476274,0.0019229159685098,-0.0019229159307827,0.0019229163933276,-0.0019229158966107,0.0019229164228093,-0.0019229154093448,0.0019229169173413,-0.0015267288797006,0.0015267284185983,-0.00152672764098,0.0015267302870079,-0.0015267287814577,0.0015267283944208,-0.0015267272573612,0.0015267298815347,1.1436817628513e-10,-1.8053844333487e-10,-0.00087204964183693,0.00087204956559859,1.2086918755282e-09,-1.4465852763983e-09,-0.0010629797101071,0.0010629807185411,-0.0010629806709111,0.0010629797749694,-0.001062979851136,0.0010629805686672,-0.0010629807449116,0.0010629797357561,-0.00087636506271123,0.00087636398912519,-0.00087636491720863,0.00087636412006018,0.7113044679611,128566,2924,0.0036306827173253,0.0072084065032378,0.0036306827065264,23.567338607913,-4.9061291136695e-05,-4.9061291136695e-05,-4.9061291136695e-05,4220269.3755782,0.014576396628327
29219200,0.99529728436399,0.015118693813342,0.0041539876592474,0.0068107184785972,0.0041539876754971,-0.00087281594943448,0.00087281583201161,-9.6171073297078e-11,-3.4421068945782e-11,1.5305299446659e-10,-3.1576889941805e-10,-0.001063837549676,0.0010638376399817,-0.0010638375964258,0.0010638376276404,-0.0010638377715342,0.0010638374675237,-0.001063837696774,0.0010638375222456,-0.00087719220177887,0.000877191715907,-0.00087719194449343,0.00087719188816563,-4.6295327891864e-10,9.6987143568162e-10,-5.0293375048386e-10,1.005671328196e-09,-0.0017383312078082,0.0017383317329876,-0.0019240263003263,0.001924025946362,-0.0019240258694505,0.00192402635383,-0.0019240258702496,0.0019240263980854,-0.0019240253682475,0.0019240268737235,-0.0015277619354579,0.0015277614168982,-0.0015277600884643,0.0015277625968106,-0.0015277618949664,0.0015277614379847,-0.0015277604648045,0.0015277630445378,1.6710902930886e-10,-1.2612175753287e-10,-0.00087281587788684,0.00087281592746125,1.4973602465841e-09,-1.3098754394517e-09,-0.0010638370469157,0.0010638381277338,-0.0010638380580869,0.0010638371322283,-0.0010638371860609,0.001063837974896,-0.0010638381233624,0.0010638370946186,-0.00087719252122681,0.00087719148166352,-0.00087719238236211,0.00087719156456968,0.69517198702997,128566,2924,0.0036338701728864,0.0072129102622549,0.0036338702230384,23.974865560558,-4.5801075515538e-05,-4.5801075515538e-05,-4.5801075515538e-05,4227330.9513788,0.014587434411051
29419200,0.9954582352665,0.015120921974998,0.0041545956780612,0.0068117306026423,0.0041545956942944,-0.00087372204308398,0.00087372193362129,-9.0200429052779e-11,-2.6252331421089e-11,1.5652320618563e-10,-3.0072311967394e-10,-0.0010648107937606,0.0010648108872686,-0.001064810818869,0.0010648108415242,-0.0010648110041847,0.0010648106964227,-0.0010648109239915,0.0010648107614676,-0.00087813497007891,0.00087813449070684,-0.0008781347454553,0.00087813473697739,-4.3087356881412e-10,9.8247713829194e-10,-5.3217907200054e-10,1.0661948601848e-09,-0.0017395397011469,0.0017395402398341,-0.0019252824828025,0.0019252820955461,-0.0019252820126966,0.0019252825347086,-0.001925282058531,0.0019252825240745,-0.0019252815031837,0.0019252830524913,-0.0015288917796031,0.0015288911413928,-0.001528889969027,0.0015288926447752,-0.0015288916206706,0.0015288912344519,-0.0015288901828621,0.0015288927957473,1.3985289741351e-10,-1.5739703831648e-10,-0.00087372199880698,0.00087372198949825,1.4883781540396e-09,-1.4475394106389e-09,-0.0010648102811146,0.0010648113790197,-0.0010648113347045,0.0010648103414829,-0.0010648104274582,0.0010648112171571,-0.0010648113909706,0.001064810304726,-0.00087813531054501,0.00087813418247405,-0.00087813518807429,0.0008781342797188,0.65090117591371,128566,2924,0.0036376368627207,0.0072179026713997,0.00363763688709,24.457817580925,-4.19374593526e-05,-4.19374593526e-05,-4.19374593526e-05,4238692.7130658,0.014600142836507
29619200,0.99561871572302,0.015123109254341,0.0041551910655214,0.0068127271070763,0.0041551910817438,-0.00087476423252896,0.00087476412708362,-9.014716586008e-11,-2.3081633438291e-11,1.4981444249405e-10,-2.8632249016211e-10,-0.0010658152422325,0.0010658153308744,-0.0010658152643782,0.0010658152847226,-0.0010658154465094,0.0010658151471492,-0.0010658153632861,0.001065815211316,-0.0008791590640405,0.00087915859719762,-0.0008791588250122,0.00087915882233672,-4.226484618502e-10,9.7821757300697e-10,-6.0497171088244e-10,1.1388212177935e-09,-0.0017407693071002,0.0017407698447031,-0.0019266267663158,0.0019266263318112,-0.0019266262471548,0.0019266268244236,-0.0019266263445906,0.0019266267554087,-0.0019266257412308,0.0019266273382307,-0.0015300096444048,0.0015300088645027,-0.0015300077644905,0.0015300105659361,-0.0015300093755928,0.0015300090479731,-0.0015300079433973,0.0015300105763471,1.3490140649066e-10,-1.6461826655621e-10,-0.00087476419863075,0.00087476417341772,1.5090615629698e-09,-1.5160309362716e-09,-0.0010658147177127,0.0010658158376068,-0.0010658157984349,0.0010658147728174,-0.0010658148662943,0.0010658156760815,-0.0010658158565462,0.0010658147357967,-0.00087915943158806,0.00087915825875366,-0.00087915929827066,0.00087915836625447,0.64191651327855,128566,2924,0.0036419646588492,0.0072229877648498,0.0036419646848728,24.998661195967,-3.7610710432261e-05,-3.7610710432261e-05,-3.7610710432261e-05,4258524.8170033,0.014614081474162
29819200,0.99577941732826,0.015125437581974,0.004155831029862,0.0068137755060335,0.0041558310460783,-0.00087599027421916,0.00087599017722697,-8.5946744569773e-11,-1.680156721567e-11,1.4591957905298e-10,-2.7023404182964e-10,-0.0010669974349058,0.0010669975159357,-0.001066997466781,0.0010669974915638,-0.0010669976413346,0.0010669973590355,-0.0010669975523238,0.0010669974076883,-0.00088036672038155,0.00088036626745796,-0.00088036647368343,0.00088036648515141,-4.125554353617e-10,9.7616664536729e-10,-6.6676390282045e-10,1.2088977312982e-09,-0.0017421861104269,0.0017421866528357,-0.0019281745448555,0.0019281740704748,-0.0019281739935116,0.0019281746135036,-0.0019281741244137,0.0019281745020427,-0.0019281734997648,0.0019281751183665,-0.0015313028641209,0.0015313019694287,-0.0015313008874492,0.0015313038014333,-0.0015313025239663,0.0015313022632517,-0.0015313011047856,0.0015313037663282,1.2991191956496e-10,-1.7091979906158e-10,-0.00087599024830284,0.00087599021214142,1.5542974208984e-09,-1.5778249644596e-09,-0.0010669968995855,0.0010669980502485,-0.0010669980187056,0.0010669969474203,-0.0010669970438236,0.0010669978950635,-0.0010669980879054,0.0010669969088969,-0.00088036711372583,0.00088036588108612,-0.00088036697247158,0.00088036599121589,0.67837953491644,128566,2924,0.0036470556188717,0.0072288477101887,0.0036470556376917,25.63564291793,-3.251485665656e-05,-3.251485665656e-05,-3.251485665656e-05,4280886.833097,0.014630355268206
30019200,0.99593677851939,0.015127754171897,0.0041564687374971,0.0068148166806897,0.0041564687537096,-0.00087656546564423,0.00087656537522298,-8.2412011255656e-11,-1.0765938427221e-11,1.6096405750228e-10,-2.6732408181515e-10,-0.001067608785053,0.0010676088752495,-0.001067608802224,0.0010676088301269,-0.001067608992416,0.0010676087017857,-0.0010676089003394,0.0010676087559964,-0.00088095247760931,0.00088095202265033,-0.00088095222858743,0.00088095224986152,-3.9906182234702e-10,9.9704595210703e-10,-6.183876835631e-10,1.1823973055151e-09,-0.0017429774080143,0.001742977963098,-0.0019290343981106,0.0019290339433246,-0.0019290338685975,0.001929034471668,-0.0019290339759158,0.001929034367508,-0.0019290333643272,0.0019290349806708,-0.001532012651606,0.0015320118466376,-0.0015320109240112,0.001532013799978,-0.0015320123492777,0.0015320120725451,-0.0015320108879031,0.0015320135370945,1.1592803561412e-10,-1.8816914546526e-10,-0.00087656545885958,0.00087656538533018,1.4815706346223e-09,-1.6284028554896e-09,-0.0010676082617481,0.0010676093981425,-0.0010676093717393,0.0010676083090219,-0.0010676084126393,0.0010676092389125,-0.0010676094378393,0.0010676082698992,-0.00088095286482849,0.00088095160184961,-0.00088095272954128,0.00088095173838564,0.68873330072466,128566,2924,0.003649446424088,0.0072321177461949,0.0036494464308828,25.914831930388,-3.0281344556898e-05,-3.0281344556898e-05,-3.0281344556898e-05,4287866.228302,0.014638524513734
30219200,0.99608896000643,0.015129890783911,0.0041570523462676,0.006815786075163,0.0041570523624801,-0.00087677137793716,0.00087677128589513,-8.4139930356781e-11,-1.0742415016881e-11,1.6975688538375e-10,-2.7821275573246e-10,-0.0010678617827809,0.0010678618734519,-0.0010678618049501,0.0010678618394881,-0.001067861999477,0.0010678617022944,-0.0010678619040097,0.0010678617491527,-0.00088116768428403,0.00088116721730425,-0.00088116742768861,0.00088116744627994,-4.1088591018808e-10,1.0073244515177e-09,-5.6318263327479e-10,1.1272513305986e-09,-0.0017433710763319,0.0017433716292101,-0.0019294748759005,0.0019294744478083,-0.0019294743854174,0.0019294749372068,-0.0019294744449553,0.0019294748850131,-0.0019294738777391,0.0019294754508709,-0.0015323434567597,0.0015323427543984,-0.0015323417927008,0.0015323445794773,-0.0015323432331098,0.0015323429077921,-0.0015323417619181,0.0015323444053637,1.278545309517e-10,-1.7863945491154e-10,-0.00087677136061477,0.00087677130813326,1.4245700916263e-09,-1.5339963452211e-09,-0.001067861280102,0.0010678623813808,-0.0010678623411101,0.0010678613376822,-0.0010678614278283,0.0010678622234879,-0.0010678624118114,0.0010678612972574,-0.00088116803104483,0.00088116685340224,-0.00088116788839361,0.00088116697886513,0.66008545245467,128566,2924,0.0036503040034534,0.0072337431043352,0.0036503040135944,25.990943612671,-2.9672451098635e-05,-2.9672451098635e-05,-2.9672451098635e-05,4288296.5239801,0.014641914220354
30419200,0.99623372536334,0.015131804516104,0.0041575700069439,0.006816664486001,0.0041575700231595,-0.00087650866937236,0.0008765085732767,-8.8303853234516e-11,-1.1705908446932e-11,1.8252055727851e-10,-2.9613326006747e-10,-0.0010675369578706,0.0010675370596985,-0.0010675369694039,0.0010675370103592,-0.0010675371784169,0.0010675368637831,-0.0010675370883485,0.0010675369252159,-0.00088085104750455,0.00088085056959969,-0.00088085079860423,0.00088085079572215,-4.2773095470118e-10,1.0209395031166e-09,-4.4039619602204e-10,9.9997058699674e-10,-0.0017431157642016,0.0017431163183398,-0.0019293065256905,0.0019293061751565,-0.0019293061085451,0.0019293065840459,-0.0019293060866823,0.0019293066136296,-0.0019293055851968,0.0019293071115772,-0.0015320205498009,0.0015320201235396,-0.0015320191736896,0.0015320217031218,-0.0015320205186634,0.001532020066292,-0.0015320190034128,0.0015320215812178,1.322265523343e-10,-1.7560316013563e-10,-0.00087650864566411,0.00087650860217439,1.3330145096453e-09,-1.443462498354e-09,-0.0010675364797323,0.001067537532159,-0.0010675374765098,0.0010675365576744,-0.0010675366330735,0.0010675373703739,-0.0010675375410793,0.001067536516717,-0.0008808513597013,0.00088085022548046,-0.00088085122062317,0.00088085037261054,0.62526767506129,128566,2924,0.0036492112636004,0.0072326903349604,0.0036492112743263,25.786620461102,-3.1307036311185e-05,-3.1307036311185e-05,-3.1307036311185e-05,4288346.0462445,0.014638626163659
30619200,0.99637046276957,0.015133735537155,0.0041580985804507,0.0068175383600385,0.0041580985966656,-0.00087606216953665,0.00087606206968409,-9.047926264306e-11,-1.35355644876e-11,1.9338452269881e-10,-3.137650334289e-10,-0.0010669116873576,0.0010669117919057,-0.0010669117104997,0.0010669117587762,-0.0010669119238842,0.001066911598661,-0.0010669118285221,0.0010669116507481,-0.00088029307486784,0.00088029257692859,-0.00088029281464108,0.00088029281066523,-4.426919411239e-10,1.0316837134766e-09,-3.5530741783757e-10,9.1497120678711e-10,-0.0017425091006724,0.0017425096513041,-0.0019288388405947,0.0019288385367246,-0.0019288384842029,0.001928838879414,-0.0019288383927548,0.0019288389898079,-0.0019288379570104,0.0019288394147127,-0.0015313337174667,0.0015313334393951,-0.0015313324144759,0.0015313347994633,-0.0015313338015258,0.0015313332728695,-0.0015313322818354,0.0015313348395081,1.517095520446e-10,-1.5949343471511e-10,-0.00087606212694573,0.00087606212010351,1.2456755599373e-09,-1.2851796699162e-09,-0.0010669112427041,0.0010669122397201,-0.0010669121610656,0.0010669113367668,-0.0010669113926972,0.0010669120786708,-0.0010669122311848,0.0010669112962511,-0.00088029332132916,0.00088029232835819,-0.00088029317307794,0.00088029245016139,0.66318501971231,128566,2924,0.0036473509211675,0.0072301904865821,0.0036473509374381,25.453422667617,-3.3972618659064e-05,-3.3972618659064e-05,-3.3972618659064e-05,4292163.3805722,0.014632309483836
30819200,0.99650720739032,0.015135760724619,0.0041586571345943,0.0068184464392179,0.0041586571508064,-0.00087726296208306,0.00087726284005128,-1.0605911237501e-10,-2.9066225216464e-11,1.5192878652729e-10,-3.2750779818511e-10,-0.001068154287203,0.0010681543779108,-0.0010681543224233,0.0010681543539181,-0.0010681545049778,0.0010681541839896,-0.0010681544276621,0.0010681542590425,-0.00088151953599826,0.0008815190347333,-0.0008815193028314,0.00088151927564141,-4.7672679573539e-10,9.6307426427172e-10,-5.1866082509135e-10,1.0056549712839e-09,-0.0017439500133549,0.0017439505246007,-0.0019303563093039,0.0019303559467657,-0.0019303558634326,0.0019303563433249,-0.0019303558778331,0.0019303563878641,-0.0019303553503116,0.0019303568739113,-0.0015326741999079,0.0015326736189054,-0.0015326722216078,0.001532674740541,-0.0015326741321342,0.0015326736362381,-0.0015326727118884,0.0015326752799239,1.840674265172e-10,-1.278389160119e-10,-0.00087726287586939,0.00087726294982127,1.4518043286684e-09,-1.2056497624507e-09,-0.0010681537923007,0.001068154842342,-0.0010681547530043,0.0010681538908486,-0.001068153940942,0.0010681546767694,-0.0010681548133465,0.0010681538514038,-0.0008815198253348,0.00088151884114413,-0.00088151967430706,0.0008815189259952,0.69236591067106,128566,2924,0.0036523397857851,0.0072361469341345,0.0036523398354028,26.087965907399,-2.8896272740805e-05,-2.8896272740805e-05,-2.8896272740805e-05,4307012.0868287,0.014648477586066
31019200,0.99664834045899,0.015137915959131,0.0041592537666889,0.0068194084095393,0.0041592537829032,-0.00087943647838619,0.00087943637615164,-9.3838971743386e-11,-1.4335614880249e-11,1.3967975336839e-10,-2.803186846919e-10,-0.001070532893399,0.0010705329642749,-0.0010705329410428,0.0010705329694844,-0.0010705331073186,0.001070532823019,-0.0010705330114765,0.0010705328652218,-0.00088380987313503,0.00088380939935439,-0.00088380962243252,0.00088380965871244,-4.2814937527166e-10,9.6226843459515e-10,-6.926665863936e-10,1.2186615322561e-09,-0.0017466512668934,0.0017466517940373,-0.0019330903565363,0.0019330898720141,-0.0019330898046742,0.0019330904043091,-0.0019330899351865,0.0019330903136172,-0.0019330893175198,0.0019330909103586,-0.0015352661970501,0.0015352652148536,-0.0015352639495481,0.0015352668898725,-0.0015352658324744,0.0015352655667489,-0.0015352644608313,0.001535267133957,1.5794970610887e-10,-1.5499739151007e-10,-0.00087943642597147,0.00087943644213281,1.5700485885051e-09,-1.4472342212086e-09,-0.0010705323597385,0.0010705335021118,-0.0010705334484649,0.0010705324186912,-0.0010705325005426,0.0010705333456682,-0.0010705335271332,0.0010705323785747,-0.00088381023022355,0.00088380909601935,-0.0008838100728879,0.0008838091715917,0.71216093503317,128566,2924,0.00366137416712,0.0072473073494845,0.0036613741956797,27.298498261244,-1.9212013910051e-05,-1.9212013910051e-05,-1.9212013910051e-05,4327321.1001443,0.014678139927627
31219200,0.99679426907667,0.01514025775454,0.0041599057305289,0.0068204462772642,0.004159905746747,-0.00088175091537938,0.00088175080518562,-1.0151039467161e-10,-1.8148807650627e-11,1.1393056519245e-10,-2.6128729870532e-10,-0.0010731327842232,0.0010731328504929,-0.0010731327773891,0.0010731327783674,-0.0010731329480056,0.0010731326577057,-0.0010731328770589,0.0010731327530098,-0.00088628464914999,0.00088628419402945,-0.00088628443805601,0.00088628446356439,-4.018470986705e-10,9.3839060439941e-10,-8.5370979963398e-10,1.3729562675402e-09,-0.0017496236656953,0.0017496241950306,-0.0019360588380091,0.0019360582652243,-0.0019360581478515,0.0019360589103282,-0.0019360584360262,0.0019360586533573,-0.0019360576522054,0.0019360594055432,-0.0015381335356227,0.0015381322553377,-0.0015381311132999,0.0015381343683532,-0.0015381329040425,0.0015381327871034,-0.0015381315404782,0.0015381342729628,1.3313663420655e-10,-1.8263924565588e-10,-0.00088175088997128,0.00088175084772096,1.7012449062535e-09,-1.6982455996211e-09,-0.0010731321849233,0.0010731334001007,-0.0010731333846044,0.0010731322202593,-0.0010731323408855,0.001073133226911,-0.0010731334342993,0.0010731321740758,-0.00088628512390529,0.00088628378173217,-0.0008862849810562,0.00088628391596419,0.74546455288314,128566,2924,0.0036709967602832,0.0072595846804447,0.003670996796218,28.604711652122,-8.7623067830265e-06,-8.7623067830265e-06,-8.7623067830265e-06,4345445.2578714,0.014710132038065
31419200,0.99693882633493,0.015142462833329,0.004160514268767,0.0068214342795799,0.0041605142849818,-0.0008828187828701,0.00088281871111276,-7.8576427525694e-11,8.9473738906329e-12,1.4443172538824e-10,-2.1880743725946e-10,-0.001074515755329,0.0010745158265147,-0.0010745157623137,0.0010745157841452,-0.0010745159462108,0.0010745156806732,-0.0010745158381452,0.0010745157286332,-0.00088750706803818,0.00088750664477436,-0.00088750681720253,0.00088750690999421,-3.5533534198451e-10,9.968474966403e-10,-8.3593570473803e-10,1.4307063877843e-09,-0.0017512890536351,0.0017512896194901,-0.0019376637164288,0.0019376631164246,-0.0019376630407398,0.0019376638055461,-0.0019376633026346,0.001937663523879,-0.0019376625476532,0.0019376642987969,-0.0015397435445927,0.0015397422542898,-0.0015397415188704,0.001539744876772,-0.0015397428703397,0.0015397428197945,-0.0015397414478514,0.0015397441959838,9.4898302789638e-11,-2.2403147871775e-10,-0.00088281881114258,0.00088281867686354,1.5454425036159e-09,-1.8447352740053e-09,-0.0010745151959373,0.0010745164035168,-0.0010745163999423,0.0010745152184846,-0.0010745153518286,0.0010745162412673,-0.0010745164756797,0.0010745151764336,-0.00088750752406336,0.00088750610817726,-0.00088750736477474,0.00088750626615895,0.71243068919044,128566,2924,0.003675443834813,0.0072664557297735,0.0036754438220328,29.222912702678,-3.8166983785785e-06,-3.8166983785785e-06,-3.8166983785785e-06,4343422.4763237,0.014726136164528
31619200,0.99707523800842,0.015144441457124,0.0041610560929456,0.0068223292550175,0.0041610561091611,-0.00088246061817315,0.00088246053411473,-8.696392957819e-11,1.1415712607483e-12,1.6330969230063e-10,-2.5362052677288e-10,-0.0010742835601822,0.001074283640162,-0.0010742835710811,0.001074283602422,-0.0010742837693981,0.001074283478254,-0.0010742836619041,0.0010742835241457,-0.00088719862327585,0.00088719815718649,-0.00088719832764168,0.00088719838150863,-3.7940398964502e-10,1.0120374766557e-09,-6.6143749095045e-10,1.2499024476323e-09,-0.0017511765597999,0.0017511771219178,-0.0019375386104304,0.001937538114406,-0.0019375380544325,0.0019375386833435,-0.0019375381872852,0.0019375385393019,-0.0019375375520538,0.0019375391865849,-0.0015395993977238,0.0015395984733596,-0.0015395976703353,0.0015396007055882,-0.0015395989759201,0.0015395987799739,-0.0015395975170126,0.0015396002176898,1.2342948074791e-10,-1.9842480117535e-10,-0.0008824606227316,0.00088246053400106,1.4353035218156e-09,-1.6605596680383e-09,-0.001074283037924,0.0010742841775037,-0.0010742841441563,0.0010742830884939,-0.0010742831924661,0.0010742840140604,-0.0010742842208673,0.0010742830436653,-0.00088719899884888,0.00088719776041964,-0.00088719883147528,0.00088719790395342,0.68058196464399,128566,2924,0.0036739620193325,0.0072659839099885,0.0036739620282767,29.011352105483,-5.5091831561355e-06,-5.5091831561355e-06,-5.5091831561355e-06,4331393.9237424,0.014722652121683
31819200,0.99720279100035,0.01514622485296,0.0041615420129985,0.006823140810742,0.0041615420292191,-0.00088184287279103,0.00088184277665849,-9.5496065699347e-11,-5.2522925874845e-12,1.7701157088677e-10,-2.908192679357e-10,-0.0010736553866619,0.0010736554774561,-0.0010736553966275,0.0010736554382211,-0.0010736556052223,0.0010736552902344,-0.0010736555086158,0.001073655350949,-0.00088656133987161,0.00088656084951543,-0.00088656107094252,0.00088656108953511,-4.2344339697724e-10,1.0174133099571e-09,-4.6996116359728e-10,1.0318128723544e-09,-0.001750606098267,0.0017506066504507,-0.0019370065107878,0.0019370061428331,-0.0019370060800838,0.0019370065679787,-0.0019370060729769,0.0019370065814963,-0.001937005560996,0.001937007090281,-0.0015389920343901,0.0015389915296388,-0.0015389905578062,0.0015389931604615,-0.0015389919454962,0.0015389915312699,-0.0015389904506298,0.0015389930491544,1.453249690543e-10,-1.7668351504376e-10,-0.00088184284631095,0.00088184281129418,1.3484548724528e-09,-1.4383463055711e-09,-0.0010736548984164,0.0010736559638939,-0.0010736559001415,0.0010736549810076,-0.0010736550535709,0.0010736557984254,-0.0010736559713946,0.001073654935229,-0.00088656165017288,0.00088656053050871,-0.00088656149132644,0.00088656067608993,0.65806103165363,128566,2924,0.0036713970791149,0.0072636250697018,0.0036713970960488,28.629153986761,-8.5667681059128e-06,-8.5667681059128e-06,-8.5667681059128e-06,4322818.0437408,0.014715051960119
32019200,0.99732430758724,0.015148096086195,0.0041620600775967,0.006823975914783,0.0041620600938155,-0.00088180779874588,0.00088180769388231,-1.0138996834871e-10,-1.038968149675e-11,1.774945111682e-10,-3.1396660768271e-10,-0.0010735602436872,0.0010735603326348,-0.0010735602791484,0.0010735603321798,-0.0010735604809234,0.0010735601639191,-0.0010735603842225,0.0010735602127591,-0.00088649081283173,0.00088649030260696,-0.00088649052957636,0.0008864905245553,-4.5231804022965e-10,1.0126168458387e-09,-3.8067797854906e-10,9.2398081078518e-10,-0.0017506002218576,0.001750600767012,-0.0019370753810704,0.0019370750780471,-0.0019370750230432,0.0019370754297271,-0.0019370749361922,0.0019370755432474,-0.0019370745106251,0.0019370759581645,-0.0015389242773269,0.0015389239812717,-0.0015389228074794,0.0015389251679749,-0.0015389243750401,0.0015389238525422,-0.0015389228929329,0.001538925442123,1.721751476086e-10,-1.4985139717944e-10,-0.00088180773899531,0.0008818077663719,1.3444570861118e-09,-1.2675872481504e-09,-0.0010735597723244,0.0010735608105091,-0.0010735607210696,0.0010735598783285,-0.0010735599203172,0.0010735606516764,-0.001073560802975,0.0010735598323864,-0.00088649107679711,0.00088649005741421,-0.00088649090957411,0.00088649017822669,0.71766732385204,128566,2924,0.0036712499906861,0.007263603259916,0.0036712500173835,28.559243662796,-9.1260506976324e-06,-9.1260506976324e-06,-9.1260506976324e-06,4325306.5910359,0.014714729144135
32219200,0.99744144768239,0.015149942793466,0.0041625728545869,0.0068247970680721,0.004162572870807,-0.00088207836395742,0.00088207825887866,-1.0152425611764e-10,-8.7252998884499e-12,1.8524655702315e-10,-3.1589928517015e-10,-0.0010739644813702,0.0010739645735548,-0.0010739644964214,0.0010739645450718,-0.0010739647096742,0.0010739643788536,-0.0010739646123457,0.0010739644373144,-0.00088682549134873,0.00088682497553494,-0.00088682523857293,0.00088682524760777,-4.4772369317203e-10,1.0175842279709e-09,-3.2690388825179e-10,8.7495183546908e-10,-0.001751144955338,0.0017511454980625,-0.0019376026202227,0.0019376023368154,-0.0019376022837062,0.0019376026511223,-0.0019376021751715,0.0019376027872633,-0.0019376017599598,0.0019376031790247,-0.0015394395591281,0.0015394393383095,-0.001539438202801,0.0015394405343973,-0.0015394396910031,0.0015394391578743,-0.0015394381941205,0.0015394407469987,1.6195310622686e-10,-1.6375077649861e-10,-0.00088207831502529,0.00088207831839625,1.3177254452451e-09,-1.293648719904e-09,-0.0010739640132226,0.0010739650355457,-0.0010739649567555,0.0010739641038603,-0.0010739641648232,0.0010739648686412,-0.001073965029391,0.0010739640555412,-0.00088682575520198,0.00088682472792687,-0.00088682560181864,0.00088682485957706,0.73341166008739,128566,2924,0.0036723792304043,0.0072658490822646,0.0036723792525781,28.694263740443,-8.0458900764584e-06,-8.0458900764584e-06,-8.0458900764584e-06,4320423.6128422,0.014719302689601
32419200,0.99755524369352,0.015151784407961,0.0041630860001502,0.0068256123914398,0.0041630860163706,-0.00088257735105827,0.00088257724737934,-1.015332419718e-10,-7.3529455931189e-12,1.8323877572346e-10,-3.1213813486483e-10,-0.0010746528319096,0.0010746529254344,-0.0010746528484853,0.0010746528954259,-0.0010746530610457,0.0010746527312375,-0.0010746529616443,0.0010746527930639,-0.0008874239925583,0.0008874234745373,-0.00088742372857664,0.00088742374566453,-4.3972162921783e-10,1.0098724901475e-09,-3.4100868177179e-10,8.8803308249302e-10,-0.0017520093255455,0.0017520098687326,-0.0019384231026416,0.0019384228171289,-0.0019384227568278,0.00193842314102,-0.0019384226641111,0.0019384232602094,-0.0019384222361514,0.0019384236666963,-0.0015402783901389,0.0015402781330437,-0.0015402770269685,0.0015402793713084,-0.0015402784944849,0.0015402779711169,-0.0015402770053475,0.0015402795415552,1.5837164773723e-10,-1.6994712622827e-10,-0.00088257730772093,0.00088257730074485,1.345991729259e-09,-1.342964111541e-09,-0.0010746523540384,0.0010746533977367,-0.0010746533254131,0.0010746524402974,-0.0010746525094862,0.0010746532285272,-0.0010746533973898,0.0010746523936096,-0.00088742427183764,0.00088742320644533,-0.0008874241185648,0.00088742333819648,0.75109668119499,128566,2924,0.0036744592698747,0.0072694135789127,0.0036744592908569,28.97210690928,-5.823144725758e-06,-5.823144725758e-06,-5.823144725758e-06,4316174.3721093,0.01472714520306
32619200,0.99766868153226,0.015153473861558,0.0041635509679644,0.0068263719094106,0.0041635509841829,-0.0008838570995482,0.00088385699525181,-1.0424582437633e-10,-7.2014150931644e-12,1.5002637935775e-10,-2.898456947071e-10,-0.0010762216670744,0.0010762217366627,-0.0010762216927685,0.0010762217330532,-0.0010762218764138,0.0010762215786705,-0.0010762217843283,0.0010762216340894,-0.0008888653518182,0.00088886486758891,-0.00088886509467413,0.0008888651165812,-4.4741167693921e-10,9.878314456627e-10,-5.592339665509e-10,1.0862994927079e-09,-0.0017538540873524,0.0017538546190871,-0.0019402020539979,0.0019402016375357,-0.0019402015722981,0.0019402020963018,-0.0019402016142186,0.0019402020898071,-0.0019402010683146,0.0019402026144134,-0.0015420828113675,0.0015420821331557,-0.0015420809134647,0.0015420835970706,-0.001542082644835,0.001542082259723,-0.001542081221201,0.0015420838399207,1.7212146144721e-10,-1.5562434392512e-10,-0.00088385704262277,0.00088385706745097,1.4279192873401e-09,-1.3248224874804e-09,-0.0010762211644369,0.0010762222341154,-0.001076222156336,0.0010762212538559,-0.0010762213107946,0.001076222073437,-0.0010762222374146,0.0010762212036895,-0.0008888656685227,0.00088886460072721,-0.00088886548847737,0.00088886472301308,0.69654116568833,128566,2924,0.0036797855666336,0.0072770264872604,0.003679785598716,29.722324876668,1.7859901334073e-07,1.7859901334073e-07,1.7859901334073e-07,4318730.6270114,0.014745686228002
32819200,0.99777176093168,0.015154882272929,0.004163933138478,0.0068270159797601,0.0041639331546911,-0.00088238345834474,0.00088238337230369,-9.1507438205429e-11,7.7166915458711e-12,2.0652841237708e-10,-2.9190986561869e-10,-0.0010747301243181,0.0010747302212203,-0.0010747301387588,0.001074730197613,-0.0010747303681031,0.0010747300447346,-0.0010747302499381,0.0010747300844835,-0.00088735322673516,0.00088735270007523,-0.00088735289216893,0.00088735294483325,-3.9978305131397e-10,1.0668919315368e-09,-2.896188656954e-10,9.0459957945673e-10,-0.0017523311080108,0.0017523316868291,-0.0019386890174397,0.0019386887347922,-0.0019386886985117,0.0019386890626497,-0.00193868856956,0.0019386891908901,-0.0019386881754494,0.0019386895910224,-0.0015405629782393,0.0015405627813222,-0.0015405620232691,0.0015405644153941,-0.0015405630506511,0.0015405625678214,-0.0015405615113122,0.0015405640645787,1.4459369630043e-10,-1.8883723383549e-10,-0.00088238344557686,0.00088238338485591,1.1553950438863e-09,-1.3899530290003e-09,-0.0010747296853849,0.0010747306875749,-0.0010747306164943,0.0010747297755034,-0.0010747298417196,0.0010747305229072,-0.001074730703177,0.001074729727629,-0.00088735345565305,0.00088735244260361,-0.00088735328439497,0.00088735258731789,0.64446386355513,128566,2924,0.0036736659767149,0.0072707293131398,0.0036736659757662,28.865261106411,-6.6779111487102e-06,-6.6779111487102e-06,-6.6779111487102e-06,4299070.0333983,0.014726874935307
33019200,0.99786858757665,0.015156323094076,0.0041643303040185,0.0068276624698281,0.004164330320229,-0.00088193572820044,0.00088193562179511,-1.0608071222618e-10,-6.3504197722428e-12,1.8294793117658e-10,-3.1968787881357e-10,-0.0010741282577258,0.0010741283489953,-0.0010741282761962,0.0010741283292317,-0.0010741284860605,0.001074128156158,-0.001074128392252,0.0010741282217687,-0.00088682313358061,0.00088682261290282,-0.00088682287420687,0.00088682288566523,-4.580749606538e-10,1.0126855707392e-09,-3.3016667169364e-10,8.6635356972843e-10,-0.0017517497628235,0.001751750301293,-0.0019382015663614,0.0019382012923592,-0.0019382012341064,0.0019382015999137,-0.0019382011205145,0.0019382017476539,-0.001938200711404,0.0019382021325938,-0.0015399319818092,0.0015399317583733,-0.0015399305889018,0.001539932874811,-0.0015399321264515,0.0015399315586109,-0.0015399306362248,0.0015399331612469,1.777986413423e-10,-1.5532972700451e-10,-0.00088193566671099,0.00088193569457482,1.2625350191571e-09,-1.1896099311339e-09,-0.0010741278036435,0.0010741287935896,-0.0010741286977595,0.0010741279133045,-0.0010741279577383,0.0010741286258982,-0.0010741287738018,0.0010741278633978,-0.00088682337352282,0.00088682240545812,-0.00088682320651462,0.00088682253948153,0.69524392388976,128566,2924,0.0036718017113619,0.0072683321132734,0.0036718017350473,28.558008802985,-9.1359295761179e-06,-9.1359295761179e-06,-9.1359295761179e-06,4301124.8213305,0.014720654370787
33219200,0.99796210132782,0.015157789391192,0.0041647375760415,0.0068283142228982,0.004164737592252,-0.00088227575700137,0.00088227565364115,-1.0394821106748e-10,-3.5365035181676e-12,1.7011441855143e-10,-3.0745423369009e-10,-0.0010745167606737,0.0010745168392664,-0.0010745167984293,0.0010745168492325,-0.0010745169921046,0.001074516679447,-0.0010745168891852,0.0010745167268358,-0.0008871890889122,0.00088718857042767,-0.00088718881542959,0.0008871888578803,-4.481450211831e-10,1.0022292664662e-09,-4.4273184996353e-10,9.8273788897325e-10,-0.0017522511991296,0.0017522517342648,-0.0019387200805048,0.0019387197368576,-0.0019387196896555,0.0019387201106911,-0.001938719639678,0.0019387201996429,-0.0019387191829045,0.001938720633951,-0.0015403942591891,0.0015403937753177,-0.0015403925408226,0.0015403950507335,-0.0015403942382827,0.0015403937702569,-0.0015403928004619,0.0015403953834698,1.8252214142313e-10,-1.5210901491022e-10,-0.00088227569187959,0.0008822757296762,1.3360102104228e-09,-1.216470645973e-09,-0.001074516289422,0.0010745173177194,-0.0010745172263098,0.0010745163880858,-0.0010745164366378,0.0010745171548586,-0.00107451731319,0.0010745163392895,-0.00088718933890982,0.00088718837014265,-0.00088718916266521,0.00088718846954098,0.72923014984505,128566,2924,0.0036732162266966,0.0072704028299097,0.0036732162496418,28.726485131546,-7.7881189476353e-06,-7.7881189476353e-06,-7.7881189476353e-06,4302757.7022547,0.014725627005693
33419200,0.99805382544128,0.015159256694907,0.004165146099663,0.0068289644793699,0.0041651461158745,-0.00088307367939173,0.0008830735767466,-1.0479094355787e-10,-2.6557405564777e-12,1.6169978516234e-10,-2.9043345551612e-10,-0.0010754901708901,0.0010754902460567,-0.0010754901843865,0.0010754902226221,-0.0010754903809588,0.0010754900668705,-0.0010754902816815,0.0010754901293723,-0.00088808360980152,0.000888083096373,-0.00088808335723609,0.00088808340426912,-4.2397708526166e-10,9.8403869176403e-10,-5.4476264687508e-10,1.0865113322364e-09,-0.0017534023487691,0.0017534028857725,-0.0019398379711149,0.0019398375614643,-0.0019398374969766,0.0019398380108934,-0.0019398375459789,0.0019398379938632,-0.0019398369926035,0.0019398385191177,-0.001541516981839,0.0015415163014708,-0.0015415151455982,0.0015415178974348,-0.0015415167983156,0.0015415164636217,-0.0015415153614504,0.0015415180179921,1.585516113277e-10,-1.7930136806509e-10,-0.00088307363982841,0.00088307362578745,1.4457858177063e-09,-1.419291471844e-09,-0.0010754896594953,0.0010754907473983,-0.0010754906898007,0.0010754897257852,-0.0010754898133935,0.0010754905760868,-0.001075490766099,0.0010754896732197,-0.00088808393479645,0.00088808280245379,-0.00088808377765848,0.00088808293466079,0.74278858557493,128566,2924,0.0036765369492352,0.0072751539002916,0.0036765369691189,29.177132227373,-4.1829421810123e-06,-4.1829421810123e-06,-4.1829421810123e-06,4303944.609079,0.014737191312909
33619200,0.99814269184911,0.015160678547465,0.0041655417856159,0.0068295949600221,0.004165541801827,-0.00088350952107997,0.00088350943172365,-9.8633871970196e-11,8.0797197422013e-12,1.6314570639117e-10,-2.6718078998674e-10,-0.0010761186665096,0.0010761187492117,-0.0010761186488605,0.0010761186826184,-0.0010761188566981,0.0010761185447913,-0.0010761187597654,0.0010761186287379,-0.000888619276854,0.00088861879857406,-0.00088861906395663,0.00088861913326227,-4.025817255811e-10,9.8992898540783e-10,-6.1189220393672e-10,1.1652861841305e-09,-0.0017541872151458,0.0017541877585937,-0.001940565817026,0.0019405653575405,-0.0019405652815186,0.0019405658706436,-0.001940565395918,0.0019405657622095,-0.001940564765067,0.0019405663780325,-0.0015422895689721,0.0015422887569527,-0.0015422878229017,0.0015422907174284,-0.0015422892619657,0.0015422889843254,-0.0015422877974104,0.0015422904558444,1.247698750939e-10,-2.1568144997222e-10,-0.00088350951930768,0.00088350943379428,1.4403222901133e-09,-1.5973216321504e-09,-0.0010761181411589,0.0010761192535089,-0.0010761192201058,0.0010761181905016,-0.0010761183074783,0.001076119074183,-0.001076119284382,0.0010761181376868,-0.00088861966903986,0.00088861837132273,-0.00088861951607072,0.00088861855719462,0.7430322760912,128566,2924,0.0036783547969746,0.0072783893247934,0.0036783547975724,29.431627080294,-2.1469833576508e-06,-2.1469833576508e-06,-2.1469833576508e-06,4299275.9366396,0.014744167930808
33819200,0.99822916030847,0.015162066592391,0.0041659282179074,0.0068302101403687,0.0041659282341147,-0.00088408754177635,0.00088408744755768,-1.0434058232529e-10,4.1176657787079e-12,1.4769633358501e-10,-2.6501697506039e-10,-0.001076895463163,0.0010768955311571,-0.0010768954760769,0.0010768955099773,-0.0010768956672847,0.0010768953682374,-0.0010768955610055,0.0010768954306223,-0.00088930855326139,0.00088930806349227,-0.00088930827431625,0.00088930833577853,-4.0464267756161e-10,9.7259854413504e-10,-6.8028410284645e-10,1.2246515835583e-09,-0.0017551414726736,0.0017551420114334,-0.0019414652160157,0.0019414647290193,-0.0019414646531677,0.0019414652795827,-0.0019414647990447,0.0019414651489175,-0.0019414641569172,0.0019414657796017,-0.0015432259284978,0.0015432249840013,-0.0015432239318453,0.0015432269039327,-0.0015432255442347,0.0015432253184003,-0.001543224130394,0.0015432268067612,1.4265805964972e-10,-1.9844611612208e-10,-0.00088408752610775,0.00088408747330175,1.5706585158722e-09,-1.6284752910111e-09,-0.0010768949098283,0.001076896084286,-0.0010768960481006,0.0010768949578971,-0.0010768950688844,0.001076895912031,-0.0010768961265992,0.0010768949072307,-0.00088930895692038,0.00088930766886318,-0.00088930878184423,0.00088930781391397,0.74517940636554,128566,2924,0.0036807636287308,0.0072823242250294,0.0036807636497882,29.775494182749,6.0395346198981e-07,6.0395346198981e-07,6.0395346198981e-07,4296717.0776521,0.014753053707819
34019200,0.99831361184247,0.015163380510764,0.0041662923292864,0.0068307958359842,0.004166292345493,-0.00088480099276794,0.00088480088612787,-1.1306709116474e-10,-3.1809923084211e-12,1.3339500848803e-10,-2.7177330292391e-10,-0.0010778185699092,0.0010778186361745,-0.0010778185660303,0.0010778185865941,-0.0010778187543235,0.0010778184453832,-0.0010778186613881,0.0010778185351111,-0.00089014054658951,0.00089014004844047,-0.00089014028240728,0.00089014033253067,-4.0969355273142e-10,9.5042353850741e-10,-7.5229358524148e-10,1.2736975296501e-09,-0.0017562628170526,0.0017562633436588,-0.001942532182359,0.0019425316618155,-0.0019425315645149,0.001942532243255,-0.0019425317745149,0.0019425320616702,-0.0019425310648705,0.0019425327438518,-0.001544325417191,0.0015443243319224,-0.0015443232214603,0.0015443262963626,-0.0015443249313344,0.0015443247348638,-0.0015443235386659,0.0015443262324643,1.4670727783307e-10,-1.9653337064521e-10,-0.00088480097027574,0.00088480092457357,1.6571801268435e-09,-1.6759582294133e-09,-0.0010778179827966,0.001077819190624,-0.0010778191607544,0.0010778180252101,-0.0010778181478808,0.0010778190098764,-0.0010778192248186,0.0010778179732689,-0.00089014098423407,0.00089013965839932,-0.00089014081438915,0.0008901398076461,0.72426718854618,128566,2924,0.0036837353739719,0.007286949179728,0.0036837354074228,30.204370822004,4.0349665760315e-06,4.0349665760315e-06,4.0349665760315e-06,4295943.1013535,0.014763782310408
34219200,0.99839460834459,0.015164605644809,0.0041666304090353,0.0068313448105328,0.0041666304252404,-0.00088500327155733,0.00088500318260445,-1.0195042604697e-10,9.7539748833153e-12,1.5230537629295e-10,-2.5679804434896e-10,-0.0010781393220151,0.0010781393891901,-0.0010781393334137,0.0010781393695277,-0.0010781395288292,0.0010781392318874,-0.0010781394151937,0.0010781392879093,-0.00089040580714189,0.00089040531758242,-0.00089040551800917,0.00089040559736293,-3.9049464683306e-10,9.860811600739e-10,-7.201947813085e-10,1.2847521604093e-09,-0.0017567197422261,0.0017567202906969,-0.0019429678145078,0.001942967289398,-0.0019429672197985,0.0019429678779758,-0.0019429673964956,0.0019429677103261,-0.0019429667236472,0.0019429683770462,-0.001544760360545,0.0015447593177013,-0.0015447583567162,0.0015447614619496,-0.0015447598913137,0.0015447597215886,-0.0015447584686043,0.0015447611891021,1.3554485607637e-10,-2.1039292431613e-10,-0.00088500326684162,0.00088500319228617,1.5671954190498e-09,-1.6973981372044e-09,-0.0010781387648762,0.001078139954768,-0.001078139925671,0.0010781388057406,-0.0010781389250923,0.001078139781824,-0.0010781400084365,0.0010781387537583,-0.00089040621783621,0.00089040489600808,-0.00089040603711791,0.00089040504806245,0.70594540533488,128566,2924,0.003684580994292,0.0072888313206921,0.0036845810045528,30.330413747146,5.0433099771682e-06,5.0433099771682e-06,5.0433099771682e-06,4293169.0574499,0.014767410159971
34419200,0.99847316081452,0.015165799171399,0.0041669601028037,0.0068318789495885,0.0041669601190069,-0.00088558433282301,0.00088558423584903,-1.0739528535363e-10,5.1867147005636e-12,1.4507561811849e-10,-2.6830484003013e-10,-0.0010787971260296,0.0010787971890701,-0.0010787971438881,0.0010787971789393,-0.0010787973313198,0.001078797033523,-0.0010787972247313,0.0010787970936463,-0.00089103521198637,0.00089103471202813,-0.00089103492352668,0.00089103499428358,-4.0887751307264e-10,9.7188179067842e-10,-7.3311150965249e-10,1.2754267382945e-09,-0.0017575363566027,0.0017575368936969,-0.0019437939309429,0.0019437934110726,-0.0019437933401782,0.0019437939906677,-0.0019437935123206,0.0019437938389737,-0.0019437928472411,0.0019437944914066,-0.0015455334107088,0.0015455323499683,-0.0015455312496061,0.0015455343219643,-0.0015455329591229,0.0015455327590188,-0.0015455315581752,0.0015455342706068,1.524693039836e-10,-1.9410132079882e-10,-0.00088558430942297,0.00088558427044126,1.6154381889428e-09,-1.6344750161078e-09,-0.0010787965575193,0.0010787977571059,-0.0010787977176242,0.001078796608335,-0.0010787967149129,0.0010787975856577,-0.0010787978011133,0.0010787965554086,-0.00089103562110872,0.00089103433280766,-0.00089103543811941,0.000891034468058,0.70868168846754,128566,2924,0.0036869979598659,0.007292202708887,0.003686997983309,30.66292809164,7.7034247331216e-06,7.7034247331216e-06,7.7034247331216e-06,4298244.828514,0.014775737457732
34619200,0.99855399586438,0.015167079910216,0.004167316040679,0.0068324478126553,0.0041673160568818,-0.00088805556894472,0.00088805547134369,-1.0886241975427e-10,5.1686151370521e-12,1.2127651331187e-10,-2.5363681756933e-10,-0.001081468140316,0.0010814681949795,-0.0010814681532647,0.0010814681785426,-0.0010814683241684,0.0010814680408888,-0.0010814682285345,0.0010814681163195,-0.00089364389716644,0.00089364342600947,-0.00089364365752302,0.00089364373501244,-4.0776538569443e-10,9.3885253922879e-10,-9.2064112186921e-10,1.4403573885999e-09,-0.0017605644081622,0.001760564935433,-0.0019468332875993,0.0019468326688499,-0.0019468325774687,0.0019468333619127,-0.001946832881692,0.0019468330810583,-0.0019468320938665,0.001946833854512,-0.0015484642461436,0.00154846283552,-0.0015484616557064,0.0015484650082708,-0.0015484635851922,0.0015484634953268,-0.0015484622238631,0.0015484649867988,1.4332438118927e-10,-2.0423417705033e-10,-0.00088805554847742,0.0008880555015645,1.7724540719212e-09,-1.7502678091191e-09,-0.0010814675235949,0.0010814687948843,-0.0010814687722503,0.0010814675600263,-0.0010814676839296,0.001081468621846,-0.0010814688511312,0.0010814675062462,-0.00089364439095271,0.00089364294454496,-0.00089364421254703,0.00089364309624272,0.73613946770311,128566,2924,0.0036972690494683,0.0073047117415412,0.0036972690701466,32.08792122794,1.9103369823519e-05,1.9103369823519e-05,1.9103369823519e-05,4324704.2996583,0.014809281417943
34819200,0.99863702624525,0.015168406378535,0.0041676845519578,0.006833037258415,0.0041676845681626,-0.00089059319715061,0.00089059310503495,-1.0640612498725e-10,9.8827898371235e-12,1.1735186584318e-10,-2.3446100958298e-10,-0.0010843200327532,0.0010843200797317,-0.0010843200400769,0.0010843200616828,-0.0010843202108811,0.0010843199360948,-0.0010843201048738,0.0010843200000696,-0.00089637172695864,0.00089637125405104,-0.00089637146010229,0.00089637155677991,-3.8199413969419e-10,9.4169572448908e-10,-1.0129660600528e-09,1.5515561577891e-09,-0.0017638145974459,0.0017638151309341,-0.0019500533230165,0.0019500526306117,-0.0019500525472512,0.0019500533946903,-0.0019500529232474,0.0019500530362252,-0.0019500520712507,0.001950053876016,-0.0015516255849987,0.001551623967002,-0.0015516229003139,0.0015516265080132,-0.0015516247421079,0.0015516247890102,-0.0015516233911238,0.0015516262367857,1.279687717301e-10,-2.2260697727481e-10,-0.00089059319914649,0.00089059311076223,1.8374734725349e-09,-1.9187753258715e-09,-0.0010843193909914,0.0010843207128205,-0.0010843207148584,0.0010843193981212,-0.0010843195503354,0.001084320539592,-0.0010843207979328,0.001084319342106,-0.00089637225942622,0.00089637073314473,-0.00089637207832507,0.00089637088863533,0.74236298155649,128566,2924,0.00370782011698,0.0073181334599325,0.0037078201331923,33.576648959578,3.1013191676621e-05,3.1013191676621e-05,3.1013191676621e-05,4346361.880107,0.014844323643444
35019200,0.99871966030182,0.015169684432409,0.0041680374808625,0.0068336094544805,0.0041680374970656,-0.00089227117442937,0.00089227108489471,-1.049933893402e-10,1.3238309273707e-11,1.4045564900354e-10,-2.4112698608903e-10,-0.0010862942381277,0.0010862942930712,-0.001086294243167,0.0010862942684328,-0.00108629443324,0.0010862941399365,-0.0010862943146446,0.0010862941974247,-0.00089821996619098,0.00089821945734531,-0.00089821965906994,0.0008982197703088,-3.6157032427479e-10,9.5962685617591e-10,-9.208558251337e-10,1.4867094398707e-09,-0.0017661194324429,0.0017661199784067,-0.0019523164509953,0.0019523158043592,-0.0019523157315556,0.0019523165204009,-0.0019523160530904,0.0019523162056149,-0.0019523152511513,0.0019523169986503,-0.0015538645881502,0.0015538631125728,-0.0015538621710403,0.001553865713281,-0.0015538638081554,0.0015538638438869,-0.0015538624266475,0.0015538652753091,1.2050530482029e-10,-2.3350511306759e-10,-0.00089227119101532,0.00089227107382645,1.7963384407702e-09,-1.9767642588237e-09,-0.0010862936057288,0.0010862949284601,-0.001086294939271,0.0010862936044686,-0.001086293767446,0.0010862947505419,-0.0010862950223502,0.0010862935491203,-0.00089822046890557,0.00089821896134115,-0.00089822029812282,0.00089821910733099,0.72136734863835,128566,2924,0.0037148008911677,0.0073276468041306,0.0037148009025459,34.585176649529,3.9081413196235e-05,3.9081413196235e-05,3.9081413196235e-05,4356405.367377,0.014868153069556
35219200,0.99880050564546,0.015170897781005,0.0041683708654946,0.0068341560338138,0.0041683708816965,-0.00089353130447962,0.00089353121356511,-1.0754811995302e-10,1.3080766255627e-11,1.4924765882176e-10,-2.6046290694875e-10,-0.0010877607724781,0.0010877608458015,-0.0010877607815361,0.0010877608152033,-0.001087760978897,0.0010877606750916,-0.0010877608695048,0.001087760755228,-0.00089960020515509,0.00089959969832902,-0.0008995998928818,0.00089959998371975,-3.8399686757105e-10,9.6890108073706e-10,-8.3191107009962e-10,1.3855875445457e-09,-0.0017678669241201,0.0017678674720621,-0.0019540542033643,0.0019540536347017,-0.001954053547094,0.0019540542927407,-0.0019540537989598,0.0019540540399239,-0.0019540530517472,0.0019540547948601,-0.0015555427607809,0.0015555415015495,-0.0015555405718274,0.0015555438187357,-0.0015555421602342,0.0015555420202494,-0.0015555407434859,0.0015555434635494,1.349711281438e-10,-2.1998934950303e-10,-0.00089353130636473,0.00089353121869073,1.6901439017934e-09,-1.8356759071911e-09,-0.0010877601681251,0.0010877614466515,-0.0010877614240762,0.0010877602141845,-0.0010877603415917,0.0010877612663588,-0.0010877615021262,0.0010877601646214,-0.00089960067099275,0.00089959922012306,-0.00089960049138539,0.00089959938103533,0.7021446397504,128566,2924,0.0037200432665906,0.0073348597732318,0.0037200432811824,35.346136862799,4.5169094902393e-05,4.5169094902393e-05,4.5169094902393e-05,4365213.7376961,0.014886117487137
35419200,0.998878634555,0.015172032244226,0.0041686808745066,0.0068346704790115,0.0041686808907081,-0.00089450611565992,0.00089450602063116,-1.1092370781275e-10,1.1818847191268e-11,1.6138808757603e-10,-2.7747640313929e-10,-0.0010888614901598,0.0010888615621937,-0.0010888614976185,0.0010888615420847,-0.0010888617027969,0.0010888613892127,-0.001088861591576,0.0010888614576546,-0.00090065029358061,0.00090064977715572,-0.00090064998820951,0.00090065006202739,-4.0806718418057e-10,9.9180978859765e-10,-6.9782081975884e-10,1.2530402425984e-09,-0.0017692037433149,0.0017692042887239,-0.0019554123672855,0.0019554118602485,-0.0019554117936618,0.0019554124296726,-0.0019554119441179,0.0019554122881309,-0.001955411288782,0.0019554129405469,-0.0015568071393172,0.0015568061568495,-0.0015568051547782,0.0015568081837982,-0.0015568067350044,0.0015568064942178,-0.0015568052898279,0.0015568079959637,1.5324453226782e-10,-2.0396087659478e-10,-0.00089450609847163,0.0008945060465777,1.5508874928634e-09,-1.635934468643e-09,-0.0010888609321121,0.0010888621198323,-0.0010888620694942,0.0010888609969165,-0.0010888610980523,0.0010888619424092,-0.0010888621531632,0.0010888609416371,-0.00090065068255605,0.00090064938974804,-0.00090065049271184,0.00090064955096245,0.68162531360011,128566,2924,0.0037240976197534,0.0073403788660144,0.0037240976380262,35.930981196633,4.9847849573066e-05,4.9847849573066e-05,4.9847849573066e-05,4374062.6463447,0.014899949731769
35619200,0.99895485306026,0.015173094985543,0.0041689693329381,0.0068351563034651,0.0041689693491399,-0.00089588905546386,0.00089588895513683,-1.1467502310786e-10,9.3580271413852e-12,1.6595382372092e-10,-2.9476242582787e-10,-0.0010903312473744,0.0010903313253506,-0.0010903312581418,0.0010903313071141,-0.0010903314662163,0.001090331142253,-0.0010903313589618,0.0010903312186984,-0.00090209237276595,0.00090209184610689,-0.00090209208052905,0.00090209214331478,-4.2798342163554e-10,9.9021622175061e-10,-6.0932692212785e-10,1.149338638023e-09,-0.0017709350475278,0.0017709355866233,-0.001957198172077,0.0019571977304807,-0.0019571976611046,0.0019571982277414,-0.0019571977453213,0.0019571981632673,-0.0019571971502494,0.0019571987475053,-0.0015584413900217,0.0015584406023722,-0.0015584395143563,0.0015584423235348,-0.0015584411440387,0.0015584407945424,-0.0015584396888211,0.0015584423328812,1.6694886189672e-10,-1.9165918922826e-10,-0.0008958890199417,0.00089588900037669,1.493302809536e-09,-1.5005670851826e-09,-0.0010903307101562,0.0010903318552331,-0.0010903317854884,0.0010903307952831,-0.0010903308780721,0.001090331676125,-0.0010903318669192,0.0010903307409455,-0.00090209272352592,0.00090209150218263,-0.00090209253649921,0.00090209166124474,0.65730120302123,128566,2924,0.0037298451164411,0.0073475310977833,0.0037298451368511,36.739488124895,5.6315904999161e-05,5.6315904999161e-05,5.6315904999161e-05,4391153.7691814,0.014918875591394
35819200,0.99902964241433,0.015174206350182,0.0041692740660444,0.0068356582018915,0.0041692740822456,-0.00089760457179939,0.0008976044709127,-1.1581161871653e-10,1.0145831118804e-11,1.6755777940316e-10,-2.9711234768643e-10,-0.0010920903833895,0.001092090460733,-0.001092090393142,0.0010920904445313,-0.0010920906028836,0.0010920902772321,-0.0010920904956194,0.0010920903534152,-0.00090384735872512,0.00090384682951477,-0.00090384706920351,0.00090384713135158,-4.3087635702306e-10,9.9388557865427e-10,-5.6569437224877e-10,1.1065108574411e-09,-0.0017729771453979,0.0017729776852288,-0.0019593322619988,0.0019593318457247,-0.0019593317773254,0.0019593323138618,-0.0019593318325147,0.001959332281639,-0.001959331265287,0.0019593328349972,-0.0015603606975797,0.0015603599993609,-0.0015603589030244,0.0015603616313222,-0.0015603605106444,0.0015603601306242,-0.0015603590516106,0.0015603616756632,1.7120601343925e-10,-1.8935008217798e-10,-0.00089760453165081,0.00089760452010651,1.4495447085218e-09,-1.4461311464288e-09,-0.0010920898588368,0.0010920909778384,-0.0010920909008661,0.0010920899508195,-0.0010920900263172,0.0010920907986866,-0.0010920909836612,0.001092089894933,-0.00090384769030225,0.00090384650460537,-0.00090384750105801,0.00090384666728106,0.6961944318516,128566,2924,0.0037369718380588,0.0073559707362082,0.003736971857065,37.725494867405,6.4203958939237e-05,6.4203958939237e-05,6.4203958939237e-05,4415819.4267795,0.014941907051931
36019200,0.9991000585369,0.015175317668357,0.0041695811927418,0.0068361552666729,0.0041695812089427,-0.00089804705254017,0.00089804695528831,-1.1443544253718e-10,1.4593467797396e-11,1.9079849062679e-10,-3.0306389913532e-10,-0.0010926237587301,0.0010926238418229,-0.0010926237615551,0.0010926238227465,-0.0010926239904256,0.0010926236522924,-0.0010926238741315,0.0010926237180997,-0.00090433328195666,0.00090433273115175,-0.00090433296220873,0.00090433302407196,-4.2376571271895e-10,1.0295853572858e-09,-3.7215431452938e-10,9.4324096234195e-10,-0.0017736764681805,0.0017736770229525,-0.0019600544201701,0.0019600541014522,-0.0019600540503942,0.0019600544595939,-0.0019600539787211,0.0019600545476398,-0.0019600535284748,0.001960054985586,-0.0015610026605933,0.001561002325218,-0.0015610013556728,0.0015610038213291,-0.0015610026801693,0.0015610022102856,-0.0015610011752349,0.001561003750854,1.7122895501598e-10,-1.9194555132522e-10,-0.00089804701931789,0.00089804699527799,1.2860285268877e-09,-1.3730297842429e-09,-0.001092623278283,0.0010926243263787,-0.00109262424035,0.0010926233789828,-0.0010926234448219,0.0010926241474309,-0.0010926243275324,0.0010926233202338,-0.00090433354687186,0.0009043324673621,-0.00090433335346829,0.00090433263829363,0.73586530762329,128566,2924,0.0037388137048517,0.0073588568176576,0.0037388137188258,37.994786470635,6.6358291765082e-05,6.6358291765082e-05,6.6358291765082e-05,4417560.5488505,0.014948576290661
36219200,0.99916493720073,0.015176307218346,0.0041698531684967,0.0068366008651531,0.0041698531846958,-0.00089776380446803,0.00089776370886135,-1.1394976661322e-10,1.70391025079e-11,2.0760452343645e-10,-3.1615792173957e-10,-0.001092491372694,0.0010924914647224,-0.0010924913763107,0.0010924914478095,-0.0010924916164321,0.0010924912679577,-0.0010924914988151,0.0010924913334077,-0.00090412048431114,0.00090411992736736,-0.00090412016339551,0.00090412022013151,-4.3753968258068e-10,1.052355723608e-09,-2.1751788674258e-10,7.9493653558745e-10,-0.0017736438718351,0.0017736444306203,-0.0019599783434424,0.0019599781138788,-0.0019599780731861,0.0019599783758581,-0.0019599778895559,0.0019599785725551,-0.0019599775392271,0.0019599789144263,-0.0015609612004659,0.0015609611790807,-0.0015609602336242,0.001560962405519,-0.001560961444116,0.0015609608341918,-0.0015609598988979,0.001560962396407,1.8347331889105e-10,-1.8178957683235e-10,-0.00089776376051872,0.00089776375782488,1.1013500894519e-09,-1.1800749674407e-09,-0.0010924909470708,0.0010924919002863,-0.0010924917851564,0.0010924910789937,-0.0010924911152124,0.0010924917216339,-0.001092491874594,0.0010924910202731,-0.00090412066938481,0.00090411972621024,-0.00090412047037206,0.00090411990349835,0.71361275110766,128566,2924,0.0037376443989586,0.0073587135670756,0.0037376444092652,37.867150960157,6.5337207681258e-05,6.5337207681258e-05,6.5337207681258e-05,4403898.8905702,0.014946060440984
36419200,0.99922218496207,0.015177168314683,0.0041700894882513,0.0068369893219815,0.0041700895044499,-0.00089605240293684,0.00089605230509033,-1.1594633739508e-10,1.722979307484e-11,2.3329039718446e-10,-3.4102298765829e-10,-0.0010907642397789,0.0010907643454582,-0.0010907642410611,0.0010907643262096,-0.0010907645013824,0.0010907641311382,-0.0010907643811608,0.0010907641964628,-0.00090237841260395,0.00090237783021679,-0.00090237807312027,0.0009023781128298,-4.5312009784499e-10,1.0866635154108e-09,2.7712731983296e-11,5.62600654995e-10,-0.0017718440381973,0.0017718446042736,-0.0019581678812349,0.0019581677933927,-0.001958167766316,0.001958167899016,-0.0019581674115517,0.001958168267482,-0.0019581672150825,0.0019581684542439,-0.0015591821761403,0.0015591826474506,-0.0015591817410912,0.0015591834774257,-0.0015591827464919,0.001559181942878,-0.0015591811450422,0.001559183540157,2.0093260820189e-10,-1.6691342137325e-10,-0.00089605234393672,0.00089605236927778,8.5604764324388e-10,-9.3420264951319e-10,-0.0010907638860811,0.0010907647129371,-0.0010907645614831,0.0010907640554075,-0.0010907640560577,0.0010907645329889,-0.0010907646517786,0.0010907639958962,-0.00090237848479726,0.00090237774413531,-0.00090237828067958,0.0009023779255653,0.70434248044891,128566,2924,0.0037305382340673,0.007351271856074,0.0037305382446244,36.900190205405,5.7601521643241e-05,5.7601521643241e-05,5.7601521643241e-05,4378446.2538001,0.014924081855885
36619200,0.99927411464456,0.015177904027321,0.0041702897648965,0.0068373244813279,0.0041702897810962,-0.00089516386317293,0.0008951637540244,-1.2447872246636e-10,9.7294476417969e-12,2.1664580622411e-10,-3.5908796816788e-10,-0.001089849831896,0.0010898499389969,-0.0010898498421585,0.0010898499254758,-0.0010898500883631,0.0010898497164571,-0.0010898499828628,0.0010898498027884,-0.00090146818185725,0.00090146760581569,-0.00090146788237977,0.0009014679001252,-4.9239304084824e-10,1.0503148838366e-09,3.7698873384119e-11,4.9855411733747e-10,-0.0017709138994181,0.0017709144407916,-0.0019572442051697,0.0019572441601914,-0.0019572441119615,0.001957244224879,-0.001957243739252,0.001957244633533,-0.0019572435608962,0.0019572447891247,-0.0015582506893135,0.0015582512301181,-0.0015582500765215,0.00155825161203,-0.0015582513773332,0.0015582504580081,-0.001558249803265,0.0015582521124742,2.2557992762556e-10,-1.423049021411e-10,-0.00089516376881832,0.00089516385973584,8.823399791193e-10,-7.5471925283386e-10,-0.0010898494799252,0.0010898502832156,-0.0010898501055278,0.0010898496762906,-0.0010898496531145,0.0010898501012591,-0.0010898501891863,0.00108984961954,-0.00090146824454844,0.00090146755136555,-0.00090146804373016,0.00090146772648617,0.66675555075351,128566,2924,0.0037268485286384,0.0073474263988497,0.0037268485525138,36.394912358771,5.3559298870171e-05,5.3559298870171e-05,5.3559298870171e-05,4365293.1824556,0.014912688442332
36819200,0.99932266715981,0.01517857267752,0.0041704711426452,0.0068376303760319,0.0041704711588432,-0.00089524916488448,0.0008952490564655,-1.2445189395323e-10,1.055660584775e-11,1.9884883593507e-10,-3.4333943380421e-10,-0.0010898605845218,0.0010898606813796,-0.0010898605982304,0.001089860671455,-0.001089860831774,0.0010898604713425,-0.0010898607241051,0.0010898605572554,-0.00090151573059584,0.00090151516144893,-0.00090151543408484,0.00090151547390683,-4.7345778536612e-10,1.0244728715864e-09,-8.0745856504804e-11,6.1363968567e-10,-0.0017709806233155,0.0017709811606167,-0.0019573797473076,0.0019573796381721,-0.0019573795804291,0.001957379775659,-0.0019573792969828,0.0019573800973587,-0.0019573790438304,0.0019573803249948,-0.0015582643705734,0.0015582646579991,-0.0015582634705713,0.0015582652275806,-0.0015582648827485,0.0015582640782255,-0.0015582633568708,0.0015582657094312,2.1943872866695e-10,-1.5111912948602e-10,-0.00089524907695592,0.00089524915583623,1.0033053778565e-09,-8.6413703044494e-10,-0.0010898601972975,0.0010898610609461,-0.0010898609015184,0.0010898603732156,-0.0010898603704837,0.0010898608769985,-0.0010898609852518,0.0010898603164553,-0.00090151584340689,0.00090151506059304,-0.00090151564553735,0.00090151522626014,0.64958127615461,128566,2924,0.0037272007090926,0.0073477052685831,0.0037272007332351,36.4296415326,5.3837132260797e-05,5.3837132260797e-05,5.3837132260797e-05,4370600.670339,0.01491368381886
37019200,0.99936866148211,0.015179249657406,0.0041706568344265,0.0068379359723557,0.0041706568506241,-0.00089579048347226,0.00089579038197119,-1.2200978086142e-10,1.5779090675144e-11,1.7663549290694e-10,-3.08554623221e-10,-0.0010903180208276,0.0010903181015948,-0.0010903180290085,0.0010903180901824,-0.0010903182485934,0.0010903179113949,-0.0010903181382725,0.0010903179939245,-0.0009020165937474,0.00090201604626338,-0.0009020162890157,0.00090201635532839,-4.4119314044064e-10,1.0044847304457e-09,-2.664688807939e-10,8.0760896268879e-10,-0.0017715262641635,0.0017715268047435,-0.0019580221291568,0.001958021905815,-0.0019580218386964,0.0019580221751125,-0.0019580216938923,0.0019580223480582,-0.0019580213192735,0.0019580227045085,-0.0015587324078314,0.0015587323083848,-0.0015587311971578,0.0015587333308623,-0.0015587326261309,0.0015587320178963,-0.0015587311465783,0.0015587335819493,1.989549508312e-10,-1.7337853973964e-10,-0.00089579042175269,0.00089579045386116,1.1683688968969e-09,-1.1108593941606e-09,-0.0010903175775807,0.0010903185398793,-0.0010903184166073,0.0010903177176491,-0.0010903177502539,0.0010903183565464,-0.0010903185027614,0.001090317658695,-0.00090201680127026,0.00090201584511917,-0.00090201659947291,0.00090201601898266,0.68962110096123,128566,2924,0.0037294459495687,0.007349965173653,0.0037294459709533,36.716789291201,5.6134314329611e-05,5.6134314329611e-05,5.6134314329611e-05,4383816.549991,0.014920532142707
37219200,0.9994133175998,0.015179952973514,0.0041708515903344,0.0068382497766476,0.0041708516065323,-0.00089714487904109,0.00089714478121859,-1.2171015708641e-10,1.8490405776246e-11,1.4530142116706e-10,-2.7121149532204e-10,-0.0010917742322563,0.0010917742888549,-0.001091774234934,0.0010917742797154,-0.0010917744327702,0.00109177412323,-0.0010917743226957,0.0010917742006513,-0.00090343686075575,0.00090343633792542,-0.00090343656927819,0.00090343665923045,-4.13247787152e-10,9.665777165966e-10,-5.1538794536969e-10,1.0505249624188e-09,-0.0017731729206731,0.0017731734558488,-0.0019596972531477,0.0019596968785282,-0.0019596967991046,0.0019596973123661,-0.001959696836108,0.0019596973017388,-0.0019596963034612,0.0019596978138996,-0.0015603078264784,0.0015603072126307,-0.0015603060802672,0.0015603087093971,-0.0015603076788397,0.0015603073263474,-0.0015603062710406,0.0015603088357497,1.7495318606129e-10,-1.9867769852993e-10,-0.00089714484379777,0.00089714482760893,1.4650993148687e-09,-1.4434585844101e-09,-0.0010917736995003,0.0010917748133905,-0.0010917747429632,0.0010917737830065,-0.0010917738676163,0.0010917746314496,-0.0010917748315976,0.0010917737196473,-0.00090343720997462,0.00090343600284369,-0.00090343700902399,0.00090343618074319,0.73362851073405,128566,2924,0.003735074597645,0.007356768139061,0.003735074621098,37.49763202978,6.2381056238243e-05,6.2381056238243e-05,6.2381056238243e-05,4398096.4853601,0.014938864200301
37419200,0.9994557872016,0.015180574294705,0.0041710215375287,0.0068385312034497,0.0041710215537264,-0.00089786757547813,0.00089786749028745,-1.1614462631544e-10,2.7504104375511e-11,1.3327187954365e-10,-2.4099034388101e-10,-0.0010927014274194,0.0010927014866408,-0.0010927014247863,0.0010927014647273,-0.0010927016179571,0.001092701328134,-0.0010927015071675,0.0010927014166781,-0.00090426378407041,0.00090426329187936,-0.00090426346461619,0.00090426357534642,-3.8181739609358e-10,9.6941553737371e-10,-7.0783978680392e-10,1.2628036040991e-09,-0.0017742564733397,0.0017742570241404,-0.0019607332505076,0.0019607327653211,-0.0019607326691457,0.0019607333485728,-0.0019607328447047,0.0019607331716247,-0.0019607321776879,0.0019607338505749,-0.0015613677858475,0.001561366793168,-0.001561365890213,0.0015613688488836,-0.0015613673516909,0.0015613671279926,-0.0015613659488854,0.0015613685405992,1.5092886823403e-10,-2.2451633406476e-10,-0.00089786757321543,0.00089786749877359,1.5382056440499e-09,-1.6796140556246e-09,-0.001092700856435,0.00109270205418,-0.0010927020050362,0.0010927009314464,-0.0010927010364371,0.0010927018710588,-0.0010927020930692,0.0010927008720956,-0.00090426421736859,0.00090426282704851,-0.00090426400186227,0.00090426303435427,0.68665854129015,128566,2924,0.0037380838940854,0.0073612378795508,0.0037380839070305,37.94345945422,6.5947675633763e-05,6.5947675633763e-05,6.5947675633763e-05,4396964.3686997,0.014949514105263
37619200,0.99949512888738,0.015181129153254,0.0041711724449754,0.0068387842471057,0.004171172461173,-0.00089780625164814,0.00089780616731568,-1.1594806942673e-10,2.8988366560812e-11,1.4421920243582e-10,-2.4168014148463e-10,-0.0010926570799831,0.0010926571355173,-0.0010926570773947,0.0010926571188557,-0.0010926572780332,0.0010926569802506,-0.0010926571552471,0.001092657052671,-0.00090420818537711,0.00090420767162432,-0.00090420784214551,0.0009042079647732,-3.7119089290243e-10,9.7809218936677e-10,-7.3280411098449e-10,1.303523489958e-09,-0.001774268822176,0.0017742693753167,-0.0019607686049601,0.0019607680845353,-0.0019607680066014,0.0019607686905689,-0.001960768198566,0.0019607684940507,-0.0019607675167323,0.0019607691842869,-0.001561345327742,0.0015613442559929,-0.0015613433770231,0.0015613464854482,-0.0015613448242491,0.0015613446751188,-0.0015613434134853,0.0015613460940856,1.4704079587778e-10,-2.3212227271821e-10,-0.000897806258643,0.00089780616706511,1.5679714642834e-09,-1.7491273424881e-09,-0.0010926565031227,0.0010926577196431,-0.0010926576831751,0.0010926565558946,-0.0010926566781293,0.0010926575351935,-0.0010926577754209,0.0010926564936255,-0.00090420861268523,0.00090420722507163,-0.00090420839933031,0.00090420741741325,0.66415581713661,128566,2924,0.0037378304586172,0.00736128777881,0.003737830472545,37.916698916455,6.5733591331643e-05,6.5733591331643e-05,6.5733591331643e-05,4395623.8013165,0.01494905006952
37819200,0.99953054133061,0.015181608689688,0.0041713020334567,0.0068390046065756,0.0041713020496554,-0.00089681576450816,0.00089681567616043,-1.1836206971193e-10,2.7314372033491e-11,1.6261116708311e-10,-2.6671304827593e-10,-0.0010915470959974,0.001091547164885,-0.0010915470973763,0.0010915471480449,-0.0010915473111909,0.0010915469942766,-0.0010915471877502,0.0010915470713551,-0.0009031378599367,0.00090313732330126,-0.00090313750276672,0.00090313761411358,-3.8948990388021e-10,9.9565666760755e-10,-6.6833451848628e-10,1.2376304274753e-09,-0.0017730959169634,0.0017730964700169,-0.0019596541013937,0.0019596536185917,-0.0019596535496513,0.0019596541777543,-0.0019596536856246,0.001959654038634,-0.0019596530464685,0.0019596546871073,-0.0015601524552787,0.0015601515193928,-0.0015601506326659,0.0015601536079517,-0.0015601520623025,0.0015601518134283,-0.0015601506135325,0.001560153272784,1.611424542693e-10,-2.2055101467497e-10,-0.0008968157577279,0.00089681569063707,1.4619236669708e-09,-1.6143179274206e-09,-0.0010915465518328,0.0010915477161053,-0.0010915476566468,0.0010915466299742,-0.001091546730554,0.0010915475293382,-0.0010915477478183,0.0010915465698495,-0.00090313822722759,0.00090313694385106,-0.00090313801224703,0.0009031371291103,0.64016454629317,128566,2924,0.0037337131958935,0.0073564443203234,0.0037337132118102,37.335027266469,6.1080218131752e-05,6.1080218131752e-05,6.1080218131752e-05,4387640.6255763,0.01493577320682
38019200,0.99956174290223,0.015182050240215,0.0041714223686485,0.0068392054867194,0.0041714223848475,-0.00089508702401186,0.00089508693039807,-1.2184386702372e-10,2.5540500202746e-11,1.8831197258637e-10,-2.9826167769283e-10,-0.0010895716896861,0.001089571770751,-0.0010895716906799,0.0010895717561244,-0.0010895719230809,0.0010895715821784,-0.0010895717993482,0.0010895716583946,-0.0009012552576182,0.00090125469554213,-0.00090125490293148,0.00090125499185193,-4.1809703042271e-10,1.024741918779e-09,-4.9033834279433e-10,1.0609667840754e-09,-0.001770951208158,0.0017709517624479,-0.0019576022940328,0.0019576019090977,-0.0019576018560363,0.0019576023487457,-0.0019576018590866,0.00195760234933,-0.0019576013348937,0.0019576028759109,-0.00155799894732,0.0015579983782068,-0.0015579974474211,0.0015580001055044,-0.0015579988212317,0.0015579984076185,-0.0015579973185705,0.0015579999292669,1.7715052670058e-10,-2.0651360070273e-10,-0.00089508699930125,0.0008950869632646,1.3090769711265e-09,-1.4185381104267e-09,-0.0010895711958566,0.001089572271854,-0.0010895721845223,0.00108957130062,-0.0010895713737288,0.0010895720847316,-0.0010895722767384,0.0010895712389338,-0.00090125554117381,0.00090125440359239,-0.00090125532486474,0.00090125458969484,0.66570162617716,128566,2924,0.0037265252753643,0.0073475894450029,0.0037265252922634,36.305889316144,5.2847114529152e-05,5.2847114529152e-05,5.2847114529152e-05,4375283.457263,0.014912189428805
38219200,0.99959020476333,0.015182456568901,0.0041715333694208,0.0068393898138606,0.0041715333856199,-0.00089435825065561,0.00089435814695604,-1.2967832315154e-10,2.0234522087291e-11,1.825354240339e-10,-3.1475156229112e-10,-0.0010887376386622,0.0010887377132603,-0.0010887376375769,0.001088737706475,-0.0010887378656517,0.0010887375204425,-0.0010887377531559,0.0010887376015848,-0.00090046370308517,0.00090046314038787,-0.00090046339861164,0.00090046346024676,-4.5365501297428e-10,1.0112318092094e-09,-4.2000779010914e-10,9.5809344543232e-10,-0.0017700485995489,0.0017700491384659,-0.0019567438019291,0.0019567434659723,-0.0019567434091405,0.0019567438406856,-0.0019567433572431,0.001956743917302,-0.0019567428858585,0.0019567443712143,-0.001557081119341,0.0015570807274123,-0.0015570795795518,0.0015570820441323,-0.0015570811523985,0.0015570806540873,-0.0015570796599084,0.0015570822395184,1.8829452929388e-10,-1.9464335483427e-10,-0.00089435820469854,0.00089435820467839,1.3760566280322e-09,-1.3445388461233e-09,-0.001088737135848,0.0010887382082261,-0.0010887381154818,0.0010887372425609,-0.001088737307547,0.0010887380233796,-0.00108873820726,0.001088737175921,-0.00090046399590781,0.00090046285585833,-0.00090046378283881,0.00090046304790506,0.67076549629704,128566,2924,0.0037234952801361,0.007343862969892,0.003723495304875,35.867260249985,4.9338081999882e-05,4.9338081999882e-05,4.9338081999882e-05,4369121.193479,0.014902254595396
38419200,0.99962261224823,0.015182951469328,0.0041716700871377,0.0068396112788532,0.0041716701033372,-0.00090093546736725,0.00090093537089511,-1.2653218706531e-10,2.249356248382e-11,9.5176252449202e-11,-2.3961419859777e-10,-0.001095689567773,0.0010956896060204,-0.0010956895806552,0.0010956896029862,-0.0010956897411659,0.0010956894589812,-0.0010956896356645,0.0010956895586605,-0.00090732791055149,0.00090732742322344,-0.00090732767594781,0.00090732781692994,-3.998279822943e-10,8.8152088073043e-10,-1.2056753033294e-09,1.6933126835187e-09,-0.0017776998346342,0.0017777003439733,-0.0019644444398762,0.0019644436770424,-0.0019644435645586,0.0019644445394813,-0.0019644440625952,0.0019644440627763,-0.0019644430972029,0.0019644450178128,-0.0015645057372727,0.0015645037609967,-0.0015645024295415,0.001564506235271,-0.0015645047593389,0.0015645048429536,-0.0015645034591083,0.0015645063198481,1.5080744846538e-10,-2.3341981760483e-10,-0.00090093545000571,0.00090093539721375,2.0053024946794e-09,-1.8946267860083e-09,-0.0010956888788307,0.0010956902700222,-0.0010956902579341,0.0010956889030266,-0.0010956890567267,0.0010956900792692,-0.0010956903417275,0.0010956888429404,-0.00090732848595352,0.00090732682378933,-0.0009073282946836,0.00090732699686763,0.71254271882315,128566,2924,0.0037508228877048,0.0073754775977745,0.0037508229071681,39.665803396337,7.9726427170693e-05,7.9726427170693e-05,7.9726427170693e-05,4446625.7005097,0.014989822865104
38619200,0.99965258987015,0.015183410562842,0.0041717963738845,0.0068398177988713,0.004171796390086,-0.00090104113017842,0.00090104104879676,-1.1900727393153e-10,3.5983137592673e-11,1.3093899657817e-10,-2.2170130891249e-10,-0.0010959769690111,0.0010959770141162,-0.0010959769612921,0.0010959769962123,-0.0010959771581723,0.0010959768693223,-0.0010959770286633,0.0010959769435167,-0.00090749492833366,0.00090749440716086,-0.00090749453349519,0.00090749468377184,-3.418243011493e-10,9.7682239715805e-10,-9.9145513925547e-10,1.5802027084802e-09,-0.0017780755565086,0.0017780761186117,-0.00196479162667,0.0019647909385039,-0.0019647908588509,0.001964791722948,-0.0019647912300217,0.0019647913375295,-0.0019647903783926,0.0019647922074946,-0.0015648693537801,0.0015648677429865,-0.0015648669846916,0.0015648706382272,-0.0015648684331263,0.0015648685093716,-0.0015648670530502,0.0015648698880926,1.4012963215982e-10,-2.4983420415797e-10,-0.00090104115750643,0.00090104102967337,1.6840798648102e-09,-1.9599545612712e-09,-0.0010959763434084,0.0010959776502116,-0.0010959776347727,0.001095976376999,-0.0010959765233315,0.0010959774615518,-0.0010959777311358,0.0010959763117056,-0.00090749542827865,0.00090749392588544,-0.00090749519663469,0.00090749412312731,0.71626667890532,128566,2924,0.0037512677882229,0.0073770236156418,0.0037512678048829,39.752775877683,8.0422207021467e-05,8.0422207021467e-05,8.0422207021467e-05,4440000.9704951,0.014992299205285
38819200,0.99968019103021,0.01518383478011,0.0041719131610397,0.0068400084418316,0.004171913177239,-0.00090098677308023,0.00090098669165101,-1.208146660754e-10,3.6686806172482e-11,1.5262743972435e-10,-2.4136449886259e-10,-0.0010960533962889,0.0010960534497942,-0.0010960533889404,0.0010960534363088,-0.0010960535956081,0.0010960532918801,-0.0010960534719021,0.0010960533708711,-0.0009075085943298,0.00090750807093545,-0.00090750824574057,0.00090750838094301,-3.8106435992185e-10,9.7684276812397e-10,-7.9535597453858e-10,1.3563306129132e-09,-0.0017782229327995,0.0017782234832786,-0.0019648983967004,0.0019648978445362,-0.0019648977681877,0.0019648984874765,-0.0019648979861005,0.0019648982562517,-0.0019648972747031,0.0019648989831355,-0.0015650109575759,0.0015650097707758,-0.0015650089111546,0.0015650121099016,-0.0015650104041555,0.0015650102658276,-0.0015650089706801,0.0015650116832032,1.5691057622122e-10,-2.3420279002012e-10,-0.00090098677889491,0.00090098669307685,1.5710231651736e-09,-1.7477945453484e-09,-0.001096052810042,0.0010960540417283,-0.0010960539940158,0.0010960528772026,-0.0010960529893234,0.0010960538540354,-0.0010960540901474,0.0010960528111904,-0.00090750902769147,0.00090750762626075,-0.00090750880438244,0.0009075078308334,0.71845447917249,128566,2924,0.0037510475772712,0.0073776262561968,0.0037510475922242,39.755879939011,8.0447039512091e-05,8.0447039512091e-05,8.0447039512091e-05,4431068.9159004,0.014992466930243
38880000,0.99968836735267,0.015183960624269,0.0041719478287358,0.0068400649505986,0.004171947844935,-0.00090095763360487,0.00090095754242834,-1.2625403501119e-10,3.0828523484298e-11,1.4985922851373e-10,-2.6114692064083e-10,-0.0010960744676703,0.0010960745231928,-0.0010960744640496,0.0010960745126974,-0.0010960746713312,0.0010960743576145,-0.0010960745489931,0.0010960744395181,-0.0009075096858053,0.00090750914632539,-0.00090750934615163,0.00090750946668068,-3.9602166639817e-10,9.7561960937298e-10,-7.144822045885e-10,1.2660994751184e-09,-0.0017782690176435,0.00177826956159,-0.0019649285239685,0.0019649280212204,-0.0019649279469462,0.0019649285985667,-0.0019649281113409,0.0019649284383929,-0.0019649274499954,0.0019649291005942,-0.0015650534171449,0.0015650523982926,-0.0015650514092677,0.0015650544469014,-0.0015650529854733,0.0015650527741173,-0.0015650515618097,0.0015650542441229,1.6819199840505e-10,-2.2380011105104e-10,-0.00090095762099269,0.00090095756384167,1.5667348906481e-09,-1.6568418399105e-09,-0.0010960738899229,0.0010960750996841,-0.0010960750414042,0.0010960739636096,-0.0010960740688919,0.0010960749101566,-0.0010960751357246,0.0010960738975893,-0.00090751009050541,0.00090750874187721,-0.00090750987007277,0.00090750893744051,0.71910521279625,128566,2924,0.0037509288220647,0.0073778140065971,0.0037509288404156,39.755988537908,8.0447908303266e-05,8.0447908303266e-05,8.0447908303266e-05,4427906.993857,0.014992417464112
