time,ASR_ext,ASR_strain,ASR_strain_xx,ASR_strain_yy,ASR_strain_zz,disp_x_101,disp_x_102,disp_x_103,disp_x_104,disp_x_105,disp_x_106,disp_x_p10_neg,disp_x_p10_pos,disp_x_p11_neg,disp_x_p11_pos,disp_x_p12_neg,disp_x_p12_pos,disp_x_p13_neg,disp_x_p13_pos,disp_x_p14_neg,disp_x_p14_pos,disp_x_p15_neg,disp_x_p15_pos,disp_x_p16_neg,disp_x_p16_pos,disp_x_p1_neg,disp_x_p1_pos,disp_x_p2_neg,disp_x_p2_pos,disp_x_p3_neg,disp_x_p3_pos,disp_x_p4_neg,disp_x_p4_pos,disp_x_p5_neg,disp_x_p5_pos,disp_x_p6_neg,disp_x_p6_pos,disp_x_p7_neg,disp_x_p7_pos,disp_x_p8_neg,disp_x_p8_pos,disp_x_p9_neg,disp_x_p9_pos,disp_y_101,disp_y_102,disp_y_103,disp_y_104,disp_y_105,disp_y_106,disp_y_p10_neg,disp_y_p10_pos,disp_y_p11_neg,disp_y_p11_pos,disp_y_p12_neg,disp_y_p12_pos,disp_y_p1_neg,disp_y_p1_pos,disp_y_p2_neg,disp_y_p2_pos,disp_y_p3_neg,disp_y_p3_pos,disp_y_p4_neg,disp_y_p4_pos,disp_y_p5_neg,disp_y_p5_pos,disp_y_p6_neg,disp_y_p6_pos,disp_y_p7_neg,disp_y_p7_pos,disp_y_p8_neg,disp_y_p8_pos,disp_y_p9_neg,disp_y_p9_pos,disp_z_101,disp_z_102,disp_z_103,disp_z_104,disp_z_105,disp_z_106,disp_z_p10_neg,disp_z_p10_pos,disp_z_p11_neg,disp_z_p11_pos,disp_z_p12_neg,disp_z_p12_pos,disp_z_p13_neg,disp_z_p13_pos,disp_z_p14_neg,disp_z_p14_pos,disp_z_p15_neg,disp_z_p15_pos,disp_z_p16_neg,disp_z_p16_pos,disp_z_p1_neg,disp_z_p1_pos,disp_z_p2_neg,disp_z_p2_pos,disp_z_p3_neg,disp_z_p3_pos,disp_z_p4_neg,disp_z_p4_pos,disp_z_p5_neg,disp_z_p5_pos,disp_z_p6_neg,disp_z_p6_pos,disp_z_p7_neg,disp_z_p7_pos,disp_z_p8_neg,disp_z_p8_pos,disp_z_p9_neg,disp_z_p9_pos,humidity,ndof,nelem,strain_xx,strain_yy,strain_zz,temp,thermal_strain_xx,thermal_strain_yy,thermal_strain_zz,vonmises,vstrain
14391759,0,0,0,0,0,0,0,0,0,0,0,0,0,0,0,0,0,0,0,0,0,0,0,0,0,0,0,0,0,0,0,0,0,0,0,0,0,0,0,0,0,0,0,0,0,0,0,0,0,0,0,0,0,0,0,0,0,0,0,0,0,0,0,0,0,0,0,0,0,0,0,0,0,0,0,0,0,0,0,0,0,0,0,0,0,0,0,0,0,0,0,0,0,0,0,0,0,0,0,0,0,0,0,0,0,0,0,0,0,0,0,0,0,0,0,0,0,0,0,0,0,0,0
14891759,0.063426408223747,0.0010178178342487,0.00033927261141624,0.00033927261141624,0.00033927261141624,-0.00011767340952484,0.00011767173045157,-4.3979160240005e-10,-4.3979153660059e-10,-7.2395962457086e-10,-3.6794303773615e-10,-0.00010475488419633,0.00010475126160227,-0.00011375215276191,0.00011375061718242,-0.00011375348590539,0.00011375195032586,-0.0001047536123735,0.00010474933221777,-0.00010475520435066,0.00010475092419499,-0.0001137524931684,0.0001137502763529,-0.00011375381974042,0.00011375160292469,-0.0001233009481202,0.00012330024389237,-0.00012330148688147,0.00012330078265375,-0.00012330082926717,0.0001233003641562,-0.0001233013710046,0.00012330090589376,-0.00011490665139365,0.00011490610017728,-0.0001149071639349,0.00011490661271855,-0.00011490676961707,0.00011490598673053,-0.00011490727581572,0.00011490649292867,-0.00010475327923115,0.00010474965663716,1.0925018047463e-10,-2.2786675735271e-10,1.3685770612411e-10,-2.5058923793917e-10,-0.00012107903474587,0.00012107892053427,-0.00011779386100003,0.00011779348686411,-0.00011830953492173,0.00011830987852947,-0.00011831062405012,0.0001183103095049,-0.00012387661595475,0.00012387676038043,-0.00012387700107138,0.00012387687073949,-0.00012387669518741,0.00012387659950041,-0.00012387708030414,0.00012387670985943,-0.00011779221127409,0.00011779235892907,-0.00011779376953028,0.00011779316451272,-0.00011830936913722,0.00011830944912585,-0.00011831045826593,0.00011830988010128,-0.00011779230274337,0.00011779268128077,-7.1551397954939e-10,-7.1551403680709e-10,-0.00011618116241368,0.00011617732276925,-1.0767969648447e-09,-6.7400042877092e-10,-0.00010944018499679,0.0001094374204508,-0.00011089448625348,0.0001108900786012,-0.00011089415853345,0.00011088975088143,-0.00010944158507912,0.00010943807375152,-0.00010944056713655,0.00010943705580979,-0.00011089486866829,0.00011088968962195,-0.00011089454863986,0.00011088936959364,-0.00012162994652115,0.00012162855493936,-0.0001216298078308,0.00012162868981223,-0.00012163006512045,0.00012162867353821,-0.00012162992995393,0.00012162881193537,-0.0001150994937229,0.00011509855150037,-0.00011509931666854,0.00011509837444607,-0.00011509945291702,0.00011509824661402,-0.0001150996222387,0.00011509841593647,-0.00010944121911542,0.00010943845456867,0.64373504832551,122718,2924,0.00049018122667194,0.0005043669399972,0.00048396192151964,30.453758372902,0.00015883006698322,0.00015883006698322,0.00015883006698322,1266752.9192475,0.0014796095359595
15391759,0.11459168662953,0.0018521290449734,0.00061741121059322,0.00062250588162461,0.00061221195275561,-0.00017608804493177,0.00017608755524494,-1.759191769002e-10,-1.7591697278738e-10,-2.1874501080625e-10,-1.0241742957812e-10,-0.00015209141658216,0.00015209094934836,-0.00017001726562076,0.00017001691721391,-0.00017001806200383,0.00017001771367029,-0.00015209087013751,0.00015209017470867,-0.00015209152617142,0.00015209083064937,-0.00017001738280523,0.00017001680068777,-0.00017001817513891,0.00017001759309651,-0.00018707418994004,0.00018707381354375,-0.00018707457562644,0.00018707419924412,-0.00018707415131162,0.00018707385298023,-0.00018707453853493,0.00018707424021706,-0.00017213888724397,0.00017213856969008,-0.00017213945888915,0.00017213914134471,-0.0001721389261873,0.0001721385323508,-0.00017213949546168,0.00017213910163523,-0.00015209075398712,0.00015209028684815,2.4941122771702e-12,-1.0862495967028e-10,1.0103823174108e-10,-2.0508707814231e-10,-0.00018362901802275,0.0001836289138769,-0.00017777100254979,0.00017777063572648,-0.00017949985481844,0.00017949996059068,-0.00017950003404429,0.00017949992081872,-0.00018880197792625,0.00018880201485404,-0.0001888026678224,0.00018880249711885,-0.00018880215511821,0.00018880211936427,-0.00018880284502314,0.00018880260163915,-0.00017777017100532,0.00017777033043111,-0.00017777107247769,0.00017777063264036,-0.00017949998933961,0.00017949989043413,-0.00017950016860581,0.00017949985070304,-0.00017777010112826,0.00017777033356875,-4.7615156006584e-10,-4.761495821538e-10,-0.00017190966832522,0.00017190808972095,-5.4632880826062e-10,-2.3259921390763e-10,-0.00016197712692928,0.00016197625506162,-0.00016298769717794,0.00016298642985327,-0.00016298755710804,0.00016298628976903,-0.0001619776364334,0.00016197616018507,-0.00016197743150714,0.00016197595526431,-0.00016298800370582,0.00016298612216212,-0.00016298786478472,0.00016298598322662,-0.00018227780265306,0.0001822767103898,-0.00018227769660951,0.00018227681590098,-0.00018227787409707,0.00018227678183013,-0.00018227776870894,0.00018227688799653,-0.00017237155949403,0.00017237069696078,-0.00017237145814614,0.00017237059560197,-0.00017237156260843,0.00017237049308255,-0.00017237166235802,0.00017237059284355,-0.00016197733593997,0.00016197646406465,0.66498198186136,122718,2924,0.00073342902591833,0.00076482433445209,0.00071602885051068,27.265661802315,0.00013332529441852,0.00013332529441852,0.00013332529441852,1673587.1726536,0.0022167491539371
15891759,0.16091312818886,0.0026939828655894,0.00089730191192205,0.00091458841703033,0.00088209253663706,-0.00023811057315771,0.0002381102968659,-1.0169833234752e-10,-1.0169257550133e-10,-9.2572524789089e-11,-4.5579240798716e-11,-0.0002010205546553,0.00020102079688007,-0.00023176431052128,0.00023176415620238,-0.00023176478615082,0.00023176463193981,-0.00020102044175403,0.0002010205885972,-0.0002010206004088,0.00020102074716939,-0.00023176435872808,0.00023176410860795,-0.00023176483268566,0.00023176458267522,-0.00025293605898183,0.00025293575712163,-0.00025293630781531,0.00025293600598054,-0.00025293604311345,0.00025293577330491,-0.00025293629260452,0.0002529360228209,-0.00023552839549803,0.00023552814478186,-0.00023552874701939,0.00023552849633145,-0.00023552841139415,0.00023552812951671,-0.00023552876197686,0.00023552848012814,-0.000201020393023,0.00020102063533139,-1.6801633978968e-11,-6.0936248079155e-11,7.3555623860005e-11,-1.5077537802599e-10,-0.00025233828041756,0.00025233820342526,-0.00024623903802612,0.00024623875547015,-0.00024867885730587,0.00024867889671809,-0.00024867881674366,0.00024867877060814,-0.00025662479692705,0.00025662481021821,-0.00025662535533837,0.00025662521798611,-0.00025662491949046,0.00025662490406669,-0.00025662547791265,0.00025662531184695,-0.00024623888724739,0.00024623901573683,-0.00024623909338176,0.0002462387825374,-0.00024867905654995,0.00024867894699561,-0.00024867901611652,0.00024867882101396,-0.00024623883192574,0.00024623898870429,-3.2637779245061e-10,-3.2637243781857e-10,-0.00022989062517407,0.00022988961231688,-3.2007319832978e-10,-9.0863297872904e-11,-0.00022048483382734,0.00022048454027413,-0.00021789446267483,0.00021789405878362,-0.00021789440158605,0.00021789399767358,-0.00022048492061801,0.00022048418119494,-0.00022048505743547,0.00022048431794945,-0.00021789468806572,0.00021789383281059,-0.00021789462688215,0.00021789377160557,-0.0002438174446109,0.00024381650894393,-0.00024381736755607,0.00024381658624469,-0.00024381747765712,0.00024381654198337,-0.00024381740067208,0.00024381661935366,-0.00023536823846111,0.00023536753151221,-0.00023536820887393,0.00023536750192356,-0.00023536828480849,0.00023536742630371,-0.00023536831418573,0.00023536745568296,-0.00022048469826331,0.000220484404771,0.7444907159995,122718,2924,0.00099163725930391,0.001050851402745,0.00095741697947563,25.413175887603,0.00011850540710082,0.00011850540710082,0.00011850540710082,1539206.8445871,0.0030044242501816
16391759,0.20609254356983,0.0035246953156816,0.0011714494512675,0.0012116889479047,0.0011415569165095,-0.00029989106551612,0.00029989087793435,-7.5375612385605e-11,-7.5365796788406e-11,-3.495589398908e-11,-2.7319328472091e-11,-0.0002416777550929,0.00024167824065952,-0.00029346643370664,0.00029346637094965,-0.00029346678270178,0.00029346672009046,-0.00024167784050557,0.00024167830622493,-0.00024167776417311,0.00024167822984178,-0.0002934664433636,0.00029346636242955,-0.00029346679178682,0.00029346671100063,-0.00031979561193498,0.0003197953507504,-0.00031979579106537,0.00031979552991421,-0.0003197956090094,0.00031979535348555,-0.00031979578847421,0.00031979553298319,-0.00029876996818204,0.00029876973947982,-0.00029877011755885,0.00029876988888282,-0.00029876997097634,0.00029876973709854,-0.00029877011988421,0.00029876988603311,-0.0002416778297681,0.00024167831538662,-2.4874919852979e-11,-3.1010867712808e-11,5.4850769699578e-11,-1.111355335475e-10,-0.00032403776052394,0.00032403770467059,-0.00031778894889473,0.00031778873139393,-0.00032005095516118,0.00032005095915302,-0.00032005087014717,0.00032005086352464,-0.00032679734707999,0.00032679734942319,-0.0003267978014122,0.0003267976921471,-0.00032679741657243,0.00032679741496068,-0.00032679787090978,0.0003267977576912,-0.00031778892188665,0.00031778902696237,-0.00031778897191025,0.00031778875170571,-0.00032005112445202,0.00032005101895651,-0.00032005103943953,0.00032005092333033,-0.00031778889891052,0.00031778900669063,-2.3062781533396e-10,-2.3061869473604e-10,-0.00028625032699916,0.00028624959536581,-2.1719037645551e-10,-4.7548362683376e-11,-0.00027697093812418,0.00027697083981036,-0.00026960190128266,0.00026960171799048,-0.00026960186108898,0.00026960167779259,-0.00027697088490937,0.00027697045450555,-0.00027697110412589,0.00027697067368656,-0.00026960206891768,0.0002696015500583,-0.00026960202802708,0.00026960150916344,-0.0003051173970746,0.00030511657092651,-0.00030511734019406,0.00030511662827753,-0.0003051174165064,0.00030511659035553,-0.00030511735951497,0.00030511664759536,-0.00029803257854379,0.00029803203446665,-0.00029803257288521,0.00029803202878686,-0.00029803262886043,0.00029803197264538,-0.00029803263479505,0.00029803197860182,-0.00027697071897797,0.00027697062069787,0.7519798507018,122718,2924,0.0012487758775679,0.0013492369815479,0.0011920010300404,24.448517272238,0.0001107881381779,0.0001107881381779,0.0001107881381779,1719219.7978863,0.0037972222363938
16891759,0.25085289898353,0.0043991086139863,0.0014580175649777,0.00153342011271,0.0014076709362986,-0.00036536922309982,0.00036536908369605,-6.2440351571003e-11,-6.242728781568e-11,-1.2246794971761e-11,-2.4206687634662e-11,-0.00028278493908025,0.00028278555427919,-0.00035983497129531,0.00035983492821693,-0.00035983523995732,0.00035983519704922,-0.00028278513305377,0.00028278576615426,-0.00028278492988573,0.00028278556295341,-0.0003598349621607,0.00035983493917007,-0.00035983523068323,0.00035983520786533,-0.00039066466101852,0.00039066442131813,-0.00039066480499706,0.00039066456534209,-0.00039066466434414,0.00039066441733265,-0.00039066480859519,0.00039066456162839,-0.00036617959444028,0.00036617937912248,-0.00036617966375356,0.00036617944846082,-0.00036617959094709,0.00036617938322549,-0.00036617965984863,0.00036617945215268,-0.00028278514111533,0.00028278575634851,-2.596759653128e-11,-1.3448100419763e-11,4.3106663562194e-11,-8.352434990315e-11,-0.00040187391265728,0.00040187387280416,-0.00039667708643874,0.00039667691701215,-0.00039742850773297,0.00039742849659555,-0.00039742845067332,0.0003974284656107,-0.00040192403094689,0.00040192403020613,-0.00040192442108468,0.00040192433459913,-0.00040192407202651,0.00040192407934326,-0.00040192446216521,0.0004019243837387,-0.0003966772049535,0.00039667729355282,-0.00039667709317332,0.00039667693353484,-0.00039742865395663,0.00039742855971703,-0.00039742859680289,0.00039742852863971,-0.00039667719826367,0.00039667727707558,-2.019942101462e-10,-2.0198219304313e-10,-0.00034486009743008,0.00034485950961347,-1.6630883093912e-10,-3.6495618783346e-11,-0.00033661898945097,0.00033661894622463,-0.00032283264917694,0.00032283260922337,-0.00032283262726155,0.00032283258731535,-0.00033661884221513,0.00033661854401478,-0.00033661911655196,0.00033661881833155,-0.00032283277806352,0.00032283248017222,-0.00032283275514652,0.00032283245726262,-0.00036898584862161,0.00036898508482777,-0.00036898580505362,0.00036898512894758,-0.00036898585826612,0.00036898509447206,-0.00036898581450541,0.00036898513839885,-0.00036525627346537,0.00036525577867997,-0.00036525628767902,0.00036525579285461,-0.00036525633031572,0.00036525574975382,-0.00036525631660304,0.00036525573608079,-0.00033661871466613,0.00033661867145817,0.80138220899585,122718,2924,0.0015212385217921,0.0016730578581017,0.0014358950588134,23.815442694834,0.00010572354155868,0.00010572354155868,0.00010572354155868,1994154.5708694,0.0046409462611074
17391759,0.29112300697914,0.0050949237892056,0.0016854470392792,0.0017954001382911,0.0016140766116353,-0.00041461735041688,0.00041461735546497,-2.4933371729079e-11,-2.4917915789483e-11,5.1466577849022e-11,-5.9853021531277e-13,-0.00030602721631003,0.00030602813809732,-0.00040691310408904,0.00040691317911052,-0.00040691323595153,0.00040691331115159,-0.00030602755261938,0.00030602856750402,-0.00030602717049566,0.00030602818535824,-0.00040691305660635,0.00040691322905833,-0.00040691318897078,0.0004069133616039,-0.00044726176615853,0.00044726159019968,-0.00044726184688905,0.00044726167098514,-0.00044726178271951,0.00044726157263951,-0.00044726186346881,0.00044726165344294,-0.00041546498295288,0.0004154648131774,-0.00041546497075719,0.00041546480100779,-0.00041546496629377,0.00041546483022264,-0.0004154649541999,0.00041546481815548,-0.0003060275985215,0.0003060285203324,-3.4666956815913e-11,1.5914695728734e-11,2.2342304060889e-11,-4.2858573494117e-11,-0.00046358753714291,0.00046358751730507,-0.0004576279567041,0.00045762785404529,-0.00045777914035907,0.00045777909182341,-0.00045777900444058,0.00045777905645218,-0.00046261390999618,0.00046261389487408,-0.00046261423236052,0.00046261417359635,-0.00046261392666076,0.00046261394588499,-0.00046261424902375,0.00046261422460748,-0.00045762824999708,0.00045762831146949,-0.00045762795815283,0.00045762789111757,-0.0004577792776043,0.00045777918737491,-0.00045777914155467,0.00045777915187449,-0.00045762824859475,0.00045762827444433,-1.3275340402823e-10,-1.327393388795e-10,-0.00038721143117757,0.00038721120088374,-5.8691473515772e-11,8.176403110799e-12,-0.00037595443116137,0.0003759546120645,-0.00035775169769879,0.00035775203606785,-0.00035775170731833,0.00035775204570021,-0.00037595413295981,0.00037595417822728,-0.00037595449774704,0.00037595454300041,-0.00035775176608376,0.0003577519680977,-0.00035775177401273,0.00035775197603956,-0.00041843599501679,0.00041843537723891,-0.00041843597277802,0.00041843540031335,-0.00041843599066066,0.0004184353728832,-0.00041843596794223,0.00041843539547769,-0.00041432254892855,0.00041432214643542,-0.00041432258807857,0.00041432218553718,-0.00041432260956274,0.00041432216278609,-0.00041432257161222,0.00041432212488454,-0.00037595406440117,0.00037595424531672,0.7107781577386,122718,2924,0.0017261252430964,0.0019297255154172,0.0016121003430174,22.123695591634,9.2189564733071e-05,9.2189564733071e-05,9.2189564733071e-05,2245043.4805926,0.0052818807107552
17891759,0.32487919837087,0.0055786270912834,0.0018445947661163,0.001978471224027,0.0017555611011401,-0.0004471493627808,0.00044714949002979,9.1664854628083e-12,9.1835226555691e-12,1.1012657247351e-10,1.2772956486124e-11,-0.00032258938453809,0.00032259049780335,-0.0004372098385796,0.00043721000781993,-0.00043720984932748,0.00043721001874543,-0.00032258979619399,0.00032259108874511,-0.00032258929655149,0.00032259058908509,-0.00043720974748464,0.00043721010214447,-0.00043720975928569,0.00043721011412574,-0.00048592945317618,0.00048592934763901,-0.00048592947550574,0.00048592937003125,-0.00048592948457664,0.00048592931473663,-0.00048592950671021,0.00048592933693199,-0.00044585767064461,0.00044585754605378,-0.00044585759741209,0.00044585747284923,-0.00044585763910758,0.00044585757784412,-0.00044585756640802,0.00044585750517318,-0.00032258988530317,0.00032259099858762,-4.3147534563613e-11,5.0738160689901e-11,-7.0149211401509e-13,5.7169054701092e-12,-0.0005029840615973,0.00050298406738563,-0.00049340155860726,0.00049340153673411,-0.00049405903522849,0.00049405894651681,-0.0004940588366833,0.00049405893336782,-0.00050483089637146,0.00050483086766057,-0.00050483113583533,0.00050483111201625,-0.00050483088311072,0.00050483091813626,-0.00050483112257146,0.00050483116249037,-0.00049340197861343,0.00049340201015994,-0.00049340154914591,0.0004934015921088,-0.00049405915188699,0.0004940590694606,-0.00049405895319807,0.00049405905617,-0.00049340198812177,0.00049340195483295,-7.9072179430575e-11,-7.9056738458223e-11,-0.00041452300513753,0.00041452305511698,2.8874218630731e-11,2.2766249933163e-11,-0.00040055539405824,0.00040055568022623,-0.00038020400631864,0.00038020458088213,-0.00038020404431625,0.00038020461889554,-0.00040055496276521,0.00040055525349001,-0.0004005553896746,0.00040055568038875,-0.00038020400398995,0.00038020458417541,-0.00038020403963011,0.00038020461983144,-0.00045105988270057,0.00045105941542824,-0.00045105988507832,0.00045105941414201,-0.00045105986597621,0.00045105939870514,-0.00045105986760338,0.00045105939666805,-0.0004445572904433,0.00044455695908847,-0.00044455734878833,0.0004445570173795,-0.00044455734577018,0.00044455701834674,-0.00044455728929425,0.00044455696192549,-0.00040055496365994,0.00040055524983696,0.59260256382937,122718,2924,0.0018614443225859,0.0020935373155226,0.0017257156517688,19.640238196601,7.2321905572804e-05,7.2321905572804e-05,7.2321905572804e-05,2592327.7776493,0.0056969064308098
18391759,0.35389131934714,0.005992455282105,0.0019808788186394,0.0021353310652449,0.0018762453982207,-0.00047529592614974,0.00047529606695989,1.4426109476082e-11,1.4444402909877e-11,1.2752431051397e-10,7.8738625471393e-13,-0.00033864862183946,0.00033864971235565,-0.00046502557352121,0.00046502573427758,-0.00046502554143825,0.0004650257023753,-0.00033864903504147,0.00033865036272912,-0.0003386485052194,0.0003386498328927,-0.00046502545400125,0.00046502585808233,-0.00046502542298631,0.00046502582725067,-0.0005184923597291,0.00051849227863013,-0.00051849235932612,0.00051849227829584,-0.00051849240055801,0.0005184922357532,-0.00051849239997753,0.00051849223524048,-0.00047263793302031,0.00047263781232594,-0.00047263783620458,0.00047263771553998,-0.00047263789194118,0.00047263785398758,-0.00047263779556057,0.00047263775763741,-0.00033864915272479,0.00033865024325702,-4.5575453877639e-11,7.7043434052445e-11,-2.3577228555381e-11,5.189679564734e-11,-0.00053614969560035,0.00053614972476808,-0.00052394029857087,0.00052394035805129,-0.00052442064167997,0.00052442052567937,-0.00052442043569447,0.00052442056153751,-0.00054050216377973,0.00054050212621525,-0.00054050233626236,0.00054050234908983,-0.00054050211960099,0.00054050216431998,-0.00054050229207887,0.0005405023871914,-0.00052394077492845,0.00052394077157098,-0.00052394026845372,0.00052394041185596,-0.0005244207313638,0.000524420667517,-0.00052442052522482,0.00052442070322389,-0.00052394080509314,0.0005239407178146,-7.7850622868823e-11,-7.7834074194887e-11,-0.000438366145523,0.00043836621008156,5.0999859947467e-11,-2.4184950414528e-11,-0.00042412048359996,0.00042412067115722,-0.00040122108472346,0.00040122157463889,-0.00040122112966943,0.00040122161960288,-0.0004241199822074,0.00042412031028343,-0.00042412041094372,0.00042412073901112,-0.00040122101459345,0.00040122164582154,-0.00040122105702227,0.00040122168826849,-0.00047843296699897,0.00047843255353697,-0.00047843299236855,0.00047843252927331,-0.00047843294598369,0.00047843253252375,-0.00047843297055836,0.00047843250746489,-0.00047123110639082,0.00047123076076562,-0.00047123117071309,0.00047123082502942,-0.00047123114459717,0.00047123084890514,-0.00047123108227563,0.00047123078664275,-0.00042412005096275,0.000424120238527,0.59387052420227,122718,2924,0.0019785066682506,0.0022314187991269,0.0018248910293111,17.516501740666,5.5332013925324e-05,5.5332013925324e-05,5.5332013925324e-05,2851605.118433,0.0060531156406866
18891759,0.38192842457965,0.0064298949048604,0.0021244404383282,0.0023022321693825,0.0020032222971497,-0.00050741297387614,0.0005074130251153,-9.395017973944e-12,-9.3756734546117e-12,9.2162133142448e-11,-1.8000080212846e-11,-0.00035200196903191,0.00035200289380994,-0.00049746539812683,0.00049746548492168,-0.0004974654075534,0.00049746549453768,-0.00035200234348999,0.00035200347515226,-0.0003520018671627,0.00035200299881552,-0.00049746529465107,0.00049746559318813,-0.00049746530477221,0.00049746560350141,-0.00055549757078487,0.00055549744987528,-0.0005554975887331,0.000555497467896,-0.0005554976060168,0.00055549741253181,-0.00055549762396443,0.00055549743055097,-0.0005052452692681,0.00050524511718591,-0.00050524518370149,0.00050524503165018,-0.00050524523384169,0.00050524515366246,-0.00050524514827473,0.00050524506812706,-0.00035200244561032,0.0003520033703996,-3.644977516086e-11,7.0439643705472e-11,-2.392074276714e-11,5.4863850358796e-11,-0.0005767400413344,0.00057674007315554,-0.00056418203401961,0.00056418210500047,-0.00056349823520118,0.00056349813633015,-0.00056349809101005,0.00056349820319944,-0.00058079517771944,0.00058079514818951,-0.00058079533793842,0.00058079535977664,-0.0005807951184902,0.00058079515948049,-0.0005807952787028,0.00058079537106284,-0.00056418247467398,0.00056418246509182,-0.00056418198563569,0.0005641821296299,-0.00056349831214808,0.0005634982672934,-0.00056349816778681,0.00056349833399495,-0.00056418252310605,0.00056418244051127,-1.1824033548811e-10,-1.1822303351637e-10,-0.00046539226080446,0.00046539211502714,5.1034320945718e-13,-7.709219750577e-11,-0.00045084267575993,0.00045084269272147,-0.00042396879926657,0.00042396903270005,-0.00042396882857573,0.00042396906202925,-0.00045084222194887,0.00045084238656614,-0.0004508426000149,0.00045084276462408,-0.00042396872611014,0.0004239691065564,-0.00042396875334515,0.00042396913381157,-0.00050991441236281,0.00050991392726235,-0.00050991443824166,0.00050991390223365,-0.00050991439595685,0.00050991391085877,-0.00050991442124936,0.00050991388524344,-0.00050373484001135,0.00050373442911132,-0.00050373489886726,0.00050373448790531,-0.000503734872095,0.00050373451293745,-0.0005037348147818,0.00050373445568686,-0.00045084229469372,0.00045084231166166,0.65137566946256,122718,2924,0.0021120745518354,0.0024001415253066,0.0019372977916792,16.908611138482,5.0468889107855e-05,5.0468889107855e-05,5.0468889107855e-05,2913645.1066306,0.0064704187059912
19391759,0.41147272043403,0.0069368799033033,0.0022894771999571,0.0024988513494481,0.0021485513538981,-0.00054622115364526,0.00054622110872177,-3.5597881840028e-11,-3.5577634193873e-11,4.1551323076778e-11,-3.228621761939e-11,-0.00036666921053847,0.00036666993030499,-0.00053660368829876,0.00053660370184523,-0.00053660376917015,0.00053660378291241,-0.0003666695302518,0.00036667038790552,-0.00036666914261777,0.00036667000026756,-0.00053660361993752,0.00053660377498863,-0.00053660370111576,0.00053660385636545,-0.00059994672543885,0.00059994655843108,-0.00059994677327611,0.00059994660634409,-0.00059994674866959,0.00059994653327531,-0.00059994679668091,0.00059994658136139,-0.00054567719080483,0.00054567701378538,-0.00054567712805975,0.00054567695107221,-0.00054567716750842,0.00054567703845553,-0.00054567710437682,0.00054567697535656,-0.00036666959766052,0.00036667031743281,-2.2403680553526e-11,4.9187627704679e-11,-1.4951578268959e-11,3.9101772879444e-11,-0.00062742093740689,0.00062742096241364,-0.00061566368042707,0.00061566373261705,-0.00061320502728541,0.00061320496443035,-0.00061320496906104,0.00061320504800727,-0.00062952130169597,0.00062952128637118,-0.00062952147497463,0.00062952149360196,-0.00062952124543561,0.00062952127613856,-0.00062952141870597,0.00062952148336267,-0.00061566399863563,0.00061566399436057,-0.00061566362663477,0.00061566372784768,-0.00061320509086937,0.00061320506521452,-0.0006132050324571,0.00061320514860614,-0.0006156640524761,0.00061566399917889,-1.6260340714948e-10,-1.6258559174861e-10,-0.00049780560402124,0.00049780522391006,-6.8973343603334e-11,-1.2105348270435e-10,-0.00048267536210116,0.00048267520354505,-0.00045076537272353,0.00045076532359794,-0.00045076538171503,0.00045076533261107,-0.00048267500729047,0.00048267494873962,-0.00048267531078785,0.0004826752522287,-0.00045076532390852,0.00045076537277429,-0.00045076533136878,0.0004507653802563,-0.00054787324370655,0.00054787267741408,-0.00054787326078788,0.00054787266088314,-0.0005478732341004,0.00054787266781042,-0.00054787325083183,0.00054787265092929,-0.000543886113237,0.00054388564736344,-0.00054388616623066,0.00054388570029249,-0.00054388614815359,0.00054388571720843,-0.00054388609617997,0.00054388566530009,-0.00048267505665011,0.00048267489810059,0.71635337683096,122718,2924,0.0022734532857032,0.002610766138422,0.0020720984141731,17.474036238115,5.4992289904923e-05,5.4992289904923e-05,5.4992289904923e-05,2932780.6551139,0.006980639419077
19891759,0.44389999709836,0.0074546099733383,0.002457679509892,0.0027025370065752,0.0022943934568712,-0.00058670166099457,0.00058670153772288,-5.655616929932e-11,-5.653502271004e-11,-5.4463227656368e-12,-4.2510065155513e-11,-0.00038080464528072,0.00038080518285698,-0.00057566332450266,0.00057566327459814,-0.00057566348272666,0.0005756634330198,-0.0003808049136463,0.00038080551869594,-0.00038080461204933,0.00038080521709957,-0.00057566329161392,0.00057566331189599,-0.00057566344983723,0.00057566347031977,-0.00064750575501586,0.00064750555073434,-0.00064750583373979,0.00064750562953714,-0.00064750576621749,0.00064750553792133,-0.00064750584524148,0.00064750561702315,-0.00058681419810993,0.00058681400635909,-0.00058681416211584,0.00058681397039817,-0.00058681418699048,0.00058681401899533,-0.00058681415034806,0.0005868139823868,-0.00038080494582374,0.00038080548340127,-9.0708258042629e-12,2.6739558566017e-11,-2.6654934827685e-12,1.8209435831882e-11,-0.00068110269681278,0.00068110271314601,-0.000668777371399,0.00066877739477313,-0.00066528906647168,0.00066528904099436,-0.0006652890858822,0.00066528913188272,-0.00068220179127217,0.00068220179079035,-0.00068220199599282,0.00068220200689986,-0.0006822017515075,0.00068220177275026,-0.00068220195621814,0.00068220198885141,-0.0006687775358684,0.00066877754329825,-0.00066877732269149,0.00066877737087574,-0.00066528912167316,0.0006652891110546,-0.00066528914088285,0.00066528920174488,-0.00066877758462409,0.00066877756724462,-2.0052857006547e-10,-2.0051036331626e-10,-0.000530965455149,0.00053096487012595,-1.3813533989566e-10,-1.5638228259093e-10,-0.00051317999762838,0.00051317968978276,-0.00047686049307253,0.00047686018918725,-0.0004768604835962,0.00047686017973406,-0.00051317974321437,0.00051317947079607,-0.00051317997914895,0.00051317970672222,-0.00047686047691325,0.00047686020545068,-0.0004768604663912,0.00047686019495195,-0.00058797362720949,0.00058797299155286,-0.0005879736328021,0.00058797298625122,-0.00058797362435407,0.0005879729887,-0.00058797362979312,0.00058797298324451,-0.0005845098570228,0.00058450935175252,-0.0005845099049348,0.00058450939959768,-0.00058450989830376,0.00058450940557479,-0.0005845098509599,0.00058450935829847,-0.00051317976065314,0.00051317945281424,0.66678161365177,122718,2924,0.0024417642963698,0.0028338096281491,0.0022099890147089,18.684104408679,6.4672835269431e-05,6.4672835269431e-05,6.4672835269431e-05,3015854.3714816,0.0075137354106587
20391759,0.47597938800549,0.0080155402967523,0.0026388160208424,0.0029255055310982,0.0024512187448117,-0.00062885322728416,0.00062885321717007,-2.8236375104005e-11,-2.8214484390399e-11,3.7449200732036e-11,-1.6729712433475e-11,-0.0004008844644778,0.00040088522667238,-0.00061821928586167,0.00061821933805636,-0.00061821936713829,0.00061821941952972,-0.00040088480293383,0.0004008856633177,-0.00040088441636288,0.0004008852767503,-0.0006182192366526,0.00061821939148353,-0.00061821931833632,0.0006182194733668,-0.00069521285610669,0.0006952126981295,-0.00069521290438896,0.00069521274649414,-0.00069521287315799,0.00069521267950544,-0.00069521292153437,0.00069521272796312,-0.00062990518891419,0.00062990503805695,-0.00062990512734941,0.00062990497652668,-0.00062990517205798,0.00062990505604751,-0.00062990511030753,0.0006299049943323,-0.00040088485086348,0.00040088561305641,-1.3728205848029e-11,3.7930127672401e-11,-1.1785589193634e-11,3.3705300414444e-11,-0.0007351937831394,0.00073519380582543,-0.00072249061759807,0.00072249066572262,-0.00071742954589363,0.0007174295031769,-0.00071742949979983,0.00071742955921743,-0.00073566799375162,0.00073566798456094,-0.00073566819173272,0.00073566821189075,-0.00073566796508359,0.00073566798962073,-0.00073566816305323,0.00073566821694076,-0.00072249081866266,0.00072249081405128,-0.0007224905851068,0.00072249066896051,-0.0007174296105607,0.00071742959949176,-0.00071742956425655,0.00071742965532476,-0.00072249085120203,0.00072249081086231,-1.5580927622236e-10,-1.5579072931229e-10,-0.00056570657240678,0.00056570623893751,-7.3573811339317e-11,-1.1766145265758e-10,-0.00054859274567308,0.00054859260720226,-0.00050671348837938,0.00050671344986795,-0.00050671349759191,0.00050671345910499,-0.00054859242876286,0.00054859237316802,-0.00054859270299214,0.00054859264738951,-0.00050671344778893,0.00050671349099698,-0.00050671345557537,0.0005067134988081,-0.00062783752290115,0.00062783698276234,-0.00062783753743306,0.00062783696872056,-0.00062783751460814,0.00062783697447211,-0.00062783752877118,0.00062783696006117,-0.00062701887225417,0.00062701843036814,-0.00062701893144793,0.0006270184894931,-0.00062701891609418,0.00062701850369069,-0.00062701885792483,0.00062701844559084,-0.00054859246946946,0.00054859233100469,0.7310461920672,122718,2924,0.0026169914035798,0.0030585000987359,0.0023544347748169,18.606971569311,6.4055772554485e-05,6.4055772554485e-05,6.4055772554485e-05,3151064.6495095,0.0080623443454347
20891759,0.50508989265126,0.0084912238114557,0.0027924584309645,0.0031164284023352,0.0025823369781561,-0.00066091378389836,0.00066091390597007,4.6818232382197e-12,4.7043761521848e-12,9.9468275959506e-11,6.6936867477587e-12,-0.00040535433721698,0.00040535537538702,-0.00064832248786334,0.00064832265617308,-0.00064832245854571,0.00064832262705464,-0.00040535474287971,0.00040535595185271,-0.00040535425339472,0.00040535546237452,-0.00064832240153047,0.00064832274695663,-0.00064832237307824,0.00064832271870637,-0.00073471248671644,0.00073471238522667,-0.00073471248864221,0.00073471238723686,-0.00073471251652815,0.0007347123536116,-0.00073471251833163,0.0007347123554984,-0.00066287665565899,0.00066287654229019,-0.00066287655552135,0.00066287644218805,-0.00066287662604289,0.00066287657276022,-0.00066287652616293,0.00066287647291646,-0.00040535482741558,0.00040535586558071,-2.5467820357923e-11,6.312287431599e-11,-3.086704800346e-11,6.5741278796118e-11,-0.00078152888697323,0.0007815289226465,-0.00076866601848706,0.00076866611678725,-0.0007625826906226,0.00076258260786334,-0.00076258254876748,0.00076258264042459,-0.00078045673451297,0.00078045670769756,-0.00078045688860478,0.00078045692639933,-0.00078045669468142,0.00078045672727091,-0.00078045684876071,0.00078045694596183,-0.00076866636816896,0.00076866633918445,-0.00076866598745241,0.00076866614649417,-0.00076258275761351,0.00076258274094065,-0.00076258261553892,0.00076258277328539,-0.0007686663992516,0.00076866630952636,-1.0269313667865e-10,-1.0267439055167e-10,-0.00059023339230662,0.00059023337368972,2.1941846957262e-11,-7.4578786823667e-11,-0.00056992727481915,0.00056992733533559,-0.00052358811963485,0.00052358843306316,-0.00052358815486269,0.00052358846831663,-0.0005699268395427,0.00056992708230149,-0.00056992718184394,0.00056992742459407,-0.00052358802862707,0.00052358852507377,-0.00052358806191467,0.0005235885583872,-0.00065973279683967,0.00065973237459766,-0.00065973282916953,0.0006597323430225,-0.000659732779235,0.00065973235699563,-0.00065973281094553,0.00065973232480086,-0.00065929847781134,0.00065929809759241,-0.00065929855148179,0.0006592981711928,-0.00065929851849876,0.00065929820237509,-0.00065929844642809,0.00065929813037512,-0.00056992692940223,0.00056992698992573,0.68432815189094,122718,2924,0.0027502720459954,0.0032509269210644,0.0024564130088843,17.403698748484,5.4429589987871e-05,5.4429589987871e-05,5.4429589987871e-05,3210334.5458783,0.0084935893771796
21391759,0.52985880194779,0.0088870692905185,0.0029203167988391,0.0032761211281481,0.0026906313635314,-0.00068662509003115,0.00068662533052031,3.4552440181964e-11,3.4575645781873e-11,1.6159840630902e-10,1.8280623245391e-11,-0.0004141067179453,0.0004141079769118,-0.00067327444963554,0.0006732747087756,-0.00067327431164299,0.00067327457098272,-0.00041410717018498,0.00041410869663317,-0.00041410658646856,0.00041410811292528,-0.0006732743145579,0.00067327484902792,-0.00067327417782511,0.00067327471249763,-0.0007655029944625,0.00076550295258278,-0.00076550294816442,0.00076550290637154,-0.00076550304079205,0.00076550290396057,-0.00076550299420253,0.0007655028574568,-0.00068840190666518,0.00068840182383631,-0.00068840176868698,0.00068840168589493,-0.00068840186042127,0.00068840187084275,-0.00068840172304421,0.00068840173350324,-0.00041410730313015,0.00041410856209007,-3.9574342295714e-11,9.7900293830872e-11,-5.7460015518321e-11,1.1224929753748e-10,-0.00081636101627645,0.0008163610719349,-0.000801912435386,0.00080191260843339,-0.00079534095520185,0.00079534082051277,-0.00079534072181781,0.00079534085747049,-0.00081594979735187,0.00081594974898054,-0.00081594988413706,0.00081594994982891,-0.0008159497328926,0.00081594977712517,-0.00081594981966445,0.00081594997796187,-0.00080191294898713,0.00080191288491558,-0.00080191239469866,0.00080191266141845,-0.00079534101049551,0.00079534099084691,-0.00079534077688925,0.00079534102758538,-0.00080191298972225,0.00080191283197912,-5.7116549932288e-11,-5.7097510930823e-11,-0.00060994047696174,0.00060994074154575,1.1697930327251e-10,-5.3674828003385e-11,-0.00058912831251899,0.00058912850439238,-0.000539077237102,0.00053907783590608,-0.00053907729757542,0.00053907789640599,-0.00058912774049953,0.00058912825736492,-0.00058912814745645,0.00058912866431252,-0.0005390770741982,0.00053907800024885,-0.00053907713217484,0.00053907805825216,-0.00068395023612466,0.0006839499382849,-0.00068395029342472,0.00068394988200874,-0.00068395020844773,0.00068394991061062,-0.00068395026488068,0.00068394985346705,-0.00068428093782048,0.00068428060281452,-0.00068428102555161,0.00068428069047477,-0.00068428096766497,0.00068428074586456,-0.00068428088212853,0.00068428066039971,-0.00058912790120134,0.00058912809308228,0.67004884739747,122718,2924,0.0028571379943387,0.0033955537451932,0.0025383413626545,15.326405173526,3.7811241388212e-05,3.7811241388212e-05,3.7811241388212e-05,3339222.1076444,0.0088299085638541
21891759,0.55200609936442,0.00922990618116,0.0030310544396192,0.0034149809913935,0.0027838707501473,-0.00070926788444845,0.00070926807215955,1.9456188038575e-11,1.9479928901544e-11,1.4653331474311e-10,-4.7065093076066e-12,-0.00041904614621424,0.00041904727831929,-0.00069475624720934,0.00069475644238664,-0.00069475613991271,0.0006947563352911,-0.00041904654626781,0.00041904796320814,-0.00041904600581142,0.00041904742276193,-0.0006947561043019,0.00069475659111827,-0.00069475599795798,0.00069475648497828,-0.00079330808683061,0.00079330802664119,-0.00079330804876139,0.00079330798866053,-0.00079330813550227,0.0007933079753939,-0.00079330809729368,0.00079330793727277,-0.00071111019445438,0.00071111008596237,-0.00071111006445479,0.00071110995600059,-0.0007111101457502,0.00071111013586286,-0.00071111001599266,0.00071111000614388,-0.00041904668750501,0.00041904781960181,-4.0158144960943e-11,1.0563118865734e-10,-6.9335441702791e-11,1.3107980033737e-10,-0.00084824217628031,0.00084824223892359,-0.00083276456693595,0.00083276477448728,-0.000825694097514,0.00082569395159591,-0.00082569388748238,0.00082569402853151,-0.000847899564343,0.00084789951103244,-0.00084789962314186,0.00084789970318144,-0.00084789948165582,0.00084789952536954,-0.00084789954044061,0.00084789971750618,-0.00083276509093351,0.0008327650062199,-0.00083276450805964,0.0008327648145587,-0.00082569412698767,0.00082569411624989,-0.00082569391673045,0.00082569419296291,-0.00083276514985757,0.00083276496619704,-8.526547820749e-11,-8.5246173688645e-11,-0.00062706414927366,0.00062706429168836,9.8239728315242e-11,-1.0242456661744e-10,-0.00060487617715642,0.00060487622695086,-0.00055151831728766,0.00055151873505154,-0.00055151836981421,0.00055151878760535,-0.00060487560097141,0.00060487603672665,-0.00060487598183038,0.00060487641757528,-0.00055151812444181,0.00055151892910943,-0.00055151817470261,0.00055151897939769,-0.00070582176368735,0.00070582143480911,-0.00070582183075131,0.00070582136863372,-0.00070582173728811,0.00070582140841244,-0.00070582180360954,0.00070582134149422,-0.00070648318204067,0.00070648279281687,-0.00070648326851961,0.00070648287922418,-0.00070648320066009,0.00070648294481414,-0.00070648311613534,0.00070648286036172,-0.00060487579239889,0.00060487584220194,0.65030596713663,122718,2924,0.0029512480735532,0.0035279083580351,0.0026095277547611,13.951855026842,2.6814840214734e-05,2.6814840214734e-05,2.6814840214734e-05,3418908.1649781,0.0091302458267604
22391759,0.57513679022284,0.0095977700779498,0.0031494941996529,0.0035648284592113,0.0028834474190856,-0.00073808843583599,0.00073808838644809,-4.297935139267e-11,-4.2955025826976e-11,3.5260831805792e-11,-5.2721218785308e-11,-0.0004293553628895,0.00042935599546683,-0.0007227582273339,0.00072275820876796,-0.00072275831920475,0.00072275830084101,-0.00042935561986497,0.00042935641905429,-0.00042935528031295,0.00042935607951423,-0.00072275814520567,0.00072275829660617,-0.00072275823707406,0.00072275838867959,-0.00082731832966302,0.00082731816312597,-0.00082731836996456,0.00082731820351776,-0.00082731835733438,0.00082731813320871,-0.00082731839794487,0.00082731817390833,-0.00074029364007516,0.00074029345876376,-0.00074029357335467,0.00074029339208223,-0.00074029361244483,0.00074029348834927,-0.00074029354497869,0.00074029342092286,-0.00042935570139423,0.00042935633396161,-1.8426099124732e-11,6.6853703371135e-11,-5.0528438155604e-11,9.6028973469013e-11,-0.00088697813881286,0.000886978185143,-0.00087078344472636,0.00087078360446858,-0.00086286837179045,0.0008628682866375,-0.00086286833677856,0.0008628684202177,-0.00088646025505878,0.00088646022628985,-0.00088646036092794,0.00088646042691967,-0.00088646017899671,0.00088646020447514,-0.00088646028485099,0.0008864604050918,-0.00087078374949281,0.00087078368026304,-0.00087078337145812,0.00087078358893543,-0.00086286837328499,0.00086286838661415,-0.00086286833804433,0.00086286851996862,-0.0008707838228086,0.00087078369584458,-1.92379539935e-10,-1.9236008095252e-10,-0.00064999403366121,0.00064999360006842,-6.4971305413865e-11,-2.0942233557265e-10,-0.00062684194871463,0.00062684158643605,-0.00056977044927539,0.00056977018807275,-0.00056977045488681,0.00056977019371219,-0.00062684156041507,0.00062684148047598,-0.00062684180647681,0.00062684172652626,-0.00056977030974765,0.00056977032795803,-0.00056977031418655,0.00056977033242514,-0.00073354850465188,0.00073354796463251,-0.00073354855225162,0.00073354791732665,-0.00073354849356687,0.00073354795354993,-0.0007335485409489,0.00073354790602607,-0.00073507788766236,0.00073507735672418,-0.00073507795569439,0.00073507742468407,-0.00073507790690473,0.00073507747248459,-0.00073507783966215,0.00073507740531483,-0.00062684170107943,0.00062684133881054,0.66901198509521,122718,2924,0.0030710161075101,0.0036886983699848,0.0027048382631216,14.800676519626,3.3605412157005e-05,3.3605412157005e-05,3.3605412157005e-05,3483764.7773142,0.0095096298368443
22891759,0.59864382161449,0.0099291454818213,0.0032568909334623,0.0036996701279179,0.0029725844204411,-0.00076299059964275,0.00076299058217565,-3.3374089929756e-11,-3.3349222115921e-11,3.4775671774157e-11,-2.9955735578723e-11,-0.00043360118949765,0.00043360190008018,-0.00074554061105786,0.00074554064566877,-0.00074554069228217,0.0007455407270966,-0.00043360147804682,0.0004336023082439,-0.00043360113040135,0.00043360196061209,-0.00074554055162209,0.0007455407100899,-0.00074554063299745,0.00074554079167164,-0.0008585049300331,0.00085850477196497,-0.00085850496672508,0.00085850480874855,-0.00085850495039438,0.0008585047497963,-0.00085850498730688,0.00085850478679929,-0.00076509502425791,0.00076509486864714,-0.00076509495500466,0.00076509479943389,-0.00076509500422539,0.0007650948903126,-0.00076509493443896,0.00076509482056692,-0.00043360153645583,0.00043360224702669,-1.0156329995796e-11,5.1661554245568e-11,-4.1321987700464e-11,8.0269273534675e-11,-0.00092245788423577,0.00092245792395835,-0.00090484731621494,0.00090484745265879,-0.00089676605154752,0.00089676599102598,-0.00089676603075779,0.00089676609236151,-0.00092204842758034,0.00092204840759797,-0.00092204854828867,0.00092204860726237,-0.00092204836631467,0.00092204838573456,-0.00092204848700735,0.00092204858538505,-0.00090484759345915,0.00090484753449953,-0.00090484725632511,0.00090484743496535,-0.00089676606507199,0.00089676608658299,-0.00089676604405057,0.00089676618768992,-0.00090484765339637,0.0009048475522412,-1.8007635343707e-10,-1.8005675010128e-10,-0.00066880012481426,0.00066879974794958,-6.386303853812e-11,-1.8382418152078e-10,-0.00064253436910758,0.00064253407633478,-0.00058264669906837,0.00058264652412861,-0.00058264670734768,0.00058264653243665,-0.00064253400453284,0.00064253394465646,-0.00064253425159774,0.00064253419170851,-0.00058264658391148,0.00058264663981886,-0.00058264659098886,0.00058264664692517,-0.00075833107997068,0.0007583305575903,-0.00075833111952594,0.00075833051832556,-0.00075833106837764,0.0007583305459995,-0.00075833110767898,0.00075833050648058,-0.00075922512358566,0.00075922462359178,-0.00075922519427726,0.00075922469421083,-0.00075922515370243,0.00075922473378219,-0.00075922508385646,0.00075922466400949,-0.00064253412036271,0.00064253382760093,0.59348875359801,122718,2924,0.0031745029254647,0.0038359453895519,0.0027830110468364,15.340943078991,3.7927544631927e-05,3.7927544631927e-05,3.7927544631927e-05,3530924.6805629,0.0098417402515194
23391759,0.62200620406245,0.010276087475396,0.0033688158282474,0.0038413812571271,0.0030658903900217,-0.00078988229814749,0.00078988230892024,-2.5666155901849e-11,-2.564090257038e-11,4.135101701952e-11,-1.8735209240453e-11,-0.00044689730399863,0.00044689807366894,-0.00077218229224629,0.0007721823605867,-0.00077218235893871,0.00077218242748174,-0.00044689761060559,0.00044689848984675,-0.00044689725000288,0.00044689812925845,-0.00077218223739043,0.00077218242012554,-0.00077218230435777,0.00077218248729836,-0.00088970595794255,0.00088970581071881,-0.00088970598919978,0.00088970584206924,-0.00088970597694279,0.00088970579009206,-0.00088970600835413,0.00088970582159546,-0.00079154632922224,0.00079154618907431,-0.00079154625705735,0.00079154611695037,-0.0007915463106803,0.00079154620906781,-0.00079154623813852,0.00079154613656775,-0.00044689766419322,0.00044689843385112,-8.3254767800463e-12,4.8596089040485e-11,-3.8843432948022e-11,7.6668756233889e-11,-0.00095679148967607,0.00095679152824245,-0.00093726908483223,0.00093726921571286,-0.00092873501858771,0.00092873496373188,-0.00092873499456133,0.00092873505199783,-0.00095780691744818,0.00095780689943586,-0.00095780704368791,0.00095780710116138,-0.00095780686332281,0.00095780688193942,-0.0009578069895461,0.00095780708365025,-0.00093726935187156,0.00093726929624903,-0.00093726903151137,0.00093726920140854,-0.00092873503786379,0.00092873506112553,-0.00092873501360453,0.00092873514916172,-0.00093726940523956,0.00093726931060133,-1.6967877961678e-10,-1.6965902916731e-10,-0.00069023148371253,0.00069023116437082,-5.4983325575638e-11,-1.6924307325959e-10,-0.00066451270887142,0.00066451246580374,-0.00060111157297085,0.00060111146967699,-0.00060111158495628,0.00060111148169162,-0.00066451234702919,0.00066451232455278,-0.00066451259744739,0.00066451257495777,-0.0006011114636956,0.00060111157961394,-0.00060111147441985,0.00060111159036757,-0.00078325659062732,0.00078325609018196,-0.00078325662837372,0.00078325605274668,-0.0007832565780648,0.00078325607762173,-0.00078325661551674,0.00078325603989172,-0.0007851489697433,0.00078514849007614,-0.00078514904334494,0.00078514856360475,-0.00078514900467985,0.00078514860118451,-0.00078514893200891,0.0007851485285873,-0.00066451245660483,0.00066451221354856,0.62584069172871,122718,2924,0.003286225896152,0.0039784130246971,0.0028720767993679,15.63396468848,4.0271717507842e-05,4.0271717507842e-05,4.0271717507842e-05,3641325.4038144,0.010188442190442
23891759,0.64671318100956,0.010697682821149,0.0035034950453796,0.0040154604333023,0.003178727342467,-0.00082228152165407,0.00082228140421808,-6.0086409107329e-11,-6.0060527677401e-11,-2.1291627173052e-11,-4.3624105372349e-11,-0.00045198412939675,0.00045198461450854,-0.00080367086193737,0.00080367081096007,-0.00080367104895991,0.00080367099818675,-0.00045198435162416,0.00045198487549512,-0.0004519841100568,0.00045198463394445,-0.00080367084325961,0.00080367083398159,-0.00080367103006271,0.00080367102099165,-0.00092873679803777,0.00092873659230127,-0.00092873687764718,0.00092873667200496,-0.00092873680455064,0.00092873658442466,-0.00092873688453967,0.00092873666450683,-0.00082605280872081,0.00082605263053934,-0.00082605277567208,0.00082605259753277,-0.00082605280269507,0.00082605263833954,-0.0008260527687742,0.00082605260446159,-0.00045198436962189,0.00045198485471894,3.4522000964803e-12,2.4280635184439e-11,-2.3304566032093e-11,4.9149737450435e-11,-0.0010041274591516,0.0010041274856629,-0.00098600778686904,0.00098600787620017,-0.00097553211316167,0.00097553209577943,-0.00097553218654554,0.0009755322108168,-0.0010023810054727,0.0010023810031022,-0.0010023811763589,0.0010023812195275,-0.001002380964052,0.0010023809731058,-0.0010023811349208,0.0010023811895153,-0.0009860078972309,0.00098600785930617,-0.00098600773178372,0.00098600783557902,-0.00097553212212237,0.00097553215375787,-0.00097553219526862,0.00097553226856075,-0.00098600795236302,0.00098600789997498,-2.2744377403166e-10,-2.2742398268065e-10,-0.00071509198418667,0.00071509134430958,-1.5213348360114e-10,-2.2204518999907e-10,-0.00068720006169877,0.00068719959852565,-0.0006189590751041,0.00061895859609031,-0.00061895905973221,0.00061895858074848,-0.00068719983230026,0.00068719950621785,-0.0006871999927888,0.00068719966669111,-0.0006189590083314,0.00061895866304065,-0.00061895899233933,0.00061895864707877,-0.00081491462923237,0.00081491400989252,-0.00081491465182401,0.00081491398728317,-0.00081491462634848,0.00081491400701057,-0.00081491464893627,0.00081491398439707,-0.00081865354160823,0.00081865299370951,-0.00081865360433172,0.0008186530563599,-0.00081865358064844,0.00081865307968025,-0.00081865351819852,0.00081865301730411,-0.0006871999007192,0.0006871994375594,0.72029407872103,122718,2924,0.003420850281861,0.0041748011493027,0.0029754013704834,16.93050840267,5.064406722136e-05,5.064406722136e-05,5.064406722136e-05,3617682.1640609,0.010627320226248
24391759,0.67197027812077,0.011114813514807,0.0036370063441149,0.0041885722179765,0.0032892349527154,-0.00085237374732152,0.00085237366152423,-5.0827845141279e-11,-5.0801263306277e-11,-1.6359027801753e-11,-2.8008253367085e-11,-0.00044987285921994,0.00044987339847038,-0.00083122396810194,0.00083122395462417,-0.00083122414877147,0.00083122413549938,-0.00044987309529923,0.00044987365134814,-0.00044987285087821,0.00044987340694618,-0.00083122395977458,0.00083122396671752,-0.00083122414036715,0.00083122414751863,-0.00096720107826596,0.000967200886054,-0.00096720115567912,0.00096720096356258,-0.00096720108149115,0.00096720088173423,-0.00096720115919691,0.00096720095953427,-0.00085817368876333,0.00085817353179388,-0.00085817365589156,0.00085817349896572,-0.00085817368616102,0.00085817353587997,-0.00085817365262559,0.00085817350238882,-0.00044987310265989,0.00044987364189312,6.9647598196036e-12,1.6914552860256e-11,-1.6027329376089e-11,3.8257921599698e-11,-0.0010519007479971,0.0010519007708355,-0.0010346621266817,0.00103466219813,-0.001022815112802,0.0010228151083848,-0.0010228151879103,0.0010228152035234,-0.0010470642810687,0.0010470642839816,-0.0010470644712908,0.0010470645084244,-0.001047064255045,0.001047064262869,-0.0010470644452487,0.001047064487295,-0.0010346621991889,0.0010346621719601,-0.001034662084273,0.0010346621630102,-0.0010228151323705,0.0010228151650214,-0.0010228152072372,0.0010228152599216,-0.0010346622416439,0.0010346622071271,-2.1462940454091e-10,-2.1460968424242e-10,-0.00073636164940298,0.00073636106267839,-1.4998305562244e-10,-2.021578327758e-10,-0.00070319475444677,0.00070319434296883,-0.00063103311382028,0.00063103270168904,-0.00063103310067018,0.00063103268856984,-0.00070319455156288,0.00070319424118688,-0.00070319470350956,0.00070319439311568,-0.00063103306471216,0.00063103275109327,-0.00063103305091025,0.00063103273732233,-0.00084514698766628,0.00084514639226029,-0.00084514700447927,0.00084514637545799,-0.00084514698477841,0.00084514638937385,-0.00084514700153982,0.00084514637251967,-0.00084930431259331,0.00084930379631062,-0.00084930437676284,0.00084930386040735,-0.00084930435900387,0.00084930387772943,-0.00084930429519475,0.00084930381399391,-0.00070319460188589,0.00070319419042358,0.6966732932835,122718,2924,0.0035459016218212,0.0043729564797055,0.0030638140419548,17.854147164534,5.8033177316269e-05,5.8033177316269e-05,5.8033177316269e-05,3571082.8774755,0.011043432823797
24891759,0.69683069056378,0.011476832734452,0.0037539715550467,0.0043380434653586,0.0033848177140468,-0.00087949813459035,0.00087949810213172,-3.7077754991213e-11,-3.7050812696634e-11,5.4979983928643e-12,-1.4107509319392e-11,-0.00045748640767842,0.00045748706436781,-0.00085642986666803,0.00085642990644775,-0.00085643001031352,0.00085643005029767,-0.00045748666978762,0.00045748735745806,-0.00045748639244069,0.00045748708013102,-0.00085642985070479,0.00085642992593786,-0.0008564299944825,0.00085643006992279,-0.0010007221413435,0.0010007219712044,-0.0010007222054661,0.0010007220354236,-0.0010007221473328,0.0010007219642108,-0.0010007222116413,0.0010007220286147,-0.00088476601303627,0.00088476587463219,-0.00088476597212124,0.00088476583376163,-0.00088476600773524,0.00088476588117565,-0.00088476596639953,0.00088476583988516,-0.0004574866844773,0.00045748734114874,3.698795121995e-12,2.1083582675728e-11,-1.7578474048508e-11,4.0689708074996e-11,-0.0010899465801503,0.001089946603845,-0.0010699210444391,0.0010699211179634,-0.0010584688559038,0.0010584688437133,-0.0010584688994883,0.0010584689217422,-0.0010863216462857,0.0010863216454827,-0.0010863218394197,0.0010863218762904,-0.0010863216262725,0.0010863216360406,-0.0010863218193874,0.0010863218668308,-0.0010699211470207,0.0010699211194713,-0.0010699210085724,0.0010699210945086,-0.0010584688855499,0.001058468913294,-0.0010584689288921,0.0010584689910838,-0.0010699211829335,0.0010699211429729,-1.9217263583634e-10,-1.921529022964e-10,-0.00075611702814015,0.00075611656733844,-1.1828497637131e-10,-1.7504905152605e-10,-0.00072086882085133,0.00072086850947391,-0.00064550081690509,0.00064550056530892,-0.0006455008124553,0.0006455005608904,-0.00072086859457036,0.00072086839151994,-0.00072086876611895,0.00072086856305017,-0.00064550076375265,0.00064550061892762,-0.00064550075849241,0.00064550061369882,-0.00087073412235576,0.00087073357120222,-0.00087073414086277,0.00087073355279991,-0.00087073411709988,0.00087073356594771,-0.00087073413546303,0.00087073354740128,-0.00087480732720821,0.00087480684409953,-0.00087480739498496,0.00087480691180314,-0.00087480737566268,0.00087480693046991,-0.00087480730844912,0.00087480686333022,-0.00072086864832336,0.00072086833696232,0.61363158009264,122718,2924,0.0036585785875133,0.0045307287993872,0.0031459122288433,18.325510942278,6.1804087538227e-05,6.1804087538227e-05,6.1804087538227e-05,3637955.2793165,0.011399956973405
25391759,0.7227608953477,0.011916963888384,0.0038945496393754,0.0045211229989774,0.0035012912500316,-0.00091522370516838,0.00091522352625991,-7.6512653988e-11,-7.6485379688858e-11,-6.1490651708682e-11,-4.7199808372371e-11,-0.00047481042960853,0.00047481077716439,-0.00089226556834354,0.00089226546513642,-0.00089226584842143,0.00089226574541678,-0.0004748106081173,0.00047481092405718,-0.00047481044489228,0.00047481076085271,-0.00089226558477295,0.0008922654520473,-0.00089226586440337,0.00089226573188296,-0.0010415908222083,0.0010415905845892,-0.0010415909427639,0.0010415907052426,-0.0010415908169033,0.0010415905890847,-0.00104159093792,0.0010415907101979,-0.00092102233357694,0.00092102214562242,-0.00092102233440161,0.00092102214649254,-0.00092102233953695,0.00092102214135097,-0.00092102233933471,0.00092102214119495,-0.00047481059117746,0.00047481093871472,1.3160539542786e-11,-1.4346621720554e-12,-3.4681642264341e-12,1.4045274102988e-11,-0.0011368002996163,0.0011368003107065,-0.0011154765887449,0.0011154766211083,-0.0011030816793172,0.0011030816992323,-0.0011030818205407,0.0011030818124451,-0.0011335932527205,0.0011335932651974,-0.0011335935011097,0.0011335935224766,-0.0011335932456615,0.0011335932459672,-0.0011335934940307,0.0011335935032281,-0.0011154765354213,0.0011154765240656,-0.0011154765491232,0.0011154765720631,-0.0011030816993696,0.0011030817315949,-0.0011030818403499,0.0011030818445678,-0.0011154765750885,0.0011154765731572,-2.5744680070687e-10,-2.5742713202415e-10,-0.00078429092092338,0.00078429009685879,-2.2363237412198e-10,-2.3809026252981e-10,-0.00075055692564482,0.00075055637240029,-0.00066997145639609,0.00066997078072812,-0.00066997142171565,0.00066997074607934,-0.00075055682654694,0.00075055630283628,-0.00075055691111062,0.00075055638738114,-0.00066997144359798,0.00066997079342742,-0.00066997140878544,0.00066997075864671,-0.00090320951788303,0.00090320882604677,-0.00090320952184469,0.00090320882184755,-0.0009032095233584,0.00090320883152348,-0.00090320952749556,0.00090320882749946,-0.00090993026255093,0.00090992969688361,-0.00090993031837655,0.00090992975263609,-0.00090993031334661,0.00090992975779076,-0.00090993025735981,0.00090992970187784,-0.00075055684157734,0.00075055628834961,0.71638642109267,122718,2924,0.0038069455172227,0.0047249964390497,0.0032629642531138,19.829227642413,7.3833821139308e-05,7.3833821139308e-05,7.3833821139308e-05,3723903.7124734,0.011864999159789
25891759,0.74850066006866,0.012360071165384,0.0040357410522277,0.0047068614123956,0.0036174687007612,-0.00094602403216918,0.00094602391999145,-5.7727572197589e-11,-5.7699548009591e-11,-3.9793112994772e-11,-2.4815450905009e-11,-0.00046638087688948,0.00046638134085948,-0.00091961882779071,0.00091961879383974,-0.00091961907240863,0.00091961903866107,-0.00046638108286951,0.00046638151194812,-0.0004663808940465,0.00046638132314837,-0.00091961884494968,0.00091961877947929,-0.00091961908941092,0.00091961902414674,-0.0010822857559435,0.0010822855504788,-0.0010822858621108,0.0010822856567447,-0.0010822857506536,0.0010822855551515,-0.0010822858571271,0.0010822856617223,-0.00095486748478081,0.00095486732978736,-0.00095486747720743,0.00095486732226095,-0.00095486749084645,0.00095486732501272,-0.00095486748260405,0.00095486731681802,-0.00046638106471243,0.00046638152866105,1.3648980091851e-11,-2.2803856887237e-12,8.9984651030679e-13,9.4145725089193e-12,-0.0011892677868134,0.0011892677975959,-0.0011701896040951,0.0011701896275775,-0.0011560286700608,0.001156028693933,-0.0011560287899295,0.0011560287828578,-0.0011811401870078,0.0011811402014651,-0.0011811404455456,0.0011811404640976,-0.0011811401928734,0.0011811401953976,-0.0011811404513903,0.0011811404580107,-0.0011701895399543,0.0011701895369628,-0.0011701895782739,0.0011701895916541,-0.0011560287032612,0.0011560287337211,-0.0011560288228828,0.001156028822402,-0.0011701895658206,0.0011701895729321,-2.2900045443791e-10,-2.289810164158e-10,-0.00080474936012924,0.00080474867391583,-1.9779192114313e-10,-2.0403252451812e-10,-0.00076362574724791,0.00076362529407095,-0.00067885748782429,0.00067885697550712,-0.00067885746212026,0.00067885694983567,-0.00076362564901358,0.00076362520705128,-0.00076362574163001,0.00076362529964688,-0.0006788574836104,0.00067885697987373,-0.00067885745756002,0.00067885695385607,-0.00093461893585713,0.0009346183043055,-0.00093461893732657,0.00093461830272484,-0.00093461893910069,0.00093461830754976,-0.00093461894061364,0.00093461830601242,-0.0009416727820531,0.00094167227075417,-0.00094167284091191,0.00094167232954043,-0.00094167283857454,0.00094167233170383,-0.00094167277983909,0.0009416722730417,-0.00076362565461387,0.00076362520145551,0.72745708413827,122718,2924,0.0039349356908307,0.0049424900047031,0.0033480095832117,20.750851998882,8.1206815991055e-05,8.1206815991055e-05,8.1206815991055e-05,3621503.5497444,0.012300779991644
26391759,0.77193602192631,0.012796966382339,0.0041747888951575,0.0048902485500398,0.0037319289371414,-0.00097557934047738,0.00097557940942154,-1.1175802719251e-11,-1.1147362823365e-11,4.4809739975555e-11,1.3653710153233e-11,-0.00046822592643924,0.00046822676996817,-0.00094776254497136,0.00094776268369508,-0.00094776263362418,0.0009477627725498,-0.00046822620308407,0.000468227097457,-0.00046822590154475,0.00046822679594213,-0.00094776251779785,0.00094776271362205,-0.00094776260696717,0.00094776280299587,-0.0011191193209837,0.0011191191973258,-0.001119119365315,0.0011191192417564,-0.0011191193310916,0.0011191191864454,-0.0011191193753936,0.0011191192308455,-0.00098637637911355,0.00098637627952561,-0.0009863763348634,0.00098637623532347,-0.00098637636980525,0.00098637628952177,-0.00098637632563521,0.00098637624540038,-0.00046822622830109,0.00046822707180761,-1.6314942177951e-12,2.6245041996688e-11,-1.6778847358907e-11,3.9814057119649e-11,-0.0012355427275692,0.0012355427510945,-0.0012166260681932,0.0012166261360865,-0.0012013294324,0.0012013294102143,-0.0012013294255466,0.0012013294580017,-0.0012251876164091,0.0012251876107661,-0.0012251878324921,0.0012251878652184,-0.0012251876179152,0.0012251876314866,-0.0012251878339764,0.0012251878859187,-0.0012166261774308,0.0012166261553577,-0.0012166260509135,0.0012166261384896,-0.0012013294825201,0.0012013294995674,-0.0012013294754184,0.0012013295471096,-0.0012166261947549,0.0012166261529998,-1.5136400807217e-10,-1.5134478703167e-10,-0.0008247481498244,0.00082474791781777,-6.7587956328078e-11,-1.2407734292676e-10,-0.00078100301669222,0.00078100286919286,-0.00069168230712087,0.00069168234671586,-0.00069168231574979,0.00069168235537764,-0.00078100279246816,0.00078100274917022,-0.00078100296375426,0.00078100292043461,-0.0006916822550838,0.00069168239950694,-0.00069168226267157,0.00069168240712778,-0.00096216827095111,0.00096216781029848,-0.00096216828971683,0.00096216779181052,-0.0009621682634065,0.00096216780275439,-0.00096216828185681,0.0009621677839507,-0.00097115678676242,0.00097115637400977,-0.00097115685718966,0.00097115644436488,-0.00097115683789669,0.00097115646257818,-0.00097115676841406,0.00097115639316857,-0.00078100284384611,0.00078100269636657,0.78667634666428,122718,2924,0.0040577098673072,0.0051342601463252,0.0034311232466234,20.418395031991,7.8547160255929e-05,7.8547160255929e-05,7.8547160255929e-05,3622161.7235734,0.012703438371075
26891759,0.79471767835845,0.013202240524549,0.0043043150279321,0.0050602786707895,0.0038376468258278,-0.0010039168865294,0.0010039167803039,-5.860407109762e-11,-5.857505641047e-11,-2.6669780432985e-11,-3.8451068022736e-11,-0.00046408894622381,0.00046408938581591,-0.00097300200205856,0.00097300194829263,-0.00097300224901041,0.00097300219544537,-0.00046408912075861,0.00046408957854497,-0.00046408893684101,0.00046408939465335,-0.00097300199302905,0.00097300196044822,-0.00097300223976332,0.00097300220738626,-0.0011562072738734,0.0011562070772837,-0.0011562073805422,0.0011562071840527,-0.001156207277175,0.0011562070730567,-0.0011562073841843,0.001156207180165,-0.0010166372948236,0.0010166371291553,-0.0010166372915447,0.0010166371259255,-0.0010166372920685,0.0010166371333417,-0.0010166372880411,0.0010166371293644,-0.00046408912907256,0.00046408956864065,4.064735766289e-12,1.4812112500131e-11,-1.0969844055265e-11,2.8520189139564e-11,-0.0012825668097508,0.0012825668277625,-0.0012639129156832,0.0012639129678514,-0.0012479705128235,0.0012479705075024,-0.0012479706070485,0.0012479706234069,-0.0012692605635069,0.0012692605661657,-0.001269260819218,0.0012692608463451,-0.0012692605648881,0.0012692605731491,-0.0012692608205765,0.0012692608533076,-0.0012639128713542,0.0012639128540764,-0.0012639128831711,0.0012639129429462,-0.0012479705377143,0.001247970559536,-0.0012479706316892,0.0012479706751935,-0.0012639129039102,0.0012639128790261,-2.3058987134677e-10,-2.3057092444079e-10,-0.00084290989868784,0.00084290922454505,-1.8424905260744e-10,-2.2141023165948e-10,-0.00079317183060217,0.00079317134273616,-0.00070029998257881,0.00070029945798177,-0.00070029995784006,0.00070029943327653,-0.00079317172013868,0.00079317130448739,-0.00079317179447244,0.00079317137879821,-0.00070029994797641,0.00070029949266013,-0.00070029992290691,0.00070029946762433,-0.00098980724725058,0.0009898066320461,-0.00098980725898462,0.00098980662022488,-0.00098980725052881,0.00098980663532434,-0.0009898072623057,0.00098980662354565,-0.00099908577768035,0.00099908525544528,-0.00099908583596503,0.00099908531365818,-0.00099908582327316,0.00099908532610571,-0.00099908576513331,0.00099908526803821,-0.00079317175627324,0.0007931712684281,0.750276560455,122718,2924,0.0041754429353475,0.0053290971946586,0.0035066178642915,21.226102106567,8.5008816852537e-05,8.5008816852537e-05,8.5008816852537e-05,3565630.9877716,0.013096554791421
27391759,0.81687493109971,0.01358326965407,0.0044266018293971,0.0052193742109743,0.003937293613699,-0.0010326466595101,0.0010326465209458,-6.6558673516447e-11,-6.6529448894533e-11,-4.6802453511289e-11,-4.0034595999985e-11,-0.00047129332133149,0.00047129369698187,-0.00099984741706437,0.00099984733961449,-0.00099984770566152,0.00099984762841016,-0.00047129348998438,0.00047129384816752,-0.0004712933295556,0.00047129368776549,-0.000999847425932,0.00099984733356075,-0.00099984771418501,0.00099984762201508,-0.0011916374572511,0.0011916372442565,-0.0011916375820259,0.001191637369132,-0.0011916374545285,0.0011916372462682,-0.0011916375796996,0.0011916373715388,-0.0010456186107281,0.0010456184397792,-0.0010456186192828,0.0010456184483837,-0.0010456186140856,0.0010456184378771,-0.0010456186217768,0.001045618445619,-0.00047129348048256,0.00047129385610822,9.705522208841e-12,2.4170648073881e-12,-3.0795052761688e-12,1.4167997765629e-11,-0.001324333286644,0.001324333298155,-0.0013032940815356,0.0013032941116262,-0.0012879698964524,0.0012879699096143,-0.0012879700252111,0.0012879700246068,-0.0013113327702913,0.0013113327801218,-0.0013113330554481,0.0013113330746959,-0.0013113327825421,0.0013113327858173,-0.0013113330676757,0.0013113330803699,-0.0013032939821368,0.0013032939740731,-0.001303294053701,0.0013032940792786,-0.0012879699254747,0.0012879699508868,-0.001287970053983,0.0012879700656324,-0.0013032940100146,0.0013032940064647,-2.4512633278274e-10,-2.451076926503e-10,-0.00086286580185325,0.000862865034432,-2.1650849645651e-10,-2.311221877214e-10,-0.0008115005288719,0.00081149999589521,-0.00071475342098908,0.00071475279633209,-0.00071475338802297,0.00071475276339979,-0.00081150046534072,0.00081149996123297,-0.0008115005146405,0.00081150001050945,-0.00071475340825564,0.00071475280902621,-0.00071475337513549,0.00071475277593986,-0.0010159539509065,0.0010159532985612,-0.0010159539550341,0.0010159532942568,-0.0010159539572982,0.0010159533049527,-0.0010159539615469,0.0010159533007691,-0.0010262094578244,0.001026208924038,-0.001026209513093,0.0010262089792352,-0.0010262095079823,0.0010262089843223,-0.0010262094526656,0.0010262089290775,-0.00081150047996809,0.0008114999470122,0.72451637575547,122718,2924,0.0042947457005453,0.005502110929821,0.0035895337147353,22.212651463408,9.2901211707268e-05,9.2901211707268e-05,9.2901211707268e-05,3591795.2637656,0.013476798441095
27891759,0.83778731231394,0.013961605574274,0.0045475050147618,0.0053778124730393,0.0040362880864726,-0.0010600896297486,0.0010600895415163,-5.2863665977762e-11,-5.283421459807e-11,-2.8687212537113e-11,-2.3005006242262e-11,-0.00047464548191474,0.00047464596190312,-0.0010253460167851,0.0010253459973929,-0.0010253462707792,0.0010253462515833,-0.00047464567341898,0.00047464613651095,-0.00047464549003693,0.00047464595315592,-0.0010253460247198,0.0010253459919596,-0.0010253462785757,0.0010253462460148,-0.0012259187068693,0.0012259185161562,-0.0012259188187494,0.0012259186281372,-0.0012259187046843,0.0012259185177713,-0.0012259188168507,0.0012259186300375,-0.001074139333608,0.0010741391845253,-0.0010741393370553,0.0010741391880231,-0.0010741393365373,0.0010741391827791,-0.0010741393393782,0.0010741391856714,-0.00047464566445097,0.00047464614441376,9.0936361368346e-12,2.3829910247894e-12,-1.9990332250248e-12,1.2475682229413e-11,-0.0013660789834389,0.0013660789943206,-0.0013441562117763,0.001344156238132,-0.0013288125689317,0.0013288125817962,-0.0013288126766477,0.0013288126766572,-0.0013519440178913,0.0013519440270142,-0.0013519443060107,0.0013519443235651,-0.0013519440365063,0.0013519440402297,-0.0013519443246018,0.0013519443367584,-0.0013441561333478,0.0013441561278019,-0.0013441561915685,0.0013441562139694,-0.0013288126085592,0.0013288126320392,-0.0013288127160242,0.0013288127266527,-0.0013441561535985,0.0013441561520081,-2.232004654405e-10,-2.2318210331127e-10,-0.00088149270163018,0.00088149205331516,-1.8903803593596e-10,-2.0147565933448e-10,-0.0008278162805723,0.00082781584214962,-0.00072703944994771,0.00072703898484471,-0.00072703942496257,0.0007270389598935,-0.00082781620873231,0.00082781579310624,-0.00082781626919817,0.00082781585354836,-0.00072703943977665,0.00072703899514876,-0.00072703941447701,0.00072703896988322,-0.0010412064929602,0.0010412058858648,-0.0010412064965397,0.0010412058822024,-0.0010412064972659,0.0010412058901702,-0.0010412065008744,0.0010412058865364,-0.001052737299904,0.0010527368022488,-0.0010527373570954,0.0010527368593693,-0.0010527373526856,0.0010527368635425,-0.0010527372956508,0.0010527368065793,-0.00082781622013732,0.00082781578173578,0.76282598426134,122718,2924,0.0044087132253962,0.0056750086131882,0.0036669335647419,22.880942235316,9.8247537882528e-05,9.8247537882528e-05,9.8247537882528e-05,3590411.8367597,0.013846071923976
28391759,0.85719123047499,0.014339897538085,0.0046679205354588,0.0055368331760577,0.0041351438265684,-0.0010855655615151,0.0010855654937521,-4.7778566000546e-11,-4.7748822173906e-11,-1.9296740615467e-11,-1.9189157490293e-11,-0.00046803916179664,0.00046803967200567,-0.001047973900602,0.0010479738997731,-0.0010479741425929,0.0010479741419585,-0.00046803935514313,0.00046803985889582,-0.00046803916477082,0.00046803966855204,-0.0010479739031366,0.0010479738996895,-0.0010479741450522,0.0010479741418026,-0.0012596513122372,0.0012596511325255,-0.0012596514194779,0.0012596512398673,-0.0012596513119067,0.0012596511322696,-0.0012596514193967,0.0012596512398596,-0.0011021901991272,0.0011021900566857,-0.0011021902025758,0.0011021900601858,-0.0011021902001857,0.0011021900567249,-0.0011021902031194,0.001102190059711,-0.00046803935148245,0.0004680398616645,7.2531607738583e-12,5.8660168560352e-12,-3.1921031893211e-12,1.5265251715862e-11,-0.0014102003833325,0.0014102003958027,-0.0013897483564167,0.0013897483864064,-0.001373410766412,0.0013734107743233,-0.0013734108622092,0.0013734108676756,-0.0013921018439747,0.0013921018512721,-0.0013921021341299,0.0013921021528408,-0.0013921018648755,0.0013921018705929,-0.001392102155006,0.001392102172139,-0.0013897482829484,0.0013897482769457,-0.0013897483382735,0.0013897483679094,-0.0013734108091715,0.0013734108304236,-0.0013734109047164,0.0013734109235271,-0.0013897483011336,0.0013897482954857,-2.1505937873039e-10,-2.1504131745889e-10,-0.00089690245513332,0.00089690185428992,-1.7709053587334e-10,-1.9377947849532e-10,-0.00083717725424325,0.00083717684336172,-0.00073296935040287,0.00073296894348118,-0.00073296932875076,0.00073296892186325,-0.00083717718219214,0.00083717680176671,-0.00083717723896703,0.00083717685851725,-0.00073296933622198,0.00073296895784205,-0.00073296931419712,0.00073296893585155,-0.0010658124061095,0.0010658118212374,-0.0010658124111726,0.0010658118161333,-0.0010658124096953,0.0010658118248226,-0.0010658124147502,0.00106581181971,-0.0010781726574307,0.0010781721725353,-0.0010781727149155,0.0010781722299499,-0.001078172709068,0.0010781722354599,-0.0010781726518268,0.0010781721782895,-0.00083717719736305,0.00083717678650345,0.82233028262121,122718,2924,0.0045145589850935,0.0058577099688041,0.0037309998413437,23.414339210295,0.00010251471368236,0.00010251471368236,0.00010251471368236,3513290.8198201,0.014203683740576
28891759,0.87503815081838,0.014678850643109,0.0047764125723229,0.0056785656239502,0.0042238724468358,-0.001107622999694,0.0011076229313655,-4.8273767931291e-11,-4.8243678071104e-11,-1.8486799240973e-11,-2.1471250303336e-11,-0.0004582323141274,0.00045823281125373,-0.0010665953130253,0.0010665953079881,-0.0010665955606423,0.0010665955557986,-0.0004582325026052,0.00045823299948342,-0.0004582323139758,0.00045823281088273,-0.001066595312511,0.0010665953109695,-0.0010665955600275,0.0010665955586823,-0.0012902712704599,0.0012902710922321,-0.001290271380179,0.0012902712020526,-0.0012902712711169,0.0012902710909541,-0.0012902713810947,0.0012902712010321,-0.0011264650399067,0.001126464896004,-0.0011264650464985,0.001126464902648,-0.0011264650399369,0.0011264648970843,-0.0011264650459999,0.0011264649032003,-0.00045823250205298,0.00045823299915217,6.1892902155501e-12,7.8945888845522e-12,-4.1572222938302e-12,1.7174235750651e-11,-0.0014507251132986,0.0014507251267066,-0.0014311179117365,0.0014311179444621,-0.0014143593155497,0.0014143593204042,-0.0014143594108075,0.0014143594193259,-0.0014289919544979,0.0014289919607433,-0.0014289922504828,0.0014289922700563,-0.0014289919771567,0.0014289919838756,-0.0014289922731161,0.0014289922931651,-0.0014311178301023,0.001431117823243,-0.0014311178936976,0.0014311179281117,-0.0014143593585827,0.0014143593786809,-0.0014143594535868,0.0014143594773521,-0.0014311178481827,0.0014311178396359,-2.1616191884973e-10,-2.1614421331765e-10,-0.00090868540059922,0.00090868479441624,-1.7828556714904e-10,-1.978570235633e-10,-0.00084141462040401,0.00084141419944957,-0.00073477898316448,0.00073477856666348,-0.00073477896123005,0.00073477854476363,-0.00084141455567334,0.00084141417089974,-0.00084141460228498,0.00084141421748573,-0.00073477896613536,0.0007347785838461,-0.00073477894384547,0.00073477856159106,-0.0010873537139301,0.0010873531311098,-0.0010873537199461,0.0010873531250525,-0.0010873537178527,0.0010873531350317,-0.0010873537238648,0.0010873531289701,-0.0010996523789957,0.001099651893017,-0.0010996524358188,0.0010996519497705,-0.0010996524290067,0.001099651956247,-0.0010996523724176,0.0010996518997284,-0.00084141457372854,0.0008414141527979,0.79975737494462,122718,2924,0.004606225907536,0.0060254792293756,0.0037800163852961,23.939255990576,0.00010671404792461,0.00010671404792461,0.00010671404792461,3417522.4816515,0.014516625755888
29391759,0.89156105412203,0.014940323597044,0.0048613632572924,0.0057862472237708,0.0042927131159811,-0.0011264085140487,0.0011264083948471,-6.1422034304896e-11,-6.1391841300801e-11,-4.1534421269588e-11,-3.4180966853749e-11,-0.00045856278076586,0.00045856316595118,-0.0010826008123162,0.0010826007538669,-0.0010826011138205,0.0010826010555623,-0.00045856295537017,0.00045856332157478,-0.00045856278974249,0.00045856315597695,-0.0010826008216503,0.0010826007469921,-0.0010826011228477,0.0010826010483831,-0.0013154904021168,0.0013154902016755,-0.0013154905342326,0.0013154903338927,-0.0013154903992948,0.0013154902039112,-0.001315490531775,0.0013154903364916,-0.0011448964700253,0.0011448963095242,-0.0011448964879449,0.0011448963274964,-0.0011448964735001,0.0011448963073467,-0.0011448964906572,0.0011448963245573,-0.00045856294532281,0.00045856333048081,9.1042985169886e-12,1.2037938131606e-12,2.5060005022284e-13,9.1415688489938e-12,-0.0014803563828163,0.0014803563925827,-0.0014575399932302,0.0014575400135953,-0.0014427084974626,0.0014427085121668,-0.0014427086268151,0.0014427086264791,-0.0014594816854582,0.0014594816960673,-0.0014594820059669,0.0014594820209288,-0.0014594817127932,0.0014594817169169,-0.0014594820332765,0.0014594820417546,-0.0014575398549233,0.0014575398532058,-0.0014575399741466,0.0014575399896272,-0.0014427085377262,0.0014427085592037,-0.0014427086668256,0.0014427086732663,-0.0014575398740482,0.0014575398772159,-2.385568926942e-10,-2.3853955527297e-10,-0.00091961343486629,0.00091961268971842,-2.1752584346458e-10,-2.2397756573286e-10,-0.00084927267144088,0.00084927215995312,-0.0007404006666483,0.00074040007746263,-0.00074040063472176,0.00074040004557052,-0.00084927264441731,0.00084927214516929,-0.00084927266553198,0.0008492721662592,-0.00074040066204309,0.00074040008204208,-0.0007404006299584,0.00074040004999208,-0.0011042524209683,0.0011042517873296,-0.0011042524224427,0.0011042517857115,-0.0011042524282437,0.0011042517946041,-0.0011042524298152,0.001104251793083,-0.0011162261344935,0.001116225621514,-0.0011162261883745,0.0011162256753257,-0.0011162261859825,0.0011162256776379,-0.0011162261320955,0.0011162256238207,-0.00084927265071606,0.00084927213925145,0.66449988364994,122718,2924,0.0046842432811705,0.006148121552371,0.0038254445294013,24.733452854448,0.00011306762283558,0.00011306762283558,0.00011306762283558,3399063.7896879,0.014766349940741
29891759,0.90661759679282,0.015185699528959,0.0049407138907281,0.0058872007167874,0.0043577849214438,-0.0011465497481262,0.0011465496484524,-5.6014523309469e-11,-5.5984646516302e-11,-3.5307839546209e-11,-2.5646796390328e-11,-0.00047539164214646,0.00047539207799067,-0.0011026834159721,0.0011026833845457,-0.0011026837046737,0.0011026836734342,-0.00047539182595,0.00047539223762508,-0.00047539165377363,0.00047539206547668,-0.0011026834276094,0.001102683375189,-0.0011026837160819,0.0011026836638512,-0.0013382730067909,0.0013382728135367,-0.0013382731352267,0.0013382729420735,-0.0013382730033124,0.0013382728165395,-0.0013382731320713,0.001338272945398,-0.00116336272266,0.0011633625711779,-0.0011633627404336,0.0011633625890038,-0.0011633627268707,0.0011633625681458,-0.0011633627439826,0.0011633625853109,-0.00047539181340464,0.00047539224922246,9.1245998967954e-12,-1.2553885310951e-12,1.729576927318e-12,5.2837478792468e-12,-0.001503531648617,0.0015035316559956,-0.0014754894459978,0.0014754894595005,-0.0014632464397693,0.0014632464562541,-0.0014632465619175,0.0014632465583907,-0.0014867487631094,0.0014867487736153,-0.0014867490895116,0.0014867491011705,-0.0014867487943888,0.0014867487970779,-0.0014867491207652,0.0014867491246091,-0.0014754893209903,0.0014754893213958,-0.0014754894304948,0.0014754894375329,-0.0014632464865282,0.0014632465063237,-0.0014632466084247,0.0014632466082119,-0.001475489336534,0.0014754893434048,-2.2973403216377e-10,-2.297169976012e-10,-0.00093491188745183,0.00093491119097245,-2.0615569594989e-10,-2.07532791387e-10,-0.00086968855666994,0.00086968809451611,-0.00075698264392553,0.00075698213379896,-0.00075698261471485,0.00075698210462212,-0.00086968852785783,0.00086968806722319,-0.00086968855607429,0.00086968809541525,-0.0007569826444671,0.00075698213328978,-0.00075698261505154,0.00075698210390833,-0.0011198008018104,0.0011198001829321,-0.0011198008016621,0.0011198001829687,-0.0011198008085035,0.0011198001896246,-0.0011198008084239,0.0011198001897297,-0.0011338938013941,0.0011338933035541,-0.0011338938556797,0.0011338933577706,-0.0011338938549827,0.0011338933583251,-0.0011338938007543,0.0011338933041665,-0.00086968852874066,0.0008696880666084,0.68461390406998,122718,2924,0.0047677866605516,0.0062440298213649,0.0038889550102962,25.429472239015,0.00011863577791212,0.00011863577791212,0.00011863577791212,3497499.3091293,0.015012920920072
30391759,0.92016943608378,0.015376291073902,0.0050026725816594,0.005965405609857,0.0044082128823859,-0.0011586527721152,0.001158652681359,-5.3499933599047e-11,-5.3469891722688e-11,-3.2398981086309e-11,-2.2805939588318e-11,-0.00046218489314423,0.00046218534050645,-0.0011106443190358,0.0011106442976235,-0.0011106446044038,0.0011106445831776,-0.0004621850820772,0.00046218550516776,-0.0004621849048553,0.00046218532797571,-0.001110644330621,0.0011106442882689,-0.0011106446157908,0.0011106445736274,-0.001357469837451,0.0013574696494555,-0.0013574699645138,0.0013574697766192,-0.0013574698340124,0.0013574696524315,-0.0013574699613788,0.0013574697798974,-0.0011765850291519,0.0011765848824066,-0.0011765850472914,0.0011765849005988,-0.001176585033325,0.0011765848793574,-0.0011765850508547,0.0011765848969411,-0.00046218506953572,0.00046218551686997,9.2913862133526e-12,-1.1320384758252e-12,2.9745391886931e-12,4.3254455664894e-12,-0.0015285177495897,0.0015285177572514,-0.0015013515913537,0.0015013516029619,-0.0014893881088753,0.001489388126416,-0.0014893882292281,0.0014893882266467,-0.0015088345706793,0.0015088345820466,-0.0015088349002508,0.0015088349114956,-0.0015088346037938,0.0015088346074595,-0.0015088349333394,0.0015088349368843,-0.0015013514585713,0.0015013514614405,-0.0015013515776457,0.0015013515827849,-0.0014893881583162,0.0014893881777388,-0.0014893882784163,0.00148938827772,-0.0015013514723199,0.0015013514816589,-2.2578531621542e-10,-2.2576856017178e-10,-0.00094004779147826,0.0009400471132383,-2.0376357482902e-10,-2.0307499067086e-10,-0.00086666384964659,0.00086666340004084,-0.00075303647213235,0.00075303598447526,-0.00075303644455792,0.00075303595693467,-0.00086666382537678,0.00086666337289618,-0.00086666385121721,0.0008666633987119,-0.0007530364747697,0.00075303598189126,-0.00075303644696443,0.0007530359541202,-0.0011328544681283,0.0011328538599849,-0.0011328544673254,0.0011328538606922,-0.0011328544744903,0.0011328538663459,-0.0011328544737408,0.0011328538671061,-0.00114530100638,0.0011453005171959,-0.0011453010609148,0.0011453005716623,-0.0011453010609045,0.0011453005714886,-0.001145301006464,0.0011453005171171,-0.00086666382403497,0.00086666337445161,0.59098872163378,122718,2924,0.0048181248103306,0.0063474404681903,0.0039103601135304,26.075098481804,0.00012380078785443,0.00012380078785443,0.00012380078785443,3393051.0419523,0.015190780513504
30891759,0.93247339742694,0.01557742139599,0.0050673930581105,0.0060482482574163,0.004461780080463,-0.001175207155761,0.0011752069959045,-7.2003644529261e-11,-7.1973873453453e-11,-6.4456603130313e-11,-3.8414821012411e-11,-0.00047303387176777,0.00047303418342897,-0.001127094993329,0.0011270949040322,-0.0011270953475732,0.0011270952584588,-0.00047303404666936,0.00047303430365149,-0.00047303389837161,0.00047303415538248,-0.0011270950207013,0.0011270948788466,-0.0011270953744907,0.0011270952328212,-0.0013766051211513,0.0013766048985283,-0.001376605277787,0.0013766050552643,-0.0013766051122132,0.0013766049070802,-0.0013766052692855,0.0013766050642517,-0.0011925909830357,0.0011925908119405,-0.0011925910146393,0.0011925908435968,-0.0011925909926874,0.0011925908036511,-0.001192591023379,0.0011925908343963,-0.00047303401875466,0.00047303433038898,1.3509659583291e-11,-1.2379208647203e-11,1.0580966170511e-11,-1.0084846150167e-11,-0.0015493398805993,0.0015493398814381,-0.0015192357169442,0.00151923570564,-0.0015086824392708,0.0015086824723694,-0.0015086826029082,0.0015086825856926,-0.0015316337886804,0.0015316338065569,-0.0015316341527658,0.0015316341549806,-0.0015316338283449,0.0015316338275189,-0.001531634192404,0.0015316341759181,-0.001519235518286,0.0015192355305096,-0.0015192357026607,0.0015192356743893,-0.001508682487822,0.001508682507933,-0.0015086826512075,0.0015086826210076,-0.0015192355326096,0.0015192355618012,-2.5563187202558e-10,-2.5561546264146e-10,-0.00095209053202065,0.0009520896724694,-2.5560338683206e-10,-2.3198976284993e-10,-0.00088149604767012,0.00088149549436555,-0.00076504773465835,0.0007650470383829,-0.00076504769400131,0.00076504699775957,-0.00088149607371325,0.00088149547475557,-0.00088149607094927,0.00088149547196769,-0.00076504775924863,0.0007650470136252,-0.00076504771860933,0.00076504697301981,-0.0011460406412428,0.0011460399559452,-0.0011460406325793,0.0011460399643816,-0.0011460406520261,0.0011460399667279,-0.001146040643546,0.0011460399753472,-0.0011603660076627,0.0011603654813295,-0.0011603660586393,0.001160365532238,-0.0011603660663377,0.0011603655246971,-0.0011603660151384,0.0011603654735667,-0.0008814960512609,0.00088149549797792,0.68714590328657,122718,2924,0.0048868043663562,0.0064335917022319,0.0039603612667592,27.063499771679,0.00013170799817343,0.00013170799817343,0.00013170799817343,3437273.7335817,0.015398745791779
31391759,0.94367356422873,0.015768097191748,0.0051284912715892,0.0061272479994127,0.0045123579207461,-0.0011866545350339,0.0011866543136389,-8.6453255985903e-11,-8.6423201962856e-11,-9.9851876505479e-11,-4.724084523637e-11,-0.00044947447656158,0.00044947464232941,-0.0011338208271772,0.001133820682006,-0.0011338212564261,0.0011338211114366,-0.0004494746606187,0.00044947472114756,-0.00044947452820497,0.00044947458876445,-0.0011338208801492,0.0011338206309574,-0.0011338213087625,0.001133821059754,-0.001396415594275,0.0013964153453678,-0.0013964157798854,0.0013964155310786,-0.0013964155765986,0.0013964153628496,-0.0013964157627414,0.0013964155490914,-0.0012075633360403,0.0012075631546565,-0.0012075633775082,0.0012075631961783,-0.0012075633544953,0.0012075631376848,-0.0012075633948377,0.001207563178082,-0.00044947460738965,0.00044947477312879,2.2601668652184e-11,-2.8775044412733e-11,2.5904316640908e-11,-3.2387337353781e-11,-0.0015793018246991,0.0015793018185261,-0.0015541964865174,0.0015541964401846,-0.0015417713955951,0.0015417714590816,-0.0015417716203051,0.0015417715835159,-0.0015543096668382,0.0015543096993649,-0.0015543100674251,0.0015543100585961,-0.0015543097157656,0.001554309712107,-0.0015543101163256,0.0015543100713136,-0.0015541961757404,0.0015541962090934,-0.0015541964763827,0.0015541963959298,-0.0015417714446509,0.0015417714699262,-0.0015417716691074,0.0015417715941096,-0.0015541961859144,0.0015541962533884,-2.8152593618654e-10,-2.8150994521882e-10,-0.00095487389589697,0.0009548728496264,-3.2095512232717e-10,-2.5872516430765e-10,-0.00087075946980494,0.00087075880708904,-0.00075445909411283,0.00075445816100193,-0.00075445904163694,0.00075445810855937,-0.00087075957028363,0.0008707587881015,-0.00087075953024383,0.00087075874803736,-0.00075445915607337,0.00075445809871835,-0.00075445910381155,0.00075445804649112,-0.0011601288710673,0.0011601281217149,-0.0011601288493589,0.0011601281430724,-0.0011601288856206,0.0011601281362674,-0.0011601288642067,0.0011601281579188,-0.0011725240600981,0.0011725235164851,-0.0011725241087257,0.0011725235650455,-0.001172524129384,0.0011725235448472,-0.0011725240802639,0.0011725234957948,-0.00087075951113045,0.0008707588484371,0.71628541114011,122718,2924,0.0049344955206666,0.0065575719942882,0.0039720463279387,28.356831318826,0.00014205465055061,0.00014205465055061,0.00014205465055061,3234252.8010385,0.015585035678175
31891759,0.95351238951604,0.015938527716485,0.0051834744342993,0.0061970071098189,0.0045580461723672,-0.0011977150232857,0.0011977148820797,-6.3806953476664e-11,-6.3777034199501e-11,-6.9879495876427e-11,-1.9037785055793e-11,-0.00044137557488404,0.00044137591929898,-0.0011426393042519,0.0011426392559217,-0.0011426396652735,0.0011426396171218,-0.00044137579366561,0.00044137603378582,-0.00044137562635876,0.00044137586650907,-0.0011426393557539,0.0011426392059684,-0.0011426397164661,0.0011426395668613,-0.0014129080817884,0.0014129078689902,-0.0014129082399776,0.0014129080272793,-0.0014129080649725,0.0014129078858081,-0.0014129082235143,0.0014129080444485,-0.0012200943693538,0.0012200942236001,-0.0012200944006037,0.0012200942549033,-0.0012200943871218,0.0012200942068829,-0.0012200944176717,0.0012200942374871,-0.00044137574122707,0.00044137608561432,2.2462502433028e-11,-2.8369861790784e-11,2.9825983013163e-11,-3.6024937462889e-11,-0.0016019148304706,0.0016019148245729,-0.0015771243454669,0.0015771242914747,-0.0015649127692167,0.0015649128349569,-0.0015649129598917,0.0015649129260612,-0.0015746652839538,0.0015746653178829,-0.0015746656726723,0.0015746656615749,-0.0015746653366873,0.0015746653358537,-0.0015746657253792,0.0015746656795206,-0.0015771240790606,0.0015771241206484,-0.0015771243442954,0.0015771242567958,-0.0015649128340941,0.0015649128569278,-0.0015649130245153,0.0015649129477819,-0.0015771240802715,0.0015771241553673,-2.4499693161606e-10,-2.4498129072502e-10,-0.00095885770010552,0.00095885685524054,-2.7508874178383e-10,-2.0676484252195e-10,-0.0008690290600135,0.00086902855815563,-0.00075206438875381,0.00075206372878537,-0.00075206435030597,0.00075206369037121,-0.00086902913780909,0.00086902850138704,-0.00086902912771986,0.00086902849127352,-0.00075206445738623,0.00075206366007528,-0.00075206441891516,0.0007520636216382,-0.0011706435601175,0.0011706428888884,-0.0011706435366699,0.001170642912118,-0.0011706435704381,0.0011706428992078,-0.001170643547151,0.0011706429225978,-0.0011828479325469,0.0011828474473338,-0.0011828479844088,0.0011828474991285,-0.0011828480070847,0.001182847476584,-0.0011828479550499,0.0011828474246171,-0.00086902907083411,0.00086902856899873,0.72644232686627,122718,2924,0.0049804893845621,0.0066511052163119,0.003988663550992,29.26561132552,0.00014932489060416,0.00014932489060416,0.00014932489060416,3137912.2809484,0.015743673583249
32391759,0.96168999831339,0.016093173661338,0.0052333077996042,0.0062600724124873,0.004599793449246,-0.0012065436547499,0.001206543698792,-1.5782683938075e-11,-1.5752929876453e-11,1.663428527518e-11,2.5204766423452e-11,-0.0004350231784127,0.00043502391440426,-0.0011498481638122,0.0011498483080695,-0.001149848341223,0.0011498484856559,-0.00043502341829373,0.00043502412768861,-0.00043502319177467,0.00043502390119925,-0.0011498481747937,0.00114984829859,-0.0011498483525463,0.0011498484765209,-0.0014260331154317,0.0014260329894908,-0.0014260331997114,0.0014260330738699,-0.0014260331128101,0.0014260329920183,-0.0014260331970863,0.0014260330763927,-0.0012301167582244,0.0012301166725459,-0.0012301167661753,0.00123011668055,-0.0012301167618776,0.0012301166692445,-0.0012301167699656,0.0012301166773865,-0.00043502340517088,0.00043502414113461,9.2405909415839e-12,-1.5803283691119e-12,1.3389611250685e-11,-6.5303093858838e-12,-0.0016201005929114,0.0016201006001067,-0.0015951343450508,0.001595134334898,-0.0015835268812204,0.0015835269057191,-0.0015835269477163,0.0015835269507044,-0.0015912500691744,0.0015912500850855,-0.0015912503901873,0.0015912503943362,-0.0015912501128479,0.0015912501227044,-0.0015912504338338,0.00159125043193,-0.0015951342612366,0.0015951342849966,-0.0015951343485384,0.0015951343320725,-0.0015835269608155,0.0015835269736323,-0.0015835270270578,0.0015835270183672,-0.0015951342577879,0.0015951342878618,-1.6481688734963e-10,-1.6480161764797e-10,-0.00096164511342111,0.00096164477244649,-1.3193766539397e-10,-1.1176050974535e-10,-0.00086836032124674,0.00086836014323689,-0.00075019323159656,0.00075019321528161,-0.00075019322736794,0.0007501932110865,-0.00086836028195402,0.00086836005722939,-0.00086836034430205,0.00086836011955302,-0.00075019325452297,0.00075019319277964,-0.00075019324969807,0.0007501931879884,-0.0011783312410876,0.0011783307668873,-0.0011783312342986,0.0011783307738014,-0.0011783312409844,0.0011783307667831,-0.0011783312340319,0.0011783307735334,-0.0011909877844547,0.0011909873988514,-0.0011909878428825,0.0011909874572123,-0.0011909878493784,0.0011909874499941,-0.0011909877915669,0.0011909873922501,-0.00086836025826207,0.00086836008027447,0.79219730183482,122718,2924,0.0050172017008923,0.0067263156746291,0.0040003005062153,29.297781396888,0.0001495822511751,0.0001495822511751,0.0001495822511751,3070423.5353986,0.015869223365905
32891759,0.96842125475693,0.016200916072567,0.0052684197714156,0.0063035207105115,0.0046289755906397,-0.0012107542291214,0.0012107542976076,-1.2181004069864e-11,-1.2151315682706e-11,4.2017281283252e-11,1.4280951932604e-11,-0.0004191965326023,0.0004191973063702,-0.0011510537061013,0.0011510538500868,-0.0011510538465652,0.0011510539907246,-0.00041919674515206,0.00041919756341954,-0.00041919651053394,0.00041919732883104,-0.0011510536818412,0.0011510538764457,-0.0011510538226466,0.0011510540174274,-0.00143560621003,0.0014356060989389,-0.0014356062799575,0.0014356061689655,-0.0014356062191169,0.0014356060893222,-0.0014356062890354,0.0014356061593388,-0.0012358488994426,0.0012358488044296,-0.0012358489051427,0.0012358488101826,-0.001235848891106,0.0012358488132243,-0.0012358488969611,0.0012358488191333,-0.00041919676745916,0.00041919754119903,-2.6027414880341e-12,2.2222532411007e-11,-5.0891323540293e-12,2.3436943723339e-11,-0.0016354495824252,0.0016354496011483,-0.0016119140207987,0.0016119140575535,-0.0016001840074948,0.0016001839925965,-0.0016001840221261,0.0016001840558893,-0.0016033881144489,0.0016033881137192,-0.0016033884095407,0.0016033884294067,-0.0016033881475888,0.0016033881645597,-0.0016033884426538,0.0016033884802218,-0.0016119140023894,0.0016119140021155,-0.0016119140157362,0.0016119140699604,-0.0016001840780299,0.0016001840837082,-0.0016001840924069,0.0016001841467504,-0.0016119140074907,0.0016119139897478,-1.5724998684673e-10,-1.572350247066e-10,-0.00095954273597673,0.00095954247892231,-9.1220105112853e-11,-1.1991442965605e-10,-0.00085811634144387,0.00085811617249432,-0.00074020926284942,0.00074020932641883,-0.00074020926558698,0.0007402093291898,-0.0008581162413533,0.0008581161210871,-0.00085811631665287,0.00085811619636208,-0.00074020923801174,0.00074020935170419,-0.00074020924004992,0.00074020935377577,-0.0011832738025116,0.0011832733645782,-0.0011832738120582,0.0011832733552359,-0.0011832738004721,0.0011832733625379,-0.0011832738097941,0.0011832733529703,-0.0011946395236136,0.0011946391272882,-0.0011946395827997,0.001194639186408,-0.0011946395728999,0.001194639195389,-0.0011946395144757,0.0011946391370319,-0.00085811626528307,0.00085811609635601,0.66888370250489,122718,2924,0.0050348042590257,0.0067897936753724,0.00399166915533,29.182826621533,0.00014866261297226,0.00014866261297226,0.00014866261297226,2949088.6292392,0.015942885751644
33391759,0.9740153810191,0.016303671168367,0.0053017455162072,0.0063448069645612,0.0046571186875983,-0.0012194445763144,0.0012194445986038,-2.4826115138047e-11,-2.4796840444134e-11,3.0740341991888e-11,-1.0430117661183e-11,-0.00043642360631054,0.00043642425594635,-0.0011613117486182,0.0011613118203859,-0.0011613119347718,0.0011613120067099,-0.00043642379406351,0.00043642451652274,-0.00043642356995713,0.000436424292445,-0.0011613117110655,0.0011613118605291,-0.0011613118973404,0.0011613120469776,-0.0014436841165548,0.0014436839911728,-0.001443684203796,0.0014436840785126,-0.0014436841297724,0.0014436839771093,-0.0014436842171342,0.0014436840645686,-0.0012427376170943,0.0012427374983063,-0.0012427376270171,0.001242737508282,-0.0012427376043946,0.0012427375118235,-0.0012427376141663,0.0012427375216488,-0.0004364238302745,0.00043642447988342,-7.0064869566329e-12,3.1705022198041e-11,-1.5041772601819e-11,3.8273476595091e-11,-0.0016412612957837,0.0016412613194071,-0.0016115569808159,0.0016115570423677,-0.0016035454970467,0.0016035454652625,-0.0016035455211309,0.0016035455656308,-0.0016143698612291,0.0016143698533983,-0.0016143701593996,0.0016143701876036,-0.0016143698883841,0.0016143699067152,-0.0016143701865277,0.0016143702408955,-0.001611556942823,0.0016115569274738,-0.0016115569666731,0.0016115570547626,-0.0016035455495523,0.0016035455545575,-0.0016035455733835,0.0016035456546765,-0.0016115569570042,0.0016115569151179,-1.7993937711709e-10,-1.7992469717033e-10,-0.00096692927573042,0.00096692888820471,-1.139227080777e-10,-1.6668735070556e-10,-0.0008748886317105,0.0008748883339751,-0.0007538059482528,0.00075380580212772,-0.00075380594338754,0.00075380579729529,-0.00087488852205385,0.00087488832276315,-0.0008748885821272,0.00087488838281377,-0.00075380589928294,0.00075380585141997,-0.00075380589381132,0.00075380584598139,-0.0011870763569588,0.0011870758821712,-0.0011870763743299,0.0011870758649519,-0.0011870763569771,0.001187075882189,-0.0011870763741839,0.0011870758648047,-0.0012015177923268,0.0012015173566109,-0.0012015178505412,0.0012015174147593,-0.0012015178325638,0.0012015174319425,-0.001201517774964,0.0012015173744097,-0.00087488857099111,0.00087488827327601,0.76703045550565,122718,2924,0.0050707717785598,0.006813799094085,0.004022285353553,29.274726242946,0.00014939780994357,0.00014939780994357,0.00014939780994357,3046179.523272,0.016034882309457
33891759,0.9788041048141,0.016390904889466,0.0053299358504144,0.006380112343441,0.0046808566956106,-0.0012235675524243,0.001223567429955,-6.2110578770335e-11,-6.2081428807906e-11,-3.7121087829189e-11,-4.445286640721e-11,-0.00041482822258756,0.0004148285715831,-0.0011616361502037,0.0011616360725089,-0.0011616364862737,0.0011616364087477,-0.00041482840978508,0.0004148287693564,-0.00041482821674989,0.0004148285763501,-0.0011616361451095,0.001161636080205,-0.0011616364807566,0.0011616364160234,-0.0014534481284185,0.00145344793431,-0.0014534482764423,0.001453448082432,-0.0014534481302767,0.0014534479316936,-0.0014534482787155,0.0014534480802294,-0.0012496163710793,0.0012496162055031,-0.0012496163986559,0.0012496162331324,-0.0012496163696844,0.0012496162082833,-0.0012496163964234,0.0012496162350758,-0.00041482841452255,0.00041482876349105,3.3118521781305e-12,1.0169863729409e-11,-5.3808463247207e-12,1.7821240867442e-11,-0.0016583093595933,0.001658309372395,-0.0016339381998339,0.0016339382324003,-0.0016237118763812,0.0016237118748604,-0.001623711997321,0.0016237120099419,-0.0016248347449067,0.0016248347488845,-0.0016248351030996,0.0016248351208856,-0.0016248347818715,0.0016248347891982,-0.0016248351400373,0.001624835161174,-0.0016339380169695,0.0016339380091091,-0.0016339381842295,0.0016339382216941,-0.0016237119187239,0.0016237119334302,-0.0016237120394101,0.0016237120682614,-0.0016339380326122,0.0016339380198543,-2.4457163880574e-10,-2.4455719548231e-10,-0.0009651458490233,0.00096514505493868,-2.2748429682798e-10,-2.4811711734312e-10,-0.00086057465571138,0.00086057409635676,-0.00074064782820725,0.00074064715961033,-0.00074064779773236,0.00074064712916818,-0.00086057463199268,0.00086057411339936,-0.00086057463555607,0.00086057411693894,-0.00074064780956209,0.00074064717817963,-0.00074064777892213,0.00074064714757256,-0.0011939553102308,0.0011939546758518,-0.001193955316391,0.0011939546695796,-0.001193955318308,0.0011939546839282,-0.0011939553245571,0.0011939546777447,-0.0012062485606211,0.0012062480415874,-0.0012062486146746,0.0012062480955747,-0.0012062486075025,0.0012062481026364,-0.0012062485534351,0.0012062480486359,-0.000860574652598,0.00086057409326507,0.76172156471974,122718,2924,0.0050880504850512,0.0068843312439477,0.0040149995341379,30.026758317151,0.00015541406653721,0.00015541406653721,0.00015541406653721,2877428.9906962,0.016116786802638
34391759,0.98298230529762,0.016463018324926,0.0053534445368875,0.0064088965336739,0.0047006772543647,-0.0012301740425945,0.001230173784633,-9.6092734388808e-11,-9.6063722745682e-11,-1.0341239164595e-10,-7.3180461181262e-11,-0.0004159927394094,0.00041599281025464,-0.0011675248461727,0.0011675246326294,-0.0011675253276813,0.001167525114305,-0.00041599293630507,0.00041599294783317,-0.00041599276799207,0.0004159927795485,-0.0011675248771663,0.0011675246041158,-0.0011675253577937,0.0011675250849131,-0.0014621519963705,0.001462151737781,-0.0014621522034907,0.0014621519449991,-0.0014621519857249,0.0014621517478425,-0.0014621521935164,0.0014621519557307,-0.0012563365757017,0.0012563363702617,-0.001256336618063,0.0012563364126756,-0.0012563365868083,0.0012563363610146,-0.0012563366277308,0.0012563364019901,-0.00041599290580851,0.0004159929766271,1.4945442191706e-11,-1.3746362940401e-11,1.163755248076e-11,-1.1006667636212e-11,-0.0016687955267314,0.001668795527688,-0.0016430555134595,0.0016430555018126,-0.0016339430637124,0.0016339431002829,-0.0016339432822737,0.0016339432634932,-0.001635619706806,0.0016356197278716,-0.0016356201295163,0.001635620131905,-0.0016356197548072,0.0016356197540767,-0.0016356201774903,0.0016356201580847,-0.0016430551826944,0.0016430551955276,-0.001643055498306,0.0016430554675039,-0.001633943101039,0.0016339431228725,-0.0016339433193468,0.0016339432858329,-0.0016430551978862,0.0016430552298751,-3.0277591177686e-10,-3.0276172507242e-10,-0.00096847744357897,0.00096847626260388,-3.4180752969658e-10,-3.1458315822987e-10,-0.00086310006212957,0.00086309927632743,-0.00074265407472831,0.00074265291985208,-0.00074265401963414,0.00074265286479054,-0.00086310013174075,0.00086309929771623,-0.0008631000869987,0.00086309925295067,-0.00074265410191147,0.00074265289224688,-0.00074265404705299,0.00074265283742122,-0.0011993098378164,0.0011993090502409,-0.0011993098275847,0.0011993090601157,-0.0011993098534017,0.0011993090658255,-0.0011993098434932,0.0011993090760233,-0.0012119415758142,0.0012119409907297,-0.0012119416262543,0.0012119410411035,-0.0012119416351322,0.0012119410327542,-0.0012119415840937,0.0012119409817828,-0.00086310010831786,0.00086309932253626,0.71950148343769,122718,2924,0.0051154837778013,0.0069276820647277,0.0040288543995712,31.388878664935,0.00016631102931948,0.00016631102931948,0.00016631102931948,2842091.452573,0.016202806712806
34891759,0.98667473565862,0.016530668593645,0.0053754360952334,0.0064358829892318,0.0047193495091797,-0.0012387881162953,0.001238787707947,-1.3313017521453e-10,-1.3310141696072e-10,-1.8577004249978e-10,-9.3261221433702e-11,-0.00042387961673374,0.000423879404154,-0.0011760793095016,0.0011760789662725,-0.0011760799551476,0.0011760796120833,-0.00042387984139983,0.00042387945097936,-0.00042387970395501,0.00042387931356277,-0.0011760794006439,0.0011760788770592,-0.0011760800449526,0.0011760795215353,-0.0014715922313491,0.0014715918944796,-0.0014715925066447,0.0014715921698727,-0.0014715922002411,0.0014715919255014,-0.0014715924764596,0.0014715922018162,-0.0012645653183465,0.0012645650763475,-0.0012645653778856,0.0012645651359388,-0.0012645653501122,0.0012645650468161,-0.0012645654076224,0.0012645651043793,-0.00042387975143105,0.00042387953882525,3.4009690086137e-11,-5.458812060568e-11,4.3346061219348e-11,-6.368466024205e-11,-0.00167847176709,0.0016784717470159,-0.0016505390139647,0.0016505389193627,-0.0016430563327892,0.0016430564348282,-0.0016430566772763,0.0016430566065028,-0.0016466505784985,0.001646650628413,-0.0016466510892524,0.0016466510624422,-0.0016466506462875,0.001646650633106,-0.0016466511570141,0.0016466510671097,-0.0016505385010197,0.0016505385550465,-0.0016505390057858,0.0016505388517524,-0.0016430563776855,0.0016430564084282,-0.0016430567219197,0.001643056579853,-0.0016505385092363,0.0016505386226956,-3.6454165092939e-10,-3.645277237187e-10,-0.00097523812363306,0.00097523651601137,-4.7935349645289e-10,-3.6563275564456e-10,-0.00087209725150484,0.00087209626234303,-0.00075036264475587,0.00075036099964909,-0.00075036256113732,0.00075036091606293,-0.00087209745826846,0.00087209625590904,-0.00087209735952403,0.00087209615714194,-0.00075036275565565,0.00075036088794726,-0.00075036267275496,0.00075036080507885,-0.0012059515123418,0.0012059505410906,-0.0012059514728207,0.0012059505799599,-0.0012059515367548,0.0012059505655031,-0.0012059514978339,0.0012059506049721,-0.0012196739453559,0.0012196733015364,-0.0012196739916344,0.0012196733477489,-0.0012196740295376,0.0012196733111562,-0.0012196739819694,0.0012196732636548,-0.00087209735289967,0.000872096363758,0.76368749739881,122718,2924,0.005151197858333,0.0069676936174231,0.0040569127931719,33.427555360345,0.00018262044288276,0.00018262044288276,0.00018262044288276,2845528.5088402,0.016308273651795
35391759,0.98989523164326,0.01658321114509,0.0053926026709859,0.0064567557228621,0.0047338527512419,-0.0012453803525742,0.0012453798694827,-1.4786685012217e-10,-1.4783823349639e-10,-2.4145521206195e-10,-8.8192697950086e-11,-0.00041764338921358,0.00041764302691683,-0.001180631016723,0.0011806306300008,-0.0011806317662973,0.0011806313797376,-0.00041764366989397,0.00041764301194725,-0.00041764353507599,0.00041764287715634,-0.0011806311666952,0.0011806304811122,-0.0011806319148228,0.0011806312294046,-0.0014812410163429,0.0014812406424473,-0.0014812413317787,0.0014812409579799,-0.0014812409655106,0.0014812406938279,-0.0014812412819413,0.0014812410103546,-0.0012723200363686,0.0012723197972272,-0.0012723201015699,0.0012723198624803,-0.0012723200882209,0.0012723197475775,-0.001272320151223,0.0012723198106327,-0.00041764352111922,0.00041764315879636,5.4317292173421e-11,-9.3775432224916e-11,8.093731130305e-11,-1.193909809816e-10,-0.0016916454389236,0.0016916454006709,-0.0016658687189438,0.0016658685350893,-0.001657600751256,0.0016576009242308,-0.0016576012009338,0.0016576010841556,-0.0016569221540673,0.0016569222373633,-0.0016569227275954,0.0016569226714678,-0.0016569222402194,0.00165692222036,-0.0016569228137202,0.0016569226544392,-0.0016658680368831,0.0016658681440938,-0.0016658687238346,0.0016658684407602,-0.0016576008097358,0.001657600849198,-0.00165760125916,0.0016576010088723,-0.0016658680320299,0.0016658682384604,-3.9183088238907e-10,-3.9181717650054e-10,-0.00097834537772886,0.00097834352423808,-5.8168113771975e-10,-3.7379291951524e-10,-0.00086883865368383,0.00086883758048417,-0.00074774223053404,0.00074774030599965,-0.00074774213152142,0.00074774020701946,-0.0008688389867466,0.00086883751757255,-0.0008688388534098,0.00086883738421337,-0.00074774243322482,0.0007477401023844,-0.00074774233515549,0.00074774000434779,-0.0012135501724864,0.0012135491063154,-0.0012135501014016,0.001213549176578,-0.0012135502014025,0.0012135491352305,-0.0012135501310637,0.0012135492062386,-0.0012261543274317,0.0012261536889195,-0.0012261543726728,0.001226153734095,-0.0012261544421552,0.0012261536663535,-0.0012261543952702,0.001226153619535,-0.00086883879021689,0.00086883771703803,0.67947291040117,122718,2924,0.0051786222675367,0.0070221869754798,0.004069869457747,35.835922308077,0.00020188737846462,0.00020188737846462,0.00020188737846462,2751015.5072188,0.016404743942958
35891759,0.99251283514075,0.016628092976968,0.0054072528734754,0.0064745075608642,0.0047463325426288,-0.0012526604503113,0.001252660159458,-9.5926034084329e-11,-9.5897667745018e-11,-1.7188977623827e-10,-1.3900276120812e-11,-0.00043251340937636,0.00043251350628697,-0.0011890574497129,0.0011890573136055,-0.0011890580089827,0.0011890578730369,-0.00043251372679637,0.00043251351216478,-0.00043251356381121,0.00043251334920681,-0.0011890576049601,0.0011890571583775,-0.0011890581635845,0.0011890577171658,-0.0014876353565986,0.0014876350608495,-0.0014876355982491,0.0014876353025968,-0.0014876353049855,0.0014876351136549,-0.0014876355471757,0.0014876353559408,-0.0012782225406677,0.0012782223839255,-0.0012782225904752,0.0012782224337848,-0.0012782225938549,0.0012782223318168,-0.0012782226425454,0.0012782223805601,-0.00043251357082822,0.00043251366771339,5.4565614999094e-11,-1.0050053948339e-10,9.4472813332166e-11,-1.3924947690642e-10,-0.001695802802552,0.0016958027579624,-0.001665782518007,0.0016657822965118,-0.0016600841744487,0.0016600843589266,-0.0016600845403109,0.0016600844204257,-0.0016647992266091,0.0016647993139211,-0.0016647997581555,0.0016647996874414,-0.00166479931904,0.0016647993012023,-0.0016647998505592,0.0016647996746974,-0.0016657819791449,0.0016657821114089,-0.0016657825412166,0.0016657822164554,-0.0016600842766754,0.0016600843062958,-0.0016600846422848,0.0016600843675456,-0.0016657819559729,0.0016657821915039,-3.0146061961218e-10,-3.0144708292501e-10,-0.00098558042835149,0.0009855791125925,-4.5723249781601e-10,-2.188948021714e-10,-0.00088274405845326,0.00088274342702705,-0.00075985149152802,0.00075985035814666,-0.00075985142375198,0.00075985029040226,-0.00088274435292646,0.00088274325713175,-0.0008827442918479,0.00088274319603136,-0.00075985172583843,0.00075985012338626,-0.00075985165856992,0.00075985005614947,-0.001217750611273,0.0012177497317328,-0.0012177505307823,0.0012177498116786,-0.0012177506310021,0.0012177497514616,-0.0012177505509816,0.0012177498318773,-0.0012322814722088,0.0012322809741935,-0.001232281521153,0.0012322810230722,-0.0012322816008676,0.0012322809444156,-0.0012322815509727,0.0012322808945869,-0.00088274412163657,0.00088274349022974,0.71348599053829,122718,2924,0.0052087429947062,0.0070393630481439,0.0040998562231697,37.444966166675,0.0002147597293334,0.0002147597293334,0.0002147597293334,2812384.2542157,0.016483264413428
36391759,0.99446149378703,0.016661048922711,0.0054179855312187,0.0064875974710599,0.0047554659204326,-0.001253726164219,0.0012537262330411,-1.6928106828545e-12,-1.6645650898556e-12,-1.0801025153743e-11,7.9336588351097e-11,-0.00042212140125007,0.00042212224299713,-0.0011883045026258,0.0011883047528987,-0.001188304697423,0.0011883049478568,-0.00042212172947232,0.00042212238226156,-0.00042212149577144,0.00042212214858786,-0.0011883045930413,0.0011883046622444,-0.0011883047884706,0.0011883048578358,-0.0014911417780402,0.0014911416547987,-0.0014911418697887,0.0014911417466438,-0.0014911417494094,0.0014911416845692,-0.0014911418409741,0.0014911417762294,-0.0012804830681027,0.0012804830384897,-0.0012804830814734,0.0012804830519118,-0.0012804830985745,0.0012804830076148,-0.0012804831125442,0.0012804830216368,-0.00042212163572118,0.00042212247744252,3.5211609250684e-11,-5.6137751089062e-11,7.3608089088111e-11,-9.4250100606475e-11,-0.0017022975324921,0.0017022975120918,-0.0016749878895207,0.0016749877337288,-0.0016681542582886,0.0016681543829555,-0.0016681544066181,0.0016681543509194,-0.0016681395971855,0.0016681396604273,-0.0016681399821395,0.0016681399368357,-0.0016681396715768,0.0016681396762377,-0.0016681400565034,0.0016681399526209,-0.0016749876626545,0.0016749877772934,-0.0016749879222695,0.0016749877066684,-0.0016681543878111,0.0016681544027422,-0.0016681545358874,0.0016681543704578,-0.0016749876299438,0.0016749878043924,-1.4445350048069e-10,-1.444401103251e-10,-0.00098417355190454,0.00098417322931359,-1.897553892805e-10,-2.1524804158111e-11,-0.00087534836412837,0.00087534835970395,-0.00075306679898971,0.00075306693712394,-0.0007530667948964,0.000753066933062,-0.00087534847013932,0.00087534812528036,-0.00087534853421743,0.00087534818933633,-0.00075306696747822,0.0007530667690918,-0.00075306696289242,0.00075306676453745,-0.0012201923254526,0.0012201918489611,-0.0012201922695735,0.001220191904904,-0.001220192325788,0.0012201918492964,-0.0012201922697852,0.0012201919051149,-0.0012336423962976,0.0012336421071136,-0.0012336424545788,0.0012336421653292,-0.0012336425107688,0.0012336421085951,-0.0012336424530297,0.0012336420509228,-0.00087534829962273,0.00087534829521735,0.70433655235509,122718,2924,0.0052132473344948,0.007066233647171,0.0040940743631378,37.533394634016,0.00021546715707213,0.00021546715707213,0.00021546715707213,2739405.8547297,0.016509320576005
36891759,0.99586168245852,0.016682464046801,0.0054250075559051,0.006496030027606,0.0047614264632901,-0.0012533581936638,0.0012533584414857,4.1993722532367e-11,4.2021881980939e-11,8.9372886307907e-11,1.0223530384047e-10,-0.00041970069106633,0.00041970187988502,-0.0011876324284053,0.0011876328329692,-0.001187632425003,0.0011876328297263,-0.0004197009785699,0.00041970212570306,-0.00041970071269133,0.00041970185985125,-0.0011876324441616,0.0011876328176229,-0.0011876324419468,0.0011876328155698,-0.0014915925109737,0.0014915924796289,-0.0014915925218485,0.0014915924906,-0.0014915925077288,0.0014915924834228,-0.0014915925181087,0.0014915924938978,-0.0012801309738955,0.0012801309847247,-0.0012801309690772,0.0012801309799578,-0.0012801309787009,0.0012801309790241,-0.0012801309752271,0.0012801309756026,-0.00041970095871714,0.00041970214751071,1.1196955293643e-11,-6.4949963470258e-12,4.0286260105937e-11,-3.6262622378249e-11,-0.001703314671853,0.0017033146761907,-0.0016755029593301,0.0016755028922283,-0.0016691009307149,0.0016691009778616,-0.001669100922533,0.0016691009337481,-0.0016692540881802,0.0016692541189686,-0.0016692543758258,0.0016692543612423,-0.0016692541401763,0.0016692541631135,-0.0016692544277946,0.0016692544053618,-0.0016755029478619,0.0016755030229346,-0.0016755029836062,0.0016755029061904,-0.0016691010573076,0.0016691010559992,-0.0016691010488731,0.0016691010116363,-0.0016755029236235,0.0016755030090108,-6.9162479972651e-11,-6.9149190230881e-11,-0.00098260652428795,0.000982606719424,-2.4574042535384e-11,4.8791612563699e-11,-0.00087342689261041,0.00087342715358,-0.00075098060296112,0.00075098136206109,-0.00075098063279296,0.00075098139192447,-0.00087342684034771,0.00087342694098737,-0.00087342697187767,0.00087342707249561,-0.00075098067980251,0.00075098128612163,-0.00075098070858114,0.00075098131493169,-0.0012193872746852,0.0012193870141805,-0.0012193872509872,0.0012193870382897,-0.0012193872647215,0.0012193870042166,-0.0012193872405733,0.0012193870278752,-0.0012329547016413,0.001232954485749,-0.0012329547644902,0.0012329545485325,-0.0012329547888462,0.0012329545227012,-0.0012329547273585,0.0012329544612796,-0.00087342675926068,0.0008734270202499,0.6357490455962,122718,2924,0.0052117409680332,0.0070704267625759,0.0040875840801987,36.818673714973,0.00020974938971978,0.00020974938971978,0.00020974938971978,2730426.2988454,0.016505459882684
37391759,0.99694433548406,0.0166998383475,0.0054306828989862,0.0065028844015477,0.0047662710469661,-0.0012572496305769,0.001257249499072,-6.1911713683763e-11,-6.188366301128e-11,-5.3476467536507e-11,-3.0599023720829e-11,-0.00043082077481833,0.00043082113436808,-0.0011925926572543,0.0011925925981432,-0.001192593019474,0.0011925929605218,-0.00043082099895983,0.00043082130945062,-0.00043082079884067,0.00043082110935863,-0.0011925926814745,0.0011925925757984,-0.0011925930434418,0.0011925929379266,-0.0014942453653907,0.0014942451622624,-0.0014942455261076,0.0014942453230754,-0.0014942453575985,0.0014942451697919,-0.0014942455186342,0.0014942453309223,-0.001282906069276,0.0012829059149295,-0.0012829061007674,0.0012829059464718,-0.0012829060777313,0.0012829059075027,-0.00128290610863,0.0012829059384536,-0.00043082097413411,0.00043082133365858,1.222247461179e-11,-1.0640218478041e-11,3.9308025578565e-11,-3.8349246103914e-11,-0.0017037802800651,0.0017037802813477,-0.0016730440447877,0.0016730439769926,-0.0016683244335056,0.0016683244829242,-0.0016683245875031,0.0016683245924894,-0.0016725163690102,0.001672516404497,-0.0016725167817274,0.001672516764737,-0.0016725164202494,0.0016725164395316,-0.0016725168329392,0.0016725167997466,-0.0016730437552283,0.0016730438248629,-0.0016730440406522,0.0016730439579896,-0.0016683245102623,0.0016683245090157,-0.0016683246640069,0.001668324618332,-0.0016730437594014,0.0016730438439044,-2.37034347283e-10,-2.3702114026245e-10,-0.00098732897868242,0.00098732815441089,-2.73988566069e-10,-1.9384682223029e-10,-0.00088355853020353,0.00088355807043925,-0.00075980367426582,0.00075980306458117,-0.00075980364146492,0.00075980303181105,-0.00088355860380937,0.00088355798552355,-0.00088355860980511,0.00088355799149812,-0.00075980375459565,0.00075980298416843,-0.00075980372168841,0.00075980295129285,-0.0012212019897112,0.0012212013289039,-0.0012212019624162,0.0012212013560544,-0.0012212019988732,0.0012212013380654,-0.0012212019716953,0.0012212013653331,-0.0012361975273757,0.0012361970615085,-0.0012361975811978,0.0012361971152657,-0.0012361976077975,0.0012361970886726,-0.0012361975538795,0.0012361970348207,-0.00088355852483917,0.00088355806509431,0.66747126441366,122718,2924,0.0052278135957155,0.0070723455911799,0.0041071410859519,37.626991252332,0.00021621593001866,0.00021621593001866,0.00021621593001866,2788812.0591848,0.016543598828061
37891759,0.99774680461643,0.01671159742285,0.0054345308529719,0.0065075275781616,0.0047695389917161,-0.0012571664932732,0.0012571665340812,-1.6310447506436e-11,-1.6282453817507e-11,2.2044241475319e-11,1.6279885248916e-11,-0.00042163614480809,0.00042163686759538,-0.0011910472110358,0.0011910473394541,-0.0011910474020838,0.0011910475306597,-0.00042163637874278,0.00042163710367546,-0.00042163614383117,0.00042163686879088,-0.0011910472079537,0.0011910473442431,-0.0011910473993187,0.0011910475357689,-0.0014959259784352,0.0014959258571942,-0.0014959260684573,0.0014959259473124,-0.0014959259804082,0.0014959258549746,-0.0014959260704235,0.001495925945085,-0.0012838929456893,0.001283892854541,-0.0012838929594612,0.0012838928683633,-0.0012838929445554,0.0012838928560208,-0.0012838929585086,0.0012838928700256,-0.00042163637996031,0.00042163710272396,4.0949168442777e-12,7.6258863873467e-12,2.3888695040294e-11,-1.3140449803573e-11,-0.0017078073094992,0.001707807320593,-0.0016798739905222,0.0016798739627247,-0.0016737731042276,0.0016737731242327,-0.0016737731586967,0.0016737731855457,-0.0016736202692318,0.0016736202898622,-0.0016736206107777,0.0016736206085194,-0.0016736203133982,0.0016736203373877,-0.0016736206549173,0.0016736206560197,-0.0016798738601241,0.0016798739092653,-0.0016798739923813,0.0016798739677652,-0.0016737731913562,0.0016737731883075,-0.0016737732455726,0.0016737732493713,-0.0016798738583026,0.0016798739042628,-1.6442577020763e-10,-1.6441261880368e-10,-0.00098571663109116,0.00098571627403338,-1.446199507833e-10,-1.0742423360899e-10,-0.00087644525485531,0.00087644508139469,-0.00075354748335313,0.00075354746098273,-0.00075354748030436,0.00075354745796464,-0.00087644522843839,0.00087644497458187,-0.0008764452947728,0.00087644504089521,-0.00075354752291893,0.00075354742176396,-0.00075354751929915,0.00075354741817654,-0.00122276624375,0.0012227657731098,-0.0012227662313313,0.0012227657856635,-0.0012227662438187,0.0012227657731779,-0.0012227662312422,0.0012227657855736,-0.0012365723758504,0.0012365720022963,-0.0012365724343893,0.0012365720607694,-0.0012365724465851,0.0012365720478404,-0.0012365723886476,0.001236571989969,-0.00087644518796511,0.00087644501452326,0.60954457296434,122718,2924,0.0052275382895641,0.0070890129395645,0.0041004949223601,37.709244031589,0.00021687395225271,0.00021687395225271,0.00021687395225271,2727161.8614466,0.016553540380946
38391759,0.99832633915562,0.016721079478796,0.0054376200333382,0.0065112760644596,0.0047721833809978,-0.0012577436016458,0.0012577437800181,1.9083825281649e-11,1.9111750722664e-11,9.3058759324663e-11,4.0310400250825e-11,-0.00042883947775082,0.0004288404625651,-0.001192706134447,0.001192706389659,-0.0011927061825979,0.0011927064379677,-0.00042883969462362,0.00042884077033123,-0.00042883943294558,0.00042884050868001,-0.0011927060860325,0.001192706440084,-0.0011927061349268,0.0011927064891384,-0.0014953727683757,0.0014953727192246,-0.0014953727989062,0.001495372749851,-0.0014953727858777,0.001495372701166,-0.001495372816169,0.001495372731552,-0.0012835160865174,0.001283516035874,-0.0012835160853951,0.0012835160348026,-0.0012835160697785,0.0012835160525673,-0.001283516069386,0.0012835160522268,-0.00042883974045215,0.00042884072524178,-1.0091168545257e-11,3.8278347740399e-11,-1.9043392355083e-12,2.8530332594394e-11,-0.0017053784009179,0.001705378427931,-0.0016749216946471,0.0016749217332579,-0.0016701489870788,0.001670148956842,-0.00167014893889,0.0016701490033123,-0.001673667438481,0.0016736674359726,-0.0016736677063855,0.0016736677275999,-0.0016736674683051,0.001673667500357,-0.0016736677361825,0.0016736677919586,-0.0016749217195642,0.0016749217339253,-0.0016749216931622,0.001674921765156,-0.0016701490693488,0.0016701490613097,-0.001670149020908,0.0016701491075314,-0.0016749217210865,0.0016749217020653,-1.0759544838511e-10,-1.0758233108804e-10,-0.00098708563817967,0.00098708565913092,-2.4930283019209e-11,-5.7209255086968e-11,-0.00088249289402161,0.00088249290912585,-0.00075860568491338,0.00075860610151157,-0.00075860570670583,0.00075860612333505,-0.00088249275186883,0.00088249281866785,-0.00088249286731493,0.0008824929340943,-0.00075860565731961,0.00075860612980786,-0.00075860567812079,0.00075860615064022,-0.0012216401202549,0.0012216398151484,-0.0012216401314106,0.0012216398043826,-0.0012216401125664,0.0012216398074599,-0.0012216401233217,0.0012216397962935,-0.0012366425951188,0.0012366422812786,-0.0012366426573736,0.001236642343468,-0.001236642646256,0.0012366423531732,-0.0012366425852115,0.0012366422921948,-0.00088249277695357,0.00088249279207636,0.68081525693754,122718,2924,0.0052298806433996,0.0070789541950227,0.0041061433170815,37.199367709315,0.00021279494167452,0.00021279494167452,0.00021279494167452,2783294.857255,0.016551411165983
38880000,0.99874924261838,0.016728379469625,0.0054399886948647,0.0065141809744303,0.0047742098003303,-0.0012564069970136,0.0012564070393581,-2.089221066907e-11,-2.0864323565119e-11,5.1606056117468e-11,-1.8247606783433e-11,-0.00041395554019004,0.00041395623137377,-0.0011893380406021,0.0011893381143609,-0.0011893382065058,0.0011893382804217,-0.00041395571385596,0.00041395653412561,-0.00041395547577271,0.0004139562960691,-0.0011893379751544,0.0011893381827756,-0.0011893381411721,0.0011893383489528,-0.0014966360719403,0.0014966359599203,-0.0014966361521001,0.001496636040176,-0.001496636094433,0.0014966359362807,-0.0014966361746983,0.0014966360166407,-0.001283943821925,0.0012839436973988,-0.0012839438348803,0.0012839437104052,-0.0012839437996915,0.0012839437204625,-0.0012839438125632,0.0012839437333861,-0.00041395577816849,0.0004139564693273,-1.6725346993307e-11,5.0323043783203e-11,-2.4519070076887e-11,5.6316013349155e-11,-0.0017105354018019,0.0017105354340121,-0.0016844426420804,0.0016844427295676,-0.0016773492669161,0.0016773492068472,-0.0016773492484727,0.0016773493204606,-0.0016743325425648,0.0016743325244468,-0.0016743328384385,0.0016743328749951,-0.0016743325669233,0.0016743325939284,-0.0016743328627698,0.0016743329444513,-0.0016844426232009,0.0016844425989701,-0.001684442625,0.00168444275791,-0.0016773493197093,0.0016773493147862,-0.0016773493010133,0.0016773494281503,-0.0016844426403187,0.0016844425706658,-1.7402764558981e-10,-1.7401452138758e-10,-0.00098341558698998,0.00098341525535527,-9.0135761920779e-11,-1.7064903341601e-10,-0.00087016312080424,0.00087016283724396,-0.00074789775526242,0.00074789767097272,-0.00074789775664993,0.00074789767239123,-0.00087016297012352,0.0008701628387833,-0.00087016304426563,0.00087016291290392,-0.00074789767923722,0.00074789774731751,-0.00074789767995924,0.0007478977480707,-0.0012230041972316,0.001223003750279,-0.0012230042239326,0.0012230037237911,-0.0012230041961229,0.0012230037491702,-0.0012230042226135,0.0012230037224716,-0.0012360611824223,0.0012360607437323,-0.0012360612413047,0.0012360608025491,-0.0012360612139986,0.001236060828928,-0.0012360611558282,0.0012360607708239,-0.00087016304591659,0.00087016276237572,0.71913113407407,122718,2924,0.0052244457936423,0.0071002955164534,0.0040909817020838,37.193711348808,0.00021274969079047,0.00021274969079047,0.00021274969079047,2682862.4512902,0.016552221110733
