time,ASR_ext,ASR_strain,ASR_strain_xx,ASR_strain_yy,ASR_strain_zz,disp_x_101,disp_x_102,disp_x_103,disp_x_104,disp_x_105,disp_x_106,disp_x_p10_neg,disp_x_p10_pos,disp_x_p11_neg,disp_x_p11_pos,disp_x_p12_neg,disp_x_p12_pos,disp_x_p13_neg,disp_x_p13_pos,disp_x_p14_neg,disp_x_p14_pos,disp_x_p15_neg,disp_x_p15_pos,disp_x_p16_neg,disp_x_p16_pos,disp_x_p1_neg,disp_x_p1_pos,disp_x_p2_neg,disp_x_p2_pos,disp_x_p3_neg,disp_x_p3_pos,disp_x_p4_neg,disp_x_p4_pos,disp_x_p5_neg,disp_x_p5_pos,disp_x_p6_neg,disp_x_p6_pos,disp_x_p7_neg,disp_x_p7_pos,disp_x_p8_neg,disp_x_p8_pos,disp_x_p9_neg,disp_x_p9_pos,disp_y_101,disp_y_102,disp_y_103,disp_y_104,disp_y_105,disp_y_106,disp_y_p10_neg,disp_y_p10_pos,disp_y_p11_neg,disp_y_p11_pos,disp_y_p12_neg,disp_y_p12_pos,disp_y_p1_neg,disp_y_p1_pos,disp_y_p2_neg,disp_y_p2_pos,disp_y_p3_neg,disp_y_p3_pos,disp_y_p4_neg,disp_y_p4_pos,disp_y_p5_neg,disp_y_p5_pos,disp_y_p6_neg,disp_y_p6_pos,disp_y_p7_neg,disp_y_p7_pos,disp_y_p8_neg,disp_y_p8_pos,disp_y_p9_neg,disp_y_p9_pos,disp_z_101,disp_z_102,disp_z_103,disp_z_104,disp_z_105,disp_z_106,disp_z_p10_neg,disp_z_p10_pos,disp_z_p11_neg,disp_z_p11_pos,disp_z_p12_neg,disp_z_p12_pos,disp_z_p13_neg,disp_z_p13_pos,disp_z_p14_neg,disp_z_p14_pos,disp_z_p15_neg,disp_z_p15_pos,disp_z_p16_neg,disp_z_p16_pos,disp_z_p1_neg,disp_z_p1_pos,disp_z_p2_neg,disp_z_p2_pos,disp_z_p3_neg,disp_z_p3_pos,disp_z_p4_neg,disp_z_p4_pos,disp_z_p5_neg,disp_z_p5_pos,disp_z_p6_neg,disp_z_p6_pos,disp_z_p7_neg,disp_z_p7_pos,disp_z_p8_neg,disp_z_p8_pos,disp_z_p9_neg,disp_z_p9_pos,humidity,ndof,nelem,strain_xx,strain_yy,strain_zz,temp,thermal_strain_xx,thermal_strain_yy,thermal_strain_zz,vonmises,vstrain
14391759,0,0,0,0,0,0,0,0,0,0,0,0,0,0,0,0,0,0,0,0,0,0,0,0,0,0,0,0,0,0,0,0,0,0,0,0,0,0,0,0,0,0,0,0,0,0,0,0,0,0,0,0,0,0,0,0,0,0,0,0,0,0,0,0,0,0,0,0,0,0,0,0,0,0,0,0,0,0,0,0,0,0,0,0,0,0,0,0,0,0,0,0,0,0,0,0,0,0,0,0,0,0,0,0,0,0,0,0,0,0,0,0,0,0,0,0,0,0,0,0,0,0,0
14591759,0.020203199494573,0.00035679964641375,0.00011893321547125,0.00011893321547125,0.00011893321547125,-2.7515025865212e-05,2.7515031300845e-05,2.8120962091191e-12,2.8120738384789e-12,-5.1952739432781e-12,1.0771210455186e-11,-2.1882396831592e-05,2.18824184627e-05,-2.5843861561616e-05,2.5843882956774e-05,-2.5843861717093e-05,2.5843882827834e-05,-2.1882410904675e-05,2.1882401161112e-05,-2.1882411426932e-05,2.1882401143375e-05,-2.5843876352932e-05,2.5843866014003e-05,-2.5843876339035e-05,2.5843865852728e-05,-2.9547338502179e-05,2.9547338594345e-05,-2.9547338489823e-05,2.9547338606792e-05,-2.9547333243264e-05,2.9547343708142e-05,-2.9547333177245e-05,2.9547343682622e-05,-2.6590227509004e-05,2.6590238581218e-05,-2.6590228026173e-05,2.6590239226415e-05,-2.6590232809305e-05,2.6590233443766e-05,-2.6590233319358e-05,2.6590233896252e-05,-2.1882395819359e-05,2.1882417835159e-05,5.1601132655744e-12,-1.152963064075e-11,2.0456943804409e-13,-6.5696317112682e-12,-2.9144069001122e-05,2.9144063163052e-05,-2.7778034392558e-05,2.7778026015592e-05,-2.8181377423127e-05,2.8181389621119e-05,-2.8181393855493e-05,2.818137280689e-05,-2.9828388049856e-05,2.9828390442423e-05,-2.9828390211649e-05,2.9828388141463e-05,-2.9828393382335e-05,2.9828384870889e-05,-2.982839550621e-05,2.9828382583423e-05,-2.7778033545406e-05,2.7778027499956e-05,-2.7778039667444e-05,2.7778020585682e-05,-2.81813796643e-05,2.8181387123569e-05,-2.8181396218822e-05,2.8181370656851e-05,-2.7778027865593e-05,2.777803314212e-05,9.1133532708107e-13,9.1172515511996e-13,-2.7247635812158e-05,2.7247637849141e-05,-2.0156877903431e-12,4.2578168318919e-12,-2.4751014197204e-05,2.4751022335275e-05,-2.5232117152964e-05,2.5232125611955e-05,-2.5232117026848e-05,2.5232125756132e-05,-2.4751018053465e-05,2.4751014172016e-05,-2.4751019077027e-05,2.47510142371e-05,-2.5232121830083e-05,2.5232118172448e-05,-2.5232121935355e-05,2.5232117894695e-05,-2.903012962121e-05,2.9030129608392e-05,-2.9030127314923e-05,2.9030131476166e-05,-2.9030129659719e-05,2.9030129644877e-05,-2.9030127375123e-05,2.903013148102e-05,-2.679026202132e-05,2.6790265486153e-05,-2.6790262387134e-05,2.6790266023502e-05,-2.6790264660395e-05,2.6790264083293e-05,-2.6790264081591e-05,2.679026364691e-05,-2.4751013934367e-05,2.4751021406311e-05,0.70641910243757,128566,2924,0.00011463929557286,0.00012142605052078,0.000113525234882,31.980482195702,-1.5614243438124e-07,-1.5614243438124e-07,-1.5614243438124e-07,806193.12325511,0.00034965243907327
14791759,0.039119247295794,0.00067702800852494,0.00022506964790548,0.00022781905002314,0.00022413931059632,-5.0162792830395e-05,5.0163255374569e-05,2.2756941576258e-10,2.4124289636883e-10,-4.2745894054779e-10,9.0617455143065e-10,-3.8579617082547e-05,3.8581493339002e-05,-4.6740420169666e-05,4.6742193247152e-05,-4.6740416432597e-05,4.6742226775675e-05,-3.8580810939827e-05,3.8580042932883e-05,-3.8580920080789e-05,3.8580021335217e-05,-4.6741657734367e-05,4.6740824418115e-05,-4.6741676174746e-05,4.6740799775967e-05,-5.4678406744114e-05,5.4678427010323e-05,-5.4678401578512e-05,5.4678423387302e-05,-5.4677976916919e-05,5.4678852455363e-05,-5.4677957989263e-05,5.4678857811409e-05,-4.8364724548563e-05,4.8365608578787e-05,-4.8364753258817e-05,4.8365707830437e-05,-4.8365148179107e-05,4.8365185242357e-05,-4.8365203844074e-05,4.8365228331002e-05,-3.8579590843355e-05,3.8581347064918e-05,3.8557792770825e-10,-8.8692312516984e-10,-4.0134257273416e-10,-9.1055500612915e-11,-5.378653760013e-05,5.378607739328e-05,-5.0966588888508e-05,5.0966771793109e-05,-5.1914631559806e-05,5.1915274979128e-05,-5.1915880801671e-05,5.1913989903054e-05,-5.5415158171044e-05,5.541505380543e-05,-5.5415059119279e-05,5.5415150662739e-05,-5.5415570948421e-05,5.5414625163006e-05,-5.5415463361795e-05,5.5414733572968e-05,-5.0967335045599e-05,5.0966074534531e-05,-5.0966978145898e-05,5.0966355227061e-05,-5.1914540901357e-05,5.1915373968344e-05,-5.1915780992904e-05,5.1914118164248e-05,-5.0966900768764e-05,5.0966514609983e-05,-7.7051958313864e-11,-6.3080638955745e-11,-4.9393304691396e-05,4.9393192506199e-05,9.3373800007717e-11,-1.9690890333609e-10,-4.4305105031671e-05,4.4304608062611e-05,-4.5260602662938e-05,4.5260258803837e-05,-4.5260614610685e-05,4.5260242884919e-05,-4.4304682613604e-05,4.430480831051e-05,-4.430472678509e-05,4.430484753849e-05,-4.526025835447e-05,4.5260450902129e-05,-4.526025351881e-05,4.5260460429929e-05,-5.3361892039492e-05,5.336188975274e-05,-5.3361981944369e-05,5.3361771805594e-05,-5.3361896362842e-05,5.336189172233e-05,-5.3361977460802e-05,5.3361782917461e-05,-4.8798307923293e-05,4.8798058498001e-05,-4.8798339617665e-05,4.8798044740702e-05,-4.8798234489381e-05,4.8798152822513e-05,-4.8798202899796e-05,4.8798133763699e-05,-4.4305060647263e-05,4.4304653876062e-05,0.70580947216825,128566,2924,0.00020899050243888,0.00022408374025458,0.00020578352591349,30.97516096174,-8.1987123060837e-06,-8.1987123060837e-06,-8.1987123060837e-06,1304522.012471,0.00063906480296597
14991759,0.056596313174241,0.00096493141733802,0.0003201894924009,0.00032709502948588,0.00031764689545123,-7.0376633449348e-05,7.037745405187e-05,4.1226924266535e-10,4.1240676031998e-10,-7.4461676655163e-10,1.5987811565059e-09,-5.1313561799404e-05,5.1316717256277e-05,-6.3691993397798e-05,6.3695152927998e-05,-6.3691995210459e-05,6.3695150856444e-05,-5.1315802683484e-05,5.1314329600071e-05,-5.131583022282e-05,5.1314347137685e-05,-6.36942491412e-05,6.3692781863285e-05,-6.369424521922e-05,6.3692775676092e-05,-7.8095931369319e-05,7.8095970096428e-05,-7.8095919176344e-05,7.8095965771215e-05,-7.8095169066275e-05,7.8096737314277e-05,-7.809515704155e-05,7.8096729404867e-05,-6.8250807061521e-05,6.8252413065173e-05,-6.8250843473421e-05,6.8252447670211e-05,-6.8251595077074e-05,6.8251641648962e-05,-6.8251625497481e-05,6.8251674086164e-05,-5.1313505384435e-05,5.1316686554915e-05,8.1408460849093e-10,-1.5242231963769e-09,-6.3424540439267e-10,-5.8467281585269e-11,-7.7063322860795e-05,7.7062658506197e-05,-7.3578378082287e-05,7.3579011733323e-05,-7.5792490186261e-05,7.5793889145319e-05,-7.5794756781009e-05,7.5791548088428e-05,-7.8658362770478e-05,7.8658307471879e-05,-7.8658172280781e-05,7.8658499376729e-05,-7.8659102829624e-05,7.8657528605539e-05,-7.8658915888746e-05,7.8657720752167e-05,-7.3579723407223e-05,7.3577674978536e-05,-7.3579149819424e-05,7.3578223774735e-05,-7.5792285146445e-05,7.5794078264328e-05,-7.5794576073756e-05,7.579173199428e-05,-7.3578954177179e-05,7.3578456019509e-05,-1.123873947106e-10,-1.1172133861801e-10,-6.8985114333274e-05,6.8984908553604e-05,1.7844476412932e-10,-3.8556189997017e-10,-6.0643981356465e-05,6.0643221144036e-05,-6.1313692863067e-05,6.1312943761415e-05,-6.1313685603404e-05,6.1312946303672e-05,-6.0643353017054e-05,6.064371731097e-05,-6.0643402543503e-05,6.0643698180395e-05,-6.1313085555024e-05,6.1313453725308e-05,-6.1313093528308e-05,6.1313443545883e-05,-7.5727613850866e-05,7.5727606914591e-05,-7.572778483018e-05,7.5727403429841e-05,-7.5727616546744e-05,7.5727611801656e-05,-7.5727790212077e-05,7.5727404155682e-05,-6.9248295824477e-05,6.924785281033e-05,-6.9248298651628e-05,6.9247871058786e-05,-6.9248123101237e-05,6.9248060246638e-05,-6.9248100628509e-05,6.9248058942388e-05,-6.0644005951253e-05,6.0643187525316e-05,0.70496359303458,128566,2924,0.0002931947303342,0.00032104272399761,0.00028739558410699,29.795953122034,-1.7632375023731e-05,-1.7632375023731e-05,-1.7632375023731e-05,1407484.8958947,0.00090204599754425
15191759,0.070993645328622,0.0011857795100073,0.00039284397355196,0.00040449610627781,0.00038843943017749,-8.3002078970316e-05,8.3003577402494e-05,7.3784861536915e-10,7.7348764106255e-10,-1.6176887957067e-09,3.1784456846293e-09,-5.5254724816062e-05,5.5261304031816e-05,-7.2072846181684e-05,7.2079048842172e-05,-7.2072795419982e-05,7.2079154931209e-05,-5.5259261687595e-05,5.5256361167352e-05,-5.5259585746702e-05,5.5256161293604e-05,-7.2077373900943e-05,7.2074253678884e-05,-7.2077460497933e-05,7.2074169948318e-05,-9.4090729145328e-05,9.4090642401293e-05,-9.4090721603926e-05,9.4090621470447e-05,-9.4089185671296e-05,9.4092180364293e-05,-9.4089126228852e-05,9.4092200470575e-05,-8.0568310684214e-05,8.0571307467447e-05,-8.0568285029335e-05,8.0571519764862e-05,-8.056983849733e-05,8.0569794445916e-05,-8.0569944656551e-05,8.0569828639706e-05,-5.5254852373038e-05,5.5260926433232e-05,1.7767286180758e-09,-2.9136630027901e-09,-1.0603371785998e-09,-7.5524065997508e-11,-9.2873346626806e-05,9.2872298264935e-05,-8.8979725746073e-05,8.8980964758893e-05,-9.2685026762711e-05,9.2688217518096e-05,-9.2689625846462e-05,9.2683457287008e-05,-9.402125521748e-05,9.4021530628249e-05,-9.4020949443149e-05,9.4021832439118e-05,-9.4022769563088e-05,9.4019942724886e-05,-9.4022426152674e-05,9.4020293677982e-05,-8.8982243011146e-05,8.8978447411449e-05,-8.8981177918251e-05,8.8979450904891e-05,-9.2684734477025e-05,9.2688491369636e-05,-9.2689271560517e-05,9.2683858482345e-05,-8.8980622666964e-05,8.8980077017719e-05,-2.0907932982305e-10,-1.7181268912471e-10,-8.1003878566132e-05,8.1003537533434e-05,3.2409710133509e-10,-6.6947985944153e-10,-6.8620585169001e-05,6.8618946135072e-05,-6.8673450157221e-05,6.8672238111331e-05,-6.8673517551152e-05,6.8672167103832e-05,-6.8619297768859e-05,6.8619733732092e-05,-6.8619274263041e-05,6.8619905114897e-05,-6.8672350410686e-05,6.8672961916409e-05,-6.8672323777517e-05,6.8673008491888e-05,-9.0729008253488e-05,9.0729036069138e-05,-9.0729324909253e-05,9.0728642861616e-05,-9.0729024868191e-05,9.0729034893429e-05,-9.0729301362745e-05,9.0728679011921e-05,-8.2301282730435e-05,8.2300598122283e-05,-8.2301391549919e-05,8.2300543724568e-05,-8.2301017740659e-05,8.2300931519054e-05,-8.2300979558525e-05,8.2300873085496e-05,-6.8620383441691e-05,6.8619159140917e-05,0.66036417833632,128566,2924,0.00034578615319965,0.00038689288881344,0.00033745789962311,27.129795558659,-3.8961635530727e-05,-3.8961635530727e-05,-3.8961635530727e-05,1477607.3673424,0.0010707217121554
15391759,0.084290515532769,0.0014139802365168,0.00046789766372848,0.00048461109687062,0.0004614714759177,-9.8624714107434e-05,9.862611047597e-05,6.9464689219809e-10,7.1010479245698e-10,-1.4400650571664e-09,2.8923586269882e-09,-6.3591807965745e-05,6.3597641825569e-05,-8.5423225905432e-05,8.5428903887439e-05,-8.5423202049557e-05,8.5428941875315e-05,-6.3596021988163e-05,6.3593274433119e-05,-6.3596137286616e-05,6.3593197959391e-05,-8.5427373976927e-05,8.5424558233879e-05,-8.5427393154093e-05,8.5424530362225e-05,-0.0001122073563613,0.00011220731561782,-0.00011220734470393,0.00011220730388302,-0.00011220595546446,0.00011220872426029,-0.00011220592139892,0.00011220872864895,-9.6621403122777e-05,9.662420859306e-05,-9.6621401786197e-05,9.6624293052839e-05,-9.662283868823e-05,9.662280804454e-05,-9.6622882510616e-05,9.6622831340512e-05,-6.3591868482323e-05,6.3597496783933e-05,1.6147723330306e-09,-2.6661123747294e-09,-1.1570738789042e-09,1.2693493610719e-10,-0.00011167491494721,0.00011167393450979,-0.00010775103933776,0.00010775263518371,-0.00011248498563709,0.00011248773363694,-0.00011248916937817,0.0001124834337358,-0.00011204448522709,0.00011204454531409,-0.00011204407506854,0.00011204496629368,-0.00011204584815193,0.00011204311241785,-0.00011204542574693,0.00011204355081286,-0.00010775370895338,0.00010774994309732,-0.00010775242448757,0.00010775122414549,-0.00011248457194298,0.00011248813243219,-0.00011248872831568,0.00011248388395388,-0.00010775227339236,0.00010775140388463,-2.210679548317e-10,-2.017660155484e-10,-9.5899845799234e-05,9.5899444991354e-05,4.3052835593803e-10,-8.4344597457374e-10,-8.1600653822932e-05,8.1598886182687e-05,-8.056647116953e-05,8.0564846492656e-05,-8.0566486374071e-05,8.0564821256023e-05,-8.1599273039501e-05,8.1600063143562e-05,-8.1599281873904e-05,8.1600120051768e-05,-8.0565149852611e-05,8.0565991287297e-05,-8.0565145209251e-05,8.0566006147058e-05,-0.00010782912330088,0.00010782916794654,-0.00010782952747781,0.00010782870386925,-0.00010782912878866,0.0001078291699765,-0.00010782951730893,0.00010782872232611,-9.8796852261783e-05,9.8796017622576e-05,-9.8796908869006e-05,9.8795996909918e-05,-9.8796462971524e-05,9.879643873483e-05,-9.8796437052379e-05,9.8796423224245e-05,-8.1600590579186e-05,8.159895374945e-05,0.7344306670598,128566,2924,0.000410857301457,0.00046519939219996,0.00039950214136704,25.988246656479,-4.8094026748166e-05,-4.8094026748166e-05,-4.8094026748166e-05,1335494.607504,0.0012763880468058
15591759,0.097330693401369,0.0016432570056268,0.00054331559812675,0.00056542530740032,0.00053451610009971,-0.00011520969063033,0.00011521086814255,5.8001067348383e-10,6.0480153278347e-10,-8.1785495011473e-10,2.0375896113375e-09,-7.3645889781098e-05,7.3650117817721e-05,-0.00010002028985323,0.00010002425659567,-0.00010002023630637,0.00010002431301999,-7.3648739391104e-05,7.3647247844897e-05,-7.3648867110416e-05,7.3647113044317e-05,-0.00010002299591279,0.00010002141767274,-0.00010002301905089,0.00010002138052375,-0.00013115491245381,0.00013115514913605,-0.00013115490570145,0.00013115513280802,-0.00013115400471058,0.00013115606352471,-0.00013115396104245,0.00013115607841793,-0.00011369808309181,0.00011370014821925,-0.0001136980379922,0.0001137002440297,-0.00011369900464744,0.00011369925605589,-0.00011369904752916,0.00011369925125412,-7.3646068925824e-05,7.3649927458646e-05,9.3370997144836e-10,-1.8272837593531e-09,-1.1819744698736e-09,3.1305543928298e-10,-0.00013136258413063,0.00013136174608762,-0.00012740846304465,0.00012740992707096,-0.00013305952209318,0.00013306089011473,-0.00013306225756409,0.00013305808470955,-0.00013102890629535,0.00013102852632346,-0.00013102843634761,0.00013102900908693,-0.00013102978298094,0.00013102759408351,-0.00013102928642405,0.00013102810853538,-0.00012741082966261,0.00012740752587446,-0.00012740932971189,0.00012740904709139,-0.00013305907806749,0.00013306133955918,-0.00013306171511793,0.0001330586324417,-0.00012740988472198,0.00012740850445605,-2.7082730257452e-10,-2.396622605739e-10,-0.000111597454847,0.00011159695972115,4.8954231360018e-10,-1.0020867589794e-09,-9.5526271968308e-05,9.552411665957e-05,-9.3662279134885e-05,9.3660361019794e-05,-9.3662319715711e-05,9.3660307011735e-05,-9.5524758632961e-05,9.5525609084827e-05,-9.5524664374639e-05,9.5525726067685e-05,-9.3660818103727e-05,9.3661749429802e-05,-9.3660789008066e-05,9.3661787835238e-05,-0.00012567321051891,0.00012567323459231,-0.00012567370109183,0.00012567269691554,-0.00012567321891813,0.00012567323060101,-0.00012567367631014,0.00012567272723626,-0.00011615752506294,0.0001161565802354,-0.00011615761595887,0.0001161565168806,-0.00011615707391402,0.00011615705619878,-0.00011615706573826,0.00011615703334597,-9.5526124921978e-05,9.5524284930928e-05,0.74589984588137,128566,2924,0.00047993215195798,0.00054718994753642,0.00046488127601843,25.604855971401,-5.1161152228792e-05,-5.1161152228792e-05,-5.1161152228792e-05,1391864.8660985,0.0014931357425704
15791759,0.10978191760306,0.0018740561203345,0.0006191279578495,0.00064719855291412,0.00060772960957089,-0.00013103514773648,0.00013103620136028,5.3947240685776e-10,5.2695862546505e-10,-4.2749823141365e-10,1.5149787418952e-09,-8.3960924115155e-05,8.3963841854558e-05,-0.00011480928070295,0.00011481232226546,-0.00011480932698257,0.00011481227565207,-8.3962738798065e-05,8.396183622926e-05,-8.3962717314737e-05,8.3961922014596e-05,-0.00011481113701379,0.00011481027383379,-0.00011481110356542,0.00011481029246822,-0.00014899106607311,0.00014899145960314,-0.00014899104124703,0.00014899146024545,-0.00014899042219682,0.00014899209810846,-0.00014899042002927,0.00014899207341785,-0.00013023451563232,0.00013023627384971,-0.0001302346104645,0.0001302362742276,-0.00013023521989248,0.00013023562388696,-0.00013023523755009,0.00013023569503378,-8.3960783326443e-05,8.3963880672102e-05,6.1590528832504e-10,-1.4138637359407e-09,-1.2016868248365e-09,4.0353324854214e-10,-0.00015020618267394,0.00015020544362422,-0.00014634530109674,0.00014634673868433,-0.00015253460348341,0.00015253519592431,-0.00015253651568295,0.00015253320318988,-0.00014919122649435,0.00014919065883554,-0.0001491906945925,0.00014919121870632,-0.00014919183537117,0.00014919000661973,-0.00014919133298893,0.00014919053250274,-0.00014634753424595,0.00014634448494635,-0.0001463460121145,0.00014634601413967,-0.0001525339989886,0.00015253575435125,-0.00015253604438642,0.00015253368157865,-0.00014634690556496,0.00014634512882094,-2.9622617571289e-10,-3.0026777780491e-10,-0.00012642744759757,0.00012642687396461,4.9095031199408e-10,-1.0787584383759e-09,-0.0001095470050889,0.00010954499748853,-0.00010677182338476,0.00010676965534006,-0.00010677176770026,0.00010676970782125,-0.00010954527167825,0.00010954638751836,-0.00010954549735688,0.00010954627213091,-0.00010677011735287,0.00010677114637931,-0.00010677017962955,0.00010677108851275,-0.00014231148463723,0.00014231143938155,-0.00014231196606723,0.00014231090351384,-0.00014231147485235,0.00014231145661323,-0.00014231198401385,0.00014231089040648,-0.00013285379961207,0.00013285259147702,-0.00013285376663263,0.00013285267357389,-0.00013285330200491,0.00013285316179554,-0.00013285323144108,0.00013285319030911,-0.00010954712329453,0.00010954479837869,0.78513037333571,128566,2924,0.00054583986244138,0.00062565906959985,0.00052664327242538,24.908939701424,-5.6728482388605e-05,-5.6728482388605e-05,-5.6728482388605e-05,1441941.8459439,0.0016996056980864
15991759,0.12205614298245,0.0020998415774901,0.00069307038416471,0.00072783413734115,0.00067893705598424,-0.00014726245786766,0.00014726330834714,4.4128692751669e-10,4.1751254695659e-10,2.3029365619424e-11,8.5304059479097e-10,-9.3794687547476e-05,9.3796133583388e-05,-0.0001300361732588,0.0001300379547584,-0.00013003626132785,0.0001300378521838,-9.3795495594976e-05,9.379530840125e-05,-9.3795283401496e-05,9.3795529165793e-05,-0.00013003703859807,0.00013003701010899,-0.00013003694099673,0.00013003708526952,-0.00016733932303964,0.00016733987044457,-0.00016733928550223,0.00016733988225773,-0.00016733902652136,0.00016734015801619,-0.00016733904362177,0.00016734011200006,-0.00014718795580252,0.00014718920056673,-0.00014718808469644,0.00014718911425262,-0.00014718833881219,0.00014718886278652,-0.00014718829829935,0.00014718893757744,-9.3794429470019e-05,9.3796370422522e-05,2.1626977143047e-10,-7.9111356048701e-10,-1.0837807813587e-09,5.1866429944109e-10,-0.00016970856523076,0.00016970802701802,-0.00016574322069428,0.00016574464636031,-0.00017258969382253,0.00017258948566636,-0.00017259058472208,0.00017258855097635,-0.00016797070511055,0.0001679699617614,-0.00016797015417229,0.00016797052608073,-0.00016797097167411,0.00016796965855649,-0.00016797048509687,0.00016797016283781,-0.00016574510907422,0.00016574271652822,-0.00016574364224726,0.00016574421847202,-0.00017258908429713,0.00017259010279259,-0.00017259013915348,0.00017258900031683,-0.00016574487445477,0.00016574297994279,-3.1764748757981e-10,-3.3013643391196e-10,-0.00014159518376358,0.00014159454969003,4.6354872049394e-10,-1.1181647925176e-09,-0.00012392974822462,0.00012392780789679,-0.00012023826404697,0.00012023596430183,-0.00012023816366505,0.00012023606361652,-0.00012392819191321,0.00012392935974857,-0.00012392843413617,0.00012392911659204,-0.00012023660368497,0.00012023760380352,-0.00012023668665919,0.00012023750903445,-0.00015933668047806,0.00015933656503523,-0.00015933715526076,0.00015933604403735,-0.0001593366577637,0.00015933659166292,-0.00015933718874056,0.00015933601417431,-0.0001499750710317,0.0001499737825757,-0.00014997499576065,0.00014997390183409,-0.00014997455562638,0.00014997434556399,-0.00014997446491538,0.00014997441307399,-0.0001239300039652,0.00012392751365538,0.77894844390985,128566,2924,0.00061341705115381,0.00070686523896442,0.0005898081525765,24.621543299921,-5.9027653600633e-05,-5.9027653600633e-05,-5.9027653600633e-05,1528373.5328474,0.0019119391454639
16191759,0.1346855562043,0.0023297060937891,0.00076818709491498,0.00081063287624093,0.00075088612263315,-0.00016484567918027,0.00016484627134245,3.0791862467973e-10,2.9311844244566e-10,5.1517230468899e-10,9.1361619509355e-11,-0.00010389741446707,0.00010389745898246,-0.00014660247499395,0.00014660272142569,-0.00014660253241744,0.00014660265425302,-0.00010389701804917,0.0001038978856455,-0.00010389687506362,0.00010389802407096,-0.00014660209320486,0.00014660306221443,-0.00014660202247507,0.00014660311280648,-0.0001872723013508,0.00018727301539206,-0.00018727227475363,0.00018727301849782,-0.00018727242432362,0.00018727287508003,-0.00018727242939374,0.00018727284405389,-0.00016547048062822,0.00016547101157307,-0.00016547056347978,0.00016547097008542,-0.00016547041615906,0.00016547112186198,-0.00016547040072432,0.00016547116902733,-0.00010389726388132,0.00010389760748788,-3.0746553297726e-10,1.3558444475299e-11,-9.2068823885629e-10,6.2996160700239e-10,-0.00019094883357474,0.00019094856156439,-0.00018675492254671,0.00018675609872116,-0.00019430726704394,0.00019430608479096,-0.00019430690178178,0.00019430642900516,-0.00018845289563493,0.00018845200619363,-0.0001884523747823,0.00018845254403637,-0.00018845275090232,0.00018845212985569,-0.0001884522722512,0.00018845262899735,-0.00018675631927465,0.00018675466035985,-0.00018675486626996,0.00018675615231118,-0.00019430671771962,0.00019430664598915,-0.0001943064315609,0.00019430690256656,-0.00018675648661169,0.0001867545213975,-3.3964068172989e-10,-3.4049462583476e-10,-0.00015798729001787,0.00015798662195156,4.1988107710284e-10,-1.1093838904396e-09,-0.00013940619862886,0.00013940415873283,-0.00013469783124299,0.00013469557634646,-0.00013469776490049,0.00013469564493731,-0.00013940471464831,0.00013940570142247,-0.00013940485093801,0.00013940554482711,-0.00013469627499006,0.00013469715792179,-0.00013469632701901,0.00013469708972921,-0.00017776378922748,0.00017776363049933,-0.00017776426026499,0.00017776311760152,-0.00017776377442295,0.00017776364793159,-0.00017776427746034,0.00017776310222196,-0.00016847453182842,0.00016847327918372,-0.0001684745092787,0.0001684733510023,-0.0001684740457883,0.00016847380930579,-0.00016847398153262,0.00016847385414762,-0.00013940633669646,0.00013940398032691,0.77198654434712,128566,2924,0.0006866362021602,0.00079530039379124,0.00065806762785233,24.889609906385,-5.6883120748921e-05,-5.6883120748921e-05,-5.6883120748921e-05,1642456.0631297,0.0021423221795006
16391759,0.14665141825033,0.0025476855618058,0.00083923782623061,0.00088989735485034,0.00081855038072483,-0.00017957385138565,0.00017957457235332,3.7898260080125e-10,3.5426645911241e-10,3.5094749250824e-10,3.9163843733957e-10,-0.00011117833428561,0.00011117891318888,-0.00016039166500853,0.00016039253561567,-0.00016039175575915,0.00016039244477132,-0.00011117826043704,0.00011117882343502,-0.00011117814874721,0.00011117899450913,-0.00016039170856712,0.00016039235873502,-0.00016039164725943,0.00016039240406801,-0.0002042937059722,0.00020429438496355,-0.00020429367418758,0.00020429439185823,-0.00020429366050078,0.00020429439855058,-0.00020429367451848,0.00020429435666081,-0.00018085577233641,0.00018085661049704,-0.00018085589972727,0.00018085657068449,-0.00018085588083304,0.00018085655712987,-0.0001808558721076,0.00018085664101345,-0.00011117806470261,0.00011117907932446,-4.7367037704806e-11,-2.4879352146987e-10,-8.6909331563401e-10,5.4669601722371e-10,-0.0002092839574098,0.00020928369955013,-0.00020489470936937,0.00020489585443582,-0.00021310092281535,0.00021310025193118,-0.00021310101097873,0.00021310008561099,-0.00020604600921714,0.00020604538046986,-0.00020604552207591,0.00020604588601286,-0.00020604602533273,0.00020604533634025,-0.00020604559629645,0.00020604578569846,-0.00020489615501221,0.00020489438994561,-0.00020489483634554,0.00020489571091145,-0.0002131003551264,0.00021310077850185,-0.0002131006329785,0.00021310048147254,-0.00020489614846729,0.00020489439792364,-3.4183061937526e-10,-3.5040679240539e-10,-0.00017147886662081,0.00017147819595278,3.4962989077248e-10,-1.0379335223971e-09,-0.00015197562261584,0.00015197378398693,-0.0001462330157951,0.00014623088586574,-0.00014623292460956,0.00014623098848062,-0.00015197409287835,0.00015197501234405,-0.00015197437455027,0.00015197477767046,-0.00014623146059214,0.00014623225273932,-0.00014623155573208,0.00014623213854624,-0.0001932539514895,0.00019325374261179,-0.00019325435663257,0.00019325327419613,-0.00019325393265094,0.00019325376915385,-0.00019325438771023,0.00019325324638074,-0.00018407217687949,0.00018407090077444,-0.00018407211730457,0.0001840710242238,-0.00018407173799376,0.00018407142035753,-0.00018407164819931,0.00018407147208642,-0.00015197582963155,0.00015197348334722,0.77561891816553,128566,2924,0.0007479642666338,0.00087163303261587,0.00071424589107876,24.116342000006,-6.3069263999949e-05,-6.3069263999949e-05,-6.3069263999949e-05,1731714.1162815,0.0023365986089982
16591759,0.15838187063328,0.0027684237961532,0.00091099417738591,0.000970732825372,0.00088669679339526,-0.00019515742090323,0.00019515821617377,4.034938400806e-10,3.9815995532858e-10,3.8733180505864e-10,4.3470114377404e-10,-0.0001192083564178,0.00011920920333173,-0.00017541636481203,0.00017541724668443,-0.00017541638037517,0.00017541722354023,-0.00011920841911361,0.00011920914103272,-0.00011920839159512,0.00011920917071226,-0.00017541641059472,0.00017541717225521,-0.00017541638177859,0.00017541718172306,-0.00022206626848254,0.00022206703626245,-0.00022206625365992,0.00022206702829576,-0.00022206624578759,0.00022206703444393,-0.00022206623322396,0.00022206702018181,-0.00019735080907491,0.00019735164393349,-0.00019735083887681,0.00019735166149344,-0.00019735085967717,0.00019735163719051,-0.00019735088016435,0.00019735165234453,-0.0001192083165381,0.0001192092279016,-4.699121235513e-11,-1.2124168975254e-10,-7.1255265493933e-10,5.4163325703461e-10,-0.00022867594270096,0.00022867579418583,-0.00022427157212913,0.00022427264974074,-0.00023302302328081,0.00023302250069642,-0.00023302307492003,0.00023302239332234,-0.00022453117871549,0.00022453066269714,-0.00022453076780044,0.00022453108569697,-0.00022453118182543,0.00022453063183146,-0.00022453078382881,0.00022453104674532,-0.00022427280802965,0.00022427137431412,-0.00022427159051148,0.00022427261689101,-0.00023302261566569,0.00023302292007716,-0.0002330226607654,0.00023302281825211,-0.00022427279888298,0.00022427141483491,-3.4357188253596e-10,-3.2927330899031e-10,-0.00018572547969161,0.00018572482064416,2.8087849953341e-10,-9.5925126282879e-10,-0.00016574121181184,0.0001657393291257,-0.00015875149566935,0.0001587495795343,-0.00015875147446237,0.00015874960830652,-0.00016573998220773,0.00016574058897259,-0.00016574002060003,0.00016574052508827,-0.0001587502563033,0.00015875083552933,-0.00015875027386666,0.00015875079100561,-0.00020940486268306,0.00020940462691786,-0.00020940524770903,0.00020940419225659,-0.00020940485936482,0.00020940463807766,-0.00020940524754897,0.00020940419514917,-0.00020073179958787,0.00020073070537079,-0.00020073183089692,0.00020073072026888,-0.00020073142324528,0.00020073112428304,-0.00020073139066367,0.00020073114608717,-0.0001657412144818,0.00016573927782508,0.80315472117695,128566,2924,0.0008128506240697,0.00095235951625932,0.0007735649744714,23.785011484897,-6.5719908120824e-05,-6.5719908120824e-05,-6.5719908120824e-05,1815953.4911588,0.0025420330939247
16791759,0.17006395942388,0.0029885811425754,0.00098236379887139,0.0010520812114442,0.00095413613225985,-0.00021105326324506,0.00021105407578905,4.1494628804338e-10,4.0339709556181e-10,5.2265080030328e-10,3.1776652939918e-10,-0.00012687177152346,0.00012687235869436,-0.00019060147240859,0.00019060213851568,-0.00019060150215315,0.0001906021017495,-0.00012687158101725,0.00012687255035594,-0.00012687153671858,0.00012687259580228,-0.0001906012875996,0.00019060230923435,-0.00019060125051839,0.00019060232741525,-0.00024027395138031,0.00024027481588921,-0.0002402739331584,0.00024027481102553,-0.00024027400463197,0.00024027473321565,-0.00024027399830677,0.00024027471108233,-0.00021422817440417,0.00021422896446337,-0.00021422822518597,0.00021422895845004,-0.00021422815692351,0.00021422902514719,-0.00021422816550865,0.00021422904906475,-0.00012687170037475,0.00012687241486291,-1.2245505518506e-10,4.7203349705362e-11,-5.9678475315015e-10,5.164732362001e-10,-0.00024866730058504,0.000248667241702,-0.00024433716922957,0.00024433813060711,-0.00025366676445516,0.00025366612243484,-0.00025366655584217,0.00025366626939411,-0.00024349178486661,0.00024349131932026,-0.00024349141528085,0.00024349169603603,-0.00024349170589632,0.00024349137269583,-0.00024349135622805,0.00024349173594917,-0.00024433818424322,0.0002443370784871,-0.00024433711520936,0.00024433816663455,-0.00025366638565349,0.00025366651278687,-0.00025366620726354,0.00025366663224163,-0.00024433827336607,0.00024433702197088,-3.3473035271676e-10,-3.2378009878343e-10,-0.00020017382368748,0.00020017317900349,2.1313457205011e-10,-8.7668915174636e-10,-0.00017960967472085,0.00017960800602812,-0.00017121882717616,0.00017121706011716,-0.00017121879327442,0.00017121710184053,-0.00017960860007011,0.00017960911515621,-0.00017960868083832,0.00017960900900153,-0.00017121773161245,0.00017121818756432,-0.00017121775894952,0.00017121813150661,-0.00022588440733501,0.00022588413172149,-0.00022588473605933,0.00022588375173598,-0.00022588439982989,0.00022588414847601,-0.00022588474231509,0.00022588374759722,-0.00021777048133364,0.00021776943157776,-0.00021777049213785,0.00021776946446152,-0.00021777015123426,0.00021776980452191,-0.00021777010737275,0.00021776983682691,-0.00017960972500941,0.00017960790587098,0.80668182183564,128566,2924,0.00087903378501945,0.0010355742592221,0.00083372081561061,23.660111066226,-6.6719111470192e-05,-6.6719111470192e-05,-6.6719111470192e-05,1905859.4984234,0.0027521447464056
16991759,0.18164015632168,0.0032019574138084,0.0010514808511465,0.0011314938886935,0.0010189826739684,-0.00022642883523922,0.00022642967793881,4.3234770310386e-10,4.1609251964444e-10,5.9136596765356e-10,2.8092963009411e-10,-0.00013349069731514,0.00013349117897693,-0.00020488742274653,0.00020488803095495,-0.00020488746486088,0.00020488797887164,-0.0001334903856261,0.00013349147233493,-0.00013349032675437,0.00013349154139829,-0.00020488713902107,0.00020488829146703,-0.00020488709573639,0.00020488831603652,-0.00025812824590574,0.00025812917089024,-0.00025812822516377,0.0002581291686344,-0.00025812832731458,0.00025812905622036,-0.00025812832670139,0.00025812902868426,-0.00023046913682966,0.00023046993535273,-0.00023046920594031,0.00023046991596672,-0.00023046909589774,0.00023047002475114,-0.00023046910086272,0.00023047006034446,-0.00013349058776216,0.00013349126420776,-1.1831346903121e-10,1.0749391154655e-10,-4.9725553521414e-10,4.7624142962182e-10,-0.00026827208170928,0.0002682720871992,-0.00026398473926852,0.00026398560530561,-0.00027396820212596,0.00027396759938124,-0.00027396791838735,0.00027396780859938,-0.00026205410405234,0.00026205373030233,-0.00026205377663949,0.00026205406529609,-0.00026205400320193,0.00026205380639982,-0.00026205370133842,0.00026205412037113,-0.00026398559760324,0.00026398471090389,-0.00026398467596468,0.0002639856500237,-0.00027396784982472,0.00027396794895037,-0.00027396763106505,0.00027396810912212,-0.00026398571440085,0.00026398462403788,-3.2453466514721e-10,-3.1554593122131e-10,-0.00021401091193121,0.00021401028630692,1.5618335554278e-10,-7.9943291040091e-10,-0.00019246670390485,0.00019246522336581,-0.00018269522666149,0.0001826936013347,-0.00018269518233514,0.00018269365623178,-0.0001924657449947,0.00019246618452448,-0.00019246586354184,0.00019246603977231,-0.00018269424096465,0.00018269459896949,-0.00018269428049487,0.00018269452644782,-0.00024193688035235,0.0002419365755929,-0.00024193715903154,0.00024193624369331,-0.00024193686965501,0.00024193659672864,-0.00024193717010395,0.00024193623381999,-0.00023418235846546,0.00023418135331741,-0.00023418235422689,0.00023418140435837,-0.000234182073868,0.00023418169113762,-0.00023418202004575,0.00023418173405044,-0.00019246678530392,0.00019246507925432,0.79134050452478,128566,2924,0.00094304783289459,0.0011171730571009,0.00089132881524778,23.477553229609,-6.8179574163129e-05,-6.8179574163129e-05,-6.8179574163129e-05,1996867.8114622,0.0029559499883412
17191759,0.19287548912542,0.0034036183302925,0.0011168226372908,0.0012069748279351,0.0010798208650666,-0.00024055123636709,0.00024055217688472,4.863771075169e-10,4.5905752527683e-10,5.1515438207842e-10,4.6003721875963e-10,-0.00013881450723214,0.00013881526164249,-0.0002175980177628,0.00021759900891976,-0.00021759808730228,0.00021759892589039,-0.00013881443258113,0.00013881530779433,-0.00013881431848888,0.00013881543752079,-0.00021759800384429,0.00021759898896198,-0.00021759794168545,0.00021759903251367,-0.00027481103924977,0.00027481197080247,-0.00027481101470028,0.00027481197361921,-0.00027481102746861,0.00027481194948218,-0.00027481104000961,0.00027481191083244,-0.00024528433275195,0.00024528534561537,-0.00024528443768209,0.00024528529307093,-0.00024528440099335,0.00024528532901416,-0.00024528439500411,0.00024528538124149,-0.00013881431737144,0.00013881542712365,4.1588418149432e-11,-4.0762197272265e-11,-4.323901437485e-10,4.2115843517831e-10,-0.0002865705634615,0.00028657058208184,-0.00028223695880623,0.00028223783595527,-0.00029294577362792,0.0002929455001554,-0.0002929457603873,0.00029294542224638,-0.00027937562015728,0.00027937539535665,-0.00027937532452523,0.00027937570124388,-0.00027937561097665,0.00027937537629916,-0.00027937535629446,0.00027937564331514,-0.00028223780075004,0.00028223695578644,-0.00028223702175651,0.0002822377534307,-0.00029294543148533,0.00029294582898595,-0.00029294553783926,0.00029294565545266,-0.00028223783668939,0.00028223694884611,-3.0800794686672e-10,-3.0729615576099e-10,-0.000226546268063,0.0002265456672629,1.0448995037617e-10,-7.2149203628165e-10,-0.00020365060441839,0.00020364935599667,-0.00019262087408278,0.00019261937427689,-0.00019262080374206,0.00019261945833743,-0.000203649773165,0.00020365017679296,-0.00020364995214229,0.00020364996112257,-0.00019261998275396,0.00019262026363873,-0.00019262004387172,0.00019262016248859,-0.00025679943718206,0.00025679910800477,-0.00025679966368214,0.00025679882751839,-0.00025679942129905,0.0002567991352349,-0.0002567996856441,0.00025679880572134,-0.00024915579443823,0.00024915482251031,-0.00024915575723534,0.00024915490839477,-0.00024915554637627,0.00024915512999051,-0.00024915547922301,0.00024915519172674,-0.00020365075949032,0.00020364912732403,0.77293706602836,128566,2924,0.0010018422578146,0.0011933286514879,0.00094351507078723,23.03338187726,-7.1732944981917e-05,-7.1732944981917e-05,-7.1732944981917e-05,2080986.1128332,0.0031436624704969
17391759,0.20393110512103,0.0035940269795062,0.0011786033474635,0.0012785680042948,0.0011368556277478,-0.00025431638330158,0.00025431737021418,4.9765859516197e-10,4.9319888063112e-10,5.0323444760659e-10,5.2043456555185e-10,-0.00014362818836956,0.00014362926517375,-0.00022952500663372,0.00022952604619186,-0.00022952500863806,0.0002295260373228,-0.0001436282261986,0.00014362922626694,-0.00014362825722497,0.00014362919550602,-0.00022952501776222,0.00022952602815886,-0.00022952500526954,0.00022952602241755,-0.00029129131381947,0.00029129228294671,-0.00029129130265855,0.000291292270682,-0.00029129130042392,0.00029129226216781,-0.00029129128142468,0.000291292250317,-0.00025951364609306,0.00025951464633212,-0.00025951365695312,0.00025951467467566,-0.00025951367477923,0.0002595146603079,-0.00025951370337629,0.00025951465910723,-0.00014362820340588,0.00014362923587593,4.5465729641404e-11,1.6241831896714e-11,-3.4079626637858e-10,3.9728083284326e-10,-0.00030449255026083,0.0003044926256869,-0.00029994855699786,0.00029994931846678,-0.00031151353934883,0.00031151338164572,-0.00031151354808698,0.00031151329177022,-0.00029642155901586,0.00029642142684818,-0.00029642131884792,0.00029642166647267,-0.0002964215562393,0.00029642139991024,-0.00029642131751682,0.00029642164631855,-0.00029994926766657,0.00029994857008245,-0.00029994853019914,0.00029994931853882,-0.00031151331778978,0.00031151361840559,-0.00031151329300256,0.00031151356384516,-0.00029994926478491,0.00029994861087631,-3.1202611542708e-10,-2.85254344898e-10,-0.0002386798503253,0.00023867926671698,6.8542546875551e-11,-6.6887722600667e-10,-0.00021395276711007,0.00021395141692291,-0.00020180778590138,0.00020180645945081,-0.00020180778432991,0.00020180647258465,-0.00021395204261201,0.00021395220817207,-0.00021395205152511,0.00021395215875738,-0.00020180707509437,0.00020180722477194,-0.00020180707708731,0.00020180718413508,-0.00027142870860837,0.00027142838122239,-0.00027142892746623,0.00027142810648964,-0.00027142870633004,0.00027142839511121,-0.00027142891905347,0.00027142811600451,-0.00026355434430732,0.00026355351681314,-0.00026355439679155,0.00026355350535129,-0.00026355414593189,0.00026355375495445,-0.00026355411656279,0.00026355377704793,-0.0002139527222562,0.00021395141116971,0.74411350769073,128566,2924,0.0010591467726913,0.001267911793755,0.00099402654886205,22.772062464158,-7.3823500286733e-05,-7.3823500286733e-05,-7.3823500286733e-05,2170541.0690724,0.0033266586442978
17591759,0.21313848172443,0.0037464564622203,0.001228159485749,0.0013360697058838,0.0011822272705875,-0.00026141913227614,0.00026142070541654,7.5591229422917e-10,8.2280267280343e-10,-4.1543467520437e-10,2.0560193899895e-09,-0.00014362962474179,0.0001436343089905,-0.00023478933089773,0.000234793247503,-0.00023478920733879,0.00023479344452046,-0.00014363197967605,0.00014363167682802,-0.00014363251185525,0.00014363118971833,-0.00023479149465834,0.00023479085842725,-0.00023479167880369,0.0002347906960018,-0.0003007039241141,0.0003007046900332,-0.00030070393817177,0.00030070465266345,-0.00030070314910105,0.00030070541736391,-0.000300703056263,0.0003007054762816,-0.00026673351216347,0.00026673568539008,-0.00026673331845023,0.0002667359642525,-0.00026673421057539,0.00026673501754724,-0.00026673430720853,0.00026673497598109,-0.00014363012129293,0.00014363369370373,9.570919811146e-10,-1.2679599048864e-09,-4.7363512268388e-10,1.1359368893784e-10,-0.00031482468182433,0.00031482443274114,-0.00030995020103692,0.00030995085938689,-0.00032229879235488,0.00032230056402925,-0.00032230100717751,0.00032229813013722,-0.00030621662918458,0.0003062170690241,-0.00030621648688442,0.00030621722541592,-0.00030621737857977,0.00030621626269406,-0.00030621714343346,0.00030621651735433,-0.00030995148356108,0.00030994954897115,-0.00030995073364478,0.00030995026767645,-0.00032229867929941,0.00032230059319241,-0.00032230070692626,0.00032229848032876,-0.00030995057548025,0.00030995044384468,-3.5109606689876e-10,-2.5110803435133e-10,-0.00024437644634133,0.00024437586527077,6.425482340484e-11,-6.6528555124365e-10,-0.00021768215935193,0.00021768023818768,-0.00020487235817202,0.00020487122402323,-0.00020487252609701,0.00020487107053342,-0.00021768107771063,0.00021768082586527,-0.00021768081518214,0.0002176811567843,-0.00020487155780238,0.00020487159365701,-0.00020487148579428,0.0002048716683237,-0.00027929645048855,0.00027929615258708,-0.00027929669353384,0.00027929580938484,-0.00027929647168655,0.00027929615029154,-0.00027929661805955,0.00027929588931683,-0.00027089739155054,0.0002708967507543,-0.00027089763651882,0.00027089653381828,-0.00027089725656075,0.00027089692795335,-0.00027089728635206,0.00027089686402361,-0.00021768163938993,0.00021768076222614,0.71798652184558,128566,2924,0.0010887182841245,0.0013109059942424,0.0010177418387154,20.397386590854,-9.2820907273167e-05,-9.2820907273167e-05,-9.2820907273167e-05,2205466.6372949,0.0034232715049997
17791759,0.22155328691888,0.0038812536583698,0.001272122074765,0.0013868561068596,0.0012222754767452,-0.00026948800589158,0.00026948967042697,8.1087007467435e-10,8.5271095717367e-10,-3.9801028103706e-10,2.1314259917961e-09,-0.00014516854852977,0.00014517306654378,-0.00024104789986983,0.00024105203434293,-0.00024104784593645,0.00024105215245756,-0.00014517109749875,0.0001451704937878,-0.00014517129780377,0.00014517028299292,-0.00024105031980903,0.00024104960199672,-0.00024105038125598,0.00024104954837191,-0.00031095281407486,0.0003109536391801,-0.00031095280290961,0.00031095361901207,-0.00031095200509849,0.00031095441726424,-0.00031095193551201,0.00031095443342331,-0.00027482358604295,0.00027482600041754,-0.00027482348893882,0.00027482612292053,-0.00027482439223707,0.00027482519556958,-0.00027482440280083,0.00027482516737543,-0.0001451687919635,0.00014517279251865,1.0640239886063e-09,-1.3369691880679e-09,-3.8368867051567e-10,1.3000452930381e-10,-0.00032586232843364,0.0003258620877577,-0.00032057546288478,0.00032057641546211,-0.00033374041120533,0.00033374237109112,-0.00033374277128246,0.00033373986930482,-0.00031680919620981,0.00031680962724182,-0.00031680904599228,0.00031680974939384,-0.00031680997728668,0.00031680878236792,-0.00031680979005012,0.00031680896752734,-0.00032057671754741,0.00032057510568621,-0.0003205761145409,0.00032057568387645,-0.00033374033766335,0.00033374253107766,-0.00033374255582173,0.00033374015792439,-0.00032057590280855,0.00032057599330893,-3.3058409721348e-10,-2.4877089688898e-10,-0.0002511250595625,0.00025112449480019,2.7752469262226e-11,-6.1143279539689e-10,-0.00022245475409436,0.00022245329026731,-0.00020911970979586,0.00020911858648939,-0.00020911978106415,0.00020911851149513,-0.00022245411306419,0.00022245404421106,-0.00022245402708496,0.00022245415071563,-0.00020911917086807,0.00020911917396541,-0.00020911913237941,0.0002091192231295,-0.000288094463337,0.00028809412355165,-0.00028809466041024,0.00028809384766009,-0.0002880944636675,0.00028809414559859,-0.00028809461592803,0.00028809389867096,-0.00027910264097857,0.00027910199284398,-0.0002791027917889,0.00027910183862011,-0.00027910250320729,0.00027910209469486,-0.00027910246800254,0.00027910209814811,-0.00022245455015178,0.00022245357372989,0.69669370482356,128566,2924,0.0011223086721895,0.0013568346421916,0.0010458353363042,19.228832680078,-0.00010216933855938,-0.00010216933855938,-0.00010216933855938,2256507.4301297,0.0035312654119899
17991759,0.22996111190938,0.0040140692736575,0.0013154874715746,0.0014369305692762,0.0012616512328067,-0.00027947832498768,0.00027947972411456,7.0242558308648e-10,6.9916441581217e-10,1.818728030063e-10,1.2720268983705e-09,-0.00014856267065741,0.00014856524414771,-0.00024924686535161,0.00024924937866047,-0.00024924685278429,0.0002492493869325,-0.00014856376455185,0.00014856415192205,-0.00014856382306742,0.00014856410643994,-0.0002492479184784,0.00024924829826979,-0.0002492479135863,0.00024924828711447,-0.00032318070050331,0.00032318172522592,-0.00032318068858296,0.00032318171414374,-0.00032318034320224,0.00032318205565722,-0.00032318031529692,0.00032318204549992,-0.00028483147238643,0.00028483324235308,-0.00028483148814331,0.00028483326052454,-0.00028483186670643,0.00028483289858856,-0.00028483188705556,0.00028483290639469,-0.00014856269913217,0.00014856520701183,4.980835272872e-10,-5.772978500499e-10,-2.9122451779089e-10,2.2451397463454e-10,-0.00033888650450111,0.00033888644989329,-0.00033312718606971,0.00033312795055403,-0.00034713174679585,0.00034713254294137,-0.00034713276130349,0.00034713140975129,-0.00032942293446367,0.00032942308890059,-0.00032942277616787,0.00032942324381891,-0.00032942326411076,0.00032942271318077,-0.00032942309593278,0.00032942288694292,-0.00033312801551636,0.0003331270829684,-0.00033312749577285,0.00033312760803276,-0.00034713159288326,0.00034713271236163,-0.00034713259020425,0.00034713160308418,-0.00033312768590558,0.00033312747536681,-2.9171971426373e-10,-2.5047092580445e-10,-0.00025976553846062,0.00025976501090394,-2.7285523348565e-12,-5.4014170908981e-10,-0.0002290735673118,0.00022907249275418,-0.00021527263272328,0.00021527157040591,-0.00021527263600235,0.00021527156521303,-0.00022907305940345,0.00022907310795051,-0.00022907310864198,0.00022907303663069,-0.00021527214325677,0.00021527214460437,-0.00021527213686224,0.00021527211773274,-0.00029883339598465,0.00029883305286892,-0.00029883354749479,0.0002988328415256,-0.00029883338945965,0.00029883307658841,-0.00029883353084311,0.00029883285625497,-0.00028921837079428,0.00028921767751279,-0.0002892184321893,0.00028921764626958,-0.00028921824805717,0.00028921782687375,-0.00028921820273139,0.00028921786575005,-0.0002290735472696,0.0002290724963777,0.68920463733135,128566,2924,0.0011638944740195,0.0014110269423314,0.001081802560581,19.173597369113,-0.0001026112210471,-0.0001026112210471,-0.0001026112210471,2329462.1958431,0.0036634925305095
18191759,0.23756253969645,0.004135908820855,0.0013552480179007,0.0014829513902718,0.0012977094126826,-0.00028628812686634,0.00028628959083479,7.4694254735172e-10,7.2060103596755e-10,1.1405120433605e-10,1.4086373164351e-09,-0.00014979104027721,0.0001497937695531,-0.00025465314699072,0.00025465596657344,-0.0002546531683165,0.00025465593976749,-0.0001497921935435,0.00014979243705138,-0.00014979225874429,0.00014979242314989,-0.00025465437327845,0.0002546546346363,-0.00025465437923213,0.00025465461671663,-0.00033191633490178,0.00033191735172725,-0.00033191631801257,0.00033191733789331,-0.0003319158921545,0.00033191774893999,-0.00033191587576213,0.00033191772017422,-0.00029167692590201,0.00029167886300866,-0.00029167696994723,0.00029167883845731,-0.00029167740382154,0.0002916784389986,-0.00029167741609137,0.00029167843764672,-0.00014979092366832,0.00014979379097526,5.9474786444923e-10,-7.2605737222508e-10,-3.5100018130304e-10,1.9580568778535e-10,-0.00034832523791839,0.00034832514540932,-0.00034215065240308,0.00034215140459302,-0.00035682027269862,0.00035682121551165,-0.00035682148021198,0.00035681984686128,-0.00033856222452253,0.00033856244388419,-0.00033856204019462,0.00033856261289105,-0.00033856262152046,0.00033856199363447,-0.00033856244548934,0.00033856216834798,-0.00034215159986471,0.00034215042570237,-0.00034215107023974,0.00034215095679144,-0.000356820052235,0.00035682139297971,-0.00035682133300426,0.00035682001258444,-0.000342151180777,0.00034215086445697,-2.8122048493046e-10,-2.6032134905265e-10,-0.00026532282290906,0.00026532229828409,-2.1496172803689e-11,-5.2561709557562e-10,-0.0002329227968125,0.00023292186267159,-0.00021879236197231,0.00021879131500925,-0.00021879234615314,0.0002187913392065,-0.00023292219181644,0.00023292227147702,-0.00023292232598491,0.00023292213903482,-0.00021879177078802,0.00021879176959877,-0.00021879180019209,0.0002187917010712,-0.00030621792377695,0.00030621758211349,-0.00030621804716206,0.00030621737456031,-0.00030621791793439,0.00030621760659073,-0.00030621804495673,0.00030621737550031,-0.0002961074458218,0.00029610670956371,-0.00029610745978885,0.00029610673097159,-0.00029610731945306,0.00029610689543259,-0.00029610727642939,0.00029610692873277,-0.0002329228592498,0.00023292173212333,0.70094301975109,128566,2924,0.0011922423194045,0.0014502980111468,0.0011049357665987,17.890238073657,-0.00011287809541075,-0.00011287809541075,-0.00011287809541075,2364521.3721138,0.0037545881951201
18391759,0.24438856217572,0.004245576220449,0.0013910586963441,0.0015243816475377,0.0013301358765672,-0.00029202750058394,0.00029202904469823,7.8308722358682e-10,7.6414823771131e-10,3.9131951847203e-11,1.5674987315853e-09,-0.000150533121925,0.00015053621259323,-0.00025923864708576,0.00025924177692716,-0.00025923867777208,0.00025924177209205,-0.00015053456290908,0.00015053467693654,-0.00015053461908415,0.00015053464802377,-0.00025924011778166,0.00025924021816032,-0.0002592401217478,0.00025924020923237,-0.00033935792758381,0.00033935894873569,-0.00033935791504803,0.00033935893948039,-0.00033935741339475,0.0003393594269189,-0.00033935740436718,0.0003393594058696,-0.00029749570392191,0.00029749778666731,-0.00029749574325925,0.00029749778722068,-0.00029749625245833,0.00029749727873126,-0.00029749627057161,0.0002974972867259,-0.00015053305253632,0.00015053622261949,7.0110524701008e-10,-8.1823046157694e-10,-3.2990511662514e-10,2.0378835165574e-10,-0.00035642319175566,0.00035642310907576,-0.00034989986143338,0.00034990070409012,-0.00036511412457817,0.00036511529005397,-0.00036511553951217,0.00036511371604259,-0.00034638481469496,0.00034638510118778,-0.00034638464623896,0.0003463852769299,-0.00034638527958888,0.00034638458414566,-0.0003463851118076,0.00034638476275935,-0.00034990085348736,0.00034989967062075,-0.00034990032962772,0.00034990019440588,-0.00036511393079278,0.00036511546149982,-0.00036511538095305,0.00036511389612476,-0.00034990037282856,0.00034990018480133,-2.8149426351261e-10,-2.479629617997e-10,-0.00026990283262155,0.00026990231841695,-8.4685092551715e-12,-5.2496097136977e-10,-0.00023603477909211,0.00023603377023439,-0.00022159481501484,0.00022159376953643,-0.00022159480334681,0.00022159378758913,-0.00023603421768777,0.00023603428763169,-0.00023603431657095,0.00023603417058313,-0.0002215942518044,0.00022159425519091,-0.00022159426699711,0.00022159420792478,-0.00031241783942115,0.00031241750487293,-0.00031241797374702,0.00031241730069946,-0.00031241783069146,0.00031241753120412,-0.00031241796537121,0.00031241730407196,-0.00030193769126526,0.0003019369893595,-0.00030193772712931,0.0003019369842373,-0.00030193756655726,0.00030193714196457,-0.00030193751066627,0.000301937182863,-0.00023603482182407,0.00023603371833077,0.70345144367142,128566,2924,0.0012161343331174,0.0014839893250647,0.0011240008835401,16.542264678181,-0.00012366188257455,-0.00012366188257455,-0.00012366188257455,2385671.6083051,0.0038315336622556
18591759,0.25093252429807,0.0043484307723976,0.0014246923847966,0.0015632574918854,0.0013604808957156,-0.00029876467073626,0.00029876606147188,7.2406967751396e-10,6.6829125400651e-10,3.3178398260943e-10,1.1127483940504e-09,-0.00015223063659607,0.00015223259672048,-0.00026477755735023,0.00026477983262221,-0.00026477760870289,0.00026477974446873,-0.00015223130896087,0.00015223184631322,-0.00015223124023965,0.00015223195141114,-0.00026477837467167,0.00026477901766402,-0.00026477831310682,0.00026477904328101,-0.00034780460043041,0.00034780570976901,-0.00034780457069514,0.00034780569401299,-0.00034780431061398,0.00034780594830286,-0.00034780430633027,0.00034780588724853,-0.00030432100290596,0.00030432277286391,-0.00030432109814685,0.00030432265738085,-0.00030432134880236,0.00030432247898427,-0.00030432134460357,0.0003043224498935,-0.00015223034762869,0.00015223278171124,4.3810217254406e-10,-4.2835301984457e-10,-2.7454329450845e-10,2.9065950963973e-10,-0.00036550918452843,0.00036550921699676,-0.00035862067372245,0.00035862156927942,-0.00037439196666672,0.00037439258555464,-0.0003743927375523,0.00037439171068495,-0.00035519057904308,0.00035519072205699,-0.0003551903572057,0.00035519088124595,-0.00035519081728506,0.00035519042850047,-0.00035519063832807,0.00035519057914695,-0.00035862149930077,0.00035862071907743,-0.00035862097457201,0.00035862123586051,-0.0003743917646182,0.00037439283523303,-0.00037439260276193,0.00037439186842095,-0.00035862129552498,0.00035862097489422,-2.75090061897e-10,-2.7282369004854e-10,-0.00027550356827465,0.00027550303729786,-3.4503450564823e-11,-5.2173174587103e-10,-0.0002401135063244,0.0002401127596358,-0.00022537540861966,0.00022537433438131,-0.00022537534723265,0.0002253744012784,-0.00024011309605097,0.0002401132638914,-0.00024011328213164,0.00024011303539359,-0.00022537493451224,0.00022537493888715,-0.00022537497681304,0.00022537484272952,-0.0003196417527857,0.00031964139940503,-0.00031964186161838,0.00031964120892808,-0.00031964174487297,0.00031964142831371,-0.00031964187813605,0.00031964119324145,-0.00030876380713866,0.00030876303175703,-0.00030876377205928,0.00030876309625685,-0.00030876366175212,0.00030876320419748,-0.00030876359805371,0.00030876325294387,-0.00024011370138687,0.00024011249214443,0.68932345375364,128566,2924,0.0012441778767439,0.0015217903819098,0.001147313817284,15.993808652646,-0.00012804953077883,-0.00012804953077883,-0.00012804953077883,2421050.8413484,0.0039210435586557
18791759,0.25740004588114,0.0044562589457147,0.0014598717632832,0.001604037706534,0.0013923494758975,-0.00030643846954364,0.00030643970770311,6.3020059003618e-10,6.1309420998832e-10,6.435777057311e-10,6.4056339427948e-10,-0.00015512984294665,0.00015513112817425,-0.00027171137569519,0.00027171266196402,-0.00027171137548443,0.00027171265281278,-0.0001551297939844,0.00015513112636329,-0.00015512987057458,0.00015513108003893,-0.00027171135936732,0.00027171265075377,-0.00027171135215187,0.00027171263940238,-0.00035703703588882,0.00035703825904673,-0.00035703702102903,0.00035703824480651,-0.00035703702110273,0.00035703822580228,-0.00035703700396102,0.00035703820420868,-0.00031230501285587,0.00031230627136417,-0.00031230503603753,0.00031230628072987,-0.00031230504504332,0.00031230629478493,-0.0003123050788344,0.00031230628689466,-0.00015512980988953,0.00015513109995325,8.5636043804115e-11,8.9452321322398e-11,-1.8233884055594e-10,3.4962489196425e-10,-0.00037555199549039,0.00037555218835212,-0.00036841823666943,0.00036841887759468,-0.0003845853163398,0.00038458530213044,-0.00038458528476312,0.00038458522965958,-0.00036489028883445,0.00036489033688299,-0.00036489011623995,0.00036489049776084,-0.00036489026831354,0.00036489032167067,-0.00036489009137263,0.00036489049615999,-0.00036841872954756,0.00036841835866613,-0.00036841818922996,0.00036841889812246,-0.00038458516072616,0.00038458545573107,-0.00038458509750944,0.00038458542673204,-0.00036841875034685,0.00036841838292021,-2.9359003344388e-10,-2.4766223579918e-10,-0.00028200726311406,0.00028200673745653,-3.785332773366e-12,-5.4109494262727e-10,-0.00024550654247093,0.00024550545697289,-0.00023042633757012,0.00023042527999402,-0.00023042634638644,0.00023042528055446,-0.00024550599321824,0.00024550606564822,-0.00024550604959936,0.00024550597331597,-0.00023042582812205,0.00023042583599406,-0.0002304258292237,0.00023042579373645,-0.00032762211571188,0.00032762177880197,-0.0003276222626518,0.00032762156598846,-0.0003276221096833,0.00032762180357153,-0.00032762224684564,0.00032762157489471,-0.00031668613846642,0.0003166854481288,-0.00031668620545061,0.00031668542530343,-0.00031668602495993,0.00031668559996955,-0.00031668597076832,0.00031668564268902,-0.0002455065039384,0.00024550545089782,0.73043847751921,128566,2924,0.001276118660913,0.001563570492316,0.0011743842750065,15.814744149915,-0.00012948204680068,-0.00012948204680068,-0.00012948204680068,2452567.4036247,0.0040222408039077
18991759,0.264023973456,0.0045685697190162,0.001496456399846,0.0016466460144498,0.0014254673047204,-0.00031519302255616,0.00031519409849801,5.5505485629338e-10,5.2699207825743e-10,9.5579771213157e-10,1.5806901693092e-10,-0.0001585971073649,0.000158597398344,-0.00027981177981486,0.00027981212894131,-0.00027981179408305,0.00027981210600109,-0.00015859627292316,0.00015859818849708,-0.00015859631582118,0.00015859816517044,-0.00027981099352721,0.0002798128982126,-0.00027981098217923,0.00027981289163916,-0.00036743635164487,0.00036743767778527,-0.00036743633777284,0.00036743766274295,-0.00036743659268622,0.00036743738199763,-0.00036743658136705,0.00036743735242558,-0.00032148688475616,0.00032148774761007,-0.00032148693334609,0.00032148772794433,-0.00032148666915175,0.00032148801771197,-0.00032148669559841,0.00032148801216431,-0.00015859703367229,0.00015859742025379,-2.1933311493566e-10,5.5364514472675e-10,-1.1289183811419e-10,4.3168876996911e-10,-0.00038690906805494,0.00038690941407939,-0.00037962889693653,0.00037962945990398,-0.00039611059749204,0.00039610995176072,-0.00039610979062303,0.00039611066654747,-0.00037577961918681,0.00037577955800893,-0.00037577943717472,0.00037577972986602,-0.0003757793456601,0.00037577980503422,-0.00037577917052893,0.00037577997945876,-0.00037962914492845,0.00037962918200186,-0.00037962861151229,0.00037962972049928,-0.00039611041337737,0.00039611013312212,-0.00039610962287546,0.00039611084815832,-0.00037962943512319,0.00037962893001593,-2.9497289324376e-10,-2.5554807680207e-10,-0.00028951449931011,0.00028951396404912,-1.0128080744591e-11,-5.4651562443863e-10,-0.00025193666744025,0.00025193561655085,-0.00023640804760317,0.00023640696346314,-0.00023640804102286,0.0002364069793713,-0.00025193612181251,0.000251936207865,-0.00025193620882547,0.0002519360845049,-0.00023640752170654,0.00023640752933478,-0.00023640753648148,0.00023640747471751,-0.00033670005165952,0.00033669970441812,-0.00033670019353245,0.00033669949510502,-0.00033670004276242,0.0003366997305416,-0.00033670018317864,0.00033669949794511,-0.00032581152059575,0.00032581080204731,-0.00032581156939751,0.00032581079843338,-0.00032581140043979,0.00032581096061308,-0.0003258113381826,0.00032581100686714,-0.00025193667330249,0.00025193556050235,0.74319115636973,128566,2924,0.001312556854306,0.0016108161213474,0.0012056307940858,16.067597363186,-0.00012745922109451,-0.00012745922109451,-0.00012745922109451,2488302.7523252,0.0041376459073227
19191759,0.27132090666181,0.0046993858722064,0.0015389163321238,0.0016964774289991,0.0014639921110835,-0.00032685500467127,0.00032685579421305,4.4398077683909e-10,3.5208413534708e-10,1.5110794723094e-09,-7.0023137414012e-10,-0.00016429011162771,0.00016428826493627,-0.00029115711523255,0.00029115590942323,-0.00029115725528046,0.0002911557282154,-0.00016428786312724,0.00016429051060047,-0.00016428757483257,0.0001642908349668,-0.00029115510058667,0.00029115798669385,-0.00029115496232003,0.00029115809231899,-0.00038084299631675,0.00038084448474468,-0.00038084296211326,0.00038084448946295,-0.0003808436587628,0.00038084376716413,-0.00038084371061,0.00038084367594378,-0.00033385989078255,0.00033386018861809,-0.00033386013268395,0.00033385997891307,-0.00033385933087552,0.00033386081942498,-0.00033385931136496,0.00033386087097266,-0.00016428961968536,0.00016428870809319,-6.7296974505976e-10,1.2757503923042e-09,8.661898620237e-12,5.8806123410355e-10,-0.00040163221816253,0.00040163281053038,-0.00039437185196487,0.00039437249226837,-0.00041104218559465,0.00041104052716684,-0.00041104013213847,0.00041104253930026,-0.00038983567713673,0.00038983539640094,-0.00038983544485153,0.00038983561851515,-0.00038983498739667,0.0003898360784448,-0.00038983484018737,0.00038983622069539,-0.00039437174009422,0.00039437256295364,-0.00039437130514407,0.00039437302182216,-0.00041104189355634,0.00041104084626028,-0.00041104006455715,0.00041104261250716,-0.00039437255888413,0.0003943718080337,-2.6586260342437e-10,-2.8452193051448e-10,-0.00029973584212291,0.00029973530580449,-2.6232205273952e-11,-5.2617486655724e-10,-0.00026138533328418,0.00026138476962281,-0.00024519174412927,0.00024519055257073,-0.00024519160162898,0.00024519071368888,-0.00026138493224813,0.00026138532737212,-0.00026138532064438,0.00026138489974737,-0.00024519121110314,0.00024519129078414,-0.00024519131799744,0.00024519113314596,-0.00034858848722664,0.00034858810018889,-0.00034858858347903,0.00034858795421498,-0.00034858845807559,0.00034858814808125,-0.00034858863215407,0.00034858789616769,-0.00033809521986041,0.0003380943373962,-0.00033809509889115,0.00033809451800253,-0.00033809506460654,0.00033809454586584,-0.00033809494164132,0.00033809466468127,-0.0002613857134004,0.00026138426131429,0.78535097009355,128566,2924,0.0013610933485207,0.0016720613596537,0.0012481717720987,17.221424691474,-0.00011822860246821,-0.00011822860246821,-0.00011822860246821,2537962.3876047,0.0042906158744495
19391759,0.27917912791457,0.0048370972738275,0.0015835542714256,0.0017493083337963,0.0015042346686056,-0.0003385857398136,0.00033858649191762,4.1146806813884e-10,3.4788746420692e-10,1.6000304802848e-09,-8.2564030298343e-10,-0.00016903952309991,0.00016903765962818,-0.00030221946106654,0.00030221794374698,-0.0003022195475805,0.00030221784993922,-0.00016903704243844,0.00016904008033899,-0.00016903694185418,0.00016904020380295,-0.00030221714588783,0.00030222027851612,-0.00030221709101748,0.00030222031643257,-0.00039460156716074,0.00039460310286628,-0.00039460154940701,0.0003946030922242,-0.00039460231672906,0.00039460228392482,-0.00039460233748331,0.0003946022243078,-0.00034627391193305,0.00034627399737958,-0.00034627403980842,0.00034627390025324,-0.00034627320324354,0.00034627475826756,-0.00034627321926082,0.00034627476225312,-0.00016903923718343,0.00016903788538639,-8.1345951317908e-10,1.5247568342989e-09,6.0358494074732e-11,6.1884518135156e-10,-0.00041681075342323,0.00041681145956977,-0.00040957807644799,0.00040957853708248,-0.00042651278337527,0.00042651091849576,-0.00042651040310915,0.00042651323152084,-0.0004042465724054,0.00040424633371257,-0.00040424636994718,0.00040424653048807,-0.00040424578218682,0.00040424711702271,-0.00040424562047641,0.00040424727996913,-0.00040957781417886,0.00040957876697195,-0.00040957731708004,0.00040957927484799,-0.0004265125515194,0.00042651114501414,-0.00042651027229447,0.00042651337497037,-0.00040957866895844,0.00040957794080904,-2.8801793868625e-10,-2.7473379005016e-10,-0.00030987512744925,0.00030987457893173,-3.357427565751e-11,-5.3729326694462e-10,-0.00027032358244331,0.00027032272812274,-0.00025343554270803,0.00025343441069008,-0.0002534354795191,0.00025343449649574,-0.0002703230839886,0.00027032325859186,-0.00027032329266852,0.00027032299680122,-0.00025343500144868,0.00025343501004525,-0.00025343506087477,0.00025343490295824,-0.00036070015340115,0.00036069977469311,-0.00036070026979538,0.00036069959498783,-0.00036070013762609,0.00036069980806664,-0.00036070028430873,0.00036069957040172,-0.00035044378440647,0.000350442988211,-0.00035044376146961,0.00035044306670412,-0.00035044365088851,0.00035044316282224,-0.00035044356441654,0.00035044323566228,-0.0002703237487088,0.00027032247170235,0.76951814527518,128566,2924,0.0014099161020811,0.0017351966720627,0.0012903701552643,18.120284174031,-0.00011103772660775,-0.00011103772660775,-0.00011103772660775,2590685.9448294,0.0044454528255032
19591759,0.28724687065178,0.0049749799666993,0.0016282710964954,0.0018024467262564,0.0015442621439475,-0.00034933617319809,0.00034933712428043,5.058869144432e-10,4.4992740563689e-10,1.2926171281767e-09,-3.0783914149024e-10,-0.00017272564053386,0.00017272485251365,-0.00031205796900876,0.00031205745271285,-0.00031205803276939,0.00031205737462925,-0.00017272399936061,0.00017272645159366,-0.00017272392982104,0.00017272654043069,-0.00031205645445836,0.00031205899407613,-0.00031205640852318,0.00031205902004735,-0.00040746244457934,0.00040746390663815,-0.00040746242851925,0.00040746389367931,-0.00040746292850687,0.00040746335723322,-0.00040746294255678,0.00040746330402099,-0.00035756563990511,0.00035756617412971,-0.00035756574965319,0.00035756609463516,-0.00035756519048587,0.00035756667342154,-0.0003575652125765,0.00035756667183609,-0.00017272541195603,0.00017272502883804,-4.1085923516474e-10,1.0958933452841e-09,6.8819775220754e-11,5.9040529681757e-10,-0.0004310152380684,0.00043101591919251,-0.00042374376034046,0.00042374443295929,-0.00044100555847034,0.00044100451538891,-0.00044100399948181,0.00044100598547355,-0.00041774702377611,0.00041774704613989,-0.00041774683585434,0.00041774722648005,-0.0004177465065023,0.00041774754577282,-0.00041774635213726,0.00041774769975671,-0.00042374373545971,0.00042374441597541,-0.00042374326337896,0.00042374490416723,-0.00044100535202519,0.00044100472130239,-0.00044100386967198,0.00044100612696607,-0.00042374430507657,0.00042374388425405,-2.9613824362208e-10,-2.7008985475192e-10,-0.00031895582714959,0.00031895527469951,-4.4052410571927e-11,-5.3081670771036e-10,-0.00027792522916898,0.000277924334841,-0.0002604040176264,0.0002604029137533,-0.00026040397109582,0.00026040298310783,-0.00027792475694833,0.00027792488394814,-0.00027792492535108,0.0002779246499541,-0.00026040351784065,0.0002604034974436,-0.00026040356659944,0.00026040339593757,-0.00037185940806055,0.00037185901858951,-0.0003718595221307,0.00037185884211859,-0.00037185939317074,0.00037185905397239,-0.00037185953013904,0.00037185882511196,-0.00036166958624898,0.00036166882107694,-0.00036166958728977,0.00036166886800754,-0.0003616694690802,0.00036166897643764,-0.00036166938912976,0.00036166904963448,-0.00027792533802676,0.00027792413775905,0.75194288244829,128566,2924,0.0014546590356323,0.0017942762417784,0.001328162108379,18.430868565779,-0.00010855305147377,-0.00010855305147377,-0.00010855305147377,2639210.1213734,0.0045877150658003
19791759,0.29542074218709,0.0051108934786382,0.0016724255472519,0.0018549624665968,0.0015835054647895,-0.00035974299780714,0.00035974420020466,6.2805637773525e-10,5.7679653880579e-10,9.425215447829e-10,3.0765418558905e-10,-0.0001760707103369,0.00017607119016099,-0.0003213549935692,0.0003213556789787,-0.00032135504588862,0.0003213556195231,-0.00017607001292233,0.00017607181200843,-0.00017606999180423,0.00017607185573293,-0.00032135439823328,0.00032135626628008,-0.00032135437262644,0.00032135627687335,-0.0004200356279377,0.00042003702214584,-0.0004200356142772,0.00042003700577998,-0.00042003579986442,0.00042003678674393,-0.00042003580674514,0.0004200367390211,-0.00036839895936463,0.0003684000429211,-0.00036839905354445,0.00036839998373245,-0.00036839881822946,0.00036840023421045,-0.00036839884854509,0.00036840022731392,-0.00017607052609888,0.0001760713114634,1.9404363577659e-11,5.7653766827293e-10,4.7065221160389e-11,5.2515451261071e-10,-0.00044483795368646,0.00044483855565387,-0.00043744329483046,0.00043744412775208,-0.00045509379245535,0.00045509361831035,-0.00045509316028222,0.0004550941217158,-0.00043094120433804,0.00043094148698401,-0.00043094103403356,0.00043094164977105,-0.00043094099697551,0.00043094166354427,-0.00043094085203102,0.00043094180858487,-0.00043744353668677,0.00043744383499891,-0.00043744309570776,0.00043744429429589,-0.00045509360312225,0.00045509379244808,-0.00045509303584737,0.00045509425793519,-0.00043744377803429,0.00043744363448579,-3.0078940410677e-10,-2.6517757205499e-10,-0.00032763417347826,0.00032763362166137,-6.136043825279e-11,-5.1397163749171e-10,-0.00028488694175002,0.00028488602578422,-0.00026680078943636,0.00026679973626963,-0.00026680075942419,0.00026679978886758,-0.00028488646878486,0.0002848865287579,-0.00028488661100213,0.00028488632166369,-0.00026680031663737,0.00026680025273006,-0.00026680035787776,0.00026680015806855,-0.00038268461372912,0.00038268421525409,-0.00038268471784871,0.00038268404290207,-0.00038268460103906,0.00038268425149335,-0.00038268471972065,0.00038268403361848,-0.000372429221257,0.0003724284886505,-0.00037242923887056,0.00037242851167112,-0.00037242911824905,0.00037242862026503,-0.00037242904460052,0.00037242869211291,-0.00028488700345511,0.00028488587957261,0.73295181803086,128566,2924,0.0014979711104204,0.0018517642409875,0.0013642786313188,18.579082030755,-0.00010736734375396,-0.00010736734375396,-0.00010736734375396,2689062.3605381,0.0047252783907608
19991759,0.30350558759725,0.0052480663944137,0.0017169602467222,0.0019080797696336,0.001623026378058,-0.00036966271784657,0.00036966418639295,7.9636147060078e-10,6.71331194734e-10,6.4925144932124e-10,8.7966305952236e-10,-0.00017929134608123,0.00017929250433895,-0.00033039362427331,0.00033039558796908,-0.00033039381127392,0.00033039535976155,-0.00017929145396441,0.00017929231610636,-0.00017929111817399,0.00017929269455563,-0.00033039399625813,0.00033039518579495,-0.0003303938589858,0.00033039529804735,-0.00043198627852753,0.00043198763116228,-0.00043198625329701,0.00043198763680047,-0.00043198612936195,0.00043198773551602,-0.0004319862130598,0.00043198762967949,-0.00037884373758538,0.00037884555926391,-0.00037884404845349,0.00037884530862122,-0.00037884401503784,0.0003788453682317,-0.00037884401430452,0.00037884543770209,-0.00017929073655889,0.00017929306737702,5.0448060693434e-10,-1.8674563460787e-11,-1.1357958375109e-11,4.8260819666557e-10,-0.00045807214531319,0.0004580726391527,-0.00045062138421765,0.00045062261855068,-0.00046854183204301,0.00046854248374995,-0.00046854211539954,0.00046854202780886,-0.000443559495768,0.00044355997067703,-0.00044355929035155,0.00044356020012744,-0.00044355959370346,0.00044355983471259,-0.00044355948930912,0.00044355995126985,-0.00045062198795218,0.0004506219307653,-0.00045062168639358,0.00045062228793442,-0.00046854149232091,0.00046854276626704,-0.00046854210830475,0.00046854201797245,-0.00045062199693407,0.00045062197655002,-2.4991822109692e-10,-2.8305733799207e-10,-0.00033578290933941,0.00033578238810179,-9.2628138669626e-11,-4.4459498989148e-10,-0.0002914866380872,0.00029148630500132,-0.00027285748899537,0.00027285641072618,-0.00027285731440664,0.00027285661795049,-0.00029148631590493,0.00029148665437791,-0.00029148676501761,0.0002914861157001,-0.00027285699119484,0.00027285697660634,-0.00027285713159043,0.00027285675989571,-0.00039286849154194,0.00039286806210341,-0.00039286852508385,0.00039286797710376,-0.00039286846001794,0.00039286811876171,-0.00039286859136638,0.00039286790049816,-0.00038272852749537,0.00038272766082384,-0.00038272835690676,0.00038272788881503,-0.0003827284060186,0.00038272785354547,-0.0003827282913051,0.00038272800253091,-0.00029148710004127,0.00029148568380206,0.74870071610815,128566,2924,0.0015392552766361,0.0019068011261343,0.0013981903165211,18.423898084803,-0.00010860881532158,-0.00010860881532158,-0.00010860881532158,2728911.8933273,0.0048561436011171
20191759,0.3115309658724,0.005387218548105,0.0017620936090661,0.0019620991324765,0.0016630258065623,-0.00037976498807913,0.00037976662843879,9.0296783442307e-10,7.3403545513247e-10,5.3411094398317e-10,1.1755394386359e-09,-0.00018258009783834,0.00018258153887386,-0.00033981541832722,0.00033981807810273,-0.00033981572737368,0.00033981774905895,-0.00018258058764213,0.00018258099166849,-0.00018258001609259,0.00018258157681843,-0.00033981630856532,0.00033981718838742,-0.00033981608871734,0.00033981738318617,-0.00044407011717918,0.00044407148900538,-0.00044407007259614,0.00044407150791631,-0.00044406980131136,0.00044407175766236,-0.00044406992829039,0.00044407159972848,-0.00038948731498354,0.00038948957564208,-0.00038948773378585,0.00038948919309178,-0.0003894878092242,0.00038948914432001,-0.00038948775341465,0.00038948923082036,-0.00018257917701241,0.00018258241922219,7.0841685246908e-10,-2.9592475714298e-10,-3.0643397306423e-11,4.397360649533e-10,-0.00047155091696801,0.0004715513379323,-0.00046416162713446,0.00046416303089475,-0.00048221091456314,0.00048221190348469,-0.00048221159874453,0.00048221104451106,-0.00045633998920938,0.00045634052627735,-0.00045633975448089,0.00045634076448883,-0.00045634021608855,0.00045634025061541,-0.00045634014726636,0.00045634032349926,-0.00046416236886354,0.00046416220995242,-0.00046416215491327,0.00046416245499863,-0.00048221053471659,0.00048221227929022,-0.00048221167472937,0.00048221097281771,-0.00046416231199364,0.00046416232909941,-2.3069044033795e-10,-3.0294254979099e-10,-0.00034404882225547,0.0003440483011038,-1.29124984989e-10,-4.1028448086969e-10,-0.00029830990173625,0.00029830994198538,-0.00027910320638568,0.00027910209566909,-0.00027910292454634,0.00027910240772528,-0.0002983097407236,0.00029831021219665,-0.00029831038420647,0.00029830944826824,-0.00027910271698142,0.00027910270648615,-0.00027910293118366,0.00027910241190405,-0.00040314967096811,0.0004031492052907,-0.00040314964823355,0.00040314916928515,-0.00040314962333002,0.00040314928107914,-0.0004031497593817,0.00040314904879932,-0.00039322501171141,0.00039322404885934,-0.00039322471154419,0.00039322439032305,-0.00039322486276409,0.00039322422772904,-0.00039322469466193,0.00039322442672815,-0.00029831069065091,0.00029830903132096,0.76566370860492,128566,2924,0.0015812982300629,0.0019628519468976,0.001432588557516,18.316846289585,-0.00010946522968332,-0.00010946522968332,-0.00010946522968332,2763585.8805797,0.004989296138647
20391759,0.31972565893479,0.0055302974659012,0.0018084870459237,0.0020178053348663,0.0017040050851113,-0.00039082903853735,0.00039083071078463,8.528682686363e-10,8.1628621524439e-10,6.4775329790491e-10,1.0951095047152e-09,-0.00018640799012634,0.00018641017346362,-0.00035023819381419,0.00035024038835484,-0.00035023819990085,0.00035024037267484,-0.0001864084202867,0.00018640969789764,-0.0001864084881128,0.0001864096307407,-0.00035023865031216,0.00035023996610402,-0.00035023864479834,0.00035023994559014,-0.00045718691572188,0.00045718843274695,-0.00045718691649142,0.00045718840071518,-0.00045718675455477,0.00045718854242587,-0.00045718674358529,0.00045718851291212,-0.0004011388646528,0.00040114069156224,-0.00040113886196525,0.00040114071194481,-0.00040113901636061,0.00040114058797955,-0.00040113909910736,0.0004011405107382,-0.00018640795989233,0.00018641015727811,4.7910686302597e-10,-1.1667851496322e-12,6.8654519916249e-11,4.1007584146453e-10,-0.00048618218656823,0.00048618266862567,-0.00047893287809405,0.00047893379043251,-0.00049703573911178,0.00049703660781456,-0.00049703620902596,0.00049703599029216,-0.00047018330924983,0.00047018386578813,-0.0004701831980609,0.00047018395899263,-0.00047018346369496,0.00047018366550999,-0.00047018334259986,0.00047018378067551,-0.00047893332925415,0.00047893328067372,-0.00047893294378022,0.00047893366667778,-0.00049703570790831,0.00049703667843241,-0.0004970360409489,0.00049703617568152,-0.00047893317964964,0.00047893349760188,-3.11116835987e-10,-2.4538478384712e-10,-0.00035315523394759,0.00035315469210724,-1.2473647357661e-10,-4.378697439911e-10,-0.00030590184141366,0.00030590090000524,-0.00028607906533443,0.00028607821265438,-0.00028607908842072,0.00028607821608463,-0.00030590155532453,0.00030590136551567,-0.00030590153310042,0.00030590126772908,-0.00028607883957003,0.00028607861389821,-0.00028607882935108,0.00028607854306095,-0.00041437510993593,0.000414374684161,-0.00041437518741616,0.00041437454265118,-0.00041437510956308,0.00041437471376529,-0.0004143751643375,0.00041437455829522,-0.00040472823645666,0.00040472764982773,-0.00040472833876971,0.00040472757436234,-0.00040472820403886,0.00040472768654701,-0.00040472816667219,0.00040472774790585,-0.00030590172492277,0.00030590093211354,0.77157698607746,128566,2924,0.0016273420293977,0.0020236919307955,0.0014704829227293,18.578325441671,-0.00010737339646663,-0.00010737339646663,-0.00010737339646663,2803927.6526251,0.0051348160341359
20591759,0.32785744810892,0.0056602066460869,0.001850869165176,0.0020684717833312,0.0017408656975797,-0.00040048589009641,0.00040048759670752,8.8261114572505e-10,8.2138514765197e-10,6.9175694010915e-10,1.0872217779151e-09,-0.0001885911171504,0.00018859312344374,-0.00035856836790845,0.00035857058507298,-0.00035856840713475,0.0003585705294437,-0.00018859144441817,0.00018859271796725,-0.00018859142036756,0.0001885927604803,-0.00035856878152663,0.00035857016806658,-0.00035856876284939,0.00035857016660273,-0.00046910590004258,0.00046910746041201,-0.00046910589464599,0.00046910743791159,-0.00046910574212202,0.00046910756755725,-0.00046910575490506,0.00046910751926356,-0.00041096910025215,0.00041097101287455,-0.00041096917971979,0.00041097096015864,-0.00041096928650229,0.00041097088627011,-0.00041096934592167,0.00041097084843533,-0.00018859092513528,0.00018859325643215,4.8655616154325e-10,-5.0837170488749e-13,7.9958522380851e-11,3.9642400648931e-10,-0.00049928006340534,0.00049928055755081,-0.00049190906085234,0.00049190998179559,-0.00051031251525083,0.00051031333340205,-0.00051031290962296,0.00051031276743413,-0.00048266807771146,0.00048266864565741,-0.00048266795959879,0.00048266875648491,-0.00048266821454153,0.00048266846388962,-0.00048266811840659,0.00048266855910285,-0.0004919094852686,0.00049190948482644,-0.00049190918615254,0.00049190980587618,-0.00051031239654871,0.00051031344786369,-0.00051031281991118,0.00051031286265824,-0.00049190937165214,0.00049190965933912,-2.9396764953058e-10,-2.4754614447896e-10,-0.00036084109324362,0.0003608405654135,-1.4062660957585e-10,-4.0806748580187e-10,-0.00031125602015813,0.00031125526890808,-0.00029107804973993,0.00029107720417894,-0.00029107802360791,0.00029107725535643,-0.00031125576009355,0.00031125564953527,-0.00031125585139006,0.00031125544260322,-0.00029107778874157,0.00029107756897003,-0.00029107781997422,0.00029107745841175,-0.00042441716910297,0.00042441673091451,-0.00042441721528686,0.00042441661972092,-0.00042441715874218,0.00042441676803319,-0.00042441721271993,0.00042441661478126,-0.00041445561656946,0.00041445499592828,-0.00041445565918987,0.00041445498650827,-0.00041445558431461,0.00041445505651183,-0.0004144555318303,0.00041445513584841,-0.00031125603221379,0.00031125516746547,0.70762321431942,128566,2924,0.0016675308211528,0.0020781522038729,0.0015024659018233,18.473861277377,-0.00010820910978098,-0.00010820910978098,-0.00010820910978098,2847052.2117563,0.0052621184031316
20791759,0.33558721732498,0.0057904797793589,0.0018932942857877,0.002119313714496,0.0017778717790751,-0.00040907935649012,0.00040908120228115,1.0178775381355e-09,8.2290188069182e-10,5.9765702792922e-10,1.3226316893921e-09,-0.00019091516566829,0.00019091689876489,-0.00036641913928543,0.00036642205678202,-0.00036641939936128,0.00036642175114404,-0.00019091564243546,0.00019091618594465,-0.00019091516943469,0.00019091671643079,-0.00036642005233762,0.00036642112010279,-0.00036641988497927,0.00036642125842608,-0.00047956716701332,0.00047956873997565,-0.00047956714703239,0.00047956873568876,-0.00047956684151285,0.0004795690233255,-0.000479566962012,0.00047956887456769,-0.00041982319100501,0.000419825665294,-0.00041982360548161,0.00041982529400497,-0.00041982368196291,0.00041982527105068,-0.00041982370033455,0.00041982530227586,-0.00019091425288389,0.00019091769149635,7.5248013674835e-10,-3.3013404527859e-10,-6.7041802801297e-12,4.2048849595332e-10,-0.00051093059577748,0.0005109310272059,-0.00050355579228656,0.00050355712817272,-0.00052203536374324,0.00052203647812794,-0.00052203614450962,0.00052203549613674,-0.00049378307444182,0.00049378367754141,-0.00049378286656892,0.00049378389665933,-0.00049378334186247,0.00049378336583293,-0.00049378327212664,0.0004937834397514,-0.00050355650245094,0.00050355630292903,-0.00050355631171097,0.00050355655344064,-0.00052203500198791,0.00052203678826339,-0.00052203620270563,0.000522035416345,-0.00050355638214143,0.00050355649985795,-2.0739334606028e-10,-2.9001791076495e-10,-0.00036750420766865,0.00036750372140223,-2.005318497072e-10,-2.9911970003737e-10,-0.0003162238702719,0.00031622408064798,-0.0002956590123683,0.00029565814300695,-0.00029565876869295,0.00029565843152329,-0.00031622376456845,0.00031622404278623,-0.00031622439280856,0.00031622340943848,-0.00029565872015854,0.00029565853634638,-0.00029565890483777,0.00029565826891235,-0.00043303918800894,0.00043303870968633,-0.00043303911998515,0.00043303872240768,-0.00043303916035209,0.0004330387700806,-0.00043303922197371,0.00043303861273262,-0.00042315044695645,0.00042314960318796,-0.00042315017776994,0.00042314992047003,-0.00042315035626695,0.00042314976429313,-0.00042315026153331,0.00042314991779791,-0.00031622451037882,0.00031622318946639,0.74689429762066,128566,2924,0.0017032940065126,0.0021265910423922,0.001530192414266,17.81351220037,-0.00011349190239704,-0.00011349190239704,-0.00011349190239704,2872709.5715093,0.0053746515525625
20991759,0.34282489974834,0.0059081154293198,0.0019317309989254,0.0021652516140379,0.0018111328163565,-0.00041643490661504,0.00041643691337919,1.0212900056149e-09,9.790681848449e-10,4.3631478154469e-10,1.6553750511785e-09,-0.00019196685420223,0.00019197009855428,-0.00037284018671814,0.00037284350681104,-0.00037284020609245,0.00037284347041088,-0.00019196800818176,0.0001919687999175,-0.00019196805849522,0.00019196878198384,-0.00037284138113497,0.00037284228504995,-0.00037284137698524,0.00037284226759518,-0.00048878680150456,0.00048878839236365,-0.00048878680043322,0.00048878836189127,-0.00048878638403435,0.00048878876455522,-0.00048878638219798,0.00048878873121659,-0.0004272986538682,0.00042730108205715,-0.00042729867790897,0.00042730108009094,-0.00042729908250163,0.0004273007250705,-0.00042729915845026,0.00042730066801596,-0.00019196678101995,0.00019197009758724,8.6631778685098e-10,-4.897434489091e-10,7.1155234815243e-11,3.0103602608545e-10,-0.00052119719626483,0.00052119758510902,-0.00051379639445786,0.0005137973656782,-0.00053236022256907,0.00053236186209901,-0.00053236150422986,0.00053236037430517,-0.00050352373354755,0.00050352452861944,-0.00050352365705864,0.00050352459900567,-0.00050352416532682,0.00050352404401923,-0.00050352408345606,0.00050352412257787,-0.0005137970051563,0.00051379665029222,-0.00051379676671416,0.00051379692821236,-0.00053236018028188,0.00053236188800546,-0.00053236139719202,0.00053236047950075,-0.00051379657321334,0.00051379715604394,-3.0588236961189e-10,-2.3090319078753e-10,-0.00037299500902462,0.00037299448412978,-1.5366873946621e-10,-3.913778712018e-10,-0.00031973245884258,0.00031973163311034,-0.00029889441960592,0.00029889364682668,-0.00029889444021696,0.00029889366440303,-0.00031973214958043,0.00031973198598138,-0.00031973219486686,0.00031973182816499,-0.00029889421090627,0.00029889395572994,-0.00029889423045819,0.00029889384894954,-0.00044051838317651,0.00044051793779356,-0.00044051842894716,0.00044051782892469,-0.00044051837638252,0.00044051797913426,-0.00044051841014287,0.000440517840738,-0.00043049897719301,0.00043049842613191,-0.00043049907348313,0.00043049836423631,-0.00043049898504836,0.0004304984504923,-0.0004304989405026,0.00043049854313398,-0.00031973233384302,0.00031973160828073,0.72120576017495,128566,2924,0.0017339072535146,0.0021692739919495,0.0015530408817232,16.961376145152,-0.00012030899083878,-0.00012030899083878,-0.00012030899083878,2890763.0824456,0.0054713280685192
21191759,0.34909149870813,0.0060103185943663,0.0019651769373618,0.0022051403363708,0.0018400013206337,-0.00042081010546251,0.0004208123935634,1.2379281617179e-09,1.0414013830791e-09,1.0050136763456e-10,2.2870828278513e-09,-0.00019131400788104,0.00019131762495052,-0.00037647883715519,0.00037648367041363,-0.00037647912189701,0.00037648336822373,-0.00019131592037472,0.00019131547963021,-0.0001913154243579,0.00019131601444109,-0.00037648117876852,0.00037648126589227,-0.0003764810200997,0.00037648141095106,-0.00049466345396042,0.00049466497981334,-0.00049466343053789,0.00049466497643646,-0.00049466264800358,0.00049466574929551,-0.00049466277181296,0.00049466559297272,-0.00043170257188072,0.00043170597873021,-0.00043170298081579,0.00043170558947499,-0.00043170355377706,0.00043170507194236,-0.00043170354545934,0.00043170510028206,-0.00019131305647535,0.00019131845572164,1.3643343017001e-09,-1.1710153433145e-09,-7.713503522468e-11,2.6362051169197e-10,-0.00052789014510401,0.00052789036219722,-0.00052045612219934,0.00052045762976428,-0.00053905949691919,0.00053906182833024,-0.00053906166675749,0.00053905940058376,-0.00050984471403864,0.0005098456167946,-0.00050984452286838,0.00050984581261325,-0.00050984544499214,0.00050984481871631,-0.00050984540576502,0.00050984486109925,-0.00052045722282761,0.0005204563930585,-0.00052045712451782,0.00052045655381014,-0.00053905914498882,0.00053906212892455,-0.00053906176656915,0.00053905928736154,-0.00052045662805057,0.00052045706062879,-2.1151353128864e-10,-2.8543272626107e-10,-0.00037573496698216,0.00037573448012264,-2.1387890598309e-10,-2.9308743352071e-10,-0.00032080055649342,0.00032080076245462,-0.00029978263867002,0.00029978177762828,-0.00029978238556067,0.00029978207464918,-0.0003208004987083,0.00032080075520812,-0.0003208011013302,0.00032080006154257,-0.00029978232532908,0.00029978212585494,-0.00029978252416261,0.00029978183755702,-0.00044487967465572,0.00044487918630037,-0.00044487959055286,0.0004448792043106,-0.00044487964178955,0.00044487925463837,-0.0004448796964568,0.00044487909295607,-0.00043478140570901,0.00043478057308407,-0.00043478112830546,0.00043478087890451,-0.00043478131529535,0.00043478070600975,-0.0004347812094059,0.0004347808739254,-0.00032080124222911,0.00032079990465255,0.72387933815932,128566,2924,0.0017521206344016,0.0021970975876633,0.0015644442547858,15.118775108909,-0.00013504979912873,-0.00013504979912873,-0.00013504979912873,2884933.7861214,0.0055290929770638
21391759,0.35479779202215,0.0061038123582954,0.0019958166024276,0.0022415720102037,0.0018664237456641,-0.00042573118293365,0.0004257334881458,1.1612211132862e-09,1.1358995988264e-09,1.9402409134425e-10,2.21293893072e-09,-0.0001915626906532,0.00019156719396127,-0.00038080328744651,0.00038080766084704,-0.00038080325727345,0.00038080766924402,-0.00019156469300957,0.00019156512929989,-0.00019156484509251,0.0001915649826272,-0.00038080524400253,0.00038080569338214,-0.00038080526307872,0.00038080564488742,-0.00050094519560782,0.0005009468245969,-0.00050094520215794,0.00050094678892692,-0.0005009445333751,0.00050094745243149,-0.00050094451671893,0.00050094743691902,-0.00043669211675576,0.00043669504828216,-0.00043669208107675,0.00043669510945753,-0.00043669276497263,0.00043669445794527,-0.00043669286961329,0.00043669437406688,-0.00019156277745448,0.00019156706247888,1.1735402067111e-09,-9.1321222890503e-10,4.684772095193e-11,2.3085701600604e-10,-0.00053496203232982,0.00053496230840959,-0.00052752948122039,0.00052753053931087,-0.00054613737791374,0.00054613968948882,-0.00054613942379593,0.00054613742609077,-0.00051653287001626,0.00051653380908339,-0.00051653282123576,0.00051653384930825,-0.00051653355187638,0.00051653306067958,-0.00051653347118828,0.00051653313904063,-0.0005275302994906,0.0005275296324117,-0.00052753004591965,0.00052752990080771,-0.00054613741391635,0.00054613967432149,-0.00054613928090074,0.00054613757496338,-0.0005275295907548,0.00052753042792836,-3.1700676205265e-10,-2.1325215218468e-10,-0.00037913286476174,0.00037913234837696,-1.7320274411513e-10,-3.6133381447242e-10,-0.00032271130541442,0.00032271035882946,-0.00030150203965316,0.00030150137764326,-0.0003015021032583,0.00030150134140362,-0.00032271113304252,0.000322710794274,-0.00032271101419563,0.00032271072098942,-0.00030150197196597,0.00030150163941281,-0.00030150193786621,0.00030150156400693,-0.0004497489807689,0.00044974853004423,-0.00044974902308654,0.00044974842728542,-0.00044974897666562,0.00044974856789952,-0.00044974898213696,0.00044974846068712,-0.00043967281004338,0.00043967235207044,-0.00043967297271634,0.00043967221187672,-0.0004396728538771,0.00043967231251163,-0.00043967281705775,0.00043967239644312,-0.00032271105327288,0.00032271053390801,0.72693239488725,128566,2924,0.001772602924054,0.002226496533799,0.0015785842288503,13.933118075455,-0.00014453505539636,-0.00014453505539636,-0.00014453505539636,2886082.3051387,0.0055934781869899
21591759,0.36019386947396,0.0061930208552703,0.0020250635929152,0.0022763248779469,0.0018916323844082,-0.00043119959917699,0.00043120170136749,1.1179084537523e-09,9.7891152802771e-10,6.1839488984295e-10,1.5740874606939e-09,-0.00019251086318025,0.00019251337459498,-0.00038577509412321,0.00038577842162175,-0.00038577527503593,0.00038577821215011,-0.00019251169183518,0.00019251248098296,-0.00019251134347805,0.00019251283002768,-0.00038577618444716,0.00038577732638269,-0.00038577605854026,0.00038577742243477,-0.00050771323012024,0.00050771498123233,-0.00050771320981807,0.00050771497556593,-0.00050771285178148,0.00050771531976468,-0.00050771293545226,0.00050771520512319,-0.00044226778766033,0.00044227048145416,-0.00044226807159441,0.00044227022696629,-0.00044226829036673,0.0004422700464247,-0.00044226830507249,0.00044227005902372,-0.00019251021671678,0.00019251396063171,7.6358925578415e-10,-3.6697017001909e-10,7.8512401764725e-11,3.2680505627104e-10,-0.00054252198007779,0.00054252238749207,-0.00053512279260398,0.00053512393443218,-0.0005536992455919,0.00055370050626936,-0.00055370013950323,0.00055369941511875,-0.00052369385764502,0.00052369451957622,-0.00052369371739102,0.00052369465394966,-0.00052369416136253,0.00052369416155778,-0.00052369412800766,0.00052369419459804,-0.00053512336241093,0.00053512328220085,-0.00053512325176254,0.00053512340999545,-0.00055369903274245,0.00055370073310642,-0.00055370019137785,0.00055369936428402,-0.0005351231712124,0.00053512355440368,-2.5526973991741e-10,-2.5899847738827e-10,-0.00038312853793381,0.00038312803803751,-2.039269500416e-10,-3.1256579902746e-10,-0.00032531662253789,0.00032531646587536,-0.00030392011461473,0.00030391931593729,-0.00030391994485278,0.00030391950995155,-0.00032531662802737,0.00032531670467177,-0.00032531700084205,0.00032531615426894,-0.00030391992773745,0.00030391969036105,-0.00030392005067268,0.00030391945993859,-0.00045515415416931,0.0004551536636401,-0.00045515410566702,0.00045515365056332,-0.00045515411902521,0.00045515372750018,-0.00045515416260448,0.00045515358538775,-0.00044516124164638,0.0004451605289613,-0.00044516111549338,0.00044516068577967,-0.00044516120915774,0.000445160582398,-0.00044516109142093,0.00044516074047423,-0.00032531705407926,0.00032531595486387,0.73328844314137,128566,2924,0.0017953608383457,0.0022579236875863,0.0015952108284479,13.227592807926,-0.00015017925753659,-0.00015017925753659,-0.00015017925753659,2893838.5671077,0.0056646961530483
21791759,0.36573153227757,0.0062832653019701,0.0020546929318979,0.0023114936227101,0.0019170787473621,-0.00043865553401409,0.00043865725141002,8.9835186904794e-10,8.1787033796082e-10,1.2800780811698e-09,5.051225687199e-10,-0.00019502063934073,0.0001950214699619,-0.00039265440173398,0.00039265549729815,-0.00039265445596119,0.00039265540872135,-0.00019501980883909,0.00019502222026851,-0.00019501977987184,0.00019502226829166,-0.00039265368827344,0.00039265622233715,-0.00039265364913107,0.00039265622943632,-0.0005165990031669,0.00051660096450514,-0.00051659900142317,0.00051660093734241,-0.00051659922522749,0.00051660068817538,-0.00051659924987962,0.00051660063011783,-0.00044983769884868,0.00044983925708712,-0.00044983779948759,0.00044983918424557,-0.00044983750847279,0.00044983953052306,-0.0004498375918178,0.00044983947451604,-0.00019502042119722,0.00019502161923228,8.8477115908372e-12,6.711767297175e-10,2.2634012172935e-10,4.4894257399488e-10,-0.00055226865493557,0.00055226933299097,-0.00054488936511723,0.00054489002854659,-0.00056347290509308,0.00056347282149018,-0.00056347219078122,0.00056347338484209,-0.00053298490949902,0.00053298530327928,-0.00053298481964403,0.00053298538192242,-0.00053298468023062,0.00053298550301206,-0.00053298461082797,0.00053298556759953,-0.00054488931549673,0.0005448900040038,-0.00054488910791036,0.00054489023172411,-0.00056347283899363,0.00056347290041508,-0.00056347211823604,0.00056347345912208,-0.0005448895950524,0.00054488980046042,-2.9374227366416e-10,-2.3331949956011e-10,-0.0003890444848763,0.0003890439725219,-1.908556101185e-10,-3.3750692534088e-10,-0.00032969900075889,0.00032969839864959,-0.00030811348879285,0.00030811278275858,-0.00030811346244135,0.00030811283960337,-0.00032969887773569,0.0003296987131013,-0.00032969898854667,0.00032969845847261,-0.00030811338293865,0.00030811308274424,-0.00030811341814759,0.00030811294717615,-0.00046260935739357,0.00046260888449594,-0.00046260936090106,0.00046260882093657,-0.00046260933907134,0.00046260893065611,-0.00046260935730602,0.00046260881383664,-0.00045264135432118,0.0004526407902138,-0.00045264141040862,0.0004526407815703,-0.00045264138337957,0.00045264080226625,-0.00045264130771607,0.00045264091031162,-0.0003296990075206,0.00032969826945167,0.72319362510251,128566,2924,0.0018263857739243,0.0022984403420458,0.0016198256707702,13.545685346987,-0.00014763451722411,-0.00014763451722411,-0.00014763451722411,2921976.3987113,0.0057614107470102
21991759,0.37146032503504,0.0063751317475609,0.0020848924201037,0.0023473449105151,0.0019428944169421,-0.00044646853643161,0.00044646997116035,8.1019251965996e-10,6.2744774195365e-10,1.7090832020343e-09,-2.1976143992416e-10,-0.00019772282963466,0.00019772141758289,-0.00039979285230457,0.00039979277046429,-0.00039979316924163,0.00039979244045212,-0.00019772073540548,0.00019772346619567,-0.00019772012372151,0.00019772407244143,-0.00039979123781205,0.00039979443386329,-0.0003997910224793,0.00039979462663922,-0.00052592582968672,0.00052592784760656,-0.00052592578076576,0.00052592786042845,-0.00052592634747835,0.00052592725542457,-0.00052592647289078,0.00052592708255311,-0.00045771531805092,0.00045771654906843,-0.00045771571808604,0.00045771612830065,-0.00045771497289357,0.0004577169586625,-0.00045771489802774,0.00045771700676852,-0.00019772178746166,0.00019772238706785,-4.459782991985e-10,1.331233775869e-09,2.9659790913747e-10,5.6909662925333e-10,-0.0005624441619553,0.00056244503767415,-0.00055502878238793,0.00055502954666108,-0.00057367385833189,0.00057367262651317,-0.00057367183284711,0.00057367454929343,-0.00054272760966826,0.00054272774372902,-0.00054272741588617,0.0005427279018703,-0.00054272694375442,0.00054272839029729,-0.00054272693207451,0.00054272838717652,-0.00055502843055877,0.00055502986023793,-0.00055502838071001,0.00055502989822788,-0.00057367355037084,0.0005736729789273,-0.00057367198146962,0.00057367441788347,-0.00055502929924094,0.00055502903828662,-2.5211841908672e-10,-2.881072178752e-10,-0.00039526592155275,0.00039526539811926,-2.1325178258476e-10,-3.3531166741599e-10,-0.00033425139970284,0.00033425160080548,-0.00031251587002488,0.00031251491646072,-0.00031251558190697,0.00031251523326561,-0.00033425143836036,0.000334251796905,-0.00033425211680421,0.00033425095376453,-0.00031251556529464,0.0003125154079933,-0.00031251578860068,0.00031251508467252,-0.00047044861817399,0.00047044809098863,-0.00047044853381468,0.00047044810284386,-0.00047044855406426,0.00047044817971533,-0.00047044863631821,0.00047044798906425,-0.00046044332950458,0.000460442445415,-0.00046044307126017,0.00046044274774458,-0.00046044326695688,0.00046044253591365,-0.00046044305722611,0.00046044276022186,-0.00033425222419185,0.00033425069859612,0.71247574942554,128566,2924,0.0018588957702416,0.0023407376154612,0.001645710983867,13.971338264474,-0.00014422929388421,-0.00014422929388421,-0.00014422929388421,2955431.7038961,0.0058626982924195
22191759,0.37745106623257,0.0064695327855157,0.0021159694071813,0.0023842304268495,0.0019693329514849,-0.00045477725209247,0.00045477853425652,7.6400768919247e-10,5.2351555649587e-10,1.8965424679883e-09,-5.7042439263224e-10,-0.00020069824119471,0.00020069566573326,-0.00040732127652387,0.00040732067761292,-0.0004073217428538,0.00040732014439559,-0.00020069558980741,0.00020069828064996,-0.00020069460096236,0.00020069930262739,-0.00040731927204007,0.00040732269355738,-0.00040731890284272,0.00040732301882784,-0.000535839389595,0.00053584140343262,-0.00053583932320204,0.0005358414525367,-0.00053584003519131,0.00053584069549699,-0.00053584024826288,0.00053584046757227,-0.00046605786616159,0.00046605894315904,-0.00046605849951268,0.00046605836493856,-0.00046605748279909,0.00046605944423052,-0.00046605738342636,0.00046605961723606,-0.00020069675047615,0.00020069710628413,-5.9951096667502e-10,1.652000603045e-09,3.6194934631357e-10,6.6387658208494e-10,-0.00057321654643858,0.00057321758205614,-0.00056570392299566,0.00056570485817729,-0.00058447161678151,0.00058446995639075,-0.00058446899908646,0.0005844724649278,-0.00055307781804985,0.00055307789237752,-0.00055307759123855,0.00055307813768657,-0.00055307695369076,0.00055307875528482,-0.00055307698442884,0.00055307873153387,-0.00056570342951739,0.00056570528083533,-0.00056570353583072,0.00056570522068847,-0.00058447114843047,0.00058447038534169,-0.00058446924202491,0.00058447218276286,-0.00056570458995385,0.00056570417059308,-2.0897410204378e-10,-2.9692813662094e-10,-0.00040191689496546,0.00040191640189281,-1.9882716934513e-10,-3.0570827058827e-10,-0.00033908864202428,0.00033908937816616,-0.00031723576670178,0.00031723468684388,-0.00031723531984587,0.00031723517951809,-0.00033908870101846,0.00033908951509731,-0.00033908978406586,0.00033908826393147,-0.00031723531071878,0.00031723532347856,-0.00031723567024503,0.00031723485048574,-0.00047880122612374,0.0004788006782432,-0.00047880109662617,0.00047880076219373,-0.000478801128661,0.00047880079512501,-0.00047880126359968,0.00047880057504429,-0.00046870383012007,0.00046870277845402,-0.00046870339366733,0.00046870331413273,-0.0004687037584852,0.00046870296347132,-0.00046870345358687,0.00046870329690329,-0.0003390898984166,0.0003390879415339,0.70116229659132,128566,2924,0.0018934675575965,0.0023855139453325,0.0016733828115165,14.541563621469,-0.00013966749102825,-0.00013966749102825,-0.00013966749102825,2993954.4590021,0.00597036220628
22391759,0.38357613033457,0.0065698118236566,0.0021489079578919,0.002423479833797,0.0019974240319677,-0.00046294478581692,0.00046294615836666,7.8547628523866e-10,5.9119182872338e-10,1.716291455283e-09,-2.9029353914341e-10,-0.00020364295024765,0.0002036409542452,-0.00041495814586431,0.00041495809372206,-0.00041495863415371,0.0004149575989074,-0.00020364077992684,0.0002036431247865,-0.00020363974211135,0.00020364414893751,-0.00041495660400597,0.00041495966127126,-0.00041495624022004,0.00041496000481958,-0.00054554153086944,0.00054554346434986,-0.00054554143818033,0.00054554352260256,-0.00054554201617217,0.00054554289888743,-0.00054554220575831,0.00054554266938861,-0.00047438805304613,0.00047438931735402,-0.00047438857806321,0.00047438877461129,-0.00047438780191433,0.00047438964566994,-0.00047438762318692,0.0004743898037109,-0.00020364145993729,0.00020364239184165,-4.1310733900142e-10,1.4544498983775e-09,3.7979783220164e-10,6.2772239762929e-10,-0.00058387729439938,0.00058387832462371,-0.00057634507181928,0.00057634604998601,-0.00059512169192332,0.00059512043081655,-0.00059511946839512,0.00059512254658923,-0.00056329002257005,0.00056329024936554,-0.0005632897963819,0.0005632904539501,-0.00056328928114035,0.00056329097450309,-0.00056328932428206,0.0005632909216273,-0.00057634466118491,0.00057634640875554,-0.00057634478142612,0.00057634629786894,-0.00059512128200634,0.00059512086461103,-0.00059511972469433,0.00059512229410767,-0.00057634567922723,0.00057634541169886,-2.5492492731266e-10,-2.9192053521002e-10,-0.00040837371569485,0.00040837318243243,-2.0397537630486e-10,-3.5868915799464e-10,-0.00034394619691438,0.00034394677458947,-0.00032193569999479,0.00032193454252071,-0.00032193525744507,0.00032193501471835,-0.00034394621847269,0.00034394702010085,-0.00034394728604629,0.00034394572583201,-0.00032193517594635,0.00032193519434748,-0.00032193555979711,0.0003219347038219,-0.00048690319176423,0.00048690261941445,-0.00048690306841455,0.00048690267123468,-0.00048690307837923,0.00048690275219254,-0.00048690322204511,0.00048690250253551,-0.00047688656352779,0.00047688552141924,-0.00047688616787464,0.0004768859790402,-0.0004768865035498,0.00047688563375522,-0.00047688614172367,0.00047688600173724,-0.00034394746884777,0.00034394543667611,0.72868415734519,128566,2924,0.0019274520895355,0.0024298235324743,0.0017002463775025,14.831805675844,-0.00013734555459325,-0.00013734555459325,-0.00013734555459325,3023469.0774304,0.0060761632977347
22591759,0.38977552023474,0.0066722937660757,0.0021825497493444,0.0024636712792258,0.0020260727375055,-0.00047100320293908,0.00047100475084447,8.7571275904691e-10,6.7422029414311e-10,1.4641324309651e-09,1.4277195309131e-10,-0.00020621739125447,0.00020621714272573,-0.00042253609896984,0.00042253660407028,-0.00042253627492684,0.00042253639367772,-0.00020621588651521,0.000206218550727,-0.00020621573956072,0.00020621872342768,-0.00042253492588239,0.0004225377827357,-0.00042253485113705,0.00042253782893753,-0.00055517334097087,0.00055517532804186,-0.00055517335868471,0.00055517528753529,-0.0005551737061276,0.00055517489802828,-0.00055517380782852,0.00055517477208938,-0.00048268616871306,0.00048268752454942,-0.00048268642687764,0.00048268730123753,-0.00048268584639079,0.00048268796492799,-0.00048268601711375,0.00048268784008484,-0.00020621680575211,0.00020621764826752,-2.0421531371529e-11,1.0106022303838e-09,3.3307718401478e-10,6.3095759709028e-10,-0.00059455446810684,0.00059455544858283,-0.00058709433517216,0.00058709527864813,-0.00060579374914114,0.00060579354813969,-0.00060579263709895,0.00060579451286462,-0.00057343545750248,0.0005734359838715,-0.00057343532406351,0.00057343612713511,-0.00057343508405924,0.00057343633795475,-0.00057343501752027,0.00057343640854751,-0.00058709422778376,0.00058709529421,-0.00058709402130275,0.00058709554749198,-0.00060579360672251,0.00060579366433405,-0.00060579256191866,0.00060579456391149,-0.00058709467654967,0.00058709490034914,-2.3742489880467e-10,-2.749516638189e-10,-0.00041465940772505,0.00041465890660937,-2.2197879798502e-10,-2.9545300553353e-10,-0.00034859132267627,0.00034859105268812,-0.0003264033886102,0.00032640263713816,-0.00032640324963185,0.00032640282296646,-0.00034859130793457,0.00034859115720275,-0.00034859150032345,0.00034859084844617,-0.00032640323614634,0.00032640292441661,-0.00032640333111594,0.00032640273077374,-0.00049490865540781,0.00049490817904677,-0.00049490861263194,0.00049490816658334,-0.00049490864774194,0.00049490821060562,-0.00049490866658618,0.00049490809620984,-0.00048502143646404,0.00048502074750453,-0.00048502134459145,0.00048502091718197,-0.00048502141892599,0.00048502086571379,-0.00048502137208988,0.00048502094133381,-0.00034859155242935,0.00034859065088112,0.73621130169616,128566,2924,0.0019609832346196,0.0024741992449172,0.0017263980943164,14.996124548047,-0.00013603100361562,-0.00013603100361562,-0.00013603100361562,3046137.4081472,0.0061808700545921
22791759,0.39600917690408,0.0067762466876235,0.0022166617864756,0.0025045131637154,0.0020550717374325,-0.00047900244694438,0.00047900421080895,9.6722414150317e-10,7.9536045726193e-10,1.1808692692691e-09,6.5592963429992e-10,-0.00020868995526761,0.00020869035549304,-0.00043011120928433,0.0004301128281201,-0.00043011149206617,0.00043011252076274,-0.0002086892881204,0.00020869097453025,-0.00020868870965996,0.00020869155351221,-0.0004301109373435,0.00043011311763501,-0.00043011074340615,0.00043011328299221,-0.00056474764054822,0.00056474952501096,-0.00056474760419741,0.00056474953333036,-0.00056474770243842,0.00056474939922249,-0.00056474783396003,0.00056474923710738,-0.00049095246065109,0.00049095440509541,-0.00049095281355467,0.00049095406101542,-0.0004909525443278,0.00049095443546875,-0.00049095253310012,0.00049095446395152,-0.00020868900517521,0.00020869124955051,2.9198459086529e-10,6.2641840955346e-10,3.3750534967853e-10,5.6265161023247e-10,-0.00060521373659946,0.00060521464748891,-0.00059787632319866,0.00059787749638651,-0.0006164479621239,0.00061644824311268,-0.00061644737018929,0.00061644867321407,-0.00058353546519035,0.00058353612760463,-0.00058353530220143,0.00058353628644424,-0.00058353526859404,0.00058353629150528,-0.00058353527292463,0.0005835362847017,-0.00059787637826044,0.00059787735424906,-0.00059787635761352,0.00059787740319223,-0.00061644769899844,0.00061644851064001,-0.00061644748357841,0.00061644854851471,-0.00059787672688957,0.00059787706156708,-2.6499024086772e-10,-2.6709330934579e-10,-0.00042084137684454,0.00042084085695076,-2.2246340555513e-10,-3.1875147052222e-10,-0.00035313731020897,0.00035313731213983,-0.00033076828464631,0.00033076737800081,-0.00033076802847998,0.00033076767551119,-0.00035313728489485,0.00035313750686882,-0.00035313782861766,0.0003531367993891,-0.00033076800173105,0.00033076782689754,-0.0003307682262539,0.00033076748982035,-0.00050283047448228,0.00050282993881633,-0.00050283039514858,0.00050282995808369,-0.00050283041471878,0.00050283002603302,-0.00050283048127162,0.00050282985747049,-0.00049312778247048,0.0004931269920316,-0.00049312760780201,0.00049312722863619,-0.00049312778447192,0.00049312706862346,-0.00049312759210762,0.00049312729335464,-0.0003531378849921,0.0003531366039483,0.74293133307259,128566,2924,0.0019942682020977,0.0025184981606416,0.0017521178685542,15.078972865756,-0.00013536821707395,-0.00013536821707395,-0.00013536821707395,3065949.22246,0.0062848281405719
22991759,0.40224926464949,0.0068748362578765,0.0022491458321408,0.0025432812829027,0.002082409142833,-0.00048660479818187,0.00048660672030044,1.0587336549724e-09,8.6009141831227e-10,9.9789346414259e-10,1.0057531955626e-09,-0.00021060330065349,0.00021060472582302,-0.00043694131078718,0.00043694351885911,-0.00043694149068395,0.00043694331300548,-0.00021060312711891,0.00021060482321873,-0.00021060293350776,0.00021060502250319,-0.00043694144775631,0.00043694338620562,-0.00043694137269266,0.00043694343349383,-0.00057403365705469,0.0005740355710828,-0.00057403366996731,0.00057403553190976,-0.0005740335859571,0.00057403558325136,-0.00057403368791858,0.00057403545215084,-0.00049865768980778,0.00049865986463607,-0.00049865794840161,0.00049865961902108,-0.00049865783474992,0.00049865985421901,-0.0004986579767426,0.00049865973852881,-0.00021060268260849,0.00021060527382236,5.5997892573409e-10,2.9040644660593e-10,3.0570947005024e-10,5.3064332582829e-10,-0.00061545872944072,0.00061545957698447,-0.00060813093135116,0.00060813211702027,-0.00062671435102773,0.00062671528879448,-0.00062671447241053,0.00062671498047976,-0.00059327703468717,0.00059327787522589,-0.00059327691376873,0.00059327799476054,-0.00059327707449058,0.00059327779406782,-0.00059327703619497,0.00059327783161082,-0.00060813118082049,0.00060813176819171,-0.00060813104201773,0.00060813194153192,-0.00062671421202542,0.00062671542437527,-0.00062671445433121,0.00062671498407029,-0.00060813121128205,0.00060813180462223,-2.4812629599503e-10,-2.7107689457647e-10,-0.00042662074213885,0.0004266202349619,-2.4267870361252e-10,-2.8392508865016e-10,-0.00035690431176129,0.00035690407625822,-0.00033446589045677,0.00033446516008061,-0.00033446574286865,0.00033446534824066,-0.00035690435041773,0.00035690419374551,-0.00035690455668621,0.00035690382700725,-0.00033446577492435,0.000334465436035,-0.00033446587542094,0.00033446522062762,-0.00051046315450068,0.00051046265721003,-0.00051046309550153,0.00051046265615927,-0.00051046314140417,0.00051046269904228,-0.00051046315047222,0.00051046258785063,-0.00050070233413217,0.00050070166346969,-0.00050070224781308,0.00050070180805749,-0.00050070233635263,0.00050070175020177,-0.0005007022801909,0.00050070184498441,-0.00035690457869869,0.00035690367643693,0.70494751518049,128566,2924,0.0020259020794779,0.0025610734926275,0.0017761627284184,15.106466205211,-0.00013514827035831,-0.00013514827035831,-0.00013514827035831,3088828.5223223,0.0063837170476988
23191759,0.40848600814746,0.0069743752061351,0.0022819477844596,0.002582439025739,0.0021099883959364,-0.00049426141673854,0.00049426345322843,1.1086174865924e-09,9.231097786005e-10,9.0966569208753e-10,1.2150606505988e-09,-0.00021296491193662,0.0002129666660938,-0.00044394021128904,0.00044394285315835,-0.00044394041143286,0.00044394262723255,-0.00021296504908807,0.00021296646360937,-0.00021296474646473,0.0002129667670429,-0.00044394066697994,0.00044394240289079,-0.00044394056261293,0.0004439424780343,-0.00058328403420828,0.00058328595127771,-0.00058328403575653,0.00058328592260172,-0.00058328385893548,0.00058328606938404,-0.00058328396370751,0.00058328593510729,-0.00050640410662068,0.00050640651972608,-0.00050640438936689,0.00050640624828552,-0.00050640438561835,0.00050640636715616,-0.00050640447553971,0.00050640630033442,-0.00021296421052185,0.00021296730291692,6.7531063704712e-10,1.4856182177362e-10,3.1618688294306e-10,4.9765710821107e-10,-0.00062563932017132,0.00062564014281268,-0.00061828036019432,0.00061828160177932,-0.00063688370445259,0.00063688484345974,-0.00063688403254243,0.00063688431859253,-0.00060302485179622,0.00060302575472511,-0.0006030247324439,0.00060302586959576,-0.00060302496325638,0.00060302559677313,-0.00060302495016842,0.00060302560720204,-0.00061828065303939,0.00061828120993236,-0.00061828058501705,0.00061828130593843,-0.00063688354108295,0.00063688501042964,-0.00063688407165542,0.00063688426564617,-0.0006182806325393,0.0006182813000188,-2.5847612929673e-10,-2.6235762395247e-10,-0.00043247083123389,0.00043247032296802,-2.49023614778e-10,-2.7914246563193e-10,-0.00036092757180182,0.00036092740424331,-0.00033840152900281,0.00033840078753453,-0.00033840135879683,0.00033840099723688,-0.00036092762493692,0.00036092754729729,-0.00036092791046284,0.00036092707599208,-0.00033840140475908,0.00033840108821274,-0.00033840153451627,0.00033840083371257,-0.00051806201792491,0.00051806150049791,-0.00051806194519224,0.00051806151317641,-0.00051806198921347,0.00051806155909637,-0.00051806200443947,0.00051806144085268,-0.00050832884696444,0.00050832817123863,-0.00050832875600872,0.00050832832240861,-0.00050832888119498,0.00050832824394991,-0.00050832878048205,0.00050832838518044,-0.00036092790672582,0.00036092694720787,0.71243094162116,128566,2924,0.0020577600321272,0.0026033790982727,0.0018005010507335,15.116499586025,-0.0001350680033118,-0.0001350680033118,-0.0001350680033118,3113133.9762287,0.0064828644249005
23391759,0.41468792000635,0.0070736716121218,0.0023146784580722,0.0026215336465409,0.0021374595075087,-0.0005017714231672,0.00050177352239534,1.15427744319e-09,9.3931822354657e-10,9.071587158357e-10,1.2817691346122e-09,-0.00021515494661968,0.00021515672422199,-0.00045082642201996,0.00045082923738543,-0.00045082665755812,0.00045082896562515,-0.00021515512780867,0.00021515644786734,-0.0002151547589278,0.00021515682418495,-0.0004508269697126,0.00045082867883564,-0.00045082684008762,0.00045082877467056,-0.00059237393458541,0.00059237589295933,-0.00059237394102404,0.00059237586624909,-0.00059237372955866,0.00059237604696314,-0.00059237385908267,0.00059237589762675,-0.00051400437984298,0.00051400693466847,-0.00051400473722313,0.00051400661290621,-0.00051400471403017,0.0005140067381122,-0.00051400481724893,0.00051400668773696,-0.0002151541426035,0.00021515746077156,7.3761776663649e-10,8.1100940863103e-11,3.160202354752e-10,4.9286805286636e-10,-0.00063568836945653,0.00063568918725663,-0.00062833796988929,0.00062833926762591,-0.00064691611466209,0.00064691734902519,-0.00064691653370797,0.00064691671290219,-0.00061261376422417,0.00061261469764864,-0.00061261364500552,0.00061261483091388,-0.00061261390987819,0.00061261450705028,-0.00061261390930016,0.0006126145137693,-0.00062833828818084,0.00062833882538024,-0.00062833827019466,0.00062833889414702,-0.00064691591233429,0.00064691752494352,-0.00064691659731598,0.00064691662065343,-0.00062833825715667,0.00062833893755617,-2.3744609222083e-10,-2.6485729411132e-10,-0.00043816208441299,0.00043816159277803,-2.6065795143375e-10,-2.4581657172339e-10,-0.00036476912799883,0.00036476913622583,-0.00034217499090737,0.00034217426960994,-0.00034217478501358,0.00034217451934887,-0.00036476920793777,0.00036476919741755,-0.00036476959331212,0.00036476865053872,-0.0003421748698608,0.00034217455372549,-0.00034217502650584,0.00034217427390304,-0.00052552451927746,0.00052552399646263,-0.00052552442416987,0.00052552403870142,-0.00052552448881757,0.00052552405681781,-0.0005255245011677,0.0005255239474312,-0.00051586360909418,0.00051586290848144,-0.00051586346944924,0.00051586312366173,-0.00051586365482998,0.00051586301794748,-0.00051586355070344,0.00051586317070502,-0.00036476955972369,0.0003647685496464,0.71512603873498,128566,2924,0.0020890078608631,0.0026451362521902,0.0018241784802258,15.06285777823,-0.00013549713777416,-0.00013549713777416,-0.00013549713777416,3133202.7801576,0.0065801904050743
23591759,0.42124782786359,0.0071787249770028,0.0023493195283067,0.0026629322355824,0.0021664732131137,-0.00051122196595034,0.00051122385147949,1.1019821989429e-09,7.7818751593497e-10,1.3297423305787e-09,6.3211468233036e-10,-0.00021880783131287,0.00021880777577158,-0.00045964429296361,0.00045964598511046,-0.00045964467646844,0.00045964552722574,-0.00021880682891787,0.00021880866382189,-0.00021880616236475,0.00021880936300156,-0.00045964395175839,0.00045964639082841,-0.00045964370203498,0.00045964658983366,-0.00060354235084987,0.00060354444049752,-0.00060354233843178,0.00060354441345689,-0.00060354244609969,0.00060354427642954,-0.00060354263855849,0.00060354403541589,-0.00052359376820276,0.0005235960011191,-0.00052359434447067,0.0005235954170674,-0.00052359387805718,0.0005235960359087,-0.00052359394747523,0.00052359597160359,-0.00021880646688235,0.0002188089954983,3.6675404468039e-10,6.0358653911026e-10,3.8021543220895e-10,5.9300821277086e-10,-0.00064794323793913,0.00064794419533767,-0.00064062237479567,0.00064062374567085,-0.00065916499497745,0.00065916538016477,-0.00065916445363979,0.00065916577228166,-0.00062433185664008,0.00062433256815163,-0.00062433165757171,0.00062433271513814,-0.00062433167489576,0.0006243327101727,-0.00062433168961287,0.000624332664182,-0.00064062246071237,0.00064062357658424,-0.00064062250568462,0.00064062354304978,-0.00065916471047976,0.00065916573566452,-0.00065916463723712,0.00065916558659982,-0.00064062287319005,0.00064062326999273,-1.9400530335856e-10,-3.2325839890391e-10,-0.0004456533896374,0.00044565289155317,-3.0746661600253e-10,-2.0433427393867e-10,-0.00037028645188961,0.00037028712975172,-0.00034761910749088,0.00034761833278513,-0.00034761874230794,0.00034761874666242,-0.00037028678700273,0.00037028702808066,-0.00037028747020459,0.00037028616784339,-0.00034761903148068,0.00034761875443353,-0.00034761928361094,0.00034761835950191,-0.00053494021959162,0.00053493966437127,-0.00053494005111407,0.000534939769519,-0.00053494018651327,0.00053493973339715,-0.00053494020665008,0.00053493960473676,-0.00052538473692083,0.00052538381500408,-0.00052538436832355,0.00052538425949301,-0.00052538470794457,0.00052538398837055,-0.0005253845723778,0.00052538417046672,-0.00037028737552706,0.00037028598430325,0.7157149173444,128566,2924,0.002128325410121,0.0026960574699736,0.0018553422962558,15.824907695185,-0.00012940073843852,-0.00012940073843852,-0.00012940073843852,3168234.8770004,0.0067024126248543
23791759,0.42851315200679,0.0073009924441439,0.0023894986529643,0.0027112474660745,0.0022002463251052,-0.00052303913052356,0.00052304077772234,8.1536022986349e-10,8.3319860070027e-10,1.7722119314361e-09,-5.4301928128076e-11,-0.00022421549489423,0.00022421566356983,-0.00047115476841304,0.00047115460072184,-0.0004711546684308,0.00047115468067773,-0.00022421372914663,0.00022421751989674,-0.00022421399768213,0.00022421723351959,-0.00047115295663425,0.00047115654063144,-0.00047115300618687,0.00047115645979526,-0.00061719933846104,0.00061720158053008,-0.00061719934634618,0.00061720153103487,-0.00061719993330993,0.00061720090292554,-0.00061719988143773,0.00061720090423739,-0.00053578587057645,0.0005357867518697,-0.00053578565915644,0.00053578691891514,-0.00053578518275773,0.00053578752582296,-0.00053578530039786,0.0005357873682066,-0.00022421569311774,0.00022421541301494,-3.4602641054245e-10,1.5939836716871e-09,6.2809141247378e-10,6.1289354655227e-10,-0.00066300275122697,0.00066300397427346,-0.00065588096063744,0.00065588142241072,-0.00067418788206156,0.00067418737604358,-0.00067418613497709,0.00067418906385742,-0.00063869581115126,0.00063869643720237,-0.00063869581924745,0.00063869636102451,-0.00063869522356672,0.00063869699989912,-0.0006386951722382,0.00063869701284993,-0.00065588031629288,0.00065588210262547,-0.00065588009722884,0.00065588222450252,-0.00067418813514025,0.00067418726913967,-0.00067418595740641,0.00067418925818292,-0.0006558808513789,0.00065588161258559,-3.9822243026319e-10,-1.783417627062e-10,-0.00045523186684735,0.00045523131457571,-2.4741829989325e-10,-3.2842308295724e-10,-0.00037798099626237,0.00037797985756984,-0.00035515793916614,0.00035515744463902,-0.00035515807560251,0.00035515734198361,-0.00037798101796021,0.00037798043702816,-0.00037798070829554,0.00037798040145831,-0.00035515812500545,0.00035515764051459,-0.00035515803597272,0.00035515755401075,-0.00054660693444528,0.00054660641313768,-0.00054660696078757,0.00054660631956433,-0.00054660691434538,0.00054660645456034,-0.00054660686418995,0.00054660640290313,-0.00053741880025919,0.00053741851067881,-0.00053741917694805,0.00053741819277785,-0.00053741903884114,0.00053741835054487,-0.00053741893266113,0.00053741846932307,-0.0003779805047259,0.00037798033074475,0.75201888277145,128566,2924,0.0021774855946501,0.0027586286353412,0.0018951862304813,17.221915831892,-0.00011822467334487,-0.00011822467334487,-0.00011822467334487,3212173.7344941,0.0068550290507067
23991759,0.43581556732659,0.007426837414494,0.0024307676444735,0.0027611893428636,0.002234880427157,-0.00053267817070099,0.00053268000130644,9.7168350417712e-10,8.5949143086206e-10,1.5409329795699e-09,3.6630319327712e-10,-0.00022740098883621,0.00022740141756467,-0.00048060025892196,0.00048060109082138,-0.00048060032105526,0.00048060099956297,-0.00022739968032725,0.00022740262027415,-0.00022739963378453,0.00022740269651624,-0.0004805991738005,0.00048060223404568,-0.00048059915455455,0.00048060223388473,-0.00062864921063323,0.00062865141516777,-0.00062864921238396,0.00062865138068486,-0.00062864954554482,0.00062865100407054,-0.0006286495876894,0.00062865092314845,-0.00054582629999817,0.00054582786462204,-0.0005458264193491,0.00054582774486547,-0.0005458259894735,0.00054582827271058,-0.00054582608723208,0.00054582818570892,-0.00022740061134128,0.00022740166602878,4.2037755157789e-11,1.1207700001282e-09,5.4261108160392e-10,5.9050183528015e-10,-0.00067591658700164,0.00067591773659264,-0.00066916606535951,0.00066916686789367,-0.00068706322235603,0.00068706325793785,-0.0006870620799417,0.00068706424582647,-0.00065085123778752,0.00065085201382075,-0.0006508511822984,0.00065085203963998,-0.00065085086997972,0.00065085235295902,-0.00065085085515511,0.00065085235009211,-0.0006691657112265,0.00066916715330607,-0.00066916565273726,0.00066916722301225,-0.00068706318906464,0.00068706329841364,-0.00068706206958111,0.00068706423794895,-0.00066916610992243,0.00066916681119933,-3.1652220751337e-10,-2.2043918807603e-10,-0.00046252888704081,0.00046252836619805,-2.7963542882822e-10,-2.6445972610878e-10,-0.00038331696293242,0.00038331644160108,-0.00036040056499234,0.00036039999175695,-0.00036040052974774,0.0003604000721464,-0.00038331697050204,0.00038331665658551,-0.00038331707718632,0.00038331637436816,-0.00036040060369581,0.00036040014881004,-0.00036040065132573,0.00036039997312325,-0.00055603514394419,0.00055603459958775,-0.00055603508863921,0.0005560345924878,-0.00055603511318988,0.00055603465296682,-0.00055603508080835,0.00055603458751476,-0.0005473254447638,0.00054732496316865,-0.0005473255593591,0.00054732492105174,-0.00054732561260546,0.00054732495921831,-0.00054732551313792,0.0005473250805666,-0.00038331690237071,0.00038331639279278,0.77069149732831,128566,2924,0.0022175905017892,0.0028122792960789,0.0019255416072161,17.331945282585,-0.00011734443773932,-0.00011734443773932,-0.00011734443773932,3226967.9490366,0.0069800121361779
24191759,0.4431351460047,0.0075465017575503,0.0024701939010798,0.0028087114772465,0.0022675963792239,-0.00054192219530214,0.00054192421189609,1.0755474840126e-09,9.385954394286e-10,1.2986990201217e-09,8.0470899589843e-10,-0.00022992332168715,0.0002299245195649,-0.0004892261786351,0.00048922792856946,-0.0004892262924453,0.00048922778287091,-0.00022992269072045,0.00022992508196864,-0.00022992257746688,0.00022992521046449,-0.00048922580522686,0.00048922835571289,-0.00048922574905708,0.00048922838501681,-0.00063983404727832,0.0006398362056926,-0.00063983404563087,0.00063983617479699,-0.00063983414866561,0.00063983603300032,-0.000639834209733,0.00063983593386779,-0.00055527215867099,0.00055527419251256,-0.00055527234090043,0.00055527401604801,-0.00055527211011157,0.00055527433763076,-0.00055527219575408,0.0005552742634504,-0.0002299228566898,0.00022992488637333,3.719663444188e-10,7.2370175093769e-10,5.2866381841853e-10,5.4873627171886e-10,-0.0006884347453442,0.00068843583013599,-0.00068194201198649,0.00068194300656763,-0.00069958773370413,0.00069958840150456,-0.00069958726961305,0.00069958868451543,-0.00066264940941928,0.00066265036051705,-0.00066264936077626,0.00066265038281295,-0.0006626492674687,0.00066265046439953,-0.00066264927202648,0.00066265044453948,-0.00068194186542595,0.00068194307886428,-0.00068194186999466,0.00068194308471745,-0.00069958769204567,0.00069958845566876,-0.00069958730041893,0.0006995886473281,-0.00068194206712574,0.0006819429485488,-3.0716205123436e-10,-2.2962455590501e-10,-0.00046937755829643,0.0004693770370377,-2.9722457813011e-10,-2.4661327405104e-10,-0.00038768804298763,0.00038768772048776,-0.00036485552917264,0.0003648549556365,-0.00036485545629675,0.00036485506983739,-0.00038768811564122,0.00038768788425911,-0.00038768833442645,0.00038768747801827,-0.00036485558597848,0.00036485512795582,-0.00036485565697627,0.00036485491978362,-0.00056517505262197,0.00056517449182851,-0.00056517497554675,0.00056517450890596,-0.00056517501700163,0.00056517455483263,-0.00056517498320973,0.00056517448732467,-0.00055666669903944,0.00055666617065314,-0.0005566667549786,0.00055666618607468,-0.00055666686030922,0.00055666616395856,-0.00055666673660131,0.00055666631713397,-0.00038768814521951,0.0003876875037236,0.73179797764686,128566,2924,0.0022560530724899,0.002864282971117,0.0019540318396609,17.40783578907,-0.00011673731368744,-0.00011673731368744,-0.00011673731368744,3243628.0469913,0.0070998222401569
24391759,0.45046827998353,0.0076671269129047,0.0025099792790332,0.0028566267422588,0.0023005208916127,-0.00055128891583468,0.00055129109725764,1.1664119893776e-09,1.0102771565131e-09,1.1262417907481e-09,1.1515516660782e-09,-0.00023309220169913,0.00023309399074046,-0.00049806332773651,0.00049806579400824,-0.00049806347005893,0.00049806561647747,-0.00023309207121207,0.0002330940596277,-0.00023309190270928,0.00023309424121583,-0.00049806349074449,0.00049806568294467,-0.00049806341589148,0.00049806572917893,-0.0006510458743832,0.00065104802221904,-0.00065104587182043,0.00065104799296498,-0.00065104579961832,0.00065104802993959,-0.00065104587413594,0.00065104791812859,-0.00056479823456993,0.00056480064704569,-0.00056479846516691,0.0005648004282979,-0.00056479837917941,0.00056480058958237,-0.00056479845905505,0.00056480052218798,-0.00023309164778345,0.00023309445286635,6.1494235537433e-10,4.2215158452946e-10,5.1472925740392e-10,5.1163238724647e-10,-0.0007009041853618,0.00070090521363909,-0.00069462008412633,0.00069462121211352,-0.00071203782172541,0.00071203895701141,-0.00071203786366428,0.0007120387119,-0.00067450001554646,0.00067450109029683,-0.00067449997011819,0.00067450111010858,-0.00067450004265176,0.0006745010173937,-0.00067450006178271,0.00067450098300734,-0.00069462009043145,0.00069462112344241,-0.00069462014433371,0.00069462108081728,-0.00071203776977358,0.0007120390223488,-0.00071203792260581,0.0007120386478648,-0.00069462014245271,0.00069462115278086,-2.9851962774778e-10,-2.3404847494666e-10,-0.00047634488249727,0.00047634436560166,-3.1424533374549e-10,-2.2458468666276e-10,-0.00039236625704062,0.00039236606898831,-0.00036958323875524,0.00036958268178334,-0.00036958313860944,0.00036958282197373,-0.00039236639908824,0.00039236619362185,-0.00039236666575666,0.00039236571889861,-0.00036958332127187,0.00036958284867814,-0.00036958340421045,0.00036958261833886,-0.00057432294288358,0.0005743223705437,-0.00057432284615659,0.00057432240854069,-0.00057432290497329,0.00057432243836568,-0.00057432286488468,0.00057432237552835,-0.00056607580429008,0.00056607525494311,-0.00056607582218623,0.00056607530564857,-0.00056607596990203,0.00056607525103194,-0.00056607583576284,0.00056607542076908,-0.00039236645404947,0.00039236576375246,0.73639361631669,128566,2924,0.0022950236238987,0.0029160806929946,0.0019830146694493,17.481480199373,-0.00011614815840502,-0.00011614815840502,-0.00011614815840502,3264081.3553125,0.007220446248464
24591759,0.45778213499781,0.0077907445343073,0.0025507162884037,0.0029057815649925,0.0023342466809111,-0.00056072731462706,0.00056072961992931,1.2291875959862e-09,1.0697774024097e-09,1.0424625778368e-09,1.3659634578275e-09,-0.00023647386984408,0.00023647610191428,-0.00050717835494512,0.00050718123902534,-0.00050717849089142,0.00050718106804908,-0.00023647402750138,0.0002364758673461,-0.0002364738858491,0.00023647602494665,-0.00050717880117351,0.00050718083913035,-0.00050717873627462,0.00050718087603234,-0.00066225492171895,0.00066225709789384,-0.00066225492366365,0.00066225706414204,-0.00066225475335767,0.0006622572012919,-0.00066225482582239,0.00066225709184269,-0.00057448910859512,0.00057449173354735,-0.00057448933335326,0.00057449152189813,-0.00057448934145217,0.00057449158718367,-0.00057448943406713,0.00057449150675839,-0.0002364733354516,0.00023647653978317,7.481275619224e-10,2.4826634745703e-10,5.0696624329397e-10,4.8054886585613e-10,-0.00071345855957845,0.00071345954918295,-0.00070748578399632,0.00070748694069992,-0.00072455762797708,0.00072455904640648,-0.00072455797488319,0.00072455847630749,-0.00068638719280629,0.00068638834468688,-0.00068638716005424,0.00068638835239819,-0.00068638732415155,0.00068638816387877,-0.00068638734711603,0.00068638812564602,-0.00070748586114848,0.00070748676639278,-0.0007074859355592,0.00070748671359607,-0.00072455759385322,0.00072455908736156,-0.00072455803036527,0.00072455841522356,-0.00070748580726487,0.00070748690986487,-2.9840067710013e-10,-2.3103570036353e-10,-0.00048333252611932,0.00048333201177964,-3.2977036893185e-10,-2.06979716954e-10,-0.00039718797278363,0.00039718778875254,-0.00037445525364727,0.0003744547407764,-0.00037445516514475,0.00037445486971769,-0.00039718813979873,0.00039718788108707,-0.00039718837859916,0.00039718743014767,-0.00037445537555966,0.00037445486489301,-0.00037445545042141,0.00037445463948695,-0.00058346518335558,0.00058346460583903,-0.00058346507942428,0.00058346465054523,-0.0005834651491624,0.00058346467153429,-0.00058346509348766,0.00058346462212862,-0.0005756372194183,0.00057563669509542,-0.00057563724768744,0.00057563673578787,-0.00057563740525383,0.00057563668489634,-0.00057563727795357,0.00057563685238393,-0.00039718813730962,0.00039718751427624,0.75661008037775,128566,2924,0.0023342916207864,0.0029682278619988,0.0020120815836602,17.498080367236,-0.00011601535706212,-0.00011601535706212,-0.00011601535706212,3279207.9807682,0.0073418204545604
24791759,0.46506423368872,0.0079023274572977,0.0025878041595419,0.0029501109655348,0.0023644123322209,-0.00056943746097952,0.00056943981702717,1.2545237291465e-09,1.0951277734953e-09,1.0316866645335e-09,1.4300751409802e-09,-0.00023871032226202,0.00023871268516763,-0.00051481197520916,0.00051481498394318,-0.00051481210986281,0.00051481481637448,-0.00023871055393329,0.00023871238270001,-0.00023871041711002,0.00023871253163976,-0.00051481249105108,0.0005148145100801,-0.00051481242810035,0.00051481454435303,-0.00067295961762812,0.00067296181939663,-0.00067295962025963,0.00067296178523946,-0.00067295942586663,0.00067296194675463,-0.00067295949813546,0.00067296183829778,-0.00058314697261805,0.00058314966972083,-0.00058314719355185,0.00058314946222163,-0.00058314722655842,0.00058314949911467,-0.00058314732206679,0.00058314941520497,-0.00023870979261691,0.00023871312214831,7.8170364325499e-10,2.1647940779092e-10,5.2066154873532e-10,4.7081312580572e-10,-0.0007252428748529,0.0007252438670437,-0.0007193342014384,0.00071933535933128,-0.00073637005599751,0.00073637155160467,-0.00073637047006746,0.00073637091124163,-0.00069761065953876,0.00069761184514442,-0.00069761063589396,0.00069761184401293,-0.00069761081318391,0.0006976116407025,-0.00069761084311302,0.00069761159558913,-0.00071933427810521,0.00071933518653106,-0.00071933437049042,0.00071933511149889,-0.00073637003538015,0.00073637158235198,-0.00073637052936189,0.00073637084621244,-0.00071933420048627,0.00071933535504544,-2.9947602023939e-10,-2.2573853421222e-10,-0.00048961066288895,0.00048961015310945,-3.3828154480224e-10,-1.937393980157e-10,-0.00040057571349102,0.00040057553703242,-0.00037808593679386,0.00037808545486745,-0.00037808585177944,0.00037808557871418,-0.00040057590685213,0.00040057562199026,-0.0004005761320758,0.00040057517475616,-0.000378086086306,0.00037808555674292,-0.00037808615658737,0.00037808533136395,-0.00059214278185858,0.00059214220120442,-0.0005921426719215,0.00059214225145954,-0.00059214274638772,0.00059214226746758,-0.0005921426822236,0.00059214222638107,-0.00058416586306035,0.0005841653605214,-0.00058416590417936,0.00058416539096191,-0.00058416606978426,0.00058416534425741,-0.00058416593993715,0.00058416551358776,-0.00040057586722092,0.0004005752828293,0.68707270797924,128566,2924,0.0023705308863255,0.0030171742177299,0.0020381980586793,17.494416607652,-0.00011604466713879,-0.00011604466713879,-0.00011604466713879,3298898.8652152,0.0074539651851893
24991759,0.47271614096113,0.0080215585665936,0.002627432704165,0.0029974661464071,0.0023966597160215,-0.00058013834421362,0.00058014050836894,1.1695585361572e-09,9.9058163644773e-10,1.399530933026e-09,8.584057514847e-10,-0.00024323092139433,0.00024323207789398,-0.00052459859877498,0.00052460050213799,-0.00052459875420373,0.0005246003105653,-0.00024323020700729,0.00024323273050785,-0.00024323003020252,0.00024323291895506,-0.00052459821304524,0.00052460094448025,-0.00052459813477125,0.00052460098896082,-0.00068563575309671,0.00068563807675863,-0.00068563575789005,0.00068563804170223,-0.00068563586271347,0.00068563789663909,-0.00068563594694739,0.00068563777723143,-0.00059385150002706,0.00059385373091382,-0.00059385175794958,0.00059385349150656,-0.00059385146690891,0.00059385386490491,-0.00059385156953223,0.00059385377981107,-0.0002432303098481,0.00024323258389601,3.9770981423817e-10,7.61337100733e-10,6.1302252287684e-10,5.3690837299422e-10,-0.00073903977873763,0.00073904092422967,-0.00073310354575465,0.00073310455447908,-0.00075015989340157,0.00075016062499461,-0.0007501593933753,0.00075016092880392,-0.0007109305067274,0.00071093153955744,-0.00071093048579682,0.00071093153361438,-0.00071093035737338,0.00071093165089373,-0.00071093040067731,0.00071093159094503,-0.00073310330005004,0.0007331047258559,-0.00073310342591212,0.0007331046002193,-0.00075015987279459,0.00075016066678063,-0.00075015947695737,0.00075016084236252,-0.00073310354960378,0.0007331045671781,-2.8888680656015e-10,-2.2802147855439e-10,-0.00049782317825632,0.00049782267893631,-3.5696620221202e-10,-1.6092280923482e-10,-0.0004062925790245,0.0004062925319731,-0.00038383595591816,0.00038383552266223,-0.00038383585046247,0.00038383566649378,-0.00040629284397453,0.00040629255809798,-0.00040629310818965,0.00040629207829558,-0.00038383615715375,0.00038383560398403,-0.00038383623526734,0.00038383536880165,-0.00060269473159018,0.00060269414263169,-0.00060269459969615,0.00060269421579894,-0.00060269469359567,0.00060269420884462,-0.00060269461868463,0.00060269418008154,-0.00059463483551125,0.00059463432897829,-0.00059463484462822,0.00059463438580025,-0.00059463501917074,0.00059463427773795,-0.00059463488272272,0.0005946344471135,-0.00040629279146081,0.00040629221017267,0.69912331435485,128566,2924,0.0024150433656248,0.0030744772635297,0.002072357608417,18.241425104343,-0.00011006859916526,-0.00011006859916526,-0.00011006859916526,3337554.0963892,0.0075909817876456
25191759,0.48128728692494,0.0081588599320724,0.0026729798243356,0.003052095692332,0.0024337844154049,-0.00059383069512727,0.00059383247842032,9.9289403387176e-10,7.9093180640711e-10,2.0232907749733e-09,-1.6919385711145e-10,-0.00024975249901586,0.00024975153923165,-0.00053753908436982,0.00053753898723328,-0.00053753926246712,0.00053753876234158,-0.00024975013902892,0.00024975386019327,-0.00024974991624038,0.00024975410091679,-0.0005375371109205,0.00053754105201454,-0.00053753700813838,0.00053754111115319,-0.00070157015732186,0.00070157265146804,-0.00070157016648053,0.00070157261586107,-0.00070157079820605,0.00070157192915248,-0.00070157089872662,0.00070157179760184,-0.00060770349110053,0.00060770484833275,-0.00060770380242439,0.00060770457474114,-0.0006077029267948,0.00060770550287694,-0.00060770304128843,0.00060770542178738,-0.00024975179884796,0.00024975213161267,-2.6770192265473e-10,1.7264177420936e-09,7.788322253866e-10,6.6345988293246e-10,-0.00075645179476667,0.00075645322429606,-0.00075063878499507,0.00075063953804672,-0.00076755518388894,0.0007675546009601,-0.00076755308913242,0.00076755655607664,-0.00072765946453817,0.00072766024308801,-0.00072765945113152,0.00072766023075589,-0.00072765878634459,0.00072766090727197,-0.00072765884883407,0.00072766082730176,-0.00075063797763896,0.00075064030734683,-0.00075063814901455,0.00075064011212489,-0.00076755516796975,0.00076755465089864,-0.00076755320102742,0.00076755644055664,-0.00075063878813542,0.0007506395838878,-2.7494543008705e-10,-2.3004277714151e-10,-0.00050867610026498,0.00050867561548073,-3.7949005390506e-10,-1.1672135233931e-10,-0.00041452376388952,0.00041452388354868,-0.00039201801479789,0.00039201764489169,-0.00039201788335291,0.00039201781899356,-0.00041452411988187,0.00041452383970134,-0.00041452443832899,0.00041452331610878,-0.00039201828405867,0.00039201770648203,-0.00039201837535013,0.00039201745805189,-0.00061622322486357,0.00061622262517647,-0.00061622306673123,0.00061622273029984,-0.00061622318371723,0.00061622268987201,-0.00061622309623694,0.00061622268047339,-0.00060827065948512,0.00060827014782672,-0.00060827064383244,0.00060827024898636,-0.00060827085870961,0.00060827009606849,-0.00060827070888785,0.00060827026440831,-0.00041452404454615,0.00041452346960646,0.71927450140285,128566,2924,0.0024719944241263,0.0031467909375891,0.0021174966099654,19.911263669275,-9.6709890645799e-05,-9.6709890645799e-05,-9.6709890645799e-05,3388393.5086005,0.0077667457819136
25391759,0.49048725052222,0.0083141827973975,0.0027242992677141,0.0031141337402474,0.002475749789436,-0.00060768055142168,0.00060768229554575,1.0313028993602e-09,7.1374100923886e-10,2.1072254981193e-09,-2.9483382952889e-10,-0.00025605718109655,0.00025605551250418,-0.00055107417303039,0.00055107398250645,-0.00055107446940488,0.00055107356165991,-0.00025605450901939,0.00025605813180791,-0.00025605405023877,0.00025605866207516,-0.00055107206676309,0.00055107609670889,-0.0005510718736008,0.00055107621819323,-0.00071771298755351,0.00071771550923277,-0.0007177130147896,0.00071771548293991,-0.00071771365622302,0.00071771476948447,-0.00071771385727783,0.000717714581327,-0.00062189379057261,0.00062189524239467,-0.00062189437461778,0.00062189476219425,-0.00062189327876039,0.00062189590458288,-0.00062189343431687,0.00062189587981494,-0.00025605603051835,0.00025605655584705,-2.3457798906816e-10,1.7678017938981e-09,7.7159459540299e-10,7.1943975499168e-10,-0.000774403780267,0.00077440528713674,-0.00076898403449792,0.00076898500388714,-0.00078546799969712,0.00078546735117496,-0.00078546574159481,0.00078546941035304,-0.00074476164238587,0.00074476244695461,-0.00074476159655723,0.00074476253996848,-0.00074476091960145,0.00074476316810189,-0.0007447610089764,0.00074476309370613,-0.00076898324039528,0.0007689856368751,-0.00076898357024198,0.00076898544147367,-0.0007854677763023,0.00078546744810609,-0.00078546592615968,0.00078546912668556,-0.00076898414252856,0.00076898480301192,-1.8782534349091e-10,-2.5309631315306e-10,-0.00051937872341661,0.00051937828907864,-3.9574046491377e-10,-4.5680739260507e-11,-0.00042281930345319,0.00042282001242557,-0.0004001331440623,0.00040013272847977,-0.00040013287467301,0.00040013306904095,-0.00042281980260188,0.00042281977331916,-0.00042282032865027,0.00042281895526082,-0.00040013330934562,0.00040013279653283,-0.00040013349776464,0.00040013241943949,-0.00062972298690868,0.00062972239574559,-0.00062972276914581,0.00062972258369308,-0.0006297229433974,0.00062972245560454,-0.00062972287009551,0.00062972245261908,-0.00062231401934297,0.00062231337061851,-0.00062231380419052,0.00062231374208656,-0.00062231417741251,0.00062231346575422,-0.00062231403468877,0.00062231365289122,-0.00042281997009194,0.00042281910129166,0.75830681889303,128566,2924,0.0025296029423712,0.0032213390166764,0.0021620107003873,21.020187793803,-8.7838497649577e-05,-8.7838497649577e-05,-8.7838497649577e-05,3421157.376675,0.0079448252352901
25591759,0.49963475587476,0.0084735132350989,0.0027768251790894,0.0031780128318779,0.0025186752241316,-0.00061971293164618,0.00061971516070944,1.0928833580312e-09,1.1344910157914e-09,1.3977907329085e-09,9.3632317041104e-10,-0.00026051190736454,0.0002605141857832,-0.00056299636171189,0.00056299809219653,-0.00056299620344266,0.00056299824390388,-0.00026051146976435,0.00026051468728279,-0.00026051189156684,0.00026051418188509,-0.00056299574303046,0.00056299870469192,-0.00056299590395627,0.00056299852074668,-0.00073196168099706,0.00073196405762127,-0.00073196171648981,0.00073196399894328,-0.00073196185092378,0.00073196380529679,-0.00073196177494892,0.00073196386029427,-0.0006344004443792,0.00063440224813783,-0.000634400153011,0.00063440250259189,-0.0006344001455657,0.00063440264525918,-0.00063440028940569,0.00063440247093407,-0.00026051228352275,0.00026051381099241,2.5189305413422e-10,1.1239853243434e-09,7.5134798068788e-10,5.7723205701571e-10,-0.00079059826127629,0.00079059962687272,-0.00078579005379663,0.00078579067861071,-0.00080165604117917,0.00080165680955414,-0.00080165533316238,0.00080165734323149,-0.00076000167836535,0.00076000291806473,-0.00076000179820809,0.00076000280784323,-0.0007600014634174,0.00076000310788324,-0.00076000144371459,0.00076000312011233,-0.00078578953254805,0.00078579107403179,-0.00078578949619763,0.00078579115393069,-0.00080165633090854,0.0008016565142283,-0.00080165513368082,0.00080165747313661,-0.00078578958394332,0.00078579097902895,-4.0816223802896e-10,-1.1137589732955e-10,-0.0005281611706522,0.00052816065511194,-3.7892912497258e-10,-1.8091870752275e-10,-0.00042935609613663,0.00042935500587807,-0.00040640019765192,0.00040640004656309,-0.00040640043119511,0.0004063998543925,-0.00042935622604432,0.00042935521869462,-0.00042935574182006,0.00042935530830721,-0.00040640059485416,0.00040639977950378,-0.00040640045250183,0.00040639970913403,-0.00064129679294395,0.00064129621536781,-0.00064129675206212,0.00064129618941404,-0.00064129676334943,0.00064129625736263,-0.00064129659442196,0.00064129632816483,-0.00063467087681735,0.00063467090826603,-0.0006346714120566,0.00063467044049191,-0.00063467128785534,0.00063467061429597,-0.00063467121004979,0.00063467073116981,-0.00042935538700511,0.00042935567885587,0.7825349577605,128566,2924,0.0025796582326432,0.0032885809583827,0.0021985405558427,21.046871445726,-8.7625028434193e-05,-8.7625028434193e-05,-8.7625028434193e-05,3426760.0824935,0.0080999067196106
25791759,0.50818844772864,0.0086180454590806,0.0028246394921273,0.0032359907452452,0.0025574152217081,-0.00062908238850678,0.00062908514912083,1.3245113516315e-09,1.428932079797e-09,6.6932451569843e-10,2.221248660834e-09,-0.0002624701663244,0.0002624752540356,-0.00057190751201744,0.00057191166736224,-0.00057190723713074,0.00057191192288286,-0.00026247178685183,0.00026247355765643,-0.00026247230454652,0.00026247301303718,-0.00057190880421892,0.00057191037442274,-0.0005719090061025,0.00057191014767739,-0.00074348331877331,0.00074348556337877,-0.00074348334654453,0.00074348550911939,-0.00074348286259134,0.00074348595327676,-0.00074348273361266,0.00074348605160998,-0.00064411825137117,0.00064412113490798,-0.00064411787562495,0.00064412149536742,-0.00064411857848241,0.00064412092715653,-0.00064411872063041,0.000644120776245,-0.00026247080329356,0.00026247454162999,1.134969033681e-09,-2.3924114517077e-11,6.2389175047646e-10,4.6414154629436e-10,-0.0008038102588132,0.00080381136885341,-0.00079952149771214,0.00079952249403311,-0.00081491159901474,0.00081491413354694,-0.00081491288139331,0.00081491258027212,-0.00077234654339805,0.00077234819188087,-0.00077234666897975,0.00077234805642375,-0.00077234699191832,0.00077234768549691,-0.00077234694572607,0.00077234772357851,-0.00079952164087846,0.00079952220137357,-0.00079952153277953,0.00079952236644791,-0.00081491190223253,0.00081491380763074,-0.00081491266698436,0.00081491277433896,-0.0007995210124217,0.00079952288278321,-4.5124086628278e-10,-8.1949942410145e-11,-0.00053445662258575,0.00053445609673065,-3.6605320716127e-10,-1.950749308512e-10,-0.00043332885636805,0.00043332741264128,-0.00041005480602761,0.00041005472727653,-0.00041005513315861,0.00041005441804901,-0.00043332878417295,0.0004333277171482,-0.00043332829318615,0.00043332800997582,-0.00041005525974941,0.00041005442177316,-0.00041005509682888,0.00041005442931975,-0.00065032056670787,0.00065031997242623,-0.00065032055494069,0.0006503199140496,-0.00065032053555633,0.00065032002441794,-0.0006503203523469,0.00065032010759783,-0.00064418858150884,0.00064418873814942,-0.0006441892492756,0.00064418809866415,-0.00064418905978837,0.00064418840392997,-0.00064418899515205,0.00064418848882703,-0.00043332778750857,0.00043332845263735,0.75922183678257,128566,2924,0.0026186421407985,0.003343433833807,0.002224729981926,20.189702631827,-9.4482378945383e-05,-9.4482378945383e-05,-9.4482378945383e-05,3415693.9919081,0.0082209336720721
25991759,0.51641126532968,0.0087540677442162,0.0028698035211526,0.003290464805226,0.0025937994178376,-0.00063865268399326,0.00063865560570926,1.5077926893654e-09,1.4037668167697e-09,5.7938179316628e-10,2.4809878308336e-09,-0.00026505160895709,0.0002650563548886,-0.00058087600430586,0.00058088097128703,-0.00058087601800974,0.00058088090971211,-0.0002650534039478,0.00026505454654988,-0.00026505346603646,0.00026505446660554,-0.00058087789289286,0.0005808791104045,-0.00058087790949172,0.00058087904889805,-0.00075513039688075,0.00075513266469173,-0.00075513041003193,0.00075513263176691,-0.00075512974899373,0.00075513325564133,-0.00075512976763646,0.00075513321331747,-0.00065393855182253,0.00065394216408141,-0.00065393865434436,0.00065394208261564,-0.00065393924968108,0.0006539415984518,-0.000653939363825,0.00065394151365757,-0.00026505138969194,0.00026505650242197,1.4182461496713e-09,-4.0307786213035e-10,5.8132639499532e-10,4.3598859849465e-10,-0.00081694278571411,0.00081694380003078,-0.0008130185079637,0.00081301992686218,-0.00082811806750696,0.00082812091698883,-0.00082811974645034,0.00082811894106116,-0.0007847462468098,0.00078474791415352,-0.00078474629303378,0.00078474785381931,-0.00078474682588546,0.00078474726675395,-0.00078474685024061,0.00078474723364595,-0.00081301890236113,0.00081301942146755,-0.00081301899167222,0.00081301935056684,-0.00082811813387846,0.00082812084556582,-0.00082811977827823,0.00082811891000204,-0.00081301831007993,0.00081302010736041,-3.4916574497354e-10,-1.7781649704682e-10,-0.0005410975880541,0.00054109707450186,-3.8273384993524e-10,-1.518704524224e-10,-0.00043787904873371,0.00043787857258513,-0.00041410594673887,0.00041410567282436,-0.00041410597901108,0.0004141056458063,-0.00043787928296887,0.00043787870477314,-0.00043787928847545,0.00043787845680408,-0.00041410629823183,0.00041410559215686,-0.00041410626951769,0.00041410543933579,-0.0006595558678913,0.00065955524146579,-0.00065955575956295,0.00065955528961985,-0.00065955581801273,0.00065955531362457,-0.00065955569578219,0.00065955533995074,-0.00065379168644862,0.00065379142516607,-0.00065379192853373,0.00065379122534058,-0.00065379200282511,0.00065379127527028,-0.00065379189202073,0.00065379141066363,-0.00043787885416461,0.00043787873456523,0.74286645141575,128566,2924,0.0026584563110245,0.0033979538962465,0.0022523549898988,19.730303784917,-9.8157569720665e-05,-9.8157569720665e-05,-9.8157569720665e-05,3416313.1117914,0.0083439243568257
26191759,0.52452115217407,0.0088911986001893,0.0029153173267337,0.0033453778648138,0.0026305034086418,-0.00064895774198856,0.00064896058980883,1.4915311259171e-09,1.3471531757334e-09,8.4200876044564e-10,2.1388621162746e-09,-0.00026871307282231,0.00026871698530658,-0.0005907825440587,0.00059078689875474,-0.00059078261581322,0.00059078677457713,-0.00026871422249585,0.00026871581760526,-0.0002687142166274,0.00026871581660837,-0.00059078388808391,0.00059078558797784,-0.00059078386846632,0.00059078555963566,-0.00076742221592311,0.00076742460897688,-0.00076742223102913,0.00076742457625544,-0.00076742175137753,0.00076742501291425,-0.00076742179675883,0.00076742494677842,-0.00066452979387467,0.00066453321168437,-0.00066452997880947,0.00066453305730597,-0.00066453033175009,0.00066453280373397,-0.00066453044423451,0.0006645327264713,-0.00026871269848334,0.00026871728437469,1.1826925199083e-09,-1.1455369596322e-10,6.2260763276419e-10,4.4466991028653e-10,-0.00083074653122424,0.0008307475974131,-0.00082719948268344,0.00082720079205547,-0.00084199548562346,0.00084199786353491,-0.00084199662642969,0.00084199642738927,-0.00079783234211585,0.00079783389305226,-0.00079783239379324,0.00079783382840844,-0.00079783274648521,0.00079783343045773,-0.00079783278898654,0.00079783337771744,-0.0008271996684644,0.00082720049424315,-0.0008271998370418,0.0008272003518747,-0.00084199554109696,0.0008419977938256,-0.00084199669140126,0.00084199636355092,-0.00082719929950244,0.00082720096514157,-3.2776826908527e-10,-1.8991342925672e-10,-0.00054851397072139,0.00054851346711892,-4.0511766386268e-10,-1.169511008179e-10,-0.00044354493440679,0.00044354473788111,-0.00041911957020011,0.00041911931828173,-0.00041911956031905,0.00041911934141836,-0.00044354525368448,0.00044354476842936,-0.00044354538356477,0.00044354437748958,-0.0004191199444925,0.00041911922760969,-0.00041911994307907,0.00041911903932647,-0.00066944752532703,0.00066944688659262,-0.00066944738938073,0.00066944696971199,-0.00066944747367039,0.00066944696037341,-0.00066944734641245,0.0006694469950334,-0.00066422805054202,0.00066422773287645,-0.0006642282160455,0.00066422762557606,-0.00066422835921623,0.00066422759618735,-0.00066422822517563,0.0006642277589305,-0.00044354492852244,0.00044354467199771,0.75895828687196,128566,2924,0.002701321711651,0.0034552573845224,0.0022832030913149,19.640538384546,-9.8875692923634e-05,-9.8875692923634e-05,-9.8875692923634e-05,3424244.808976,0.008476063490157
26391759,0.53266863930018,0.0090336114315464,0.0029625067348833,0.0034024681329922,0.002668636563671,-0.00066006185636066,0.00066006452702936,1.3784006651147e-09,1.2858973801074e-09,1.2266640586227e-09,1.5656389839067e-09,-0.00027308195043732,0.00027308495613097,-0.00060174686032738,0.00060175000922022,-0.0006017468572812,0.00060174996145007,-0.00027308220850101,0.00027308470161399,-0.0002730823258918,0.0002730845711097,-0.00060174721281284,0.00060174971073069,-0.00060174723259118,0.00060174964248268,-0.00078049837737795,0.0007805009151761,-0.0007804983967966,0.00078050087826497,-0.00078049824491661,0.00078050097867475,-0.00078049825228676,0.00078050094995294,-0.0006760535325148,0.00067605634804122,-0.00067605360303166,0.00067605630697204,-0.00067605369605266,0.00067605632065017,-0.0006760538182848,0.00067605623180431,-0.00027308180119353,0.00027308504126258,7.3937312086457e-10,4.7514176324528e-10,7.2556267135255e-10,4.8155339146268e-10,-0.00084551336851542,0.00084551457400423,-0.00084249859314332,0.0008424995814172,-0.00085684350953422,0.00085684510420332,-0.00085684371500367,0.00085684463758786,-0.00081176174156988,0.0008117631350611,-0.00081176183596931,0.00081176302536284,-0.00081176183915179,0.00081176299639308,-0.00081176188128108,0.00081176294093085,-0.00084249837792715,0.00084249970105997,-0.00084249854786882,0.00084249954731289,-0.00085684365906199,0.00085684495042159,-0.00085684373483417,0.00085684461818086,-0.00084249829407693,0.00084249988099556,-3.5659604109743e-10,-1.5992606138515e-10,-0.00055663784495116,0.00055663734304523,-4.239184834361e-10,-9.5551394103771e-11,-0.00045011038321663,0.00045011001149167,-0.00042492209952924,0.00042492196843648,-0.00042492216883737,0.00042492191522378,-0.00045011069173705,0.00045011005641494,-0.00045011070652355,0.00045010977828243,-0.00042492257899385,0.00042492178548232,-0.00042492253675529,0.00042492163897433,-0.00068006428936673,0.00068006364138848,-0.00068006416329895,0.00068006371778704,-0.00068006423841924,0.0006800637111361,-0.00068006407876807,0.00068006378270405,-0.00067563939978162,0.00067563921313474,-0.00067563968804782,0.00067563899428602,-0.00067563978757416,0.00067563901049222,-0.00067563964980789,0.00067563917213526,-0.00045011015281789,0.00045011015475829,0.78422789049944,128566,2924,0.0027475087205111,0.0035165548725577,0.0023169923346913,19.82117582177,-9.7430593425843e-05,-9.7430593425843e-05,-9.7430593425843e-05,3432558.3257907,0.0086185649482555
26591759,0.54118944280148,0.0091821925552832,0.0030117974692956,0.0034620751243015,0.0027083199616861,-0.00067272492206531,0.00067272726589608,1.2592962215854e-09,1.0819875638756e-09,1.8040714396941e-09,6.4136614226343e-10,-0.00027828470599474,0.00027828555119257,-0.00061419804011618,0.00061419947910851,-0.000614198143874,0.0006141993074218,-0.00027828340546746,0.00027828687072449,-0.00027828334595705,0.00027828693127032,-0.00061419700833603,0.00061420058097727,-0.0006141969593503,0.0006142005728062,-0.00079532246062732,0.00079532516792494,-0.00079532248053474,0.00079532513659113,-0.0007953227858272,0.00079532476353136,-0.00079532285583032,0.0007953246800649,-0.00068919491023831,0.00068919707818131,-0.00068919516814131,0.00068919686873888,-0.00068919467278167,0.00068919747088208,-0.0006891947981469,0.00068919740272784,-0.00027828421590215,0.00027828596696089,1.829707417812e-10,1.248015717153e-09,8.613465533364e-10,5.5387261310128e-10,-0.00086218735756793,0.00086218877050774,-0.00085979297413778,0.00085979376967116,-0.00087363739745002,0.00087363782790314,-0.00087363621596903,0.00087363878061304,-0.00082746184203788,0.00082746299165884,-0.00082746192904604,0.000827462895741,-0.00082746148177108,0.00082746333138654,-0.00082746157557443,0.00082746322647192,-0.00085979226341554,0.00085979439423906,-0.00085979259289577,0.00085979409130939,-0.00087363747301422,0.00087363773858891,-0.00087363634936944,0.00087363864297221,-0.00085979270821075,0.00085979404382238,-3.0905508548514e-10,-1.895507952853e-10,-0.00056608883032971,0.00056608834663546,-4.5133738769159e-10,-4.3599218820116e-11,-0.00045777936865137,0.00045777941649998,-0.00043178772634017,0.00043178758756082,-0.00043178768759116,0.00043178764824304,-0.00045777983387641,0.00045777932717306,-0.00045778001831518,0.00045777886921078,-0.00043178820721258,0.00043178742734855,-0.00043178822629318,0.00043178721739926,-0.00069226192045998,0.00069226125646884,-0.00069226174123403,0.00069226139378469,-0.00069226186269762,0.00069226132688066,-0.0006922617100807,0.00069226140099812,-0.00068866369424388,0.00068866338375906,-0.00068866383298807,0.00068866334324798,-0.00068866405032666,0.00068866325233676,-0.00068866389626184,0.00068866342124543,-0.0004577794332537,0.00045777923477096,0.78231018645829,128566,2924,0.0028001773051059,0.0035857647451456,0.0023562987198152,20.59543895403,-9.1236488367763e-05,-9.1236488367763e-05,-9.1236488367763e-05,3449298.7181208,0.0087811752834944
26791759,0.55013898291833,0.0093346821764324,0.0030625373307414,0.003523276336494,0.002748868509197,-0.00068593906048432,0.0006859411587201,1.1816316275237e-09,9.168346639333e-10,2.179096018436e-09,4.7800119739153e-12,-0.00028353986692925,0.00028353914449526,-0.00062692697081803,0.00062692727143075,-0.00062692719850015,0.0006269269955241,-0.00028353748499648,0.00028354152000967,-0.00028353725570207,0.00028354173566384,-0.00062692504311608,0.0006269292961848,-0.00062692493843138,0.00062692935096596,-0.00081088392022164,0.0008108867240967,-0.00081088394038693,0.0008108866883858,-0.00081088454442196,0.00081088600730752,-0.00081088467073413,0.00081088586073309,-0.00070282095079191,0.00070282271415956,-0.00070282136629108,0.00070282233173548,-0.00070282046508241,0.00070282335290237,-0.0007028205808931,0.00070282327115808,-0.00028353906615356,0.00028353987434629,-1.7636141254461e-10,1.775828098347e-09,9.6466738427947e-10,6.1122510613963e-10,-0.00087958631862844,0.0008795878924989,-0.00087772623879484,0.0008777269224274,-0.00089118667795986,0.0008911863358149,-0.00089118455710696,0.00089118825287068,-0.00084388930324687,0.00084389031320266,-0.00084388937370569,0.00084389022568723,-0.00084388863189778,0.00084389097381448,-0.00084388877001041,0.00084389082298143,-0.00087772518809421,0.00087772790330681,-0.00087772564009204,0.00087772746823396,-0.0008911866940964,0.00089118631274488,-0.00089118478761657,0.00089118803529744,-0.00087772602155334,0.00087772717139092,-2.6592776104994e-10,-2.2707321218321e-10,-0.00057591264870971,0.00057591217055138,-4.8307332428483e-10,-7.9687342628441e-12,-0.00046550589509081,0.0004655063273962,-0.00043872641895818,0.00043872623655036,-0.0004387262725028,0.00043872640944835,-0.00046550643764155,0.00046550605055665,-0.00046550683948085,0.00046550543968887,-0.00043872687023116,0.00043872608555331,-0.00043872696329108,0.00043872582525441,-0.00070505334736926,0.00070505266826106,-0.00070505311625939,0.00070505285215691,-0.00070505328922995,0.00070505273850206,-0.00070505314068859,0.00070505280244503,-0.00070212282882515,0.00070212238365197,-0.00070212280493553,0.00070212250995809,-0.0007021231405564,0.00070212231720296,-0.00070212297415884,0.00070212249160484,-0.0004655062672311,0.00046550581607912,0.76473034397305,128566,2924,0.0028551365639279,0.0036579782049855,0.0023971548146338,21.456231811271,-8.4350145509831e-05,-8.4350145509831e-05,-8.4350145509831e-05,3470514.0752985,0.008950720064029
26991759,0.55914865787755,0.0094842515150924,0.0031124606054643,0.003583327371229,0.002788463538399,-0.00069792030806672,0.00069792250740615,1.2038959396437e-09,9.9448106546991e-10,1.9742326209162e-09,3.175172975204e-10,-0.00028764922171032,0.00028764935098356,-0.00063815248478617,0.00063815332445054,-0.00063815263571201,0.00063815312883272,-0.00028764738118479,0.0002876511679182,-0.00028764730355848,0.00028765124047503,-0.00063815098472464,0.00063815488378243,-0.00063815093354607,0.00063815489107727,-0.00082524208458122,0.00082524482321426,-0.00082524211352092,0.0008252447796949,-0.00082524255954513,0.00082524425456748,-0.00082524264793004,0.00082524414800999,-0.00071504942003531,0.0007150513305813,-0.0007150497107559,0.00071505107062477,-0.00071504901343463,0.00071505184278546,-0.00071504913823422,0.00071505174249981,-0.0002876486539845,0.00028764984501481,2.8732138870527e-11,1.5382652419057e-09,9.4432508878146e-10,5.9133409329642e-10,-0.00089559821850541,0.00089559976968316,-0.00089407928962157,0.00089408000817652,-0.00090735902041081,0.00090735916021539,-0.00090735740133435,0.00090736056221807,-0.00085907294990882,0.0008590741209182,-0.00085907304332821,0.00085907401804328,-0.00085907244422402,0.00085907461160172,-0.00085907256046977,0.0008590744832169,-0.00089407836718189,0.00089408081165892,-0.00089407878049015,0.00089408046187124,-0.00090735909972207,0.00090735905126435,-0.00090735755028083,0.00090736039923542,-0.00089407897385793,0.00089408028740212,-2.9254066658123e-10,-1.9284885745088e-10,-0.00058454432184336,0.00058454384755895,-4.9117961083406e-10,-3.223717736386e-12,-0.0004719176190494,0.00047191784487785,-0.0004443666329733,0.00044436653503381,-0.00044436657449787,0.00044436663371731,-0.00047191810118315,0.00047191757319994,-0.0004719183606196,0.00047191707633005,-0.0004443671271274,0.00044436628418863,-0.00044436718089504,0.00044436605259956,-0.00071666247659267,0.00071666180341602,-0.00071666226553014,0.00071666197077102,-0.00071666242371928,0.00071666186831212,-0.00071666225019396,0.00071666196161551,-0.00071418581604178,0.00071418550941752,-0.00071418592275867,0.00071418551624321,-0.00071418620354149,0.00071418539715426,-0.00071418604946289,0.00071418557208631,-0.00047191776461258,0.00047191754821688,0.74558024435736,128566,2924,0.0029049694126475,0.003724428504851,0.0024330550632526,21.710546652977,-8.2315626776181e-05,-8.2315626776181e-05,-8.2315626776181e-05,3484852.6054877,0.0091043045699779
27191759,0.56807552685618,0.0096282749855436,0.0031606801762671,0.0036411377813964,0.0028264570278801,-0.00070914345898683,0.00070914585897543,1.2692123200525e-09,1.127920246149e-09,1.6392859734829e-09,8.6533372666335e-10,-0.00029105721002337,0.0002910586735803,-0.00064837514396818,0.00064837697586318,-0.00064837521146919,0.00064837687378316,-0.00029105630821822,0.00029105955548396,-0.00029105635323177,0.00029105949323487,-0.0006483744462912,0.00064837772913228,-0.00064837444013536,0.00064837769307953,-0.00083885506047834,0.00083885770750504,-0.00083885508825444,0.00083885766252808,-0.00083885526926589,0.00083885740563558,-0.00083885531109637,0.00083885734068315,-0.00072635020470998,0.00072635247732583,-0.00072635035910401,0.00072635234759843,-0.0007263500159759,0.00072635274899471,-0.00072635013660699,0.00072635263986596,-0.00029105689668854,0.0002910589199983,3.7821351586612e-10,1.1131040568469e-09,9.1793589677669e-10,5.5020486323675e-10,-0.00091069755462445,0.00091069903819224,-0.00090931533092843,0.00090931616508287,-0.00092262946747487,0.00092263036790026,-0.00092262867167915,0.00092263093716369,-0.00087347124796717,0.00087347263248745,-0.00087347136369905,0.00087347250191678,-0.00087347101234786,0.00087347284043963,-0.00087347111269317,0.00087347272517068,-0.0009093146566451,0.00090931673029218,-0.00090931500200116,0.00090931642376111,-0.00092262962493839,0.0009226302036666,-0.00092262876268393,0.00092263083618284,-0.00090931494109447,0.00090931653026724,-3.3678142862978e-10,-1.6174781002058e-10,-0.00059253955900594,0.00059253907256857,-4.8402189324512e-10,-2.3891208062787e-11,-0.00047771779061715,0.00047771769061913,-0.0004493032871422,0.0004493032375817,-0.00044930331147817,0.00044930324752794,-0.00047771818572311,0.00047771752700727,-0.0004777183042725,0.00047771717527187,-0.00044930382619485,0.00044930295487543,-0.00044930383517213,0.00044930276594019,-0.00072760172640471,0.00072760104914918,-0.00072760154880034,0.00072760118834333,-0.00072760167066402,0.00072760111701536,-0.00072760148992535,0.00072760122784845,-0.00072537094368692,0.00072537075855061,-0.00072537118912695,0.00072537061392746,-0.00072537139459535,0.00072537057915908,-0.00072537123815982,0.00072537075884838,-0.0004777176700513,0.00047771769199786,0.72510222146705,128566,2924,0.0029516475829678,0.0037870875581662,0.002466309483046,21.737002121609,-8.2103983027128e-05,-8.2103983027128e-05,-8.2103983027128e-05,3498520.7293327,0.0092482326319722
27391759,0.57696102587236,0.0097747209845772,0.0032096409423493,0.003699954104414,0.0028651259378138,-0.00072061631560222,0.00072061885377213,1.3632969257883e-09,1.17026172444e-09,1.4687444001903e-09,1.1821081804212e-09,-0.00029502686070066,0.00029502874219674,-0.00065907898511327,0.00065908150465898,-0.00065907911210481,0.00065908133399087,-0.00029502639910247,0.00029502919362315,-0.00029502633498663,0.0002950292470345,-0.00065907882008433,0.0006590817322098,-0.00065907877583498,0.00065908172791655,-0.00085263721786227,0.00085263983958212,-0.00085263724593182,0.00085263979685299,-0.00085263725087198,0.00085263971585847,-0.00085263732707097,0.00085263961856131,-0.00073795094475936,0.000737953617818,-0.00073795121129378,0.00073795338854135,-0.00073795097348802,0.00073795368057249,-0.00073795109991461,0.00073795357926277,-0.00029502634025922,0.00029502919163132,6.25889605561e-10,8.1456510891859e-10,8.964553006118e-10,5.3080940037248e-10,-0.00092602977696659,0.00092603121472917,-0.00092477347881017,0.00092477451509413,-0.00093811611798903,0.00093811745713999,-0.00093811579816215,0.00093811753420058,-0.00088811268178222,0.00088811417631519,-0.00088811277852148,0.00088811406312143,-0.00088811260327926,0.00088811421820534,-0.0008881127198515,0.0008881140863369,-0.0009247729960159,0.00092477490319351,-0.00092477337584777,0.00092477454365208,-0.00093811622260649,0.00093811735314528,-0.00093811594454002,0.00093811738064663,-0.00092477315283728,0.00092477484444991,-3.1573357332027e-10,-1.8446342091249e-10,-0.00060084011751731,0.00060083963168108,-4.859104660496e-10,-1.6112247023641e-11,-0.00048409277739011,0.00048409287160232,-0.00045477954508787,0.00045477944838779,-0.00045477950206297,0.00045477952269412,-0.00048409324040446,0.00048409268317716,-0.00048409345783599,0.00048409222358033,-0.00045478006400882,0.00045477922713282,-0.00045478010036018,0.00045477900039516,-0.00073872349721434,0.00073872281026123,-0.00073872330372048,0.00073872297825333,-0.00073872343678053,0.00073872288204441,-0.00073872327722649,0.00073872298689814,-0.00073692002686577,0.0007369197478391,-0.00073692017211575,0.00073691969121998,-0.00073692040598978,0.0007369195735295,-0.00073692024177554,0.00073691975913164,-0.00048409283749996,0.00048409269850914,0.74094224659517,128566,2924,0.0029993599981678,0.0038507090270791,0.0025008323295754,21.838517767624,-8.1291857859011e-05,-8.1291857859011e-05,-8.1291857859011e-05,3513108.3248663,0.0093954754836491
27591759,0.58597040403422,0.0099251260109256,0.0032598738603035,0.003760422003324,0.0029048301472981,-0.00073284512414233,0.00073284766659619,1.389101764777e-09,1.1483414274062e-09,1.5262517037346e-09,1.127552691554e-09,-0.00029947303741346,0.00029947466513059,-0.00067065851726934,0.00067066098060074,-0.00067065868636925,0.00067066074731117,-0.00029947243476394,0.00029947526099041,-0.00029947230393914,0.00029947539505686,-0.0006706582894043,0.00067066128537034,-0.0006706582091321,0.00067066130509463,-0.0008672304328377,0.0008672331005045,-0.00086723046896592,0.00086723305586021,-0.00086723049130565,0.00086723295282675,-0.00086723059941383,0.00086723283080497,-0.00075038894124118,0.00075039166286109,-0.00075038930605663,0.00075039136165946,-0.00075038896837403,0.00075039172957368,-0.00075038911895363,0.0007503916315334,-0.00029947237225168,0.00029947525426998,6.1785986068773e-10,8.5531724335121e-10,9.1946348008065e-10,5.4367367178958e-10,-0.0009423190768936,0.00094232054756099,-0.00094127648364826,0.00094127758394762,-0.00095457608749595,0.00095457739104071,-0.00095457568870658,0.00095457754625815,-0.00090361916239706,0.00090362065801049,-0.00090361925265573,0.00090362055567994,-0.00090361905763495,0.00090362072833791,-0.00090361919004468,0.00090362058206857,-0.00094127598277802,0.00094127800373521,-0.00094127640323662,0.00094127759331046,-0.00095457616625455,0.00095457731332447,-0.00095457586849542,0.00095457735551671,-0.00094127620005972,0.00094127790097019,-2.9082935603207e-10,-1.9967431871714e-10,-0.00060980643730188,0.00060980596280262,-4.9778535604778e-10,1.6356144957837e-11,-0.00049112423045515,0.00049112454773099,-0.0004609120711368,0.00046091198799056,-0.00046091197760596,0.00046091211564922,-0.00049112477888151,0.00049112429706774,-0.00049112509025582,0.00049112374484247,-0.00046091261622129,0.00046091179249799,-0.0004609126770261,0.00046091153214929,-0.00075059366395921,0.00075059296854183,-0.00075059344760015,0.00075059317420164,-0.00075059360272262,0.00075059303968809,-0.00075059344919556,0.0007505931538242,-0.00074931230078801,0.00074931196167101,-0.00074931236348016,0.0007493119885631,-0.00074931263356083,0.00074931178526388,-0.00074931246309767,0.00074931197558813,-0.00049112443542016,0.00049112420665161,0.75071708311722,128566,2924,0.0030502138240842,0.003918297095581,0.0025381223926893,22.226447242685,-7.8188422058516e-05,-7.8188422058516e-05,-7.8188422058516e-05,3529137.8140068,0.0095527103547365
27791759,0.59498418235077,0.010077702354594,0.00331077877408,0.0038218471920323,0.0029450763884816,-0.00074482890304526,0.00074483150509968,1.4027075066897e-09,1.193576573577e-09,1.4927703594637e-09,1.2240687839212e-09,-0.00030358856728804,0.0003035905136314,-0.00068211302625139,0.00068211564200369,-0.00068211316719521,0.00068211546350478,-0.00030358809720881,0.00030359092700358,-0.00030358803585534,0.00030359097747718,-0.00068211288126283,0.00068211584275511,-0.00068211283817627,0.00068211584071698,-0.00088156359547342,0.00088156628306309,-0.00088156363154777,0.00088156623280271,-0.00088156362204856,0.00088156616244499,-0.00088156370532188,0.0008815660574929,-0.00076264551036496,0.00076264827008186,-0.00076264579344805,0.00076264802102998,-0.0007626455448628,0.00076264831649704,-0.00076264567762698,0.00076264820142967,-0.00030358803144191,0.00030359097285482,6.6247189329134e-10,7.931879948277e-10,9.1572764585488e-10,5.2134159090167e-10,-0.00095842129055595,0.00095842274971583,-0.00095764982089214,0.00095765085983056,-0.00097085727567823,0.00097085870636693,-0.00097085700738337,0.00097085871361122,-0.00091890535386528,0.00091890690633187,-0.00091890545876178,0.00091890678525984,-0.00091890529680985,0.00091890692759033,-0.00091890542379971,0.00091890678526393,-0.00095764931687069,0.00095765124721787,-0.00095764973728215,0.00095765086938448,-0.00097085738793573,0.00097085858370151,-0.00097085716185848,0.00097085855242005,-0.00095764946127262,0.00095765120975585,-3.134218716642e-10,-1.8463461349702e-10,-0.00061848644369416,0.00061848595860189,-5.0903470589706e-10,5.8854183736263e-12,-0.00049794886035331,0.00049794901872813,-0.00046681916716439,0.00046681910407232,-0.00046681912119288,0.00046681918663051,-0.00049794931872668,0.00049794874252514,-0.00049794957680449,0.00049794827176195,-0.00046681971041756,0.0004668188375979,-0.00046681976224598,0.00046681859948536,-0.00076215618644527,0.00076215548444919,-0.00076215597724867,0.00076215567361234,-0.00076215612567201,0.00076215555749469,-0.00076215595791773,0.00076215567546824,-0.00076152288243006,0.00076152261339631,-0.00076152301037117,0.00076152256301302,-0.00076152324402717,0.00076152239153715,-0.00076152307301312,0.00076152258431765,-0.00049794893312019,0.00049794881790692,0.7613497007674,128566,2924,0.0031000491552055,0.0039851026999872,0.0025742223762512,22.425794403022,-7.6593644775827e-05,-7.6593644775827e-05,-7.6593644775827e-05,3539519.2253408,0.0097069497325216
27991759,0.60398322837576,0.010232338303627,0.003362321575711,0.0038841732372261,0.0029858434906903,-0.00075687466639371,0.000756877315162,1.437511699372e-09,1.2052563812449e-09,1.4876353383498e-09,1.2783238076587e-09,-0.00030770510186102,0.00030770707270932,-0.00069376114170883,0.00069376389048752,-0.00069376130681755,0.00069376368414695,-0.00030770467294266,0.00030770745764542,-0.0003077045736061,0.00030770754662338,-0.00069376107248841,0.00069376401330786,-0.00069376101731059,0.00069376402094935,-0.00089593210503908,0.00089593482037739,-0.00089593214308825,0.00089593476902187,-0.00089593210564467,0.00089593472485946,-0.00089593220335843,0.00089593460573264,-0.00077504880206741,0.00077505167442251,-0.00077504913537616,0.00077505138318662,-0.00077504886866963,0.00077505166761132,-0.00077504900491317,0.00077505155213382,-0.00030770448362237,0.00030770761803853,6.9288275714268e-10,7.6521609793818e-10,9.2460913853138e-10,5.1802190502168e-10,-0.00097464255045107,0.00097464401362381,-0.00097419652009065,0.00097419759232903,-0.00098726171996025,0.00098726319414516,-0.00098726148652984,0.00098726316520706,-0.00093426342880581,0.00093426500299197,-0.00093426353000658,0.00093426488542731,-0.00093426338504913,0.000934265010772,-0.00093426352299655,0.00093426485755529,-0.00097419602629209,0.00097419797346511,-0.000974196473739,0.00097419756524394,-0.00098726181536267,0.00098726309177604,-0.00098726166678887,0.00098726297634369,-0.00097419616761573,0.0009741979389292,-3.0666282212712e-10,-1.9383122571594e-10,-0.00062717014150951,0.00062716965425321,-5.1719184454812e-10,1.2556616781734e-11,-0.00050484508222531,0.00050484532564959,-0.00047280823623382,0.00047280815997026,-0.00047280816321459,0.00047280826998317,-0.00050484558125951,0.0005048450286041,-0.00050484586958356,0.00050484451429783,-0.00047280877841398,0.00047280790513956,-0.00047280884226557,0.00047280765027612,-0.00077371032823131,0.00077370961765727,-0.00077371010628891,0.00077370981765477,-0.00077371026573634,0.00077370969165751,-0.00077371009916593,0.00077370980670611,-0.00077386041388712,0.00077386011261449,-0.00077386051004206,0.00077386009618346,-0.000773860765508,0.00077385990436754,-0.00077386059448555,0.00077386009934236,-0.00050484522681425,0.00050484505569471,0.77289277635039,128566,2924,0.0031501419623881,0.0040523961807125,0.0026103373437281,22.602680535567,-7.5178555715463e-05,-7.5178555715463e-05,-7.5178555715463e-05,3547211.6404033,0.0098619805722903
28191759,0.61314779201494,0.010392390382515,0.0034156242533771,0.0039487530566428,0.0030280130724948,-0.00076985544041196,0.00076985803639591,1.3609610253543e-09,1.2305923688728e-09,1.6375654420145e-09,1.0722952055587e-09,-0.00031241901636841,0.00031242095639399,-0.00070647641191538,0.00070647862134588,-0.00070647644251848,0.00070647854139406,-0.00031241836244913,0.00031242164525313,-0.00031241845033443,0.00031242154141758,-0.00070647592489857,0.00070647921509281,-0.00070647591870868,0.00070647916276199,-0.00091128159551509,0.00091128437607354,-0.00091128163526133,0.00091128432595322,-0.00091128174790579,0.00091128412831007,-0.00091128177910962,0.00091128407810652,-0.00078851173904171,0.00078851424861655,-0.00078851187790396,0.00078851416652438,-0.00078851157619987,0.00078851444156856,-0.00078851172055849,0.00078851432715857,-0.00031241877863725,0.00031242114295123,4.9446575011663e-10,1.0703071016763e-09,1.0122722896588e-09,5.427782658495e-10,-0.0009919958206571,0.00099199738045938,-0.00099193433973671,0.00099193522240901,-0.0010048087930118,0.0010048100069797,-0.0010048081932941,0.0010048103931774,-0.00095065898969478,0.00095066053381049,-0.00095065914455447,0.00095066035820952,-0.00095065882153362,0.00095066067487074,-0.00095065894443516,0.00095066053042868,-0.00099193365737415,0.00099193587261285,-0.00099193401600148,0.00099193546376441,-0.0010048090387296,0.0010048098081235,-0.001004808285839,0.0010048102938858,-0.00099193386681516,0.00099193576664311,-3.6591697344227e-10,-1.432593664383e-10,-0.0006366494816306,0.00063664899193753,-5.2449454795324e-10,2.8834722983896e-11,-0.00051252723530884,0.00051252713793832,-0.00047960071165916,0.00047960080055348,-0.00047960075887859,0.00047960078613295,-0.00051252773042298,0.00051252698178075,-0.00051252782989529,0.00051252663368954,-0.00047960142074784,0.00047960047665925,-0.00047960140604542,0.00047960028460425,-0.00078614933640358,0.00078614860912816,-0.00078614913838073,0.00078614878392948,-0.00078614926857029,0.00078614868666342,-0.00078614906064745,0.00078614884162041,-0.00078722405877168,0.00078722395547195,-0.00078722436050277,0.00078722372964149,-0.00078722452371703,0.00078722362124446,-0.00078722433617057,0.00078722382797732,-0.00051252702666562,0.00051252723772367,0.78542543936371,128566,2924,0.0032041204069369,0.0041243801054414,0.0026497589391664,23.093860816781,-7.1249113465752e-05,-7.1249113465752e-05,-7.1249113465752e-05,3558530.2247404,0.01002903806065
28391759,0.62222951893286,0.010553743835239,0.0034693271351847,0.0040139339382687,0.0030704827617854,-0.00078213890650819,0.00078214155714194,1.466292214897e-09,1.1787087055523e-09,1.612183764275e-09,1.1557268047071e-09,-0.00031638414857355,0.00031638570800674,-0.0007186120727786,0.00071861464082721,-0.00071861230123524,0.00071861437510906,-0.0003163834103024,0.0003163863760131,-0.00031638324742995,0.000316386532726,-0.00071861179793245,0.00071861496744237,-0.00071861172432197,0.00071861499679991,-0.00092588934146716,0.00092589214355662,-0.00092588938291178,0.00092589209057713,-0.00092588940691267,0.00092589197732483,-0.00092588953782943,0.000925891826685,-0.00080135340637558,0.00080135630357603,-0.00080135384948578,0.00080135590624285,-0.0008013534293329,0.00080135631324074,-0.00080135356540412,0.00080135619463961,-0.00031638335572792,0.00031638642299677,6.2939541581385e-10,8.6758672405641e-10,9.6269566477885e-10,5.0700380532295e-10,-0.0010086547936692,0.0010086562989313,-0.0010090164069021,0.0010090174465719,-0.0010216692465134,0.0010216705653705,-0.0010216687885164,0.001021670747252,-0.00096631909254911,0.00096632066311032,-0.00096631919458442,0.00096632054703687,-0.00096631898037295,0.0009663207425295,-0.00096631914873725,0.00096632056034292,-0.0010090158014287,0.0010090179192137,-0.0010090163472691,0.001009017437744,-0.001021669294091,0.0010216704910948,-0.0010216690384543,0.0010216704870146,-0.0010090160284954,0.0010090177914148,-2.8471019707394e-10,-2.1277191167922e-10,-0.00064539953413187,0.00064539904835181,-5.4592811324469e-10,3.943905353531e-11,-0.00051952564785691,0.00051952610111351,-0.00048573462235384,0.00048573453697873,-0.00048573449358703,0.00048573470405777,-0.00051952620560423,0.00051952568248766,-0.0005195265791471,0.00051952508544989,-0.0004857351619645,0.00048573425495324,-0.00048573525591245,0.0004857339728464,-0.00079784765880451,0.00079784692821897,-0.00079784739815883,0.00079784715611334,-0.00079784759323072,0.00079784700473921,-0.00079784741701947,0.00079784711466606,-0.0007999458987437,0.00079994553801916,-0.00079994591474868,0.00079994560504415,-0.00079994622484123,0.00079994535381412,-0.00079994605516726,0.00079994554597081,-0.0005195259411313,0.00051952567571688,0.79904055591227,128566,2924,0.0032552016190292,0.0041934763093406,0.0026861497778342,23.181733306038,-7.0546133551697e-05,-7.0546133551697e-05,-7.0546133551697e-05,3560434.9750143,0.01018721752936
28591759,0.63114442769196,0.010713930443727,0.0035226597121899,0.0040786585248315,0.0031126122067053,-0.00079405146546197,0.00079405421938281,1.5125451850623e-09,1.2347013172223e-09,1.5142404687431e-09,1.3626064149123e-09,-0.00031992359654299,0.00031992562832496,-0.00073043645151971,0.00073043940907365,-0.00073043665899871,0.00073043916377532,-0.00031992317761331,0.00031992599603631,-0.00031992306076106,0.00031992609741681,-0.00073043646882097,0.00073043945425628,-0.00073043640353969,0.00073043947073207,-0.00094008370009286,0.00094008651016874,-0.00094008374861185,0.00094008645044994,-0.00094008367450172,0.00094008643646906,-0.00094008379518529,0.00094008629557068,-0.00081388258244567,0.00081388565183509,-0.00081388299369573,0.0008138852924732,-0.00081388267418745,0.00081388556634765,-0.00081388282160713,0.0008138854348402,-0.00031992287442328,0.00031992628681797,7.3591076366661e-10,7.335343607935e-10,9.5754059690969e-10,4.9066153274463e-10,-0.0010249151621977,0.0010249166407676,-0.0010257292103038,0.0010257302865718,-0.0010381573811473,0.0010381589510009,-0.0010381571960817,0.0010381588631807,-0.00098153914135319,0.00098154077640165,-0.00098153925681168,0.00098154064726018,-0.0009815391182736,0.00098154076444496,-0.00098153928241348,0.00098154058525831,-0.0010257286827907,0.0010257307012937,-0.0010257292085982,0.0010257302126992,-0.0010381574794062,0.0010381588504908,-0.0010381574158096,0.0010381586356367,-0.0010257288191229,0.0010257306712328,-2.97000373964e-10,-2.085646621931e-10,-0.00065377376068974,0.0006537732676802,-5.5272294827973e-10,4.2013942843878e-11,-0.00052615920018716,0.0005261596191091,-0.00049152842036292,0.00049152836368745,-0.00049152831276946,0.00049152850878696,-0.00052615977363795,0.00052615921234119,-0.00052616012034322,0.00052615864265118,-0.00049152899984982,0.00049152807015513,-0.00049152907764426,0.00049152779843934,-0.00080915693092285,0.00080915619334536,-0.00080915667291252,0.0008091564160671,-0.00080915686796758,0.0008091562681266,-0.00080915668088982,0.00080915638539073,-0.00081233547607581,0.00081233514112163,-0.00081233552260256,0.00081233517328724,-0.00081233582045069,0.00081233492779342,-0.00081233564609623,0.00081233512882636,-0.00052615946147166,0.00052615923576692,0.80787670920075,128566,2924,0.003304741295965,0.0042609126361542,0.0027209786729152,23.131423474745,-7.0948612202044e-05,-7.0948612202044e-05,-7.0948612202044e-05,3557418.5564711,0.010340609324239
28791759,0.64031443156946,0.010874797194467,0.0035763918302141,0.0041436013143833,0.0031548040498691,-0.00080745804145873,0.00080746072199985,1.2496785552956e-09,1.4269644945966e-09,1.6866273558832e-09,1.1134575090933e-09,-0.00032432902311658,0.00032433212723498,-0.0007434682044805,0.00074347011026543,-0.00074346785864472,0.00074347042401575,-0.00032432861342389,0.00032433256669235,-0.00032432925189737,0.00032433188360393,-0.00074346740992219,0.00074347100310404,-0.00074346760780715,0.00074347075216224,-0.00095596652937739,0.00095596939354846,-0.0009559665638522,0.00095596934062681,-0.00095596678223654,0.00095596903154291,-0.00095596659781992,0.00095596918175915,-0.00082788541674448,0.00082788742636311,-0.00082788495426639,0.00082788792471158,-0.00082788493501731,0.00082788786516819,-0.00082788504754286,0.00082788774274736,-0.00032432987676262,0.0003243312413883,2.4549641266487e-10,1.4059866560139e-09,1.0924048451936e-09,5.3761271653584e-10,-0.0010428637454789,0.0010428654000159,-0.0010440663508947,0.0010440667455983,-0.0010564013057926,0.0010564023600624,-0.0010564004438192,0.001056403051081,-0.00099840919473496,0.00099841078838367,-0.00099840947231347,0.00099841047476372,-0.00099840894494535,0.00099841102457131,-0.00099840898633961,0.00099841094409646,-0.0010440653965896,0.0010440676813869,-0.0010440655282951,0.001044067457651,-0.0010564018876763,0.0010564018620092,-0.0010564002645519,0.0010564032050371,-0.0010440654912669,0.0010440676424062,-5.3395178401887e-10,1.6635966047363e-11,-0.00066348104634973,0.00066348054987596,-5.8641206933366e-10,7.4130470091127e-11,-0.00053377036359344,0.00053376927845071,-0.00049833562637434,0.00049833619216495,-0.00049833605613069,0.00049833579432653,-0.00053377065122235,0.00053376924699037,-0.00053377022815577,0.00053376942530525,-0.00049833670800502,0.00049833545601806,-0.00049833650929996,0.00049833545122309,-0.00082204935778631,0.00082204858661736,-0.00082204921749321,0.00082204868257445,-0.00082204928120372,0.00082204867542761,-0.00082204892873612,0.00082204895412199,-0.0008261229889473,0.00082612353156525,-0.00082612389490133,0.00082612267994332,-0.00082612378736046,0.00082612281805481,-0.00082612357642094,0.0008261230537607,-0.00053376908529526,0.00053377045646795,0.78846979048714,128566,2924,0.0033604880561935,0.0043353463095388,0.0027613475092251,23.812632403641,-6.5498940770873e-05,-6.5498940770873e-05,-6.5498940770873e-05,3567254.8828633,0.010512969694488
28991759,0.64915717241011,0.011023279810632,0.0036262149651048,0.0042035038085418,0.0031935610369855,-0.00081829254570446,0.00081829538500745,1.3903434609322e-09,1.4431868874254e-09,1.4559366877806e-09,1.5119281773967e-09,-0.00032668679922282,0.00032669021869316,-0.00075347452118797,0.00075347737080178,-0.00075347434354503,0.00075347754261351,-0.00032668684330194,0.00032669005762121,-0.00032668722303695,0.00032668965225062,-0.00075347442415271,0.00075347750439391,-0.0007534745719055,0.00075347732711362,-0.00096922589972664,0.00096922870450113,-0.00096922591893079,0.00096922866356224,-0.00096922590126957,0.00096922859272502,-0.00096922579642353,0.0009692286616028,-0.00083904656413316,0.00083904920577183,-0.00083904637597859,0.0008390494141431,-0.0008390464268377,0.00083904926819316,-0.00083904648743281,0.00083904917361407,-0.00032668717118873,0.00032668978017736,6.3043146375153e-10,8.8309249113058e-10,1.0049277629702e-09,4.6577066931989e-10,-0.0010577691248243,0.001057770656663,-0.0010590775895965,0.0010590781998275,-0.0010716356669228,0.0010716373070274,-0.0010716354723499,0.0010716372192747,-0.0010125159039524,0.001012517643101,-0.0010125161322871,0.0010125173850981,-0.0010125158849342,0.0010125176284536,-0.0010125159712663,0.0010125175204746,-0.0010590768818246,0.001059078753021,-0.0010590771810968,0.0010590785209766,-0.0010716360198197,0.0010716369265705,-0.0010716354738296,0.0010716372168024,-0.0010590767755752,0.001059078928279,-4.7425248452661e-10,-3.7924653929693e-11,-0.00067084241213904,0.00067084191108631,-5.8307392944252e-10,4.5029613295341e-11,-0.00053893752523141,0.0005389367285843,-0.00050270749280442,0.00050270783292551,-0.00050270777427916,0.00050270757055857,-0.00053893771707213,0.00053893653827461,-0.00053893754796323,0.00053893654232351,-0.00050270833425177,0.00050270714140658,-0.00050270824556277,0.00050270707644079,-0.0008324960738702,0.00083249529820778,-0.00083249590129692,0.00083249542483684,-0.00083249598580433,0.00083249539910519,-0.00083249568635008,0.00083249562094657,-0.00083701382308164,0.00083701414875218,-0.00083701450083354,0.00083701351673749,-0.00083701449433389,0.00083701357556719,-0.00083701429599142,0.00083701378758312,-0.00053893658244008,0.00053893758480435,0.75490510964926,128566,2924,0.0034055437761562,0.0043971518241852,0.0027919673952453,23.509066593499,-6.792746725201e-05,-6.792746725201e-05,-6.792746725201e-05,3564583.3565215,0.010651938552309
29191759,0.65808010851566,0.011169641496672,0.0036754367613205,0.0042624995756607,0.0032317051596903,-0.00083036515575314,0.00083036789352155,1.3922847486272e-09,1.3407201022594e-09,1.6297799679584e-09,1.2294363190644e-09,-0.00033039088028955,0.00033039337593883,-0.00076452627231728,0.00076452868911169,-0.0007645262029289,0.0007645287196104,-0.00033039041897283,0.0003303938101133,-0.00033039062954101,0.00033039358935248,-0.00076452583987427,0.00076452918865963,-0.00076452590541231,0.0007645290685415,-0.00098377637741092,0.00098377922954706,-0.00098377639931678,0.00098377919436265,-0.00098377649635331,0.00098377899923055,-0.00098377645620004,0.00098377901222415,-0.00085137483431978,0.00085137742984644,-0.00085137487825136,0.00085137745946565,-0.00085137463523099,0.00085137753441783,-0.0008513747200539,0.00085137746434019,-0.000330390889719,0.0003303933031959,5.0968097930182e-10,1.1001671007679e-09,1.0927559763491e-09,4.8850613641403e-10,-0.0010738372887486,0.0010738389108182,-0.0010750029542446,0.0010750036183886,-0.0010880882274132,0.0010880895713269,-0.0010880876264824,0.0010880899040478,-0.0010279320933506,0.0010279337828231,-0.0010279323200964,0.00102793352653,-0.0010279319357405,0.0010279339107794,-0.0010279320686914,0.0010279337573066,-0.0010750021163346,0.0010750043994268,-0.0010750025241449,0.0010750039760484,-0.0010880885356421,0.0010880892584914,-0.0010880877393522,0.0010880898146672,-0.0010750022343463,0.0010750043869976,-4.2331812109306e-10,-8.1527297577169e-11,-0.00067951562829716,0.00067951514197926,-5.929920945583e-10,9.2310268333932e-11,-0.0005455778171255,0.00054557748605751,-0.00050839369833323,0.00050839403641904,-0.00050839386220423,0.00050839388509418,-0.00054557824469377,0.00054557724533435,-0.00054557825658829,0.00054557704858443,-0.00050839457792534,0.00050839343954258,-0.00050839452758114,0.00050839331818756,-0.0008442198035652,0.00084421901547421,-0.00084421958101647,0.0008442191898169,-0.00084421971304958,0.00084421911979833,-0.00084421941832806,0.00084421932706549,-0.00084906177681569,0.00084906193321029,-0.00084906227445178,0.00084906149035467,-0.00084906236860381,0.00084906141471966,-0.00084906215451181,0.00084906162870062,-0.00054557725334485,0.00054557796819638,0.73755968080291,128566,2924,0.0034557367525784,0.0044637760279385,0.0028280377585838,23.915244138624,-6.4678046891011e-05,-6.4678046891011e-05,-6.4678046891011e-05,3579952.4768132,0.010806500061962
29391759,0.6671123718927,0.011310539663215,0.0037230076067359,0.004319270847543,0.0032682612089365,-0.00084227524849021,0.00084227788313171,1.3682792380673e-09,1.2631802945326e-09,1.7509446120205e-09,9.9848727578147e-10,-0.00033376166882289,0.00033376354618841,-0.00077491796543259,0.00077491998699814,-0.00077491795638592,0.00077491995636679,-0.00033376079773039,0.00033376436745623,-0.00033376094540379,0.00033376420917487,-0.00077491722757034,0.00077492078926868,-0.00077491726789205,0.00077492069610265,-0.00099832512607223,0.00099832799495074,-0.00099832515123739,0.00099832795751808,-0.00099832534303185,0.00099832765827282,-0.00099832533229944,0.00099832764232562,-0.00086337651581646,0.00086337899469894,-0.00086337666254069,0.0008633789252145,-0.00086337623149428,0.00086337914750116,-0.0008633763150386,0.00086337907448604,-0.00033376151480216,0.00033376363302677,4.0566739978646e-10,1.2782744861801e-09,1.1445648219186e-09,5.0179055793702e-10,-0.0010896987259196,0.0010897004218995,-0.0010904821761504,0.0010904828177573,-0.0011044143054867,0.0011044154273187,-0.001104413394608,0.0011044160744173,-0.0010432938638429,0.0010432955398797,-0.0010432940930851,0.0010432952810415,-0.0010432936027138,0.0010432957756357,-0.0010432937574087,0.0010432955993832,-0.0010904812026297,0.0010904837288474,-0.0010904817046129,0.0010904832285294,-0.0011044145887815,0.0011044151281707,-0.0011044135526919,0.0011044159408307,-0.0010904814625866,0.0010904835757853,-3.9294960027337e-10,-9.7161277225337e-11,-0.00068809095660628,0.00068809048493465,-6.1280911414817e-10,1.2669537671784e-10,-0.00055185917301767,0.0005518590849524,-0.00051370554372456,0.00051370589710411,-0.00051370566016959,0.00051370579898376,-0.00055185967409888,0.00055185871984751,-0.00055185977778443,0.00055185844140364,-0.00051370643101822,0.00051370527572974,-0.0005137064050477,0.00051370513035515,-0.00085595405461308,0.0008559532645028,-0.00085595380217964,0.00085595346891462,-0.00085595396545948,0.00085595336717052,-0.00085595366409291,0.00085595357869905,-0.0008607318259303,0.0008607319311762,-0.0008607322429627,0.00086073157688647,-0.00086073239336352,0.00086073144071371,-0.00086073218059555,0.00086073164984297,-0.00055185877590574,0.00055185938453553,0.70228761343535,128566,2924,0.0035052508414107,0.004529538629116,0.0028637015686828,24.388773547551,-6.0889811619592e-05,-6.0889811619592e-05,-6.0889811619592e-05,3600956.2546002,0.010959119726807
29591759,0.67627087293442,0.011447263493727,0.0037693190895561,0.0043743295550025,0.0033036148491686,-0.00085405274395249,0.00085405531283926,1.3315339274202e-09,1.235497544751e-09,1.767754968358e-09,9.115499740093e-10,-0.0003370117348289,0.00033701349895879,-0.0007847418471308,0.00078474368620109,-0.00078474182964833,0.00078474366898717,-0.00033701076085046,0.0003370144057723,-0.00033701094646233,0.00033701421092814,-0.00078474098829808,0.00078474458964842,-0.00078474103693244,0.00078474449019795,-0.0010128787115109,0.0010128815510558,-0.0010128787375814,0.0010128815126737,-0.0010128789643285,0.0010128811737489,-0.0010128789466196,0.0010128811647431,-0.00087514466000199,0.00087514702575549,-0.00087514479143041,0.00087514697583318,-0.00087514430857088,0.00087514718933991,-0.00087514438596357,0.00087514711413765,-0.00033701163543142,0.00033701352719831,3.7993412739085e-10,1.362008958973e-09,1.1854714350732e-09,5.1179837520507e-10,-0.0011053542746318,0.0011053560302788,-0.0011054686758813,0.0011054692853918,-0.0011206598314768,0.0011206609288589,-0.001120658831145,0.0011206616713444,-0.0010586181651773,0.0010586198887268,-0.0010586184097951,0.001058619616758,-0.0010586178718057,0.0010586201585146,-0.0010586180320997,0.0010586199770037,-0.001105467633434,0.0011054702604585,-0.0011054681656442,0.0011054697400454,-0.0011206601382944,0.0011206605993972,-0.0011206589835931,0.0011206615427031,-0.0011054679189003,0.0011054700762268,-3.9521996070714e-10,-8.3371179562178e-11,-0.00069662428706194,0.00069662382633646,-6.2154655884242e-10,1.4482205969633e-10,-0.00055796975708398,0.00055796965571955,-0.00051886639685621,0.00051886680235214,-0.00051886653190281,0.00051886668830947,-0.00055797024221829,0.00055796925012177,-0.00055797033064487,0.00055796899499747,-0.00051886730376953,0.0005188661227973,-0.0005188672742035,0.00051886598511388,-0.00086766819660071,0.00086766740968256,-0.0008676679367455,0.00086766761191673,-0.00086766810742297,0.00086766751255595,-0.0008676677866688,0.0008676677309941,-0.00087205804051375,0.00087205819472304,-0.00087205848905778,0.00087205781551774,-0.00087205864021649,0.00087205768774154,-0.00087205842357694,0.00087205790282366,-0.00055796930916142,0.0005579700019828,0.67338132120154,128566,2924,0.003554209082793,0.0045944431951087,0.002899190684137,24.909599078492,-5.6723207372066e-05,-5.6723207372066e-05,-5.6723207372066e-05,3628783.0929338,0.011110157879034
29791759,0.6856111701934,0.011593985401986,0.0038187550139602,0.0044334726756477,0.0033417577123778,-0.00086660655207914,0.00086660899246582,1.2725966476636e-09,1.1676973037371e-09,1.6899476950521e-09,8.5250212899808e-10,-0.00034126465814135,0.00034126625506794,-0.00079585606204692,0.00079585779414671,-0.00079585605532191,0.00079585776220998,-0.00034126369640026,0.00034126715847917,-0.00034126384457667,0.00034126700793767,-0.00079585523149583,0.0007958586688623,-0.00079585526671067,0.0007958585777895,-0.0010281327952669,0.0010281355011907,-0.0010281328230086,0.0010281354668899,-0.0010281330376983,0.0010281351351965,-0.0010281330306733,0.0010281351226364,-0.00088793542843035,0.00088793770380616,-0.00088793559850829,0.00088793764297398,-0.0008879350695799,0.00088793780810476,-0.00088793514609947,0.00088793774637199,-0.0003412645094226,0.00034126633377479,4.1779081795377e-10,1.3735799650749e-09,1.2115284453435e-09,5.327050381091e-10,-0.0011219315221062,0.0011219333231539,-0.0011213503560072,0.0011213510256071,-0.0011378675408029,0.0011378687029319,-0.0011378665621022,0.0011378694391255,-0.0010748189551193,0.0010748207334477,-0.0010748192007909,0.0010748204685034,-0.0010748186702511,0.0010748210006509,-0.0010748188368817,0.0010748208162937,-0.0011213493286187,0.0011213520119398,-0.0011213498686081,0.0011213514636776,-0.0011378678372212,0.0011378683811646,-0.0011378667255713,0.0011378692986032,-0.0011213496173753,0.0011213518270806,-3.7650523084888e-10,-6.5685132958026e-11,-0.00070592512125997,0.00070592469758941,-5.9575926408567e-10,1.6455314203469e-10,-0.00056542295291981,0.00056542291571196,-0.00052528879468472,0.0005252892236826,-0.00052528891409692,0.00052528912694067,-0.00056542343227099,0.00056542252141702,-0.00056542355457204,0.00056542223458989,-0.00052528968213759,0.00052528856338605,-0.00052528966288123,0.00052528841668828,-0.00087995434498345,0.0008799535910665,-0.00087995408025519,0.00087995378904282,-0.00087995425185877,0.00087995369634695,-0.00087995393111324,0.00087995390304182,-0.00088440329372165,0.00088440346918449,-0.00088440373667088,0.0008844031044988,-0.00088440389233103,0.00088440296468761,-0.00088440365999733,0.00088440318578469,-0.00056542253740984,0.00056542323293477,0.70918215071114,128566,2924,0.0036063888700063,0.0046631628195327,0.0029378683759202,25.545733097785,-5.1634135217722e-05,-5.1634135217722e-05,-5.1634135217722e-05,3655631.7295115,0.011271555930525
29991759,0.69494235370692,0.011748261072392,0.0038704525248747,0.0044957991371035,0.0033820094104136,-0.00087895083685799,0.00087895332573414,1.2961518133048e-09,1.1924748422856e-09,1.3568665058067e-09,1.2385468042747e-09,-0.00034531311956229,0.00034531548350274,-0.0008073225736977,0.00080732506303482,-0.00080732257004484,0.00080732503804715,-0.00034531283855927,0.00034531564971105,-0.00034531299432844,0.00034531548435076,-0.00080732243422337,0.00080732522674839,-0.00080732248277456,0.00080732513156505,-0.0010430689273368,0.0010430714449172,-0.0010430689530201,0.0010430714075714,-0.0010430689338067,0.0010430713131172,-0.0010430689207674,0.0010430712993929,-0.00090079745420991,0.00090080002032277,-0.00090079761624673,0.00090079994908604,-0.00090079730262619,0.00090079984200522,-0.00090079735776253,0.00090079976565217,-0.00034531297612687,0.00034531554709214,7.2816763580209e-10,9.6670852812981e-10,1.1326304920924e-09,5.0420537010734e-10,-0.0011385032160999,0.0011385049291013,-0.0011374380385489,0.0011374388722315,-0.0011550772826702,0.0011550790468573,-0.0011550770003996,0.0011550790696307,-0.001090847036523,0.0010908489677575,-0.0010908472636366,0.0010908487157318,-0.0010908469883411,0.0010908489944202,-0.0010908471356514,0.0010908488270842,-0.0011374372791954,0.0011374395465087,-0.001137437790618,0.0011374390728177,-0.0011550775559086,0.0011550787366002,-0.0011550771489324,0.0011550789455124,-0.0011374373184438,0.0011374396023661,-3.8804586080215e-10,-6.9247968360336e-11,-0.00071491627628812,0.00071491583476682,-5.8153539622307e-10,1.2075942769212e-10,-0.00057282803172124,0.00057282788991432,-0.00053170503485567,0.00053170538155212,-0.0005317051638598,0.00053170527519399,-0.00057282838739846,0.000572827491559,-0.00057282851131128,0.00057282722950266,-0.00053170583264631,0.00053170473694425,-0.00053170582381582,0.00053170459248384,-0.00089190451333972,0.00089190376662221,-0.00089190425857431,0.00089190392546995,-0.00089190442186244,0.00089190387381508,-0.00089190410272285,0.00089190404447931,-0.00089684681350847,0.00089684696904586,-0.000896847264016,0.00089684659432609,-0.00089684739945285,0.00089684647867495,-0.00089684716441875,0.00089684670778465,-0.00057282759230981,0.00057282823540938,0.74657578438743,128566,2924,0.003657701660338,0.0047318502827931,0.0029752603476131,25.876081208717,-4.899135033026e-05,-4.899135033026e-05,-4.899135033026e-05,3665888.7044141,0.011430768777543
30191759,0.70414681836873,0.01189080775604,0.0039184303223507,0.0045534110759531,0.0034189663577364,-0.00089021446708593,0.00089021712731282,1.3820429607127e-09,1.2762780436113e-09,1.0276941325615e-09,1.7498096329874e-09,-0.00034797938793679,0.00034798276250379,-0.00081699845766223,0.00081700195335378,-0.00081699845163243,0.00081700193161538,-0.0003479799308072,0.00034798209602301,-0.00034798009546265,0.00034798192275788,-0.00081699913566955,0.00081700128322104,-0.00081699918905642,0.00081700118271019,-0.0010571009549969,0.0010571033662282,-0.0010571009819311,0.0010571033278124,-0.0010571006878628,0.0010571035105135,-0.001057100673811,0.00105710349735,-0.00091236531899895,0.00091236832382871,-0.00091236547198523,0.00091236825310552,-0.00091236546964036,0.00091236791281212,-0.00091236553686217,0.00091236782935796,-0.00034797924857112,0.00034798282166215,1.0927206541929e-09,4.9099148507657e-10,1.0397730017074e-09,4.833927810353e-10,-0.0011539708543899,0.0011539724674632,-0.0011523062138402,0.0011523072876393,-0.0011713358035507,0.0011713382711269,-0.0011713363389683,0.0011713374528026,-0.0011058189357684,0.001105821026468,-0.0011058191405181,0.0011058207981292,-0.0011058191571765,0.0011058207715947,-0.0011058192801041,0.0011058206299897,-0.0011523058038616,0.0011523076080246,-0.0011523062404748,0.0011523072092558,-0.0011713360540081,0.0011713379862613,-0.0011713364648644,0.0011713373549772,-0.0011523055613998,0.001152307951455,-3.9743101515425e-10,-7.3194412185215e-11,-0.00072284236824112,0.00072284191348342,-5.5404806175798e-10,7.9201974531471e-11,-0.00057844365223779,0.00057844341572985,-0.00053654935215243,0.00053654962135894,-0.00053654948372194,0.00053654951209503,-0.00057844392927935,0.00057844308358314,-0.00057844404937818,0.00057844282768066,-0.0005365500801068,0.00053654903797552,-0.0005365500680358,0.00053654889272719,-0.00090306996839614,0.00090306923488856,-0.00090306972691941,0.00090306935047392,-0.00090306988025076,0.00090306934360272,-0.00090306956355933,0.00090306947316218,-0.00090801671685735,0.00090801684328963,-0.00090801716727646,0.00090801645916955,-0.00090801725279499,0.00090801633143126,-0.00090801700850786,0.00090801656649077,-0.00057844320353292,0.00057844378288438,0.70019424168385,128566,2924,0.0037045274827225,0.004795954731027,0.0030082288413702,26.017812613589,-4.7857499091288e-05,-4.7857499091288e-05,-4.7857499091288e-05,3671950.3517027,0.011576362690696
30391759,0.71302972929968,0.012023398373132,0.0039632004453246,0.0046069338378766,0.0034532640899312,-0.00090018746400007,0.00090019033382389,1.5007864312253e-09,1.3648816193917e-09,6.8863155139645e-10,2.3114897830444e-09,-0.00035009406763889,0.00035009847113826,-0.00082507698817583,0.00082508161682935,-0.00082507700397671,0.00082508156964413,-0.00035009546148531,0.00035009692870002,-0.00035009560598104,0.00035009677516047,-0.00082507855651699,0.00082508003304247,-0.0008250786071173,0.00082507993396349,-0.0010697686529296,0.0010697709788604,-0.0010697686846285,0.0010697709359953,-0.0010697680873678,0.001069771425799,-0.0010697680881163,0.0010697713983674,-0.00092249918026238,0.00092250272805711,-0.00092249936929904,0.00092250261337344,-0.00092249963643951,0.00092250200443091,-0.00092249971918078,0.00092250189915346,-0.00035009385218124,0.00035009860356901,1.4913952564869e-09,-4.6486529927244e-11,9.188644823208e-10,4.6459154381195e-10,-0.0011677347180837,0.001167736203232,-0.0011651349378476,0.0011651362927942,-0.001186028888281,0.0011860320983516,-0.0011860303105745,0.0011860303558245,-0.0011193436028089,0.0011193458442751,-0.0011193437705366,0.0011193456577944,-0.0011193441171973,0.0011193452823239,-0.0011193442128859,0.0011193451713202,-0.0011651349287146,0.0011651361845117,-0.0011651352923121,0.0011651358832635,-0.0011860290803446,0.0011860318612472,-0.0011860304220764,0.0011860302704435,-0.0011651343855713,0.0011651368314642,-3.9201342658809e-10,-9.0332739701956e-11,-0.00072975723295125,0.00072975676497716,-5.236333705925e-10,3.1808841202912e-11,-0.00058317541019636,0.00058317514495751,-0.00054051969909127,0.00054051984955847,-0.00054051980847931,0.00054051976345204,-0.00058317560944461,0.00058317484626968,-0.0005831757531615,0.00058317456875108,-0.00054052032043463,0.00054051934596033,-0.0005405203161503,0.00054051918700411,-0.00091303742144694,0.00091303670485886,-0.00091303719616822,0.00091303679217878,-0.00091303733740026,0.00091303681243276,-0.00091303704384918,0.00091303690248373,-0.00091768325697531,0.00091768330545154,-0.00091768365791457,0.00091768296647073,-0.00091768372962969,0.0009176828243802,-0.00091768348747966,0.00091768306566281,-0.00058317502632156,0.00058317545376701,0.67548584385752,128566,2924,0.0037459840859885,0.0048529921214489,0.0030369951858296,25.816156872223,-4.9470745022217e-05,-4.9470745022217e-05,-4.9470745022217e-05,3680938.1887043,0.011705142462487
30591759,0.72148447527392,0.012153943980965,0.0040071327175899,0.0046596111508338,0.0034872001125418,-0.0009094636251322,0.00090946666439279,1.5879516034479e-09,1.4449604897136e-09,4.3466974654938e-10,2.7433507137247e-09,-0.00035220632282245,0.00035221161979863,-0.00083283029808278,0.0008328357651391,-0.00083283028320492,0.00083283571822012,-0.00035220838970039,0.00035220936637401,-0.00035220856185686,0.00035220916896176,-0.00083283251251929,0.0008328335066017,-0.00083283257137408,0.00083283338200977,-0.0010814983747179,0.0010815006517653,-0.0010814984207851,0.0010815006040982,-0.0010814975937886,0.0010815013230903,-0.0010814975973489,0.0010815013045089,-0.00093203204629422,0.00093203597670745,-0.0009320322489847,0.00093203588424645,-0.00093203270766446,0.00093203503833548,-0.00093203282848957,0.0009320349302989,-0.00035220616546134,0.00035221170331282,1.7760375592717e-09,-4.4883877887164e-10,7.9915543858521e-10,4.660253977734e-10,-0.0011806136064881,0.0011806149816786,-0.0011770305513975,0.0011770321191264,-0.0011998850246918,0.0011998887773,-0.0011998871140291,0.0011998863213411,-0.0011319864980206,0.0011319888289607,-0.0011319866390192,0.0011319886901237,-0.0011319872384746,0.0011319880357838,-0.001131987292628,0.0011319879760938,-0.0011770308751055,0.0011770316381815,-0.0011770311337308,0.0011770314777841,-0.0011998851683983,0.0011998885439549,-0.0011998871681324,0.0011998862694401,-0.0011770300856055,0.0011770325377765,-3.792394871158e-10,-7.6936270638714e-11,-0.00073619547780927,0.0007361950317593,-4.6587157080819e-10,4.1444601726748e-13,-0.00058788079948398,0.00058788039674644,-0.00054450731115852,0.00054450740495993,-0.00054450743801926,0.0005445073057734,-0.00058788085796656,0.0005878801570034,-0.00058788097229892,0.00058787993072453,-0.00054450783966601,0.00054450697025364,-0.00054450782778336,0.00054450681607106,-0.00092218318102057,0.00092218251871111,-0.00092218298637754,0.00092218256340059,-0.00092218310444422,0.00092218262031465,-0.00092218282663341,0.00092218267793787,-0.00092683299976813,0.00092683305652816,-0.00092683341654953,0.00092683271977717,-0.00092683343889495,0.00092683260070929,-0.0009268332061999,0.00092683283917401,-0.00058788033846319,0.00058788076133236,0.6987102885422,128566,2924,0.0037845414564542,0.0049063572212022,0.0030637796029664,25.392852864022,-5.2857177087827e-05,-5.2857177087827e-05,-5.2857177087827e-05,3683716.6263689,0.011825278469451
30791759,0.72998500849063,0.012289704679933,0.0040526426349911,0.0047144316778747,0.003522630367067,-0.00092063233756808,0.00092063517143653,1.4785625408852e-09,1.3516826881541e-09,8.1084126253248e-10,2.1494360941145e-09,-0.00035596170136834,0.00035596579698213,-0.00084277967069517,0.00084278396790595,-0.00084277966478917,0.00084278392648611,-0.00035596283833617,0.00035596453505106,-0.000355962968731,0.00035596438967585,-0.00084278095571343,0.00084278267531041,-0.0008427809987043,0.00084278256767435,-0.001095123897008,0.0010951262845532,-0.0010951239328748,0.0010951262444868,-0.00109512342967,0.0010951266308462,-0.0010951234280165,0.0010951266116348,-0.00094362220810254,0.00094362561887808,-0.00094362239572992,0.00094362553141629,-0.00094362254353944,0.00094362496847812,-0.00094362263383267,0.00094362487155985,-0.00035596150827803,0.00035596591019511,1.355383521552e-09,1.1692210934511e-10,8.8092493934779e-10,5.2804462542269e-10,-0.0011956867692249,0.0011956882814182,-0.0011912013860887,0.0011912027633255,-0.0012160540348636,0.001216056959801,-0.0012160551687118,0.0012160555095308,-0.001146646671712,0.0011466488145789,-0.0011466468103103,0.0011466486631819,-0.0011466470952858,0.001146648351032,-0.0011466471568671,0.0011466482767816,-0.001191201405546,0.0011912026812269,-0.0011912016367951,0.0011912024628435,-0.0012160542014131,0.0012160567662468,-0.0012160552530606,0.0012160554589783,-0.0011912009617125,0.0011912032464637,-4.0336546130599e-10,-7.6053654822609e-11,-0.0007444024904788,0.00074440202785569,-4.5305344862372e-10,-2.071147061151e-11,-0.000594449569294,0.00059444913431047,-0.00055044701931398,0.0005504470865577,-0.00055044713518609,0.00055044698827851,-0.0005944496362155,0.00059444901016845,-0.00059444978075751,0.00059444873302762,-0.00055044753189878,0.00055044671217524,-0.000550447526806,0.00055044654845279,-0.00093317122609804,0.00093317055097294,-0.00093317103118267,0.00093317057577175,-0.00093317113826282,0.0009331706637419,-0.0009331708642386,0.00093317069386677,-0.00093820854381343,0.00093820857720063,-0.00093820897252522,0.00093820821977062,-0.00093820897978943,0.0009382080792537,-0.00093820869921363,0.00093820834701211,-0.00059444914508582,0.00059444950813096,0.72242422991554,128566,2924,0.003830960316321,0.0049688122315683,0.0030979128122978,25.854576100349,-4.9163391197211e-05,-4.9163391197211e-05,-4.9163391197211e-05,3693312.7464375,0.011970020681374
30991759,0.73897602151678,0.012438228454114,0.0041022234668645,0.0047745459698096,0.0035614590174401,-0.00093421032373265,0.00093421270066468,1.3349326605177e-09,1.0436054673193e-09,1.5372734218816e-09,9.2974743164829e-10,-0.00036128114777708,0.00036128241723473,-0.00085540934355953,0.00085541135839155,-0.00085540943203338,0.00085541113975919,-0.00036128028793746,0.00036128318201831,-0.0003612802164245,0.00036128325722624,-0.00085540884738445,0.0008554119220576,-0.00085540878557188,0.00085541186592838,-0.001111295304256,0.0011112979110497,-0.0011112953752636,0.001111297854455,-0.001111295438738,0.0011112976439638,-0.0011112955334849,0.0011112975473115,-0.00095786200387849,0.00095786458215071,-0.00095786251184228,0.00095786427301055,-0.00095786178183396,0.00095786448193916,-0.00095786198538322,0.00095786436471691,-0.00036128054691955,0.00036128292147532,6.5844356570692e-10,1.1339165389222e-09,1.0386668999098e-09,6.8562425253207e-10,-0.0012137076142245,0.0012137094168952,-0.0012083827904756,0.0012083840265121,-0.0012352302995879,0.0012352317733966,-0.0012352296928966,0.0012352321318982,-0.0011640591825313,0.0011640609969162,-0.0011640592927419,0.0011640608788834,-0.0011640590282041,0.0011640611401958,-0.0011640591228649,0.0011640610357289,-0.0012083822783135,0.0012083845543429,-0.0012083825923558,0.0012083842103865,-0.0012352303893512,0.0012352316663307,-0.0012352298615236,0.0012352319862522,-0.0012083825405754,0.0012083844893265,-3.0826732277136e-10,-1.3441925856002e-10,-0.00075469967796738,0.00075469925854112,-4.6528263928218e-10,7.1033405008567e-11,-0.00060307904739694,0.00060307921156822,-0.00055849064327637,0.00055849075606559,-0.00055849061503305,0.00055849081823506,-0.00060307932097792,0.00060307888748849,-0.00060307970060941,0.0006030784254142,-0.00055849121217752,0.00055849046724321,-0.00055849126496942,0.00055849023773594,-0.00094651660461545,0.00094651594459623,-0.00094651634112662,0.00094651603288202,-0.0009465165384802,0.00094651603446031,-0.00094651625380799,0.00094651606145514,-0.00095224073172977,0.00095224056972674,-0.00095224093255614,0.00095224050436166,-0.00095224107383665,0.00095224020682527,-0.00095224082576476,0.00095224042516736,-0.0006030789713443,0.00060307911040885,0.74699165785373,128566,2924,0.0038873892793905,0.005043476332112,0.0031407315623956,27.172179151461,-3.8622566788314e-05,-3.8622566788314e-05,-3.8622566788314e-05,3711074.3809457,0.012146066767827
31191759,0.74841872082995,0.012601306845446,0.0041563843775418,0.00484079966339,0.0036041228045144,-0.00094861295409946,0.00094861512953315,1.1343712216643e-09,1.045799347739e-09,1.820120588683e-09,4.3892034751996e-10,-0.00036667068012999,0.00036667154996949,-0.00086927170248889,0.00086927257235279,-0.00086927164520459,0.00086927257066813,-0.00036666916401789,0.00036667290598012,-0.00036666933878903,0.00036667271014311,-0.00086927029023598,0.00086927401644746,-0.00086927034048373,0.00086927389622277,-0.0011283500048559,0.0011283526468058,-0.0011283500477096,0.0011283526041661,-0.0011283504284406,0.0011283520670096,-0.0011283504055069,0.001128352070426,-0.00097320142402146,0.00097320322139967,-0.00097320154451695,0.00097320320699371,-0.00097320080121197,0.00097320347705265,-0.00097320088344623,0.00097320337995282,-0.0003666706319882,0.0003666715115961,2.1291672065798e-10,1.717828434697e-09,1.1309235583557e-09,6.922898511379e-10,-0.0012330153487333,0.0012330172965758,-0.0012269526240862,0.001226953381349,-0.001255587118831,0.0012555878728601,-0.0012555856341812,0.0012555891380386,-0.0011825846800503,0.0011825864156579,-0.0011825848561435,0.0011825862229549,-0.0011825842434525,0.0011825868582073,-0.001182584317097,0.0011825867659382,-0.0012269516547919,0.0012269542960315,-0.0012269519550275,0.0012269540292184,-0.0012555873612409,0.0012555876067609,-0.001255585699254,0.0012555890975131,-0.0012269520875136,0.0012269539729445,-4.2062665167115e-10,-3.9821306343043e-11,-0.00076552733618756,0.00076552689340235,-4.7813766002233e-10,2.8093245794522e-11,-0.00061228350615052,0.00061228302170215,-0.00056712204224968,0.00056712225486974,-0.0005671222168112,0.00056712211769013,-0.00061228350533951,0.00061228280058068,-0.00061228364686363,0.00061228256310037,-0.0005671226254865,0.00056712175990393,-0.00056712263133877,0.00056712160565861,-0.00096056924857099,0.00096056856959428,-0.0009605690285888,0.00096056858359707,-0.0009605691609508,0.00096056868180682,-0.00096056882922869,0.00096056872439508,-0.00096728037129259,0.00096728053060935,-0.00096728089230946,0.00096728010919582,-0.00096728086719145,0.00096727993738769,-0.00096728055401784,0.00096728022113069,-0.00061228290310397,0.00061228350154563,0.78083050117434,128566,2924,0.003947248475353,0.0051234639810455,0.003185755945924,28.436187719812,-2.8510498241507e-05,-2.8510498241507e-05,-2.8510498241507e-05,3722128.0282128,0.012333239493465
31391759,0.75799890968681,0.012760472432625,0.004209361366207,0.0049055869580863,0.0036455241083317,-0.0009618605598508,0.00096186286856803,1.0969440589355e-09,1.2155798956333e-09,1.542108268945e-09,8.6078719042455e-10,-0.00037009955587965,0.00037010187203957,-0.00088146309409299,0.00088146457962658,-0.00088146283451434,0.000881464808635,-0.00037009889207784,0.00037010234408893,-0.0003700993162672,0.00037010187838204,-0.00088146219698851,0.0008814654783121,-0.00088146235718112,0.00088146526778713,-0.0011444665691532,0.00114446909243,-0.0011444665880854,0.0011444690673034,-0.001144466813773,0.0011444686851066,-0.0011444666602568,0.0011444688093852,-0.00098730876742014,0.00098731058085393,-0.00098730852216087,0.00098731089934851,-0.00098730821412522,0.00098731072486192,-0.00098730821793179,0.00098731066667908,-0.00037010012422496,0.00037010123127315,4.0980866827355e-10,1.4808585830221e-09,1.0985966936839e-09,6.6636108430275e-10,-0.0012513147751429,0.0012513166890137,-0.00124444475698,0.0012444454123631,-0.001274901586935,0.0012749028613609,-0.0012749006596104,0.0012749035571298,-0.0012000835845375,0.0012000854963636,-0.0012000838050227,0.0012000852543427,-0.001200083334231,0.0012000857448585,-0.0012000833520843,0.001200085706682,-0.0012444439136531,0.0012444461622611,-0.0012444440516061,0.0012444460769623,-0.0012749019605648,0.0012749024556069,-0.0012749005773748,0.0012749036624091,-0.0012444440187795,0.0012444461321623,-5.3293885950709e-10,6.2299253188447e-11,-0.00077509841263786,0.0007750979562354,-4.7585323857546e-10,-2.6429382196104e-12,-0.00061957064684348,0.0006195694664946,-0.00057396776835832,0.00057396812673909,-0.00057396815736643,0.0005739677719697,-0.00061957037079084,0.00061956941070628,-0.0006195702712372,0.0006195694357703,-0.00057396842594592,0.00057396746259013,-0.00057396835585692,0.00057396740181106,-0.00097368040284833,0.00097367970630646,-0.0009736802373234,0.00097367963951831,-0.00097368029578555,0.00097367984173366,-0.00097367990862723,0.00097367991101441,-0.00098090004501201,0.00098090055562966,-0.00098090091646889,0.0009808997463284,-0.00098090071075991,0.00098089973971737,-0.00098090035102279,0.00098090006485828,-0.00061956941908311,0.00061957059824217,0.75166471074632,128566,2924,0.0040023159346087,0.0051992657425531,0.0032255623769778,29.180783345184,-2.2553733238528e-05,-2.2553733238528e-05,-2.2553733238528e-05,3722607.129654,0.012506079345226
31591759,0.76722755709009,0.012907276368681,0.0042584390693399,0.0049652804625302,0.003683556836811,-0.00097281771121356,0.00097282036114436,1.4115060529443e-09,1.237433990241e-09,9.5770928590342e-10,1.8081910652394e-09,-0.00037189839535943,0.00037190171524145,-0.00089094827256588,0.00089095192137605,-0.0008909483026089,0.00089095185130887,-0.00037189897347977,0.00037190094105327,-0.00037189908828215,0.00037190079832403,-0.00089094907728279,0.00089095109891481,-0.00089094913003443,0.00089095099049906,-0.0011581954523344,0.0011581978277124,-0.0011581954925304,0.0011581977836695,-0.0011581951267035,0.0011581979981145,-0.0011581951354605,0.0011581979621829,-0.00099886026211007,0.0009988634111699,-0.00099886052556815,0.0009988632284366,-0.0009988604472166,0.00099886286092947,-0.00099886052731726,0.00099886274313999,-0.0003718980965974,0.00037190193147088,1.2137699803367e-09,4.1783839132396e-10,9.1860673878292e-10,5.8501822880057e-10,-0.0012667990165899,0.0012668006921189,-0.0012588392239189,0.0012588405220549,-0.0012913686556904,0.0012913712747196,-0.0012913693039783,0.0012913703119359,-0.0012150420710701,0.0012150442572488,-0.0012150421890073,0.0012150441183517,-0.0012150423396524,0.0012150439549323,-0.0012150423972957,0.0012150438848541,-0.0012588390859338,0.0012588405395963,-0.0012588393239925,0.0012588403856117,-0.0012913687619515,0.0012913711069718,-0.0012913694188619,0.0012913702392964,-0.0012588387656156,0.0012588409727262,-3.9449347542426e-10,-8.1838984029626e-11,-0.00078264742050809,0.00078264695779176,-4.5441505025751e-10,-2.8961276671995e-11,-0.00062480965768584,0.00062480926810641,-0.0005787154278019,0.00057871544065638,-0.00057871551848013,0.00057871537238538,-0.00062480959597967,0.00062480900719345,-0.00062480981395921,0.00062480871290111,-0.00057871583047991,0.000578715017825,-0.00057871586577902,0.00057871484648089,-0.00098459887741436,0.0009845982094395,-0.00098459864824344,0.00098459818164387,-0.00098459879271918,0.00098459832827078,-0.00098459847419814,0.00098459829489452,-0.00099187292827248,0.00099187294085453,-0.00099187331768401,0.00099187260015804,-0.00099187329393686,0.00099187241178836,-0.00099187301183671,0.00099187265572938,-0.00062480927478518,0.00062480958314579,0.71981900830031,128566,2924,0.0040478648209177,0.0052633975800651,0.0032569675514929,29.085385725926,-2.3316914192594e-05,-2.3316914192594e-05,-2.3316914192594e-05,3718247.8145337,0.012648982567317
31791759,0.77593281492102,0.013038416971095,0.0043025167526863,0.0050184802573405,0.0037174199610678,-0.00098212605204584,0.00098212905174494,1.5553913779934e-09,1.4388112809942e-09,4.2626708012742e-10,2.7113970767687e-09,-0.00037285305121626,0.00037285837109222,-0.00089836544553672,0.00089837082004289,-0.00089836541751785,0.00089837080997092,-0.0003728551067942,0.00037285610639561,-0.00037285531767006,0.00037285586798448,-0.00089836760845548,0.00089836860117195,-0.00089836768174699,0.00089836847139755,-0.0011701476907406,0.001170149938103,-0.0011701477318643,0.0011701498939737,-0.0011701469132162,0.0011701505629611,-0.0011701468851937,0.0011701505628681,-0.0010085195472536,0.0010085233906835,-0.0010085196866998,0.0010085233219845,-0.0010085201909747,0.0010085224773798,-0.0010085202790863,0.0010085223616286,-0.00037285296939747,0.00037285836915778,1.8009350484352e-09,-3.8935276259919e-10,7.7062544715686e-10,5.0149030852119e-10,-0.0012800616065835,0.0012800630795551,-0.0012707363664228,0.0012707379447599,-0.0013056565089689,0.0013056603330781,-0.0013056585705196,0.0013056579074267,-0.0012280455958176,0.0012280480463949,-0.0012280457140315,0.0012280479122797,-0.0012280463285488,0.0012280472597593,-0.0012280463457146,0.0012280472308739,-0.001270736752566,0.001270737421677,-0.0012707368937883,0.0012707373717279,-0.0013056566582673,0.0013056601204924,-0.001305658599905,0.0013056579202794,-0.0012707359354112,0.0012707383618921,-4.3487438330128e-10,-5.7053975830643e-11,-0.00078890724506596,0.00078890676627487,-4.2651309802718e-10,-7.4841362457493e-11,-0.000628821329584,0.00062882066516724,-0.00058217490575095,0.00058217489917042,-0.00058217506669145,0.00058217475841356,-0.00062882112986129,0.00062882052853581,-0.00062882128057804,0.00062882029688721,-0.00058217527354813,0.00058217449298831,-0.00058217528175536,0.00058217433875782,-0.00099399727256611,0.00099399661225151,-0.00099399707531381,0.00099399652927268,-0.00099399718773563,0.00099399673819399,-0.00099399686186377,0.00099399667912763,-0.0010008783005102,0.0010008783803991,-0.0010008787813373,0.0010008779267811,-0.0010008786607747,0.0010008777521868,-0.001000878347401,0.0010008780295642,-0.00062882077690782,0.00062882116890135,0.68197346683971,128566,2924,0.0040865577114817,0.0053183227996936,0.0032830143732227,28.640714960091,-2.6874280319272e-05,-2.6874280319272e-05,-2.6874280319272e-05,3717373.2172436,0.01277020920684
31991759,0.78433004917811,0.013177620402059,0.0043488958158725,0.0050749793308364,0.0037537452553499,-0.00099245675487124,0.0009924598125749,1.5889723972193e-09,1.4627931905545e-09,4.2645981521009e-10,2.7708257181763e-09,-0.00037584364968384,0.00037584901522957,-0.00090790594682591,0.00090791145334895,-0.00090790592994623,0.00090791141623036,-0.00037584580014326,0.00037584673589104,-0.00037584594392598,0.00037584657050885,-0.00090790820787216,0.0009079091666141,-0.0009079082393748,0.00090790905960663,-0.0011827378988827,0.001182740182195,-0.0011827379400516,0.0011827401431748,-0.0011827370943486,0.0011827408258276,-0.001182737075453,0.0011827408182936,-0.0010195571519278,0.0010195611020219,-0.0010195573297394,0.0010195610192918,-0.0010195578410411,0.0010195601643766,-0.0010195579425387,0.0010195600646841,-0.00037584349856352,0.00037584909245664,1.8260591704399e-09,-4.3086736641536e-10,7.714887531364e-10,5.0070292875158e-10,-0.001294201462494,0.0012942029168456,-0.0012836095441513,0.0012836111832941,-0.0013206045893113,0.0013206084583298,-0.0013206067271323,0.0013206059948247,-0.0012419417978974,0.0012419442344446,-0.0012419419082779,0.0012419441005847,-0.0012419425479819,0.001241943428297,-0.0012419425712338,0.0012419433894758,-0.0012836100073114,0.0012836107010809,-0.0012836101066494,0.0012836105794017,-0.0013206047629006,0.0013206082888171,-0.0013206067704654,0.0013206060043997,-0.0012836092108748,0.0012836116601403,-4.4189326013642e-10,-6.4162826388079e-11,-0.00079635098932796,0.00079635050453531,-4.1132376647547e-10,-7.7052736207609e-11,-0.00063521053902275,0.0006352099331913,-0.00058775508576219,0.00058775507238129,-0.0005877552139511,0.0005877549534593,-0.00063521040318208,0.00063520989635565,-0.00063521059656665,0.00063520958395058,-0.00058775546807282,0.00058775475257648,-0.00058775547289364,0.00058775457859381,-0.0010040772509412,0.0010040765824354,-0.0010040770460502,0.0010040764892267,-0.0010040771608497,0.0010040767142855,-0.0010040768355795,0.0010040766319628,-0.0010112437999698,0.0010112438319922,-0.0010112442526452,0.0010112433950642,-0.0010112441196217,0.0010112431605766,-0.0010112437710281,0.0010112434572752,-0.00063521006743093,0.00063521037509316,0.74979524852004,128566,2924,0.0041294876757631,0.0053768790094763,0.0033139750955352,28.568210005919,-2.7454319952645e-05,-2.7454319952645e-05,-2.7454319952645e-05,3722902.4343977,0.012904388153521
32191759,0.79250463534376,0.013315750567657,0.0043947720538026,0.0051311610105722,0.0037898175032818,-0.0010028694561746,0.0010028724137688,1.5387757497806e-09,1.4142133548263e-09,6.4794884390171e-10,2.4431141470692e-09,-0.00037820308993736,0.00037820786737454,-0.00091766814318479,0.00091767299060935,-0.00091766811559879,0.00091767297019453,-0.00037820466902889,0.00037820609792146,-0.0003782048686781,0.00037820587423019,-0.00091766983175776,0.0009176712532058,-0.0009176698882376,0.00091767112737454,-0.0011954521698185,0.0011954545432389,-0.0011954522177034,0.0011954544983678,-0.0011954515435631,0.0011954549864322,-0.0011954515159769,0.0011954549857587,-0.0010308368642598,0.0010308405107599,-0.0010308370188232,0.0010308404422398,-0.0010308373655988,0.0010308397890232,-0.0010308374793473,0.0010308396732627,-0.00037820299397826,0.00037820788172943,1.5688815342755e-09,-1.2450423965741e-10,7.9071375353172e-10,5.0988295471985e-10,-0.0013087329214854,0.001308734430923,-0.0012971465199416,0.0012971479684225,-0.0013359269541826,0.0013359303409467,-0.0013359285452137,0.0013359284160994,-0.0012559595901723,0.0012559619270531,-0.0012559597097555,0.0012559617874157,-0.0012559601675028,0.0012559613049436,-0.0012559601871199,0.0012559612706325,-0.0012971467656223,0.0012971476558585,-0.0012971468882445,0.0012971475653464,-0.0013359271298582,0.0013359301333344,-0.0013359285737589,0.0013359284329552,-0.0012971461206422,0.0012971484366627,-4.4189416697174e-10,-5.5372660645874e-11,-0.00080377735733578,0.00080377687791501,-4.2694010248709e-10,-6.4382870173246e-11,-0.00064128589485777,0.00064128525100951,-0.00059318974811586,0.00059318977076058,-0.00059318990207752,0.00059318963222578,-0.00064128571485507,0.00064128512924715,-0.0006412858778538,0.00064128486910053,-0.00059319013658488,0.00059318936971467,-0.00059319013937357,0.00059318921069043,-0.0010143255673193,0.0010143249006949,-0.0010143253528176,0.0010143247993984,-0.0010143254808452,0.001014325028909,-0.0010143251297606,0.00101432495006,-0.0010218952435352,0.001021895320404,-0.0010218957141096,0.0010218948631113,-0.0010218955436347,0.0010218945906473,-0.0010218951950125,0.0010218948788098,-0.0006412853494007,0.00064128574959929,0.76436440123784,128566,2924,0.0041727666373719,0.0054370516498538,0.0033448654019074,28.656479851751,-2.674816118599e-05,-2.674816118599e-05,-2.674816118599e-05,3716180.1973302,0.013040508426437
32391759,0.80054553674733,0.013454680393113,0.0044408082481183,0.0051877424134678,0.0038261297315268,-0.0010136152879091,0.0010136180800522,1.4720054199654e-09,1.3180148553891e-09,9.4513827026285e-10,1.9693868199668e-09,-0.00038076948570854,0.00038077325332349,-0.00092795151730407,0.00092795545621449,-0.00092795151740565,0.00092795540788933,-0.00038077027411061,0.00038077227213041,-0.00038077045004129,0.00038077207149162,-0.00092795246623481,0.00092795446663718,-0.00092795251250233,0.00092795434948903,-0.0012084539280039,0.0012084563986554,-0.0012084539809666,0.0012084563500226,-0.0012084535409261,0.0012084565806883,-0.0012084535271015,0.0012084565643865,-0.0010425076670235,0.001042510946724,-0.0010425078713289,0.0010425108297804,-0.0010425079240082,0.0010425104514322,-0.0010425080464635,0.0010425103252752,-0.0003807693130707,0.00038077334534079,1.2488510232232e-09,2.8846142364269e-10,8.5253384638208e-10,5.3111229341342e-10,-0.0013236876222201,0.0013236892324363,-0.0013111715961455,0.0013111728678221,-0.0013516224736527,0.0013516252393075,-0.0013516233332822,0.0013516240708155,-0.0012703278361654,0.001270330047311,-0.0012703279618183,0.001270329899768,-0.0012703281744227,0.0012703296774817,-0.0012703282121223,0.001270329623626,-0.001311171566861,0.0013111728452085,-0.0013111717405676,0.0013111726975704,-0.0013516226471794,0.0013516250366043,-0.0013516233936239,0.0013516240581323,-0.0013111711796995,0.0013111733661073,-4.2916761025038e-10,-6.4069100104294e-11,-0.00081149504875909,0.00081149457388334,-4.3982112692457e-10,-4.5693780090979e-11,-0.00064767801580644,0.00064767747726687,-0.0005990105685129,0.00059901060396939,-0.00059901069707665,0.00059901049267865,-0.00064767787609999,0.00064767729541959,-0.00064767807075089,0.00064767700802288,-0.00059901096246635,0.00059901018406713,-0.00059901097846463,0.00059901001506043,-0.0010248798034079,0.001024879134798,-0.001024879566999,0.001024879038581,-0.0010248797194276,0.001024879260402,-0.0010248793530638,0.0010248791758036,-0.0010330069340819,0.0010330069871017,-0.001033007370744,0.0010330065708141,-0.0010330072268276,0.001033006271046,-0.0010330068795414,0.0010330065521139,-0.00064767753351747,0.00064767790394464,0.78118729871438,128566,2924,0.0042174302529528,0.0054989717773952,0.0033769659911686,28.932611763839,-2.4539105889291e-05,-2.4539105889291e-05,-2.4539105889291e-05,3709226.5731063,0.013181046977226
32591759,0.80866737145406,0.013586745693558,0.0044848083944971,0.0052414780464202,0.0038604592526403,-0.0010248777845804,0.0010248801698153,1.5454926424959e-09,8.3922069431032e-10,1.5041454673885e-09,9.5720411813007e-10,-0.00038320552008076,0.00038320578096806,-0.00093810909737967,0.00093811161231978,-0.00093810977458086,0.0009381111266663,-0.00038320438823086,0.00038320643962745,-0.00038320360758267,0.00038320708160735,-0.00093810900522432,0.00093811181050253,-0.0009381087871651,0.00093811204192758,-0.0012222249428182,0.0012222276179503,-0.0012222250050974,0.0012222274941301,-0.001222224926201,0.0012222273822048,-0.0012222252100322,0.0012222269657267,-0.0010545154974434,0.0010545188883181,-0.0010545165831157,0.0010545177399013,-0.00105451569897,0.0010545183984947,-0.0010545158333952,0.0010545180451725,-0.00038320387325863,0.00038320738014241,1.037626278053e-09,6.5513836297272e-10,1.0397978018321e-09,5.1160097923538e-10,-0.0013392800234453,0.0013392817538219,-0.0013257103266729,0.0013257115967401,-0.0013680898156665,0.0013680917486821,-0.0013680896552064,0.0013680915006229,-0.0012853276175487,0.0012853296740838,-0.0012853275950978,0.0012853295046781,-0.0012853276236595,0.0012853295853194,-0.0012853278932799,0.0012853292825983,-0.0013257099253574,0.0013257122765527,-0.0013257105636252,0.0013257114543424,-0.0013680896747288,0.0013680919881539,-0.0013680903645308,0.0013680912762238,-0.0013257104812858,0.0013257122771181,-2.2228114422666e-10,-3.9696115325631e-10,-0.0008196527751325,0.00081965219633571,-4.50538356845e-10,-1.4715975101952e-10,-0.00065383421526099,0.00065383479928942,-0.00060475433463784,0.00060475366330416,-0.00060475388119106,0.00060475403066353,-0.0006538338858764,0.00065383409934052,-0.00065383534621314,0.00065383324312946,-0.00060475419303608,0.00060475363805191,-0.00060475461856139,0.00060475335901024,-0.0010361932172411,0.0010361925397371,-0.0010361928526864,0.001036192532512,-0.0010361931855612,0.0010361926394706,-0.0010361929845317,0.0010361923224879,-0.0010444174674172,0.0010444164142729,-0.0010444168862051,0.0010444168956831,-0.0010444171495637,0.0010444161588887,-0.0010444168216425,0.0010444162716247,-0.00065383520393421,0.00065383383200814,0.73524963650499,128566,2924,0.0042642401742098,0.0055635294653857,0.0034108949192791,29.682050393398,-1.8543596852814e-05,-1.8543596852814e-05,-1.8543596852814e-05,3710460.5501971,0.013328312103731
32791759,0.81619149755873,0.013700304142603,0.0045229277869713,0.0052875849349496,0.0038897914206824,-0.0010323414868617,0.0010323442685647,1.5049591585455e-09,1.2744213555818e-09,8.3518061542314e-10,2.0657955860982e-09,-0.00038318434055416,0.00038318819643899,-0.00094390146684359,0.00094390565512136,-0.0009439015636574,0.00094390559044195,-0.00038318525162455,0.00038318700229437,-0.00038318541022268,0.00038318684239125,-0.00094390265569658,0.00094390440794755,-0.00094390269473488,0.00094390434580273,-0.0012319978906426,0.0012320003215676,-0.0012319979657434,0.0012320002294521,-0.0012319974128388,0.0012320005568068,-0.0012319974312104,0.0012320004718241,-0.0010622902657733,0.0010622937260739,-0.0010622905391348,0.001062293479097,-0.0010622906175589,0.001062293111176,-0.0010622907720199,0.0010622928891466,-0.00038318405916167,0.00038318841701321,1.4352111778719e-09,5.9871586728829e-11,8.2678401090423e-10,4.9123421666129e-10,-0.0013502514974947,0.0013502530613917,-0.0013354445729121,0.0013354458840123,-0.0013798968458246,0.001379899952201,-0.0013798981020404,0.0013798983745726,-0.0012960728442514,0.0012960751874755,-0.0012960729408762,0.0012960750189902,-0.001296073319699,0.0012960746667508,-0.0012960733668679,0.0012960745836934,-0.0013354446104787,0.0013354457359351,-0.0013354448994136,0.0013354455278295,-0.0013798970091634,0.0013798997379428,-0.0013798981640453,0.0013798983734512,-0.001335444180186,0.0013354463316437,-4.1056013632206e-10,-1.1063710560869e-10,-0.0008244621204981,0.00082446162243828,-4.5115948749396e-10,-8.2694403220687e-11,-0.00065655076333599,0.00065655024336735,-0.00060701673481368,0.00060701665038399,-0.00060701684657606,0.00060701656983577,-0.0006565504858553,0.00065654992307318,-0.00065655081605438,0.00065654960492342,-0.00060701700518587,0.00060701619712575,-0.00060701708297209,0.00060701602802252,-0.0010438126850492,0.0010438120363133,-0.0010438124298691,0.0010438119123574,-0.0010438126377111,0.0010438121461791,-0.0010438122588778,0.0010438119967549,-0.0010515729878996,0.0010515728755505,-0.0010515732900288,0.0010515725903937,-0.0010515731452568,0.0010515721782419,-0.0010515728117735,0.0010515724582126,-0.00065655038454848,0.00065655053737824,0.68274153166206,128566,2924,0.0042952679257438,0.0056089475332083,0.0034309133499897,28.986538059133,-2.4107695526933e-05,-2.4107695526933e-05,-2.4107695526933e-05,3702085.5780701,0.013426104417406
32991759,0.82329089670588,0.013812390026065,0.0045603914722381,0.0053330631055861,0.0039189354482405,-0.001040152558335,0.001040155461022,1.6098563154064e-09,1.2916123044101e-09,6.5449513906394e-10,2.3717503325083e-09,-0.00038471944675207,0.00038472346244337,-0.00095060887593571,0.00095061378587229,-0.00095060907414751,0.00095061357880649,-0.00038472079243049,0.00038472190221519,-0.00038472066525873,0.0003847220133324,-0.00095061065273267,0.00095061195671927,-0.00095061058722376,0.00095061196332735,-0.0012417926162235,0.0012417950015884,-0.0012417926862562,0.001241794922903,-0.0012417919391064,0.0012417954218704,-0.001241792023722,0.0012417952739702,-0.0010704863917893,0.0010704903311829,-0.0010704868927749,0.0010704899064067,-0.0010704870022789,0.0010704894426242,-0.0010704871592951,0.00107048926335,-0.00038471873646715,0.00038472412046827,1.6795994141555e-09,-2.5525024463318e-10,8.0944637143957e-10,4.5769207111552e-10,-0.0013611978087615,0.0013611993083658,-0.0013450842429886,0.0013450857984361,-0.0013915140326779,0.0013915175249623,-0.0013915157451356,0.0013915155228622,-0.001306933722934,0.0013069361444628,-0.0013069337888596,0.0013069360126364,-0.0013069343382145,0.0013069354763796,-0.0013069344368573,0.0013069353441093,-0.0013450845276956,0.0013450855362391,-0.0013450848356264,0.0013450851691052,-0.0013915141204286,0.0013915174557501,-0.0013915159369026,0.001391515392796,-0.00134508400458,0.0013450862607149,-3.7922904392768e-10,-1.5498234823756e-10,-0.00082990515965239,0.00082990465372849,-4.2578674941241e-10,-9.3040618772227e-11,-0.00066077393708945,0.00066077381309143,-0.00061057914403186,0.00061057891957921,-0.00061057909287501,0.00061057897642322,-0.00066077378367239,0.00066077354478577,-0.00066077434598143,0.00066077295114859,-0.00061057931213803,0.00061057867499232,-0.00061057946501186,0.00061057841739078,-0.0010515737985923,0.001051573144199,-0.0010515735098314,0.0010515730289111,-0.0010515737412028,0.0010515732599973,-0.0010515733996009,0.0010515730551733,-0.001059195445499,0.0010591951229852,-0.0010591955596856,0.0010591950182999,-0.0010591954965772,0.0010591944834759,-0.0010591951153092,0.0010591947871345,-0.00066077398006122,0.00066077370343704,0.71399676711394,128566,2924,0.0043277256319245,0.005654261899937,0.0034535576748125,28.588774754254,-2.7289801965965e-05,-2.7289801965965e-05,-2.7289801965965e-05,3706081.4840501,0.013527903180029
33191759,0.83017630079369,0.013927897460994,0.0045987515734037,0.0053800086453071,0.0039491372422834,-0.0010488705230838,0.0010488733531092,1.5486640115098e-09,1.2805742811583e-09,7.970124439934e-10,2.1519738832339e-09,-0.000386941810377,0.0003869456654022,-0.00095877193382861,0.0009587763304182,-0.00095877205408668,0.00095877620780243,-0.00038694284172365,0.00038694441009673,-0.00038694288723691,0.00038694434023113,-0.00095877328212386,0.00095877492060512,-0.00095877326964041,0.00095877487663573,-0.0012524171739083,0.0012524196158411,-0.0012524172525232,0.0012524195306538,-0.0012524166372371,0.0012524198898317,-0.0012524166852193,0.0012524197814433,-0.0010798517963198,0.0010798554110672,-0.0010798521651418,0.0010798551077177,-0.0010798522476143,0.0010798547659581,-0.0010798524311636,0.001079854565169,-0.00038694136811105,0.00038694604812035,1.4987296614259e-09,-1.3800185884382e-11,8.3996567144884e-10,4.7621584899152e-10,-0.0013732658825223,0.001373267440348,-0.0013560338535208,0.0013560352315518,-0.0014041741262579,0.0014041773358186,-0.0014041754965323,0.0014041756815709,-0.0013187243206032,0.0013187266973563,-0.0013187244154845,0.0013187265455508,-0.001318724825498,0.0013187261487516,-0.0013187249076108,0.0013187260362214,-0.0013560339815999,0.0013560351156432,-0.0013560342393289,0.0013560348138128,-0.0014041742841463,0.0014041771891892,-0.0014041756225304,0.0014041756157558,-0.0013560335195003,0.0013560357647343,-4.038776415486e-10,-1.2084072157905e-10,-0.00083621483190163,0.00083621433451636,-4.4278138374259e-10,-6.8443334604028e-11,-0.00066612300997487,0.00066612265830106,-0.0006153192653246,0.00061531917364256,-0.0006153193013229,0.00061531914664413,-0.0006661228213565,0.0006661223877042,-0.00066612323432419,0.00066612195228517,-0.00061531952876148,0.00061531880896301,-0.00061531963625692,0.00061531859873379,-0.0010601627106259,0.0010601620558495,-0.0010601624281088,0.0010601619305697,-0.0010601626558691,0.00106016216809,-0.0010601622766459,0.0010601619948107,-0.001068017451393,0.0010680172729315,-0.0010680176704638,0.0010680170425742,-0.0010680175070414,0.0010680164825632,-0.001068017115967,0.0010680167780831,-0.00066612278363169,0.0006661228228722,0.75848444344067,128566,2924,0.0043639519986792,0.0057042179313438,0.0034798013873199,28.653408788483,-2.6772729692138e-05,-2.6772729692138e-05,-2.6772729692138e-05,3706963.1221413,0.013641885493541
33391759,0.83701690482317,0.014044612066039,0.0046374198516206,0.0054275281096306,0.0039796641047878,-0.0010583643570707,0.001058367018035,1.4441311004038e-09,1.2196685427132e-09,1.0806149440435e-09,1.6884667338238e-09,-0.00038929976970441,0.00038930274653507,-0.00096780509323473,0.00096780855622929,-0.00096780522014133,0.00096780847110442,-0.00038930011122783,0.00038930222934453,-0.00038930011674139,0.0003893021497362,-0.00096780573401837,0.00096780792483913,-0.00096780571790115,0.00096780789975759,-0.001263878752592,0.001263881262416,-0.0012638788053757,0.0012638811823176,-0.0012638784557938,0.0012638812716532,-0.0012638784701315,0.0012638811636793,-0.0010901259953265,0.0010901291572749,-0.0010901262622383,0.0010901288683802,-0.0010901262237866,0.0010901287985762,-0.0010901263474368,0.0010901285858127,-0.00038929937977316,0.0003893031135195,1.1143551063341e-09,5.1336491528952e-10,9.0846031357278e-10,5.4197661910396e-10,-0.0013864050530529,0.0013864067484541,-0.0013681988356943,0.0013682000334014,-0.0014179270098482,0.001417929471799,-0.0014179275459444,0.0014179287625716,-0.0013314035034158,0.001331405716239,-0.0013314035781939,0.0013314055304023,-0.001331403720956,0.0013314054624584,-0.0013314037940042,0.0013314053314012,-0.0013681987209677,0.0013682003187727,-0.0013681988639011,0.0013681999661774,-0.0014179272322446,0.0014179293931737,-0.0014179276796852,0.0014179287350817,-0.0013681985706302,0.0013682006649642,-4.4224638432385e-10,-1.0731849196065e-10,-0.00084315799693409,0.00084315748715795,-4.9121730983311e-10,-3.5010941690683e-11,-0.00067189968169761,0.00067189932703362,-0.00062060780517067,0.00062060782642841,-0.00062060784626345,0.00062060777818271,-0.00067189955494944,0.00067189901120937,-0.00067190000247047,0.00067189858581346,-0.0006206081983371,0.00062060739238096,-0.00062060829353522,0.00062060719595861,-0.0010695878917846,0.0010695871951418,-0.0010695875705967,0.0010695870751,-0.0010695878233401,0.0010695873271878,-0.0010695874003519,0.0010695871605833,-0.0010777603631441,0.001077760235971,-0.0010777606104098,0.0010777599246936,-0.0010777604392839,0.0010777592956542,-0.0010777599874466,0.0010777596303638,-0.00067189942628563,0.0006718995571016,0.77139746544114,128566,2924,0.0044034059351266,0.0057586040058358,0.0035086784794479,29.140334010077,-2.2877327919383e-05,-2.2877327919383e-05,-2.2877327919383e-05,3704753.6843592,0.013766317432499
33591759,0.84371180272018,0.014160943039014,0.0046758937547583,0.0054749544041056,0.0040100948801503,-0.0010673587874267,0.001067361478089,1.351133477138e-09,1.3427192038794e-09,1.0669636599926e-09,1.7412710639231e-09,-0.00039117570726562,0.00039117926757282,-0.00097643739561219,0.00097644079309238,-0.0009764373239517,0.00097644084542886,-0.00039117623682114,0.00039117853206019,-0.00039117644035364,0.00039117832699919,-0.00097643793568002,0.0009764401720108,-0.00097643798287846,0.00097644006899538,-0.0012747835287331,0.0012747860028871,-0.0012747835600079,0.0012747859668232,-0.0012747832401993,0.0012747859959504,-0.0012747831543167,0.0012747860215431,-0.001099921541583,0.0010999244032362,-0.0010999215169278,0.0010999244568328,-0.0010999216798977,0.0010999241786752,-0.0010999217332776,0.0010999241092895,-0.00039117576441717,0.00039117913689087,9.5465777021337e-10,6.9601085975776e-10,8.5255898767285e-10,5.8354165896758e-10,-0.0013990491312342,0.001399050860969,-0.0013799215834001,0.0013799226842251,-0.0014311540254499,0.0014311562579692,-0.0014311542947558,0.0014311557833523,-0.0013435502675761,0.0013435524404755,-0.0013435503732256,0.0013435522868722,-0.001343550408732,0.0013435522852655,-0.0013435504115919,0.0013435522415603,-0.0013799213780764,0.0013799228001572,-0.001379921459834,0.0013799227441091,-0.0014311542499241,0.0014311560174858,-0.001431154246864,0.0014311557912169,-0.0013799210998835,0.0013799231045657,-5.1229943846017e-10,4.3753695420815e-11,-0.00084959745714327,0.00084959701299447,-5.2962865700863e-10,5.53123685861e-11,-0.00067717848774754,0.00067717786551235,-0.00062543923342247,0.00062543956350356,-0.00062543946931015,0.00062543936210801,-0.0006771783394354,0.00067717760067893,-0.00067717854731956,0.00067717725019811,-0.00062543978932918,0.0006254388523453,-0.00062543983381555,0.00062543865543999,-0.0010784975057181,0.0010784967853875,-0.0010784971827248,0.0010784966710715,-0.0010784973967924,0.0010784969489091,-0.0010784968918961,0.0010784968748515,-0.0010870635366802,0.0010870638660143,-0.0010870641253265,0.0010870632560007,-0.0010870638600912,0.0010870626711565,-0.001087063322629,0.0010870631274242,-0.0006771777178332,0.00067717856263213,0.78538558027828,128566,2924,0.0044407884802197,0.005810934874257,0.0035354645767519,29.396352434672,-2.0829180522627e-05,-2.0829180522627e-05,-2.0829180522627e-05,3696244.6518385,0.013884460433684
33791759,0.85027956227749,0.014274860381449,0.0047135858173942,0.0055214052073651,0.0040398693566902,-0.0010762818541224,0.0010762844010558,1.6573998718804e-09,8.9222719229231e-10,1.2919889270369e-09,1.3602257815949e-09,-0.00039286738425467,0.00039286857519039,-0.00098494301870277,0.00098494623652716,-0.00098494351716562,0.00098494571449492,-0.00039286665024043,0.00039286909907058,-0.00039286658345437,0.00039286914818909,-0.00098494331090337,0.00098494589399021,-0.00098494325628714,0.00098494588177133,-0.0012856226529909,0.0012856253307667,-0.0012856228211057,0.0012856251602316,-0.0012856224470778,0.0012856252261405,-0.0012856227270261,0.0012856248827365,-0.0011096383496934,0.0011096419358582,-0.0011096394093275,0.0011096409213149,-0.001109638637937,0.0011096416144701,-0.0011096391139401,0.0011096411476366,-0.00039286582899264,0.00039287005806982,1.2017322324934e-09,3.981490535256e-10,1.0046844345213e-09,3.7892044088769e-10,-0.0014116315842452,0.0014116332610111,-0.0013915791166987,0.0013915803401773,-0.0014443444191753,0.0014443469231432,-0.0014443448720351,0.0014443462211644,-0.0013556038192442,0.0013556061049618,-0.0013556039253045,0.0013556059423636,-0.0013556040127293,0.0013556058800906,-0.0013556042555418,0.0013556056029279,-0.0013915787849066,0.0013915806764929,-0.0013915794865713,0.0013915799389255,-0.0014443444402202,0.0014443469039448,-0.0014443453103613,0.0014443458159163,-0.0013915787082046,0.0013915808803783,-1.8150723159584e-10,-3.714522524769e-10,-0.00085595527378197,0.00085595474730497,-3.9937955872863e-10,-1.4531429809077e-10,-0.00068224140658991,0.00068224196406338,-0.00063013936785073,0.00063013874976956,-0.00063013902454375,0.00063013910429289,-0.00068224158883721,0.00068224137053643,-0.0006822420917776,0.00068224079578576,-0.00063013930392603,0.00063013871681066,-0.00063013943641601,0.00063013844686339,-0.0010873730768473,0.0010873725179635,-0.0010873727515277,0.001087372408586,-0.0010873730989064,0.0010873725467878,-0.0010873728213124,0.001087372243432,-0.001096287852782,0.0010962869221664,-0.0010962873707873,0.0010962873783355,-0.0010962873000897,0.0010962865178248,-0.0010962871279321,0.0010962865584951,-0.00068224223138404,0.00068224109069782,0.7836791313094,128566,2924,0.0044778754054478,0.0058630064161765,0.0035619117037559,29.711022451885,-1.8311820384917e-05,-1.8311820384917e-05,-1.8311820384917e-05,3686684.8615407,0.014001712040869
33991759,0.85676984904076,0.014383604216227,0.0047496955026683,0.0055657003121409,0.0040682084014178,-0.0010851866308388,0.0010851891948613,1.590997346182e-09,9.7570205173677e-10,1.2471779870686e-09,1.42251702964e-09,-0.00039454695986737,0.00039454861579367,-0.00099313556316069,0.00099313878628197,-0.00099313594499684,0.00099313838657264,-0.00039454646744237,0.00039454887636358,-0.00039454645359689,0.00039454885638399,-0.00099313589104139,0.00099313839645087,-0.00099313585119692,0.00099313837625258,-0.0012965012570922,0.0012965039027269,-0.0012965014123162,0.0012965037428355,-0.0012965010351575,0.0012965037972613,-0.0012965012400003,0.0012965035227638,-0.0011192273649525,0.0011192307736451,-0.0011192281764146,0.0011192299912879,-0.0011192276325667,0.0011192305147477,-0.0011192280401432,0.0011192301104363,-0.00039454573823481,0.00039454975529727,1.1096773915292e-09,5.2765284027381e-10,9.8531737099537e-10,4.3116283056561e-10,-0.0014241174620294,0.0014241191771202,-0.0014030498002607,0.0014030509732426,-0.0014574906288265,0.0014574930085344,-0.0014574909710339,0.0014574924409031,-0.0013676153595815,0.0013676176172192,-0.0013676154635113,0.0013676174564514,-0.0013676155191981,0.0013676174342599,-0.0013676156952428,0.0013676172154362,-0.0014030494484085,0.0014030513490215,-0.0014030500298602,0.001403050717893,-0.0014574907275571,0.0014574929414828,-0.0014574912779274,0.001457492170548,-0.0014030494034869,0.0014030515391412,-2.5471896483213e-10,-2.8810895881099e-10,-0.00086232315181728,0.00086232263722902,-4.4071209773911e-10,-9.185161133272e-11,-0.00068708758100179,0.00068708794204938,-0.00063466379899279,0.00063466341299563,-0.00063466358563721,0.00063466365242584,-0.00068708770851651,0.00068708735617298,-0.00068708817807737,0.00068708682882403,-0.0006346638988005,0.00063466322512423,-0.00063466402209233,0.00063466296069869,-0.0010963247033906,0.00109632410361,-0.0010963243695563,0.0010963240034278,-0.001096324707805,0.0010963241558012,-0.0010963243686713,0.0010963239085249,-0.0011053471001564,0.0011053464365964,-0.0011053468351358,0.0011053466681313,-0.0011053466926924,0.0011053457825292,-0.001105346422747,0.0011053459253024,-0.00068708809488022,0.00068708736171661,0.75679231122811,128566,2924,0.0045148847135836,0.0059146758160807,0.0035884002643864,30.173797273954,-1.4609621808371e-05,-1.4609621808371e-05,-1.4609621808371e-05,3682121.5505077,0.014118534431593
34191759,0.86305579527585,0.014486815188776,0.004784040368192,0.0056077102213274,0.0040950645992564,-0.0010931701495145,0.0010931728223082,1.547634834524e-09,1.1247030661963e-09,1.0671598218823e-09,1.7182711382021e-09,-0.00039592233458634,0.00039592494226638,-0.0010002941046828,0.0010002977838463,-0.0010002943426906,0.0010002975008783,-0.00039592247238193,0.00039592448208466,-0.00039592244503229,0.00039592451773198,-0.0010002947949374,0.0010002969517837,-0.0010002947563227,0.0010002969231129,-0.0013063576441027,0.0013063602060051,-0.0013063577740564,0.0013063600906598,-0.0013063572850367,0.0013063602346729,-0.0013063574237318,0.0013063600531328,-0.0011277534553143,0.0011277568549281,-0.0011277540452613,0.0011277563524071,-0.0011277538327723,0.0011277565449667,-0.0011277541463199,0.0011277562973746,-0.00039592146988407,0.00039592569520014,1.3190419879962e-09,2.4187181945253e-10,9.2427002718511e-10,4.002132769944e-10,-0.0014353654432139,0.0014353670870718,-0.0014132029020338,0.0014132041113805,-0.0014693305364422,0.0014693333738306,-0.001469331375516,0.0014693322213779,-0.0013785464704971,0.0013785488583442,-0.0013785466055957,0.0013785487195941,-0.0013785468101035,0.0013785484958034,-0.0013785469695648,0.0013785483197171,-0.0014132026614787,0.0014132041821639,-0.0014132032721988,0.0014132037092095,-0.0014693306266704,0.0014693331898329,-0.0014693316008571,0.001469331974497,-0.0014132023636873,0.0014132045930665,-3.3233173835961e-10,-1.6782350208883e-10,-0.00086794384206368,0.00086794335562626,-4.3563747631402e-10,-7.3587179569713e-11,-0.00069128602710351,0.00069128604603334,-0.00063847236224234,0.000638472096502,-0.00063847228812597,0.00063847221060198,-0.00069128589419866,0.00069128561190434,-0.00069128639353223,0.0006912850309543,-0.00063847245940305,0.00063847179423783,-0.0006384726217033,0.00063847150694729,-0.0011043488006233,0.0011043481774205,-0.0011043484876823,0.0011043480628349,-0.0011043487654781,0.0011043482643366,-0.0011043484014682,0.0011043480499981,-0.0011133391654364,0.0011133388096601,-0.0011133391518662,0.001113338808076,-0.0011133389143233,0.0011133379175312,-0.0011133385060061,0.0011133381906576,-0.00069128612238408,0.00069128583776593,0.74153925457267,128566,2924,0.0045480628832404,0.0059612192680354,0.0036117831353937,30.313239296694,-1.3494085626445e-05,-1.3494085626445e-05,-1.3494085626445e-05,3679943.6682126,0.014223132720098
34391759,0.86917225615098,0.014586436304749,0.0048172093213763,0.0056482432865171,0.0041209836968559,-0.0011010857353451,0.0011010884621328,1.5052943820693e-09,1.2207164601118e-09,9.7855406302155e-10,1.8635211360908e-09,-0.00039761663773834,0.00039761977814585,-0.0010073831819093,0.0010073870564456,-0.0010073833393425,0.0010073868693541,-0.00039761715213945,0.00039761897816727,-0.00039761710114763,0.00039761899011106,-0.0010073840760585,0.0010073860484442,-0.0010073840269871,0.0010073860297414,-0.0013160800865446,0.0013160825969825,-0.0013160801817312,0.0013160825082886,-0.0013160796599617,0.0013160826734142,-0.0013160797300374,0.0013160825440629,-0.001136157155276,0.0011361605168019,-0.0011361575442929,0.0011361601795095,-0.0011361575630937,0.0011361601666489,-0.0011361577761025,0.0011361599799688,-0.00039761603224073,0.00039762028516299,1.4050668646424e-09,1.379761752755e-10,9.1268006007418e-10,4.0905492459402e-10,-0.0014463898654622,0.001446391491772,-0.001423129736024,0.0014231309817753,-0.0014808971368183,0.0014809001864278,-0.0014808982470967,0.0014808988188826,-0.0013893231168084,0.0013893255549182,-0.0013893232494031,0.0013893253928592,-0.0013893235345246,0.0013893251077285,-0.0013893236722918,0.0013893249409777,-0.0014231296347059,0.0014231310497235,-0.0014231300884992,0.0014231305875525,-0.0014808973163276,0.0014809000172958,-0.0014808984277947,0.0014808986468311,-0.0014231292537056,0.00142313158185,-4.1822087353484e-10,-1.0617277267482e-10,-0.00087361527950959,0.00087361477742592,-4.5013520932908e-10,-6.7563117456374e-11,-0.0006956646809761,0.00069566442562921,-0.00064238933083207,0.00064238919067959,-0.00064238933406206,0.00064238921519094,-0.00069566446582849,0.00069566414864355,-0.0006956649710112,0.00069566356723059,-0.00064238953885406,0.00064238886496866,-0.00064238968384222,0.00064238857687506,-0.0011123026232792,0.0011123019538407,-0.0011123023115668,0.0011123018222809,-0.0011123025572056,0.0011123020759012,-0.0011123021647982,0.0011123018731201,-0.0011212300898482,0.0011212298969838,-0.0011212302372238,0.0011212296901168,-0.0011212299185485,0.0011212287694745,-0.0011212293971414,0.0011212291382449,-0.00069566452626147,0.00069566450979877,0.73560443754512,128566,2924,0.0045809540493865,0.0060068368204357,0.0036353741392895,30.547456070348,-1.1620351437214e-05,-1.1620351437214e-05,-1.1620351437214e-05,3683285.0076887,0.014326720826852
34591759,0.87545275185497,0.014692435819256,0.0048523682954306,0.0056914210160799,0.0041486465077453,-0.0011111677002824,0.0011111702153591,1.4435168281106e-09,1.0736791473096e-09,1.3314781414332e-09,1.2838595314432e-09,-0.00040121252753705,0.00040121442792698,-0.0010169389688467,0.0010169417280021,-0.001016939153689,0.0010169415037411,-0.00040121205292832,0.0004012146495588,-0.00040121206310997,0.00040121459461925,-0.0010169389501842,0.0010169416375058,-0.0010169389134703,0.0010169415919649,-0.001328012664077,0.0013280153012019,-0.0013280127874171,0.0013280151892883,-0.0013280125329548,0.0013280150565321,-0.0013280126311347,0.001328014900375,-0.0011468935052086,0.001146896440248,-0.0011468939912723,0.0011468960244619,-0.0011468936162162,0.0011468964088778,-0.0011468939238201,0.0011468961478892,-0.00040121182705402,0.00040121505348143,9.5131181642996e-10,7.7168930918602e-10,1.012579245752e-09,4.914598209457e-10,-0.0014598541276722,0.0014598559273071,-0.0014355025928507,0.0014355036581548,-0.0014948606676469,0.0014948628217264,-0.0014948607328067,0.0014948625583817,-0.0014024633165415,0.0014024655782288,-0.0014024634507889,0.0014024654064809,-0.0014024633853464,0.0014024654933256,-0.0014024635329458,0.0014024653148648,-0.0014355021563796,0.0014355041578695,-0.0014355025778797,0.0014355036349003,-0.0014948608697108,0.001494862664767,-0.0014948609276201,0.0014948623812529,-0.0014355021468556,0.0014355043259225,-3.727709510366e-10,-1.3691941131259e-10,-0.00088134342251289,0.00088134294002427,-4.7545501696604e-10,-8.6419840705246e-12,-0.00070234530038334,0.00070234525241518,-0.00064853539688918,0.0006485353528174,-0.00064853536277255,0.00064853541449725,-0.00070234526754337,0.00070234482512908,-0.00070234570219463,0.00070234430899701,-0.00064853570677714,0.00064853497245711,-0.00064853581646182,0.00064853470916019,-0.0011223702860046,0.0011223696265573,-0.0011223699436993,0.0011223695214066,-0.0011223702402172,0.0011223697258195,-0.0011223698209954,0.0011223695465293,-0.0011314675862277,0.0011314673480972,-0.0011314676416942,0.0011314672244744,-0.0011314673071479,0.0011314661925648,-0.0011314668340102,0.0011314664870212,-0.00070234523764734,0.00070234523572338,0.7622651305085,128566,2924,0.0046228360448429,0.006062551891681,0.0036675054951632,31.750229638268,-1.9981628938549e-06,-1.9981628938549e-06,-1.9981628938549e-06,3701667.2590913,0.014458348340867
34791759,0.88203554366749,0.014807793564243,0.0048904722333494,0.0057385357692647,0.0041787855616294,-0.0011226396670684,0.0011226419329473,1.3419923383641e-09,9.2938315198266e-10,1.7258889018082e-09,6.2166398950361e-10,-0.00040537982741296,0.00040538033224123,-0.0010281193061443,0.00102812078381,-0.0010281195159949,0.0010281205241252,-0.00040537828698604,0.00040538163359545,-0.00040537826607752,0.00040538161864775,-0.0010281182824913,0.0010281217296222,-0.0010281182219831,0.0010281216955704,-0.0013414588281235,0.0013414615813476,-0.0013414589629671,0.0013414614614495,-0.0013414590274965,0.0013414609768792,-0.0013414591449559,0.0013414608002163,-0.0011592224107339,0.0011592248100797,-0.0011592229590033,0.0011592243405606,-0.0011592221967871,0.0011592251288786,-0.0011592225390913,0.0011592248466719,-0.00040537904627835,0.0004053810515879,5.3630214939629e-10,1.371515269797e-09,1.1335798452668e-09,5.5322034832163e-10,-0.0014751781805498,0.0014751801532225,-0.0014498014792467,0.0014498023605783,-0.001510689248972,0.0015106905932537,-0.0015106883311465,0.0015106913713432,-0.0014172803943857,0.0014172825077135,-0.0014172805393024,0.001417282314459,-0.0014172801340662,0.0014172827657937,-0.0014172803074847,0.0014172825569385,-0.0014498006804526,0.0014498033009208,-0.0014498011409515,0.0014498026721725,-0.001510689477579,0.0015106904444765,-0.0015106885638521,0.0015106911693315,-0.0014498010509885,0.001449803121354,-3.5632940273127e-10,-1.5376147962617e-10,-0.00089022085497813,0.00089022037757205,-4.8199132614014e-10,1.4881222387952e-11,-0.00071013553689719,0.00071013561423784,-0.00065582783342358,0.00065582781802465,-0.00065582776669318,0.0006558279097437,-0.0007101355693695,0.00071013514256256,-0.000710136044031,0.0007101345990733,-0.00065582817835157,0.00065582745151488,-0.00065582829135129,0.0006558271833198,-0.0011338165240147,0.001133815862159,-0.0011338161642104,0.0011338157708232,-0.001133816482062,0.0011338159556467,-0.0011338160585374,0.0011338157767105,-0.0011433051954712,0.0011433049076023,-0.0011433051860345,0.0011433048402488,-0.0011433048344999,0.0011433036985946,-0.0011433043475414,0.001143303975986,-0.00071013555289558,0.00071013550414873,0.79180579743625,128566,2924,0.0046704937269236,0.0061259584633683,0.0037044127794249,33.402106078415,1.1216848627324e-05,1.1216848627324e-05,1.1216848627324e-05,3719581.557409,0.014608506449186
34991759,0.88867374175801,0.014918627181202,0.0049272315188639,0.0057838199888117,0.0042075756735262,-0.0011327734864993,0.001132775851133,1.3647371014683e-09,1.0042476234392e-09,1.5529079411107e-09,9.0699345441373e-10,-0.00040773101802367,0.00040773223135005,-0.0010374684385057,0.0010374704536404,-0.0010374686438953,0.0010374702651026,-0.000407729857499,0.00040773298702004,-0.00040772996140946,0.0004077328635563,-0.0010374677698698,0.0010374709454652,-0.0010374677989675,0.0010374708802881,-0.0013537246143002,0.0013537273094446,-0.0013537247404011,0.0013537271889294,-0.0013537246647696,0.0013537268285149,-0.001353724744798,0.0013537266770688,-0.0011700753009828,0.0011700778485157,-0.001170075717184,0.0011700774287249,-0.0011700752027591,0.0011700780505751,-0.0011700754805492,0.0011700777539881,-0.00040773035015395,0.00040773278803104,6.7552121105541e-10,1.1226065927862e-09,1.0411633857615e-09,4.8150267360031e-10,-0.0014892394949565,0.0014892413768226,-0.0014628750480671,0.0014628758250912,-0.0015253648314536,0.0015253664616684,-0.0015253642570639,0.0015253667922521,-0.0014307955328525,0.0014307977524545,-0.0014307956853349,0.0014307975648335,-0.0014307954058341,0.0014307978759631,-0.0014307955572392,0.0014307976916925,-0.0014628742533714,0.001462876427493,-0.0014628748226034,0.0014628760038564,-0.0015253650027275,0.0015253662325893,-0.0015253644530814,0.0015253665884411,-0.001462874363572,0.0014628763655336,-3.7545850084583e-10,-1.1653224972197e-10,-0.00089769105357752,0.00089769057641742,-5.227724374164e-10,1.8494081470712e-12,-0.00071591517930486,0.00071591508913911,-0.00066123534819865,0.00066123531468965,-0.00066123536248943,0.00066123533881558,-0.00071591503393943,0.00071591445333611,-0.00071591545873453,0.00071591400595196,-0.00066123560567204,0.00066123472366744,-0.0006612357448788,0.0006612344849603,-0.0011441001833252,0.0011440995211384,-0.0011440998230094,0.0011440994141271,-0.0011441001382737,0.0011440996210683,-0.0011440996841411,0.0011440994548241,-0.0011536269919553,0.0011536268418953,-0.0011536270532651,0.001153626677837,-0.0011536266345354,0.0011536255169546,-0.0011536261399917,0.0011536258140543,-0.00071591502973703,0.00071591514978992,0.75495090039815,128566,2924,0.00471260316907,0.0061841323782276,0.0037354798231054,34.467504643636,1.9740037149087e-05,1.9740037149087e-05,1.9740037149087e-05,3723245.7436663,0.014741825451333
35191759,0.89524274657857,0.015025473999418,0.0049627621504118,0.0058274476209174,0.0042352642280889,-0.0011422235746112,0.0011422261487917,1.4426059789658e-09,1.1337217011391e-09,1.216720321647e-09,1.4687861743259e-09,-0.00041003009826805,0.00041003254511215,-0.00104598021107,0.0010459832901784,-0.0010459803592483,0.0010459831306261,-0.00041002987576701,0.00041003238692589,-0.00041003003073306,0.00041003222429406,-0.0010459803844571,0.0010459829084792,-0.0010459804197677,0.0010459828205701,-0.0013652386601026,0.0013652412575459,-0.0013652387833442,0.001365241146435,-0.0013652384200999,0.0013652410532792,-0.0013652384723824,0.0013652409344992,-0.0011800834823755,0.0011800864474332,-0.0011800838253245,0.0011800861131384,-0.0011800836478773,0.0011800863910005,-0.0011800839162856,0.0011800861221876,-0.00041002955067124,0.00041003298073599,1.0289458414697e-09,6.4203580495275e-10,9.6343936870627e-10,4.3633166177901e-10,-0.0015023254387541,0.0015023272099833,-0.0014748899511696,0.0014748909144604,-0.0015390005528011,0.0015390029148578,-0.0015390008235621,0.0015390023864185,-0.001443516701557,0.0014435190950605,-0.0014435168593628,0.0014435189166912,-0.0014435168483889,0.0014435189349276,-0.0014435169787547,0.0014435187758288,-0.001474889477662,0.0014748911806802,-0.0014748899883187,0.0014748908173942,-0.0015390007454207,0.0015390026569521,-0.0015390009668486,0.0015390022007771,-0.0014748892547355,0.0014748914326944,-4.0026543853906e-10,-8.1346494964535e-11,-0.00090462081845467,0.00090462034954603,-5.2429064191773e-10,1.5279109266788e-11,-0.0007212740792439,0.00072127390361499,-0.00066609891167347,0.00066609895117037,-0.00066609897042582,0.00066609893327951,-0.00072127397378739,0.00072127335133737,-0.00072127429599126,0.0007212729241321,-0.00066609922172627,0.00066609833061108,-0.00066609932801254,0.00066609808664263,-0.0011536775822322,0.0011536769148262,-0.001153677223107,0.0011536767948203,-0.0011536775286328,0.0011536770244713,-0.0011536770510849,0.0011536768688326,-0.0011630873899649,0.0011630873425394,-0.0011630875319554,0.0011630870871385,-0.0011630870543678,0.0011630859062687,-0.0011630865305473,0.0011630862369049,-0.00072127381010771,0.00072127410864625,0.73557131668406,128566,2924,0.0047518662902971,0.0062382684851457,0.0037642993972745,35.264978170287,2.6119825362295e-05,2.6119825362295e-05,2.6119825362295e-05,3731955.6964558,0.01486589126788
35391759,0.90164247898872,0.0151266017531,0.0049964709121251,0.0058687220519123,0.0042614087890624,-0.0011509006668022,0.0011509034543946,1.5609732513828e-09,1.2253814545995e-09,8.9016631323605e-10,2.0219614424953e-09,-0.00041201964137976,0.00041202310472648,-0.0010535526155012,0.001053556813854,-0.0010535527985458,0.0010535566391986,-0.00041202025945196,0.00041202204358473,-0.00041202035546572,0.00041202192126169,-0.0010535536666301,0.0010535555377369,-0.0010535536950147,0.0010535554629499,-0.0013759289545689,0.0013759314790994,-0.0013759290794763,0.0013759313645438,-0.0013759284153477,0.0013759315586028,-0.0013759284774465,0.001375931421635,-0.0011891947302939,0.0011891982344532,-0.0011891951002098,0.0011891978507887,-0.0011891952345144,0.0011891979035883,-0.0011891955072604,0.0011891976171419,-0.00041201902617756,0.00041202360683869,1.4101578800565e-09,9.1590761729806e-11,8.8262854695081e-10,3.5570097640286e-10,-0.0015143985021749,0.0015144001441493,-0.001485882053073,0.0014858832035202,-0.0015515845453383,0.0015515876659595,-0.0015515856931385,0.001551586214444,-0.0014553380588623,0.0014553406291061,-0.0014553382065613,0.0014553404531423,-0.001455338492178,0.0014553401622335,-0.0014553386299713,0.0014553399974303,-0.0014858818840205,0.0014858831632113,-0.0014858824027857,0.0014858827911116,-0.0015515847222895,0.0015515874329549,-0.0015515858670518,0.0015515860324343,-0.0014858813946187,0.0014858837183618,-3.9726294279515e-10,-9.6103223197058e-11,-0.00091093603941791,0.00091093555842462,-5.1666642507313e-10,-7.3216241510991e-12,-0.00072603452653775,0.00072603434492476,-0.0006703096195065,0.0006703095968228,-0.00067030965337643,0.00067030958879364,-0.00072603436626373,0.00072603379075371,-0.00072603474307574,0.00072603334478217,-0.00067030987477726,0.00067030900394475,-0.00067030999858325,0.00067030875909821,-0.0011625114045137,0.0011625107406523,-0.0011625110435406,0.0011625106040623,-0.0011625113539288,0.0011625108519106,-0.0011625108821106,0.0011625106676883,-0.0011716463338998,0.0011716462330335,-0.0011716464380305,0.0011716460000617,-0.0011716459888375,0.0011716448425048,-0.0011716454679232,0.0011716451699678,-0.000726034314951,0.00072603452258709,0.71497358339755,128566,2924,0.0047879150803525,0.0062882124526458,0.0037905640931185,35.835226438625,3.0681811509003e-05,3.0681811509003e-05,3.0681811509003e-05,3742546.7519355,0.014979859580056
35591759,0.90791928209187,0.015220963700104,0.0050280587167958,0.0059071929975496,0.0042857119857581,-0.001159484821681,0.0011594876781313,1.5999537549228e-09,1.2549371000918e-09,8.1268699414665e-10,2.1713627819163e-09,-0.00041419609492824,0.00041419981517497,-0.0010607370102038,0.0010607415019947,-0.0010607371684537,0.0010607412868794,-0.0004141969884699,0.0004141986153412,-0.0004141970713694,0.00041419852671419,-0.0010607383192714,0.0010607400015865,-0.0010607382990552,0.0010607399314293,-0.0013865749573324,0.0013865774732803,-0.0013865750913222,0.0013865773637061,-0.0013865743362595,0.0013865776239815,-0.0013865744074206,0.0013865774904795,-0.0011980780932528,0.0011980817504912,-0.0011980785022992,0.0011980813763678,-0.0011980787018709,0.0011980813870792,-0.0011980790208959,0.0011980811233178,-0.00041419544547468,0.0004142003724548,1.5288601596069e-09,-1.3633489270967e-11,9.0919698983253e-10,3.9046110409306e-10,-0.0015262236091115,0.0015262252614599,-0.0014965855525898,0.0014965869032071,-0.0015639353251634,0.0015639386856889,-0.0015639367259792,0.0015639370384815,-0.0014670010219302,0.0014670036358068,-0.001467001167848,0.0014670034652579,-0.0014670015231105,0.0014670030959045,-0.0014670016593874,0.0014670029323731,-0.001496585555464,0.0014965868645639,-0.0014965859944442,0.0014965864006708,-0.0015639355346373,0.0015639384764872,-0.001563936883557,0.0015639368496873,-0.0014965850247855,0.001496587503905,-3.9814420690157e-10,-9.574721545888e-11,-0.00091728755311095,0.00091728708091822,-4.9243407278408e-10,9.8924246884368e-12,-0.00073068633131212,0.00073068624220944,-0.00067442564794649,0.00067442566827775,-0.00067442565801808,0.00067442568608286,-0.00073068632841046,0.00073068584387431,-0.00073068667660804,0.00073068531897477,-0.00067442598237446,0.00067442519993304,-0.00067442606779458,0.00067442491840887,-0.0011713371543378,0.0011713364861453,-0.0011713367965955,0.0011713363606119,-0.0011713370967551,0.0011713366000298,-0.0011713366365294,0.0011713364216888,-0.0011799602958003,0.0011799601703559,-0.0011799604005888,0.0011799599531381,-0.0011799599659539,0.0011799587917813,-0.0011799594317099,0.0011799591388195,-0.00073068618510933,0.00073068636324833,0.68077661268803,128566,2924,0.0048235719988113,0.0063371320067633,0.0038169759214341,36.579518325743,3.6636146605943e-05,3.6636146605943e-05,3.6636146605943e-05,3761654.2347512,0.015092552380495
35791759,0.91414534922134,0.015319931018035,0.0050609792580438,0.0059476124657126,0.0043113392942785,-0.0011688041303867,0.0011688069069629,1.5681924137247e-09,1.2079229545035e-09,9.5899679427681e-10,1.9360378409023e-09,-0.00041754857794864,0.00041755181976429,-0.0010691766908742,0.0010691807228364,-0.001069176859013,0.0010691805046163,-0.00041754908699293,0.00041755096415271,-0.00041754914331597,0.00041755087589758,-0.0010691776406893,0.0010691796046431,-0.0010691776103242,0.001069179541549,-0.0013978302552689,0.0013978328269229,-0.0013978303942104,0.001397832713366,-0.0013978297572663,0.0013978328467863,-0.0013978298336377,0.0013978327062832,-0.0012078118812587,0.001207815360285,-0.0012078123160114,0.0012078149751075,-0.0012078123637725,0.0012078151051585,-0.0012078126975452,0.0012078148320881,-0.0004175479201437,0.0004175523794395,1.3847351676441e-09,2.0812657958174e-10,9.559381521574e-10,4.348978155232e-10,-0.0015387801842881,0.0015387819115276,-0.0015080721191673,0.0015080734426581,-0.0015768189837708,0.0015768220575611,-0.0015768200396545,0.0015768207822359,-0.0014794125621864,0.0014794151201433,-0.0014794127033761,0.001479414942541,-0.0014794129450892,0.0014794147001068,-0.0014794130829986,0.0014794145315689,-0.0015080720215959,0.0015080735828597,-0.0015080724238608,0.0015080730813764,-0.0015768192146362,0.0015768218715676,-0.0015768202086786,0.0015768206169205,-0.0015080716570275,0.0015080741059793,-3.9699900472185e-10,-1.0022629532827e-10,-0.00092445317899237,0.00092445270907387,-4.7946994156377e-10,1.0861958241727e-11,-0.00073669225412831,0.00073669215873809,-0.0006798017293915,0.00067980176001661,-0.00067980172804661,0.00067980177996824,-0.00073669221593182,0.00073669176489815,-0.00073669261071307,0.00073669123873186,-0.00067980206930315,0.00067980132337814,-0.00067980215995479,0.00067980105133432,-0.0011807322535604,0.0011807315890519,-0.0011807319004358,0.0011807314640923,-0.0011807321952437,0.0011807317024497,-0.0011807317446115,0.0011807315202989,-0.0011891960313332,0.0011891958879437,-0.0011891961322617,0.0011891956783446,-0.0011891957166955,0.0011891945409861,-0.0011891951787014,0.0011891948801286,-0.00073669211594178,0.00073669226722733,0.72027650888261,128566,2924,0.0048622726951188,0.0063890780845847,0.0038467639871066,37.601503735609,4.4812029884875e-05,4.4812029884875e-05,4.4812029884875e-05,3789340.9566408,0.015214842654351
35991759,0.92009142828112,0.01542024024159,0.0050941226719699,0.0059887156223206,0.0043374019472993,-0.0011768806972582,0.001176883598278,1.5979670903052e-09,1.3025839926443e-09,8.0564923399833e-10,2.2313460945555e-09,-0.00041955424623293,0.00041955815152869,-0.0010768141853996,0.0010768187804335,-0.0010768143351503,0.0010768185921275,-0.00041955518304222,0.00041955685124257,-0.00041955531620124,0.00041955674103335,-0.0010768155249527,0.0010768172134617,-0.0010768155324185,0.0010768171383822,-0.0014076916515447,0.0014076941742048,-0.0014076917730393,0.0014076940753762,-0.0014076910040639,0.0014076943293503,-0.0014076910479396,0.0014076942198046,-0.0012164564379869,0.0012164600939357,-0.0012164567620309,0.0012164597640428,-0.0012164570451302,0.0012164597110005,-0.0012164573036796,0.0012164594692531,-0.00041955362547549,0.00041955863166102,1.5061643586539e-09,-2.3108435817854e-11,8.6011210663614e-10,3.9150853462419e-10,-0.0015501560644597,0.0015501577013783,-0.0015185791473383,0.0015185804855247,-0.0015884568654599,0.0015884601867425,-0.0015884582460288,0.00158845854283,-0.0014904893799416,0.0014904919928673,-0.0014904895157391,0.0014904918391458,-0.0014904898806611,0.0014904914569408,-0.0014904899898509,0.0014904913186044,-0.0015185791444272,0.001518580306191,-0.001518579595706,0.0015185799683958,-0.0015884570441924,0.0015884599609299,-0.0015884583640489,0.0015884583543662,-0.0015185785373897,0.0015185809218623,-4.2499998292731e-10,-5.7719399564905e-11,-0.00093038386541894,0.00093038339872763,-5.0716145172663e-10,5.2279979261197e-12,-0.00074160530945935,0.00074160515026456,-0.00068420206949007,0.00068420208754381,-0.00068420212087016,0.00068420207697896,-0.0007416052739733,0.00074160475541023,-0.00074160557758836,0.00074160421296857,-0.00068420236687208,0.00068420153414535,-0.00068420245386361,0.00068420123594864,-0.0011887964802395,0.001188795802736,-0.0011887961213193,0.0011887956691178,-0.0011887964040163,0.0011887959328182,-0.001188795930244,0.0011887957601132,-0.0011974329816328,0.0011974329588256,-0.0011974331662913,0.0011974326623419,-0.0011974327264936,0.001197431531695,-0.0011974321608008,0.0011974319338951,-0.00074160509799175,0.00074160536299161,0.7650008398985,128566,2924,0.0048958230545062,0.0064361321497624,0.0038714269666829,37.990603952751,4.792483162201e-05,4.792483162201e-05,4.792483162201e-05,3794265.8559192,0.015321746809808
36191759,0.92563940778433,0.015511187831138,0.0051242326689253,0.0060259976637571,0.0043609574984559,-0.0011835292058537,0.0011835322760348,1.6348443973465e-09,1.4329983141352e-09,5.6468203299856e-10,2.6509977581617e-09,-0.0004200501625132,0.00042005514741005,-0.0010827829028985,0.0010827882403937,-0.001082782968963,0.001082788144176,-0.00042005181991569,0.00042005305547188,-0.0004200520118677,0.00042005284877927,-0.0010827848214419,0.0010827860732443,-0.0010827848644794,0.001082785964957,-0.0014160879021304,0.0014160903634827,-0.0014160880127031,0.0014160902777176,-0.0014160870584604,0.0014160907134946,-0.0014160870485998,0.0014160906586974,-0.0012236131809458,0.0012236170659254,-0.0012236133528664,0.001223616891988,-0.0012236139543929,0.0012236165328745,-0.0012236141819501,0.0012236163247253,-0.00042004981651427,0.00042005537065046,1.7113980635521e-09,-3.1369263614059e-10,7.7507689093302e-10,3.9342728841934e-10,-0.0015599919751931,0.0015599935356532,-0.0015276416297259,0.0015276430674469,-0.0015986714462946,0.0015986752018819,-0.001598673360731,0.0015986729947544,-0.001499959820081,0.0014999625204487,-0.0014999599526999,0.0014999623792728,-0.0014999604999153,0.0014999618009801,-0.0014999605612983,0.0014999617136812,-0.0015276418462454,0.0015276426047076,-0.0015276421759273,0.0015276424326396,-0.0015986716519933,0.0015986749438542,-0.0015986733931086,0.0015986728929625,-0.0015276410140777,0.0015276434441007,-4.6511925089445e-10,4.5809164201184e-12,-0.00093493508493279,0.00093493463648139,-5.3281937961053e-10,4.7836953209504e-11,-0.00074478627198245,0.00074478592964922,-0.00068702709881531,0.00068702729002294,-0.00068702724208561,0.00068702718278647,-0.00074478616760165,0.0007447855119313,-0.00074478640959615,0.00074478507132244,-0.00068702750283706,0.00068702658921524,-0.00068702757428366,0.00068702632797149,-0.0011955600952528,0.0011955594001357,-0.0011955597318812,0.0011955592619535,-0.0011955600059526,0.001195559545148,-0.0011955594840149,0.0011955594117685,-0.0012041774063292,0.0012041775929891,-0.0012041777434992,0.0012041771302833,-0.0012041772574117,0.001204176020837,-0.0012041766470194,0.0012041764615917,-0.00074478578794146,0.00074478640775592,0.74361145621304,128566,2924,0.0049234532946031,0.0064768096701951,0.0038903648888852,37.973935398398,4.7791483187185e-05,4.7791483187185e-05,4.7791483187185e-05,3783184.5573079,0.015410365985664
36391759,0.93058218113158,0.015591212605769,0.0051507639713305,0.0060587732701088,0.0043816753643294,-0.0011878271218844,0.0011878304348584,1.799722048668e-09,1.5064077090874e-09,2.0598252575758e-10,3.2677889094684e-09,-0.00041939144332595,0.00041939746394139,-0.0010864073111436,0.0010864139364693,-0.0010864074697694,0.0010864138042956,-0.00041939396255889,0.00041939441501725,-0.00041939409831328,0.00041939424648776,-0.0010864102181667,0.0010864107656406,-0.001086410274369,0.0010864106736128,-0.0014218447000121,0.0014218471003199,-0.0014218448202978,0.0014218469935775,-0.0014218435240794,0.0014218477788095,-0.0014218435491756,0.0014218476702669,-0.0012282327806514,0.0012282373609524,-0.0012282330541883,0.0012282370360699,-0.0012282339181306,0.0012282364419998,-0.0012282341638945,0.0012282361579551,-0.00041939092536573,0.00041939786185116,2.1762210252944e-09,-9.7485771682475e-10,7.0065907840493e-10,2.7000355969424e-10,-0.0015668765069704,0.0015668778811959,-0.0015338151593903,0.0015338167139224,-0.0016058239556897,0.0016058285979344,-0.0016058268920504,0.0016058252728764,-0.0015066483557698,0.0015066512610802,-0.0015066484834375,0.0015066511042194,-0.0015066493785029,0.0015066501721393,-0.0015066494746272,0.0015066500513076,-0.0015338156516798,0.0015338158991612,-0.0015338160952777,0.001533815694728,-0.0016058241192923,0.0016058283584201,-0.0016058270112365,0.0016058251484157,-0.0015338145158468,0.0015338170846301,-4.3492098303409e-10,-4.7907829308994e-11,-0.00093746865023948,0.00093746817509447,-5.2476473903549e-10,-7.3492231471232e-12,-0.00074618025787053,0.00074617993319829,-0.00068802580544488,0.0006880258225042,-0.00068802589171838,0.00068802574990846,-0.00074618004105897,0.00074617943679662,-0.00074618038656758,0.00074617900475911,-0.00068802606066228,0.00068802514750549,-0.00068802617506851,0.00068802490335833,-0.001199911216797,0.0011999105416228,-0.001199910857924,0.0011999103830179,-0.0011999111455481,0.0011999106742028,-0.0011999106510797,0.001199910493996,-0.0012084367787549,0.0012084368206482,-0.0012084369861109,0.0012084364542369,-0.0012084365145918,0.0012084353290729,-0.0012084359457619,0.0012084357120467,-0.00074617991636048,0.00074618029946519,0.73413663522055,128566,2924,0.0049413209441415,0.0065052768510012,0.0039009205377478,37.087099760751,4.0696798086009e-05,4.0696798086009e-05,4.0696798086009e-05,3765161.8933781,0.015468160304331
36591759,0.93505296943813,0.015659381156886,0.0051734972325977,0.006086617368441,0.004399266555847,-0.0011917741825142,0.001191777480264,1.8614804070807e-09,1.4280843787525e-09,2.8553321271517e-10,3.1625425733776e-09,-0.00041893562827526,0.00041894117253092,-0.0010894613783644,0.0010894678811105,-0.0010894616222939,0.0010894676544583,-0.00041893790683429,0.00041893839047021,-0.00041893792397524,0.00041893829221115,-0.0010894641948815,0.0010894648544283,-0.0010894641981558,0.0010894647930295,-0.001427173936794,0.0014271764178985,-0.0014271740870022,0.0014271762840976,-0.0014271728046184,0.0014271770526041,-0.0014271728970567,0.0014271768744464,-0.001232370204286,0.001232374934283,-0.0012323707161669,0.0012323744383867,-0.0012323712945908,0.0012323739272653,-0.0012323716331482,0.0012323735802971,-0.00041893488067752,0.00041894184958067,2.1914049089078e-09,-9.8561660432459e-10,7.9108040297789e-10,2.4430862618623e-10,-0.0015730672160703,0.0015730686193718,-0.0015392772056193,0.001539278779507,-0.00161231265993,0.0016123173438319,-0.0016123155918785,0.0016123140475253,-0.0015127299913075,0.0015127329166309,-0.0015127301281336,0.0015127327259923,-0.0015127310016999,0.0015127318299931,-0.001512731156176,0.0015127316472061,-0.001539277670177,0.0015392782334775,-0.001539278160549,0.0015392777526783,-0.0016123128585263,0.0016123171628457,-0.0016123158227861,0.0016123138943897,-0.0015392766990323,0.0015392794140308,-3.8910464841208e-10,-1.305119659527e-10,-0.00093986672120341,0.00093986622121716,-4.6616583913467e-10,-5.5007129921961e-11,-0.00074739989199595,0.0007473996992482,-0.00068888518533178,0.00068888505635555,-0.00068888516117206,0.00068888507141368,-0.00074739965064751,0.0007473992373415,-0.00074740014198365,0.00074739875554218,-0.00068888535729441,0.00068888461192071,-0.00068888548867739,0.00068888436977546,-0.0012039855362004,0.0012039848886633,-0.001203985190886,0.0012039847100204,-0.0012039854925602,0.0012039849986888,-0.0012039850463253,0.0012039847545921,-0.0012122034305566,0.0012122032052588,-0.0012122034950371,0.0012122030224484,-0.0012122031717545,0.0012122020621829,-0.0012122026871958,0.0012122023671063,-0.00074739980614727,0.00074739979761306,0.69114877716087,128566,2924,0.0049577264753617,0.006530876033076,0.0039109090062803,36.438348000787,3.55067840063e-05,3.55067840063e-05,3.55067840063e-05,3754826.2801875,0.015520983266366
36791759,0.93923674056429,0.015721368621969,0.005194223034491,0.0061118913289101,0.0044152542585683,-0.0011964325127705,0.0011964355832508,1.6720693052834e-09,1.3952165087551e-09,6.8006483998595e-10,2.53099922077e-09,-0.00041988162153441,0.00041988618375819,-0.0010932216709503,0.0010932268337328,-0.0010932217960445,0.0010932266605883,-0.00041988305294687,0.00041988443031594,-0.00041988312839339,0.00041988431775029,-0.0010932234372595,0.0010932248575809,-0.0010932234156038,0.0010932247875027,-0.001433140965319,0.0014331435130318,-0.0014331410853563,0.0014331434210584,-0.0014331401812597,0.0014331437986013,-0.0014331402140999,0.0014331437002394,-0.0012371476667157,0.0012371516347993,-0.0012371480057017,0.0012371513539639,-0.0012371483527075,0.0012371510113284,-0.0012371486059924,0.0012371507962648,-0.00041988110013156,0.00041988662407259,1.6628097949492e-09,-2.6905212134826e-10,8.2712578163984e-10,4.0036310794658e-10,-0.0015797039724963,0.0015797055700668,-0.0015451135455249,0.0015451150517214,-0.0016191822402226,0.0016191859116183,-0.0016191840383526,0.0016191838550912,-0.0015193955137376,0.0015193981935277,-0.0015193956343723,0.0015193980412916,-0.0015193961421848,0.0015193975151169,-0.0015193962347144,0.0015193973947327,-0.0015451137914081,0.001545114819038,-0.0015451140886809,0.001545114441133,-0.0016191824585472,0.0016191857191921,-0.0016191841439445,0.0016191837433877,-0.0015451131257973,0.0015451156072526,-4.5274757114172e-10,-2.9275478698339e-11,-0.0009431736017094,0.00094317314444345,-5.0652969171672e-10,4.5212173149329e-11,-0.00074979578376334,0.00074979560021163,-0.00069083162434673,0.00069083179119593,-0.00069083169036738,0.00069083173964989,-0.0007497957567554,0.00074979527355994,-0.00074979611522752,0.00074979470984935,-0.00069083202678173,0.00069083122638514,-0.00069083210768618,0.00069083093067081,-0.001208762660367,0.0012087619626282,-0.0012087622808367,0.0012087618143798,-0.0012087625750516,0.0012087621092839,-0.0012087620599898,0.0012087619290868,-0.0012166121026607,0.0012166121542381,-0.0012166123959757,0.0012166117836043,-0.0012166120917057,0.0012166108561561,-0.0012166115086284,0.0012166112954929,-0.00074979549306853,0.00074979592606391,0.6716277225801,128566,2924,0.0049770726695507,0.0065583244536306,0.003924664165911,36.394511568785,3.5156092550278e-05,3.5156092550278e-05,3.5156092550278e-05,3764448.1497534,0.015582495023069
36991759,0.94321544209858,0.015783756829532,0.0052149523358688,0.0061373692708532,0.0044314352228096,-0.001201600544179,0.0012016033332882,1.5722011784656e-09,1.2176514579661e-09,1.0950933707375e-09,1.8128883522111e-09,-0.00042165486007242,0.0004216578757611,-0.0010978454629659,0.0010978492481503,-0.0010978456348346,0.0010978490431089,-0.00042165507428907,0.00042165725633043,-0.00042165516138075,0.0004216571425383,-0.001097846131755,0.0010978483919258,-0.0010978461304137,0.0010978483139538,-0.0014395093837076,0.0014395120510296,-0.0014395095215015,0.0014395119381648,-0.0014395089644631,0.0014395119659187,-0.0014395090263401,0.0014395118340511,-0.0012425201899198,0.0012425236090408,-0.0012425206216399,0.0012425232262147,-0.0012425204933118,0.0012425233042249,-0.0012425207914672,0.0012425230245259,-0.00042165422512219,0.00042165842858674,1.2250639404905e-09,3.6055994949398e-10,9.3925240336616e-10,4.5555656253031e-10,-0.0015868132460565,0.001586815019983,-0.0015514894695674,0.0015514907288879,-0.0016264060867544,0.0016264088882222,-0.0016264068179563,0.0016264079156735,-0.0015265228001864,0.0015265253221025,-0.0015265229337713,0.0015265251535046,-0.0015265230834077,0.0015265250065591,-0.0015265232024988,0.0015265248593922,-0.0015514892738235,0.0015514908855356,-0.0015514896732875,0.0015514904656344,-0.0016264062933356,0.0016264086880595,-0.0016264069699003,0.0016264077698259,-0.0015514889844408,0.0015514912937898,-4.222280117841e-10,-6.7532444886047e-11,-0.00094708399231272,0.00094708352483109,-4.8896419401168e-10,8.7851721576239e-12,-0.00075313364893668,0.00075313347833417,-0.00069369731536477,0.00069369736501406,-0.0006936973500529,0.00069369734596854,-0.00075313352828793,0.00075313306523958,-0.00075313392516173,0.00075313254863818,-0.00069369761912742,0.00069369683987168,-0.000693697718663,0.00069369656855289,-0.001213961221433,0.0012139605524139,-0.0012139608534952,0.0012139603860213,-0.001213961154302,0.0012139606804686,-0.0012139606584112,0.0012139604728744,-0.0012216799797441,0.0012216799318472,-0.0012216802140165,0.0012216796487791,-0.0012216799644393,0.0012216788153935,-0.0012216794501631,0.0012216791934203,-0.00075313342457422,0.00075313368745888,0.71099831263805,128566,2924,0.0049985297072452,0.0065877286322093,0.0039409212624917,36.657493190245,3.7259945521957e-05,3.7259945521957e-05,3.7259945521957e-05,3780707.4199688,0.01565067806139
37191759,0.94709791002256,0.015848291187312,0.0052362585873036,0.006163798037152,0.0044482345628568,-0.0012077368947262,0.0012077394454631,1.4360038425536e-09,1.1239106338604e-09,1.4569861259857e-09,1.1920575962822e-09,-0.00042376668346332,0.00042376854297576,-0.0011036974703405,0.0011036999937358,-0.0011036975938343,0.0011036997982357,-0.00042376600123154,0.00042376891174543,-0.00042376607614506,0.00042376880463457,-0.0011036971802701,0.0011037001383156,-0.0011036971559132,0.0011037000639888,-0.0014468783856592,0.0014468811245752,-0.0014468785082564,0.0014468810255628,-0.0014468782887485,0.0014468807280485,-0.0014468783421225,0.0014468806165599,-0.0012490670758058,0.0012490699305971,-0.0012490675033601,0.0012490696051456,-0.0012490670377401,0.0012490698981685,-0.0012490672902961,0.0012490696610391,-0.00042376611323876,0.00042376904445622,7.8708704520752e-10,9.7243437579733e-10,9.9807419822423e-10,5.7314745944442e-10,-0.0015951982535884,0.001595200206256,-0.001559224748073,0.0015592259088946,-0.0016349676672705,0.0016349696084878,-0.0016349674196762,0.0016349697376538,-0.0015347248855212,0.0015347272091876,-0.0015347250089795,0.001534727065227,-0.00153472484191,0.0015347272514657,-0.0015347249367244,0.0015347271285523,-0.0015592243005386,0.0015592263880233,-0.0015592246009852,0.0015592259994248,-0.0016349678904804,0.0016349694594458,-0.0016349675303218,0.0016349696147483,-0.0015592243345146,0.0015592264447175,-4.4629055381415e-10,-3.9324304868009e-11,-0.00095182393322129,0.00095182347327423,-5.0180805400179e-10,3.6991745656423e-11,-0.00075722878074853,0.00075722860339047,-0.00069749381092196,0.00069749395618234,-0.00069749386912656,0.00069749392130691,-0.00075722873124423,0.00075722825123882,-0.00075722910138075,0.00075722770556576,-0.00069749419583681,0.00069749341038127,-0.00069749428219053,0.00069749312277391,-0.0012201482822503,0.0012201475941594,-0.0012201479037251,0.0012201474336093,-0.0012201482012975,0.0012201477336802,-0.0012201476814637,0.0012201475394998,-0.001227944129423,0.0012279441576064,-0.0012279445037721,0.0012279438251953,-0.0012279442822527,0.0012279431141909,-0.0012279437598193,0.0012279435310608,-0.00075722848914405,0.00075722887482538,0.75399799050661,128566,2924,0.0050240133404532,0.0066224058353275,0.003960625885335,37.434875196087,4.3479001568693e-05,4.3479001568693e-05,4.3479001568693e-05,3791623.9784301,0.01573181771012
37391759,0.95080855522058,0.015907330317966,0.0052558157845095,0.0061879798038592,0.0044635347295975,-0.0012128664401353,0.0012128690123354,1.4740573721621e-09,1.1068246762218e-09,1.4063084965937e-09,1.2661190598436e-09,-0.00042444426436896,0.00042444619250853,-0.0011082657088207,0.0011082684139176,-0.0011082658828285,0.0011082682104506,-0.00042444360582878,0.00042444642241509,-0.00042444370667519,0.00042444629747224,-0.0011082655302792,0.001108268421041,-0.0011082655491313,0.0011082683396818,-0.0014533001121946,0.0014533028456071,-0.0014533002440428,0.0014533027288593,-0.0014532999707192,0.001453302498118,-0.0014533000446255,0.0014533023600325,-0.0012545824505764,0.0012545854405041,-0.0012545829321125,0.0012545850300878,-0.0012545824542916,0.001254585317152,-0.0012545827138928,0.0012545850210643,-0.00042444361121073,0.0004244467541416,8.6703222811353e-10,8.457800125306e-10,9.8612654656973e-10,5.0314641139898e-10,-0.0016026224633726,0.0016026243760207,-0.0015660596737733,0.001566060724024,-0.0016427107138932,0.0016427128162946,-0.001642710606104,0.0016427127279795,-0.0015418755778472,0.001541877974069,-0.0015418757171756,0.0015418778186159,-0.0015418755956015,0.0015418779536222,-0.0015418757148803,0.0015418778104903,-0.0015660591378615,0.0015660610845774,-0.0015660596125884,0.0015660607296075,-0.0016427108921148,0.0016427126284978,-0.0016427107599104,0.0016427125668772,-0.0015660590916059,0.0015660611845592,-4.2645373180235e-10,-6.7038960141815e-11,-0.00095551352789419,0.00095551304888923,-4.9271539813556e-10,-2.2624019994182e-11,-0.00075981533589568,0.00075981509107965,-0.00069996605350314,0.00069996603132633,-0.00069996610567091,0.00069996600429598,-0.00075981511410029,0.00075981464240515,-0.00075981552008459,0.0007598141470314,-0.00069996626565535,0.00069996545883111,-0.0006999663901083,0.00069996519562659,-0.0012254699247447,0.0012254692627899,-0.0012254695642655,0.0012254690733885,-0.0012254698600561,0.0012254693894904,-0.0012254693589441,0.0012254691610709,-0.0012331380792554,0.0012331380366815,-0.0012331384234024,0.0012331377586512,-0.0012331382126498,0.0012331371313801,-0.0012331377479642,0.0012331375051025,-0.000759815073387,0.00075981531495474,0.72209868148953,128566,2924,0.00504532784557,0.0066531037426674,0.0039759740483758,37.881687828795,4.7053502630362e-05,4.7053502630362e-05,4.7053502630362e-05,3787460.7300599,0.015800266477142
37591759,0.95427552101166,0.015960308568694,0.0052734353827451,0.0062096489156512,0.0044772242702979,-0.0012169072714439,0.0012169100495847,1.5719186948746e-09,1.2127937796443e-09,1.0498527717185e-09,1.8420319935988e-09,-0.00042486588679108,0.0004248689714373,-0.0011116528327809,0.0011116566673521,-0.0011116530043291,0.0011116564763452,-0.00042486615212577,0.00042486827263478,-0.00042486625901186,0.00042486813137851,-0.0011116535665134,0.0011116557571047,-0.0011116535918722,0.0011116556762038,-0.0014584935224039,0.0014584961496521,-0.0014584936513325,0.001458496032204,-0.0014584930760697,0.0014584961081097,-0.0014584931430932,0.0014584959721057,-0.0012588419243159,0.0012588454239833,-0.0012588423931896,0.0012588450203886,-0.0012588422266914,0.0012588449699445,-0.0012588424708867,0.0012588446686913,-0.00042486524853879,0.00042486951308491,1.2528546022695e-09,3.1954406891274e-10,9.1067833504904e-10,4.4354257343178e-10,-0.001608570700751,0.0016085724847187,-0.0015714066395845,0.0015714078556498,-0.0016488971894003,0.0016489000577075,-0.0016488979738114,0.0016488990550154,-0.0015477204474526,0.0015477230150409,-0.0015477205810041,0.0015477228634768,-0.0015477207581868,0.0015477226885678,-0.0015477208685898,0.001547722553402,-0.0015714064094687,0.0015714078907427,-0.0015714068678624,0.0015714075620274,-0.0016488973694121,0.0016488998792629,-0.0016488981164703,0.0016488989103688,-0.0015714060583179,0.0015714083011653,-4.3451886261127e-10,-5.8168213993638e-11,-0.00095831668836918,0.0009583162091721,-5.0579731447177e-10,-1.4544610652827e-11,-0.000761685042223,0.00076168477048033,-0.00070161586476266,0.0007016158693917,-0.00070161592684766,0.00070161582748718,-0.00076168481074753,0.00076168430901635,-0.00076168522427358,0.00076168382332207,-0.0007016160952953,0.00070161525739899,-0.0007016162206223,0.00070161499679591,-0.0012296659665931,0.0012296652975223,-0.0012296655961479,0.0012296651058704,-0.0012296659011138,0.0012296654289202,-0.0012296653825566,0.0012296652019986,-0.0012370910807812,0.0012370910699289,-0.0012370914567108,0.0012370907623937,-0.0012370912446599,0.0012370901514441,-0.0012370907749703,0.0012370905366185,-0.0007616847523223,0.00076168504223466,0.69345800520066,128566,2924,0.0050621166384059,0.0066776978212791,0.0039876377337028,37.934393082723,4.7475144661788e-05,4.7475144661788e-05,4.7475144661788e-05,3786583.8511048,0.015854173631545
37791759,0.95742530742199,0.016006780510467,0.0052889412631974,0.0062286295314116,0.0044892097158583,-0.0012195588216407,0.0012195619034893,1.7208732639589e-09,1.3602599521687e-09,5.7282607955647e-10,2.6499740024368e-09,-0.00042476461763341,0.00042476926491351,-0.0011136260178771,0.0011136314676837,-0.0011136262154911,0.0011136312735967,-0.00042476610929771,0.00042476728963028,-0.00042476623084493,0.00042476715675219,-0.0011136279988294,0.0011136292594989,-0.0011136280426395,0.0011136291762365,-0.0014621330512234,0.0014621355499859,-0.0014621331803335,0.0014621354323241,-0.0014621321879291,0.0014621359338953,-0.0014621322517105,0.0014621357956854,-0.0012615709638841,0.0012615751658214,-0.0012615714089395,0.001261574746272,-0.0012615716768963,0.0012615742895998,-0.001261571917444,0.001261573983747,-0.00042476393400184,0.00042476982615888,1.7830972914841e-09,-4.3603538859466e-10,7.9868499072177e-10,3.2659866898779e-10,-0.0016127084270935,0.0016127100005062,-0.0015749593183633,0.0015749607271655,-0.0016531776231911,0.0016531815394793,-0.0016531796191971,0.0016531792150576,-0.0015519014352441,0.0015519042393879,-0.0015519015671898,0.0015519040878753,-0.0015519021494179,0.0015519034810916,-0.0015519022626363,0.0015519033448263,-0.0015749594713437,0.0015749602705256,-0.0015749599921851,0.0015749599782891,-0.0016531777661969,0.0016531813227552,-0.0016531797690695,0.0016531790469241,-0.0015749586740828,0.0015749611037292,-4.3124860536408e-10,-4.8519656426919e-11,-0.00095997962930508,0.00095997915771832,-5.2041919974002e-10,-5.001202839848e-12,-0.00076264824315261,0.00076264801964935,-0.00070225552247058,0.00070225552261847,-0.00070225558393004,0.00070225548179993,-0.00076264802858322,0.00076264751192347,-0.00076264843642525,0.00076264700528089,-0.000702255729846,0.00070225485363802,-0.0007022558652537,0.00070225458090942,-0.0012324221087292,0.001232421438005,-0.0012324217239823,0.0012324212495762,-0.0012324220411697,0.0012324215748855,-0.0012324215110642,0.0012324213499452,-0.001239543839287,0.0012395438563286,-0.0012395441779979,0.0012395435377236,-0.0012395439957201,0.0012395428886658,-0.0012395435114164,0.0012395432936238,-0.00076264798358437,0.00076264829191997,0.66962302614288,128566,2924,0.0050731329193748,0.0066948052591782,0.0039945627463102,37.460677484337,4.3685419874698e-05,4.3685419874698e-05,4.3685419874698e-05,3785620.1825165,0.015889793645048
37991759,0.96020724061827,0.016049063324163,0.0053030034584336,0.0062459030547521,0.0045001568109768,-0.0012208537148368,0.0012208570871556,1.8672427263547e-09,1.4996169820835e-09,1.3182546588133e-10,3.4008399358803e-09,-0.00042415903751648,0.0004241651477334,-0.0011144554336407,0.0011144623726167,-0.0011144556454331,0.001114462182317,-0.00042416169792925,0.00042416197575058,-0.00042416180326065,0.00042416184704053,-0.0011144585953925,0.0011144589872392,-0.001114458643209,0.0011144589098467,-0.0014641835229657,0.0014641859142758,-0.0014641836497045,0.001464185794385,-0.0014641822800534,0.0014641867091334,-0.0014641823475585,0.0014641865638319,-0.0012628846195267,0.0012628895204067,-0.0012628850728913,0.0012628890839123,-0.0012628856932056,0.0012628881787622,-0.0012628859202209,0.0012628878636577,-0.00042415834003086,0.00042416572169808,2.2809276348147e-09,-1.1470429271554e-09,7.1355766253851e-10,2.1867567225538e-10,-0.0016151174282748,0.0016151188097737,-0.0015768703588667,0.001576871942088,-0.0016555942017863,0.0016555991214926,-0.0016555973610465,0.0016555955838624,-0.0015544376813711,0.0015544406971725,-0.0015544378175575,0.0015544405357295,-0.0015544387781964,0.0015544395334958,-0.0015544389013261,0.0015544393864165,-0.0015768708758326,0.0015768711006137,-0.0015768714260276,0.0015768707888455,-0.0016555943506561,0.0016555989097749,-0.0016555975297401,0.0016555954149055,-0.0015768696970993,0.0015768723382047,-4.3072917578911e-10,-4.6353673945462e-11,-0.00096053009846066,0.00096052962863038,-5.2762880700157e-10,2.0254909810968e-13,-0.00076286827522925,0.00076286805677588,-0.00070206476777715,0.00070206477634241,-0.00070206482380043,0.00070206472986044,-0.00076286804934145,0.00076286753151565,-0.00076286849217139,0.0007628670193841,-0.00070206497544193,0.00070206408349139,-0.00070206511992802,0.00070206381289978,-0.0012337061311589,0.0012337054596701,-0.0012337057361742,0.0012337052689665,-0.0012337060646464,0.0012337055996937,-0.0012337055251584,0.0012337053697515,-0.0012406529061064,0.0012406529328615,-0.0012406532360968,0.0012406526047701,-0.0012406531215914,0.0012406520191465,-0.0012406526472366,0.0012406524302273,-0.00076286802634126,0.00076286834005491,0.68978729225347,128566,2924,0.0050785132097564,0.0067047646650901,0.0039968641424376,36.424711294489,3.5397690355916e-05,3.5397690355916e-05,3.5397690355916e-05,3781069.6260199,0.015907722831496
38191759,0.96273889034047,0.016087893164974,0.0053158987198522,0.0062617644893151,0.0045102299558071,-0.0012227729022826,0.0012227762245454,1.8449833775684e-09,1.4727568238488e-09,2.5411413913454e-10,3.2194305731941e-09,-0.00042399816827275,0.00042400394230186,-0.0011159808250247,0.001115987382265,-0.0011159809886323,0.0011159871705084,-0.00042400061006232,0.00042400112642936,-0.00042400070483077,0.00042400099503221,-0.0011159837224092,0.0011159843251567,-0.0011159837227696,0.0011159842425018,-0.0014668473212156,0.0014668497633813,-0.0014668474560381,0.0014668496458732,-0.0014668461943446,0.0014668504785503,-0.0014668462712161,0.0014668503398581,-0.001264905485226,0.0012649102433919,-0.0012649059811254,0.001264909844791,-0.0012649064509872,0.0012649090148243,-0.0012649067372624,0.0012649087208998,-0.00042399751738482,0.00042400451197145,2.1776640108005e-09,-9.3859109898032e-10,7.8606237645162e-10,2.8923695765654e-10,-0.001618206607538,0.0016182080739785,-0.0015795160967973,0.0015795177724542,-0.0016587594101665,0.0016587641391576,-0.0016587623299464,0.0016587609337551,-0.0015575505958805,0.0015575535462954,-0.0015575507345518,0.0015575533777608,-0.0015575515958171,0.0015575524810889,-0.0015575517178831,0.0015575523322096,-0.0015795166433837,0.0015795171967829,-0.00157951704356,0.0015795167436698,-0.001658759628904,0.0016587639607744,-0.0016587624821898,0.0016587607912975,-0.0015795156213214,0.0015795183700432,-4.3667351500624e-10,-4.5234995186506e-11,-0.00096170255340537,0.00096170209396073,-4.996524776482e-10,3.2177125572482e-11,-0.00076365857759329,0.00076365839706428,-0.00070255673627318,0.00070255685738492,-0.00070255677845608,0.00070255681797892,-0.000763658478864,0.00076365801400901,-0.00076365889093186,0.00076365747403387,-0.0007025570824351,0.00070255629430363,-0.00070255718143905,0.00070255601049368,-0.001235652172548,0.001235651497016,-0.0012356517741089,0.001235651304743,-0.0012356521049209,0.0012356516367338,-0.0012356515580413,0.0012356514075298,-0.001242478376605,0.0012424783910351,-0.0012424787292467,0.0012424780591361,-0.0012424786292729,0.0012424774912774,-0.0012424781422652,0.0012424779071047,-0.00076365832109946,0.00076365868139543,0.69608026143265,128566,2924,0.0050864865263653,0.0067175374061776,0.0040017476172847,35.892194697313,3.1137557578503e-05,3.1137557578503e-05,3.1137557578503e-05,3777388.9150173,0.015933770493399
38391759,0.965472086673,0.016131797178471,0.0053304074275642,0.0062797269587023,0.004521662792205,-0.0012308868341057,0.0012308892444583,1.400310732836e-09,1.0185449099463e-09,1.7485632022121e-09,7.3643013406491e-10,-0.00042878371066674,0.00042878453965574,-0.0011238790556765,0.0011238806835722,-0.0011238791521795,0.0011238803986499,-0.00042878242905822,0.00042878581432069,-0.00042878238176971,0.00042878575952356,-0.0011238781820362,0.0011238816163702,-0.0011238780217026,0.0011238815665177,-0.0014760218543922,0.0014760247073157,-0.0014760219977456,0.001476024605722,-0.0014760220283975,0.0014760241226473,-0.0014760221299218,0.0014760239856679,-0.0012734539706328,0.0012734565783029,-0.0012734545956559,0.0012734562394591,-0.0012734536368313,0.0012734566656767,-0.0012734540284153,0.00127345644462,-0.00042878306806041,0.00042878521331073,5.6021378644161e-10,1.4799225550289e-09,1.1898532497411e-09,7.8936843533615e-10,-0.001628239449598,0.0016282416618169,-0.001588916274848,0.0015889177752855,-0.0016690233999104,0.0016690249133993,-0.0016690225649257,0.0016690258614079,-0.0015673974759316,0.001567399676167,-0.0015673975665309,0.0015673995146969,-0.0015673971845524,0.0015673999527783,-0.0015673972807767,0.0015673998119848,-0.0015889159654528,0.0015889189548673,-0.001588915834213,0.0015889181657201,-0.0016690237833049,0.0016690249313792,-0.001669022684948,0.0016690258263272,-0.0015889164848983,0.001588918840581,-4.6273488358616e-10,-6.3443264399616e-11,-0.0009687162367818,0.00096871578118063,-4.2461246748996e-10,9.2028550244454e-11,-0.00077019828745962,0.00077019826666536,-0.00070896104716872,0.0007089613957574,-0.00070896101041509,0.00070896141584315,-0.00077019850929022,0.00077019824854149,-0.00077019894823911,0.0007701975781665,-0.00070896171635202,0.00070896122940942,-0.00070896172233496,0.00070896090766514,-0.00124391952332,0.0012439188172909,-0.0012439191202717,0.0012439186312575,-0.0012439194414328,0.0012439189650691,-0.0012439189055248,0.0012439187207714,-0.0012507684238322,0.0012507683214542,-0.0012507688009738,0.0012507680245189,-0.0012507687411394,0.0012507674521527,-0.0012507681778599,0.0012507678882072,-0.00077019813304139,0.00077019842780436,0.72890351136345,128566,2924,0.0051201648394404,0.0067590305220404,0.004030881542222,38.578482579522,5.2627860636177e-05,5.2627860636177e-05,5.2627860636177e-05,3817493.1038641,0.016039764252899
38591759,0.9681622680795,0.016175675002377,0.0053448716311945,0.0062977387746119,0.0045330645965709,-0.0012361277603171,0.0012361301105521,1.3585854199127e-09,1.0026137188979e-09,1.8319718847517e-09,6.1260123233521e-10,-0.00043046589356266,0.00043046650532477,-0.0011288043293216,0.0011288057537909,-0.0011288045135692,0.0011288055404166,-0.00043046410634093,0.00043046790373407,-0.00043046432212792,0.00043046773559257,-0.0011288030930058,0.0011288068518529,-0.0011288031446346,0.0011288067517461,-0.0014823006692156,0.0014823035148615,-0.0014823007940816,0.0014823034047421,-0.0014823009038687,0.0014823028532268,-0.0014823009760758,0.0014823027279868,-0.0012791003015282,0.0012791026963919,-0.001279100763073,0.0012791022934744,-0.0012790998392766,0.001279102827365,-0.001279100076222,0.0012791025399261,-0.00043046516767286,0.00043046708921542,3.1854568841258e-10,1.6074168644593e-09,9.5314634679808e-10,7.0728366908706e-10,-0.0016353863324802,0.0016353884544211,-0.0015955732632178,0.0015955742930833,-0.0016764151366078,0.0016764161156133,-0.0016764137467981,0.0016764173532008,-0.0015743023518697,0.0015743044681932,-0.0015743024193811,0.0015743043944517,-0.0015743019484509,0.0015743048886149,-0.0015743019819887,0.0015743048264715,-0.0015955724996845,0.0015955747671966,-0.0015955727961959,0.0015955746886129,-0.0016764152158455,0.0016764159788999,-0.0016764137879881,0.0016764172166919,-0.0015955727931341,0.0015955743873179,-4.3313075650432e-10,-1.0573102285748e-11,-0.00097284919060777,0.00097284876118084,-5.7020954110298e-10,9.0132773614092e-11,-0.00077352927655453,0.0007735292406551,-0.00071229243347933,0.00071229262339644,-0.00071229250966288,0.00071229259969554,-0.00077352925170667,0.0007735286006591,-0.00077352958067118,0.00077352807510775,-0.00071229278468655,0.00071229181502255,-0.0007122928945654,0.00071229151912887,-0.0012493594490354,0.0012493587562841,-0.0012493590073327,0.0012493585954878,-0.0012493593679561,0.0012493589027416,-0.0012493587672721,0.0012493587117968,-0.0012561483882272,0.0012561485343945,-0.0012561488143653,0.0012561481983806,-0.0012561487997298,0.0012561476788375,-0.0012561483222993,0.0012561481266085,-0.00077352898952775,0.00077352948420299,0.74097076166672,128566,2924,0.0051419325727321,0.0067885798971076,0.0040480623740495,39.723633999844,6.178907199875e-05,6.178907199875e-05,6.178907199875e-05,3825351.257953,0.016109385062288
38791759,0.97065031891379,0.016216355064584,0.005358279316499,0.0063144490147353,0.0045436267333498,-0.0012390819890431,0.0012390847320349,1.5436632422505e-09,1.2060976875435e-09,1.1764100165992e-09,1.6842944127265e-09,-0.00043028798889727,0.00043029084602702,-0.0011314554071764,0.0011314589044552,-0.0011314555528726,0.0011314587376506,-0.00043028796208807,0.00043029046171266,-0.0004302882169332,0.00043029022875436,-0.0011314558420233,0.0011314583331941,-0.0011314559151696,0.0011314582066345,-0.0014861317023722,0.0014861343726628,-0.0014861318301932,0.001486134256547,-0.0014861313935034,0.0014861342821667,-0.0014861314476775,0.0014861341718688,-0.0012823674171574,0.0012823707216641,-0.0012823678219918,0.0012823703698932,-0.0012823674915052,0.0012823702993871,-0.0012823677401497,0.0012823699896722,-0.0004302874303906,0.00043029131092869,1.0143980427773e-09,6.6670951436434e-10,8.253163920331e-10,6.0987490344622e-10,-0.0016399861249419,0.0016399880143493,-0.0015997956357372,0.0015997969764804,-0.0016812252284024,0.001681227608142,-0.001681225462219,0.0016812271671867,-0.0015786927969865,0.0015786952187558,-0.0015786928711261,0.0015786951406086,-0.0015786929283551,0.0015786950803453,-0.001578692948276,0.0015786950364946,-0.00159979544183,0.0015997968719005,-0.0015997956659323,0.0015997968572506,-0.0016812253407775,0.0016812274549946,-0.0016812254715276,0.0016812270858606,-0.0015997951849532,0.0015997970892934,-4.3294749091747e-10,1.7508844859455e-11,-0.00097480181306135,0.00097480140736147,-6.1285936130984e-10,1.6300460304002e-10,-0.00077471289576404,0.00077471288810604,-0.00071345576144551,0.00071345614363624,-0.00071345587399625,0.00071345606663171,-0.00077471297788293,0.00077471218964128,-0.00077471325926412,0.00077471174116537,-0.00071345627442731,0.00071345519952027,-0.00071345637055661,0.00071345493962789,-0.0012524562540706,0.0012524555519495,-0.0012524557833287,0.0012524554127666,-0.0012524561767991,0.0012524556978229,-0.0012524555251811,0.0012524555517894,-0.0012591861937129,0.0012591864728088,-0.0012591866750837,0.0012591860623732,-0.0012591866872194,0.001259185557997,-0.0012591862165971,0.0012591859981337,-0.00077471249531386,0.00077471327567174,0.7428865536037,128566,2924,0.0051542143564692,0.0068075923565331,0.0040561925450755,39.754655497396,6.2037243979165e-05,6.2037243979165e-05,6.2037243979165e-05,3813349.9216802,0.016149463902221
38880000,0.97170922134943,0.016233695912345,0.0053639957897241,0.0063215684654575,0.0045481316571635,-0.0012403005411973,0.0012403034358028,1.6139933491699e-09,1.2835312335607e-09,9.2410182526474e-10,2.0935325716346e-09,-0.00043013010031891,0.00043013383540293,-0.0011325593345646,0.0011325636086732,-0.0011325594445937,0.0011325634604724,-0.00043013079873933,0.0004301327444264,-0.00043013102119368,0.00043013252934778,-0.0011325604274232,0.0011325624053702,-0.0011325604751352,0.001132562277225,-0.0014877311581329,0.001487733766381,-0.0014877312898568,0.0014877336486461,-0.0014877306456323,0.0014877338974306,-0.0014877306974359,0.0014877337910073,-0.0012837248705245,0.0012837285338832,-0.00128372527753,0.0012837282181919,-0.0012837251562304,0.0012837278968355,-0.0012837254317765,0.0012837275931672,-0.00043012964180614,0.00043013423921608,1.3226156655875e-09,2.7474245092436e-10,8.1965953431681e-10,5.715831299395e-10,-0.0016419404555382,0.0016419422639544,-0.0016015540685563,0.0016015555689155,-0.0016832702429475,0.0016832732609269,-0.0016832711877137,0.0016832721000062,-0.0015805628330038,0.0015805653965379,-0.0015805629186435,0.0015805652911831,-0.0015805631906264,0.0015805650125199,-0.0015805632252257,0.0015805649551924,-0.0016015541436373,0.0016015553767725,-0.0016015542924895,0.0016015552657626,-0.0016832704140239,0.0016832731082592,-0.0016832712151954,0.0016832720605129,-0.0016015537262981,0.0016015558825516,-4.4390572392051e-10,1.9393153736289e-11,-0.00097556386347372,0.00097556345734985,-5.9949282833483e-10,1.7736548772191e-10,-0.00077514191092157,0.00077514183757686,-0.00071388742537728,0.00071388788967442,-0.00071388754316048,0.00071388778312054,-0.00077514198572188,0.00077514122173646,-0.00077514229575204,0.00077514078240626,-0.00071388802098686,0.00071388699561238,-0.00071388810572643,0.00071388674857592,-0.0012537454713082,0.0012537447668011,-0.0012537450025698,0.0012537446184057,-0.0012537453974921,0.0012537449129793,-0.0012537447391245,0.0012537447637404,-0.0012604441344165,0.0012604444235098,-0.0012604446407095,0.0012604439780315,-0.0012604446591249,0.0012604435031118,-0.0012604441781208,0.0012604439352302,-0.00077514144339223,0.00077514231476807,0.74370269973152,128566,2924,0.0051592814779882,0.0068156686846682,0.0040593679095695,39.755875166472,6.204700133178e-05,6.204700133178e-05,6.204700133178e-05,3806081.5053742,0.016166054645016
