time,ASR_ext,ASR_strain,ASR_strain_xx,ASR_strain_yy,ASR_strain_zz,disp_x_101,disp_x_102,disp_x_103,disp_x_104,disp_x_105,disp_x_106,disp_x_p1_neg,disp_x_p1_pos,disp_x_p2_neg,disp_x_p2_pos,disp_x_p3_neg,disp_x_p3_pos,disp_x_p4_neg,disp_x_p4_pos,disp_x_p5_neg,disp_x_p5_pos,disp_x_p6_neg,disp_x_p6_pos,disp_y_101,disp_y_102,disp_y_103,disp_y_104,disp_y_105,disp_y_106,disp_y_p1_neg,disp_y_p1_pos,disp_y_p2_neg,disp_y_p2_pos,disp_y_p3_neg,disp_y_p3_pos,disp_y_p4_neg,disp_y_p4_pos,disp_y_p5_neg,disp_y_p5_pos,disp_y_p6_neg,disp_y_p6_pos,disp_y_p7_neg,disp_y_p7_pos,disp_y_p8_neg,disp_y_p8_pos,disp_z_101,disp_z_102,disp_z_103,disp_z_104,disp_z_105,disp_z_106,disp_z_p1_neg,disp_z_p1_pos,disp_z_p2_neg,disp_z_p2_pos,disp_z_p3_neg,disp_z_p3_pos,disp_z_p4_neg,disp_z_p4_pos,disp_z_p5_neg,disp_z_p5_pos,disp_z_p6_neg,disp_z_p6_pos,humidity,ndof,nelem,strain_xx,strain_yy,strain_zz,temp,thermal_strain_xx,thermal_strain_yy,thermal_strain_zz,vonmises,vstrain
2419200,0,0,0,0,0,0,0,0,0,0,0,0,0,0,0,0,0,0,0,0,0,0,0,0,0,0,0,0,0,0,0,0,0,0,0,0,0,0,0,0,0,0,0,0,0,0,0,0,0,0,0,0,0,0,0,0,0,0,0,0,0,0,0,0,0,0,0,0,0,0,0,0,0,0,0
2619200,0.021291338171685,0.00043648214133172,0.00014549404711057,0.00014549404711057,0.00014549404711057,-4.0027460626457e-05,4.0029102960978e-05,8.1605884035781e-10,8.2357063486801e-10,-2.1887695254388e-09,3.9189010488623e-09,-4.0050871918616e-05,4.0050503554215e-05,-4.0050836575794e-05,4.0050469997974e-05,-4.0048944660038e-05,4.0052550058659e-05,-4.0048907310736e-05,4.0052520214355e-05,-4.0268094615466e-05,4.027179010825e-05,-4.0268015567892e-05,4.0271723886755e-05,-9.7247369369729e-10,1.9900568102334e-09,-3.8979745808574e-10,1.3747478844473e-09,-4.1425275488075e-05,4.1426257273477e-05,-4.1237436105581e-05,4.1236874788147e-05,-4.1236857076946e-05,4.123744675615e-05,-4.1236513062628e-05,4.1237870944866e-05,-4.1235932713138e-05,4.1238447241991e-05,-4.1286885834965e-05,4.1287163706282e-05,-4.1285155967643e-05,4.1288899100748e-05,-4.159959560495e-05,4.1598238912723e-05,-4.1596732062731e-05,4.1601236694002e-05,-9.907318936771e-10,-9.8772373131564e-10,-3.8601012732341e-05,3.8599024034528e-05,3.3409415570729e-09,-5.4684930212096e-09,-3.8782164115323e-05,3.8783128409106e-05,-3.8785101233993e-05,3.8780225733367e-05,-3.8782183090305e-05,3.8783146212693e-05,-3.8785140280095e-05,3.878026926507e-05,-3.9503273159975e-05,3.9498355938795e-05,-3.9503149123345e-05,3.9498228024852e-05,0.81993057478472,128566,2924,0.00016677057219457,0.00017259242422909,0.00016082050182799,32.690712054442,2.3925696435539e-05,2.3925696435539e-05,2.3925696435539e-05,461986.14616112,0.00050030869329543
2819200,0.04323270990657,0.00088047255283892,0.00029416645408297,0.00029653885470568,0.00028976724405026,-7.5555230281423e-05,7.5555005827821e-05,-7.0776423125502e-11,-1.6853063400917e-10,-4.3352296242843e-10,1.853330469269e-10,-7.5979123027032e-05,7.5978994534597e-05,-7.5979129424949e-05,7.5978918933449e-05,-7.5979189922193e-05,7.5979002595647e-05,-7.5979166394085e-05,7.5978932196379e-05,-7.5881393763044e-05,7.5881394557448e-05,-7.588142411194e-05,7.5881277433837e-05,-2.5593876439349e-10,-8.5888598066697e-11,-2.0314042916257e-09,1.7050975672081e-09,-7.8867263149382e-05,7.886694044775e-05,-7.8637655500104e-05,7.8636235091967e-05,-7.8636487969956e-05,7.8637454431285e-05,-7.8637732938945e-05,7.8636135741735e-05,-7.8636550231109e-05,7.8637371564905e-05,-7.8316321941242e-05,7.8312204628776e-05,-7.8312626167281e-05,7.8315968032918e-05,-7.9157140740029e-05,7.9157968666278e-05,-7.915709354833e-05,7.9158078460943e-05,-7.2363920419898e-10,-8.2573915745838e-10,-7.1851762592881e-05,7.1850195858387e-05,3.9186433757744e-09,-5.6255727742086e-09,-7.2603969502948e-05,7.260559821539e-05,-7.2607082068596e-05,7.2602427461352e-05,-7.2603982667011e-05,7.2605525472551e-05,-7.2607192048389e-05,7.2602487867653e-05,-7.391511153041e-05,7.3910323608058e-05,-7.3915007805706e-05,7.3910375818333e-05,0.82138593484618,128566,2924,0.00031476334458556,0.00032855875534661,0.00029933450811073,32.940634581434,2.5925076651476e-05,2.5925076651476e-05,2.5925076651476e-05,764936.55674529,0.00094310139935676
3019200,0.065281959321467,0.0013210661774786,0.00044169137230354,0.00044984287080001,0.00042953193437507,-0.00011012607663039,0.00011012544877789,-2.6654045100385e-10,-3.6917516864964e-10,2.9655552674426e-10,-9.6463122322975e-10,-0.00011114000763829,0.00011114003753789,-0.0001111400268823,0.0001111399701934,-0.00011114061783735,0.00011113946309479,-0.00011114059991505,0.00011113938993948,-0.00011043398874386,0.00011043300862373,-0.00011043404537451,0.00011043290204083,-1.9140167308601e-10,7.0524486650343e-11,-2.6236792989462e-09,2.5094521842451e-09,-0.00011622405389662,0.00011622394643504,-0.00011607671031053,0.00011607504721587,-0.00011607513558739,0.00011607669554653,-0.00011607675079358,0.00011607499128424,-0.00011607516426776,0.00011607665195446,-0.00011496501508874,0.00011495978998587,-0.00011495998820463,0.00011496493205621,-0.00011653360712545,0.00011653496443177,-0.00011653341060924,0.00011653521201544,-4.8903147074089e-10,-5.9583457478176e-10,-0.00010340092721817,0.00010339982815198,3.8460493660194e-09,-5.0806578718567e-09,-0.00010495627230078,0.00010495818579006,-0.00010495921037563,0.00010495521215222,-0.00010495629957178,0.00010495812144177,-0.00010495928653312,0.0001049552351787,-0.00010681450422364,0.00010681036563963,-0.00010681442967832,0.00010681045614072,0.82013449043933,128566,2924,0.00045875185434372,0.00048414892597401,0.0004307429410639,32.856875676302,2.5255005410415e-05,2.5255005410415e-05,2.5255005410415e-05,1040037.5263076,0.0013745885165148
3219200,0.086664781065931,0.0017372700742867,0.00058084686800438,0.00059779458100827,0.00055862862527405,-0.00014175962540652,0.00014175900915563,-3.1747274891051e-10,-3.0087284373026e-10,4.6132051787351e-10,-1.1210426000798e-09,-0.00014367735351906,0.00014367744515082,-0.00014367733232926,0.00014367743778484,-0.00014367805121468,0.0001436767716341,-0.00014367801541022,0.0001436767370415,-0.0001417664354682,0.00014176529732476,-0.00014176643095909,0.00014176529676064,-5.5638754016904e-10,8.7300932377471e-10,-2.795840327703e-09,3.0999796347354e-09,-0.00015135221946063,0.00015135253246821,-0.00015159490117749,0.00015159302641144,-0.00015159305905488,0.00015159494769227,-0.0001515945864952,0.00015159335573762,-0.00015159275471108,0.00015159526646389,-0.00014893136846604,0.00014892624714628,-0.00014892564383741,0.00014893211181153,-0.00015138069459066,0.00015138161642684,-0.00015137939379132,0.0001513830066303,-3.3863516042646e-10,-3.2567736014544e-10,-0.00013156635022754,0.0001315656781786,3.4805103304309e-09,-4.2743022528342e-09,-0.0001342279728581,0.00013422988192478,-0.00013423053163622,0.00013422731420458,-0.00013422796028496,0.0001342298786205,-0.00013423056201263,0.00013422734980219,-0.00013620601159535,0.00013620275651299,-0.00013620603496946,0.00013620277497231,0.80676032423426,128566,2924,0.00059048903884204,0.00063043508776001,0.00054804349070602,32.291433526601,2.0731468212811e-05,2.0731468212811e-05,2.0731468212811e-05,1246312.2379483,0.001770534785022
3419200,0.10548116958398,0.0020909245081926,0.00069858344928972,0.00072639001977209,0.00066595103913075,-0.00016576623631281,0.00016576531140653,-3.5848478659053e-10,-5.6698350449916e-10,1.0203010829039e-09,-2.0118618724567e-09,-0.00016880854478919,0.00016880890702969,-0.00016880862108523,0.00016880880311539,-0.00016880973307569,0.00016880772607543,-0.00016880974418847,0.0001688076353982,-0.0001651719863568,0.00016517020988673,-0.00016517213039181,0.00016517005289851,-8.238885711594e-10,1.414461415807e-09,-1.6646943386571e-09,2.2279520008678e-09,-0.00017916506144576,0.00017916563499331,-0.00018018751224902,0.00018018626507019,-0.00018018628036038,0.000180187525605,-0.00018018696139396,0.00018018684004424,-0.00018018569535643,0.00018018813418926,-0.00017516207715143,0.00017515938116356,-0.00017515820807483,0.00017516330567386,-0.00017853192135334,0.00017853160084819,-0.00017852976755225,0.00017853386777252,-2.2974095151419e-10,-4.3980591028947e-10,-0.00015225447467419,0.00015225380381889,3.5612209732982e-09,-4.3555777018604e-09,-0.00015616798260804,0.00015617003411842,-0.00015617060724962,0.00015616740254649,-0.00015616806350558,0.00015616993283982,-0.0001561706843738,0.0001561673796157,-0.00015772418495612,0.00015772071509713,-0.00015772406518942,0.00015772089781077,0.7859006262948,128566,2924,0.00069045176934003,0.00074624210716769,0.00063419474692793,30.392350829167,5.5388066333388e-06,5.5388066333388e-06,5.5388066333388e-06,1386525.5189823,0.0020730366154005
3619200,0.12348495157957,0.0024196635279031,0.00080752249420787,0.00084777429317312,0.00076436674052215,-0.00018991267280089,0.0001899121478485,-3.51631909972e-10,-1.7651302704268e-10,6.2106078757532e-10,-1.197844025077e-09,-0.00019421145078575,0.00019421165537503,-0.00019421136064865,0.00019421172599953,-0.00019421221653947,0.0001942109119153,-0.00019421215916191,0.00019421091039505,-0.00018843010395679,0.00018842889409427,-0.00018843003305808,0.00018842899007087,-8.105735465272e-10,1.4630219135451e-09,-2.2307499676859e-09,2.8561194764149e-09,-0.00020755500994109,0.00020755564530435,-0.00020970926480222,0.00020970767545034,-0.00020970763963949,0.00020970936295853,-0.00020970867457881,0.00020970829414068,-0.00020970710352934,0.0002097099224525,-0.00020153537277156,0.00020153172992349,-0.00020153051872861,0.00020153670867585,-0.00020592371827503,0.00020592397090916,-0.00020592168593542,0.00020592611936772,-2.4819033069565e-10,-7.1881292113436e-11,-0.00017304417600738,0.00017304385220418,3.0767638427339e-09,-3.5049642456723e-09,-0.00017817067897228,0.0001781724734021,-0.00017817283175452,0.00017817031823886,-0.00017817059184185,0.00017817254579168,-0.00017817283356411,0.00017817038059155,-0.00017926351572344,0.00017926107543905,-0.00017926362463378,0.00017926100405754,0.77012034829403,128566,2924,0.0007909881017599,0.0008644376266557,0.00072076293121778,29.683553819798,-1.3156944161202e-07,-1.3156944161202e-07,-1.3156944161202e-07,1556463.7196529,0.0023790168867549
3819200,0.14101619223092,0.0027371427902448,0.00091232522638872,0.00096635017684601,0.00085846738701002,-0.00021353573539614,0.00021353535222076,-2.1054332665343e-11,-3.6715952611799e-10,5.826326885917e-10,-1.0117673709146e-09,-0.00021911024124716,0.00021911072962607,-0.00021911038455147,0.00021911055869685,-0.0002191109875248,0.00021911001168273,-0.00021911102097787,0.00021910990678453,-0.00021116299176678,0.00021116228825064,-0.00021116320509883,0.00021116208453119,-4.6179496057653e-10,8.5904372034813e-10,-1.8754100133644e-09,2.2566714479348e-09,-0.00023577369963671,0.00023577408935302,-0.00023924057605805,0.00023923938108901,-0.00023923928495928,0.00023924070902554,-0.00023924033877953,0.00023923962786538,-0.00023923896803608,0.00023924103608083,-0.00022758047804262,0.00022757698631018,-0.00022757631335317,0.00022758122981476,-0.0002330198446093,0.00023302025681223,-0.00023301851294472,0.00023302167039122,-1.2224402581845e-10,-4.6381111763241e-10,-0.00019330091331468,0.00019330032505333,3.5527464165283e-09,-4.2615755945327e-09,-0.00019955489755842,0.00019955704920729,-0.0001995575006474,0.0001995544417086,-0.0001995550481732,0.00019955688233111,-0.00019955759715709,0.00019955440553639,-0.00020039486953897,0.00020039146819846,-0.0002003946799198,0.00020039168426314,0.77140879566628,128566,2924,0.00088933491580627,0.00098190527896289,0.00080510430506161,29.234227446692,-3.7261804264617e-06,-3.7261804264617e-06,-3.7261804264617e-06,1722013.004709,0.0026799327958411
4019200,0.16035298885055,0.0030855464575611,0.001027020015293,0.0010978031313388,0.00096072331092931,-0.00024276119766219,0.00024276144151075,-1.8246107799446e-10,4.1826426184023e-10,-1.6536688772311e-10,3.9562460680748e-10,-0.00024977471643164,0.00024977467000148,-0.00024977440895547,0.0002497749614751,-0.00024977462730234,0.00024977480895214,-0.0002497745152867,0.00024977487704311,-0.00023941383969542,0.00023941400591416,-0.00023941360909879,0.00023941430624262,-3.2449200564638e-10,5.4535423014085e-10,-3.2347404723916e-09,3.4489463208147e-09,-0.00027057936305557,0.00027057958331477,-0.00027560409677318,0.00027560192932804,-0.00027560187296873,0.00027560424594393,-0.00027560386815622,0.00027560216784386,-0.0002756018548472,0.00027560427054882,-0.00025985118719703,0.00025984532739262,-0.00025984501489973,0.00025985168134293,-0.00026647000037024,0.0002664719834279,-0.00026646955380715,0.00026647250309419,-4.4835034955752e-10,1.6304783713308e-10,-0.00021860249387924,0.00021860220328649,3.0955626449802e-09,-3.4911967916722e-09,-0.00022610195584799,0.00022610355719323,-0.00022610402573552,0.00022610148450687,-0.00022610164931001,0.00022610385526122,-0.0002261039691055,0.00022610161650813,-0.0002268414396015,0.00022683923008498,-0.00022684170984281,0.0002268389378767,0.77300335400513,128566,2924,0.0010109929352576,0.0011267738043435,0.00091044265005159,30.535706845164,6.6856547613116e-06,6.6856547613116e-06,6.6856547613116e-06,1924331.3015584,0.0030528648830868
4219200,0.18150869401883,0.0034650679356982,0.0011516411227845,0.0012429337629477,0.001070493049966,-0.00027415272246464,0.0002741532715269,-3.8583550645566e-10,9.2589641367891e-10,-4.2839077739469e-10,9.8517340808452e-10,-0.00028282797517091,0.00028282751850723,-0.00028282728063066,0.00028282820462458,-0.00028282742902855,0.00028282812051474,-0.00028282722485016,0.00028282830280873,-0.00026964348844517,0.0002696439481018,-0.0002696430090646,0.00026964460438605,-2.5749073892291e-10,3.8449044006628e-10,-3.9531295771344e-09,4.0761305707296e-09,-0.00030865493085582,0.00030865505865296,-0.00031554375181519,0.00031554090530383,-0.00031554090518803,0.00031554386912172,-0.00031554342510473,0.0003155412379582,-0.00031554108371358,0.00031554369925339,-0.00029500168620223,0.00029499468983068,-0.00029499458238838,0.00029500203028388,-0.00030287296851106,0.0003028759136497,-0.00030287310620815,0.00030287582243031,-7.6165939597672e-10,5.702324985124e-10,-0.00024548360543513,0.00024548340774553,2.9061842017808e-09,-3.2003646169123e-09,-0.00025444319795021,0.00025444430325456,-0.00025444492947944,0.00025444256931994,-0.00025444250759295,0.00025444498586054,-0.00025444476935492,0.00025444281414735,-0.00025511773822728,0.00025511610414668,-0.0002551182941801,0.00025511547137541,0.77489565098777,128566,2924,0.0011416503827635,0.0012852278479582,0.0010223464188215,31.778820594375,1.6630564755004e-05,1.6630564755004e-05,1.6630564755004e-05,2127295.629095,0.0034551869198757
4419200,0.20299841256202,0.0038487510906031,0.0012772212760097,0.0013918146166653,0.0011797151979281,-0.00030373250838753,0.00030373285079963,-5.462170073222e-10,8.819608893842e-10,-2.253968958494e-10,5.6888255323438e-10,-0.00031422081701927,0.00031422022755426,-0.00031422003132962,0.00031422101386928,-0.00031422040535875,0.00031422070168453,-0.00031422018042395,0.00031422090010714,-0.00029798336479244,0.00029798337123865,-0.00029798285084427,0.00029798409059175,-4.9592978593546e-10,7.4305877844673e-10,-3.9031122653642e-09,4.1395375852771e-09,-0.00034569069067342,0.00034569093238665,-0.00035458364990407,0.00035458059026966,-0.00035458069794463,0.00035458365413483,-0.00035458306561796,0.00035458118616033,-0.00035458069902164,0.0003545836781183,-0.00032893797620547,0.00032893125222836,-0.00032893083901504,0.00032893861134147,-0.00033805823630858,0.00033806074284888,-0.00033805780153136,0.00033806122231824,-8.4034546035069e-10,6.2096489757615e-10,-0.00027027597309575,0.00027027574720896,2.8998364350021e-09,-3.2216838103099e-09,-0.000280929613432,0.0002809305706969,-0.00028093128790824,0.00028092890106863,-0.00028092883469881,0.0002809313433856,-0.000280931098219,0.00028092917319536,-0.00028138512073764,0.0002813835045941,-0.00028138569744723,0.0002813828177106,0.7761300999778,128566,2924,0.0012647503331165,0.0014393300907388,0.0011255464635093,31.980578374446,1.8244626995571e-05,1.8244626995571e-05,1.8244626995571e-05,2296974.4655598,0.0038369785439537
4619200,0.22602979240327,0.0042582268227316,0.0014106710189874,0.0015528644481724,0.0012946913555717,-0.00033666426655476,0.00033666443111705,-3.5371147675608e-10,5.1181265366278e-10,-6.7898914242131e-11,2.2687349481752e-10,-0.00034917880193165,0.0003491784107909,-0.00034917824203023,0.00034917896113051,-0.0003491785905615,0.0003491786803397,-0.00034917846784799,0.00034917875062491,-0.00032957244617224,0.00032957245230886,-0.00032957225382974,0.00032957280835367,-1.9440290825695e-10,3.1795460357276e-10,-3.431810486913e-09,3.5502951028481e-09,-0.00038737536170223,0.00038737548377187,-0.00039844414675502,0.00039844154964076,-0.00039844154728245,0.00039844423165467,-0.00039844383125488,0.00039844185926766,-0.0003984416992247,0.00039844409206663,-0.00036718833514879,0.00036718199065064,-0.00036718191331816,0.00036718857001518,-0.00037770955820504,0.00037771205092684,-0.00037770955795103,0.00037771205142558,-6.9407469360851e-10,2.1750546407612e-10,-0.00029785703597285,0.0002978565519163,3.2789620618127e-09,-3.8737171774768e-09,-0.00031050160569403,0.00031050286292356,-0.00031050366014969,0.00031050080939984,-0.0003105010607874,0.00031050339999378,-0.00031050357859308,0.00031050096108291,-0.00031063079531006,0.00031062821870587,-0.00031063101689693,0.0003106278942896,0.77694609315075,128566,2924,0.0014017821938236,0.0016127462240828,0.0012403441287872,33.011163210333,2.6489305682666e-05,2.6489305682666e-05,2.6489305682666e-05,2481465.4473678,0.0042639498924657
4819200,0.25135598978641,0.0047064684377253,0.00155597696757,0.0017318775653508,0.0014186139048045,-0.00037317103610738,0.00037317106581009,6.5219608416614e-11,-4.2402893802844e-11,4.9947068768062e-11,-3.2386701387916e-11,-0.00038801649791327,0.00038801657139884,-0.00038801638197163,0.00038801666128406,-0.0003880165621385,0.00038801656137772,-0.00038801661426155,0.00038801643110976,-0.00036457608562057,0.00036457637119617,-0.0003645763890528,0.00036457611987928,1.5307120511799e-10,-2.7925174288918e-10,-2.8848372277912e-09,2.7643732069431e-09,-0.00043436974656685,0.00043436962949436,-0.00044788698309291,0.000447885071436,-0.00044788496766037,0.00044788714422574,-0.00044788712507533,0.00044788491044879,-0.00044788529450847,0.00044788680944463,-0.00041027258869592,0.00041026658018379,-0.00041026702798169,0.00041027224277398,-0.0004223909877492,0.00042239331413327,-0.00042239149987678,0.0004223927742144,-3.3932779954714e-10,-3.9088987297332e-10,-0.00032829377687573,0.00032829303975552,3.7522962140734e-09,-4.6230635836018e-09,-0.00034332078070342,0.00034332266479033,-0.00034332338743165,0.00034332005304766,-0.00034332068028575,0.00034332275296424,-0.0003433234894406,0.00034332000884581,-0.00034297562854155,0.00034297180405411,-0.00034297529477885,0.00034297208240623,0.77793123141338,128566,2924,0.0015536681398151,0.0018082141404729,0.0013670162091432,34.4984764957,3.8387811965599e-05,3.8387811965599e-05,3.8387811965599e-05,2678274.3764611,0.0047401143281021
5019200,0.27874057659136,0.0051872369419108,0.0017108569952747,0.0019270599837254,0.0015493199629106,-0.00041150327765233,0.00041150305530832,1.1524450471877e-09,-1.3820533176381e-09,3.5438328273195e-10,-6.0379205991997e-10,-0.00042902137978641,0.00042902273000531,-0.00042902246136993,0.00042902162063326,-0.00042902216448717,0.00042902201427362,-0.00042902263525259,0.00042902145879925,-0.00040127114241295,0.00040127212669486,-0.00040127263760306,0.00040127055662178,4.2123043989038e-10,-8.3002070617247e-10,-1.9342780569419e-09,1.5424276309976e-09,-0.00048501008794378,0.00048500970457452,-0.00050130863690539,0.00050130795707982,-0.00050130779113818,0.00050130885362414,-0.00050130948490672,0.00050130708659938,-0.00050130801085704,0.00050130859763153,-0.00045650964189156,0.00045650416497213,-0.00045650515805329,0.00045650872665447,-0.00047037788859882,0.00047037890726672,-0.00047037810873128,0.00047037861835388,6.7657232874963e-10,-1.7971593024558e-09,-0.00035993501759181,0.00035993389107081,4.5811891046116e-09,-5.8841752661862e-09,-0.00037777484118957,0.00037777826971327,-0.00037777855957379,0.00037777455566687,-0.00037777592014374,0.00037777716358872,-0.00037777908824715,0.0003777740750963,-0.00037667123379205,0.00037666504019933,-0.00037666966065999,0.00037666663940013,0.77678229394958,128566,2924,0.0017131237869717,0.0020188020656835,0.0014986898028123,35.808429138061,4.886743310449e-05,4.886743310449e-05,4.886743310449e-05,2870308.0286824,0.0052443420033743
5219200,0.30755099533508,0.0056908385670274,0.0018719892455711,0.0021346531766951,0.0016841961447612,-0.00045050640749141,0.00045050610698951,1.4948818275738e-09,-1.8024025516949e-09,4.9306301207869e-10,-8.320966150637e-10,-0.00047094885913738,0.00047095076632954,-0.00047095038981384,0.00047094919493691,-0.00047095000184113,0.00047094969125786,-0.00047095055865987,0.0004709490490991,-0.00043859208462908,0.0004385931325414,-0.00043859378271002,0.00043859123248425,2.1806781923663e-10,-7.2304294090212e-10,-1.8603462865068e-09,1.3757923286211e-09,-0.00053800955163178,0.00053800907364595,-0.00055739258355027,0.00055739219786093,-0.00055739217728778,0.00055739267480648,-0.00055739362566874,0.00055739116621936,-0.0005573921334834,0.00055739266219889,-0.00050468347343593,0.00050467800212836,-0.00050467899669943,0.00050468261301767,-0.00052041262396354,0.00052041284698945,-0.00052041222869265,0.0005204132144498,1.1069280843596e-09,-2.1342927630514e-09,-0.00039184945910831,0.0003918484278241,4.750179130597e-09,-5.9711962681599e-09,-0.00041281315987741,0.00041281728773751,-0.00041281719475497,0.00041281324549205,-0.00041281467219526,0.00041281573540411,-0.00041281784524701,0.00041281265136419,-0.00041077327522311,0.00041076682095783,-0.00041077142934466,0.00041076873964859,0.77856400271861,128566,2924,0.0018753442768259,0.0022391502063092,0.0016314917311269,36.761518500779,5.6492148006235e-05,5.6492148006235e-05,5.6492148006235e-05,3053507.6420886,0.005762556422924
5419200,0.33746377586293,0.006204149428474,0.0020348975301925,0.00234962243436,0.0018196294639214,-0.00048957750243013,0.00048957717622404,1.254694557573e-09,-1.5874021072986e-09,6.0897155800879e-10,-9.7909150472072e-10,-0.00051332781007651,0.0005133295680467,-0.00051332911504128,0.00051332821499124,-0.00051332895037653,0.00051332848632905,-0.00051332947823952,0.00051332788201722,-0.0004759181037158,0.00047591893936901,-0.00047591968632734,0.0004759171370196,3.7991020518048e-11,-5.1813314771153e-10,-1.9535472956181e-09,1.4919610137622e-09,-0.00059263884296514,0.00059263838760343,-0.00061549828803803,0.00061549773181422,-0.00061549779940798,0.00061549830320306,-0.00061549915018507,0.00061549689533648,-0.00061549773168963,0.00061549830743134,-0.00055405012178384,0.00055404510172428,-0.00055404598124187,0.00055404944648942,-0.00057159029948483,0.0005715907060303,-0.00057158999966379,0.00057159099589588,9.523878780708e-10,-1.8471914082715e-09,-0.00042363035380002,0.0004236294564192,4.737245659441e-09,-5.8250655469207e-09,-0.00044818712584792,0.00044819114354124,-0.0004481910332025,0.00044818722132377,-0.00044818842549412,0.00044818979686633,-0.00044819165369496,0.00044818666279552,-0.00044459500493386,0.00044458891691928,-0.00044459333459785,0.00044459067376302,0.76958753888153,128566,2924,0.002037820760616,0.0024662198258906,0.0017637300952425,37.57298176873,6.2983854149842e-05,6.2983854149842e-05,6.2983854149842e-05,3217555.6878138,0.0062874938158387
5619200,0.36721736092762,0.0066881266909083,0.002186964155327,0.0025559981670833,0.001945164368498,-0.0005249670123948,0.00052496666578858,8.8206833008711e-10,-1.2342261247186e-09,7.0577057812712e-10,-1.1005349428247e-09,-0.00055270696700693,0.0005527084251192,-0.00055270791765181,0.00055270742609045,-0.00055270804715547,0.00055270739195131,-0.00055270848759933,0.00055270689744747,-0.00050942686793407,0.00050942728444348,-0.00050942813173494,0.00050942583201235,-2.3168668301322e-10,-1.4505890231481e-10,-2.2865978875335e-09,1.9230368886901e-09,-0.00064432585693912,0.00064432550013421,-0.00067126222951133,0.00067126118968583,-0.00067126136753769,0.00067126214619479,-0.00067126274394586,0.00067126070356081,-0.00067126125053312,0.00067126221599573,-0.00059993911728209,0.00059993410352075,-0.00059993470518853,0.00059993878678306,-0.00061909816992211,0.00061909873685235,-0.00061909769001623,0.00061909923598382,6.4512003034392e-10,-1.4371140563276e-09,-0.00045195823393563,0.00045195743909239,4.6665742516099e-09,-5.6487255829442e-09,-0.00048093470563483,0.00048093841187908,-0.00048093842507113,0.00048093467422417,-0.00048093567121228,0.00048093739510851,-0.00048093892388571,0.00048093424432358,-0.00047413393604487,0.00047412844789042,-0.00047413267395541,0.00047412979658759,0.73637637996778,128566,2924,0.0021849642161171,0.0026810069382775,0.0018815988205698,37.741268820092,6.433015056074e-05,6.433015056074e-05,6.433015056074e-05,3350567.475793,0.0067704356193166
5819200,0.39443429984703,0.007111426994346,0.00231863172799,0.0027390494092557,0.0020537458571003,-0.00055311501525533,0.00055311441555097,9.3708492150955e-10,-1.5399679311414e-09,1.0856419232723e-09,-1.7515459849136e-09,-0.00058532993658492,0.00058533163448992,-0.00058533104220707,0.00058533046670874,-0.00058533138341063,0.00058533021645628,-0.00058533188939834,0.0005853296632181,-0.00053595243552466,0.00053595245056983,-0.00053595388293204,0.00053595082003435,-6.2377805389099e-10,3.9387552175553e-10,-2.5392327852991e-09,2.314728837417e-09,-0.00068818265656469,0.00068818243909004,-0.00071928218929802,0.00071928077691118,-0.00071928112770777,0.00071928192934382,-0.00071928242601269,0.00071928057156394,-0.0007192806808762,0.00071928235571683,-0.00063809099128144,0.00063808564347634,-0.00063808581459637,0.00063809112820897,-0.00065894654518902,0.00065894639848643,-0.00065894502159279,0.00065894799347953,7.2713621621199e-10,-1.7148454221384e-09,-0.00047389073841629,0.00047388974658942,5.0464880858266e-09,-6.2408741022478e-09,-0.00050764045695612,0.00050764444010138,-0.00050764453555774,0.00050764033856802,-0.00050764158925886,0.00050764324935056,-0.00050764508050329,0.00050763986383685,-0.00049670068756339,0.00049669455172536,-0.00049669928541862,0.00049669604199683,0.71318193372528,128566,2924,0.002301982702497,0.0028632116397227,0.0019728633216438,36.55652533779,5.4852202702324e-05,5.4852202702324e-05,5.4852202702324e-05,3444397.1312466,0.0071636551010025
6019200,0.42009773533737,0.0075008171345289,0.0024386762751848,0.0029088799791929,0.0021532608801512,-0.00057977800607299,0.00057977718764115,1.0212294656261e-09,-1.8422755728425e-09,1.0194054101466e-09,-1.9133541316976e-09,-0.00061678850123397,0.00061679022428328,-0.00061678981421869,0.00061678884394552,-0.000616790057895,0.00061678869027857,-0.00061679060622929,0.00061678809263694,-0.00056149604715067,0.00056149595740004,-0.00056149762048088,0.00056149417831232,-5.8757550961857e-10,4.3080220643537e-10,-2.392124360184e-09,2.2397428068653e-09,-0.00073017047956626,0.00073017033442552,-0.0007650650998166,0.00076506393164232,-0.00076506420859158,0.00076506491211452,-0.00076506543562605,0.00076506363055918,-0.00076506366581224,0.0007650654324676,-0.000674629588619,0.00067462426183845,-0.00067462433557675,0.00067462978093972,-0.00069762252659996,0.0006976221041615,-0.00069762072500308,0.00069762397476866,8.9481884163115e-10,-1.927163177974e-09,-0.00049464230865453,0.00049464127217045,5.0898229469616e-09,-6.3358655557869e-09,-0.00053326832658289,0.00053327252309504,-0.00053327253588866,0.00053326828987423,-0.00053326966416997,0.00053327112614036,-0.00053327312365904,0.00053326777260146,-0.00051797074868461,0.00051796439492588,-0.00051796922134706,0.00051796601847644,0.70262235300683,128566,2924,0.0024128155088979,0.0030376146434929,0.0020592142314296,35.891825643525,4.9534605148197e-05,4.9534605148197e-05,4.9534605148197e-05,3511106.7187374,0.0075379868640857
6219200,0.44507260379016,0.0078811734114235,0.0025556650962342,0.0030751065597259,0.0022504017554633,-0.00060683929962314,0.00060683854224897,1.2297877526739e-09,-1.991116831167e-09,8.1795392555066e-10,-1.647981432769e-09,-0.00064848087480476,0.00064848272254945,-0.00064848240402857,0.00064848112497855,-0.00064848237172402,0.00064848124829412,-0.00064848294920738,0.00064848061928835,-0.00058762947003155,0.00058762969453113,-0.00058763113582534,0.00058762781214569,-3.32390734103e-10,1.8190255176661e-10,-2.0178327619766e-09,1.8738793671246e-09,-0.00077235372266909,0.00077235358569492,-0.00081084039613799,0.00081083977782247,-0.0008108398713777,0.00081084037877755,-0.00081084101851469,0.00081083918472197,-0.00081083937157129,0.00081084084599853,-0.00071153239887165,0.0007115273073518,-0.00071152749027932,0.00071153238677542,-0.00073676488168958,0.00073676438055631,-0.00073676320877705,0.00073676606174953,1.1111563754299e-09,-2.0639537549738e-09,-0.00051569602508498,0.00051569507013473,4.9265634978669e-09,-6.0870806557191e-09,-0.00055901020540772,0.00055901456783263,-0.00055901437747409,0.00055901037126298,-0.00055901175747061,0.00055901295720791,-0.00055901499443,0.00055900982563008,-0.00053966675849612,0.00053966053856285,-0.00053966515367815,0.00053966224173013,0.70746296632506,128566,2924,0.0025252928029114,0.0032127940418524,0.0021468211875033,35.771277434203,4.8570219473628e-05,4.8570219473628e-05,4.8570219473628e-05,3555298.0807483,0.0079161661113506
6419200,0.46978080851308,0.0082543746783179,0.0026705328012,0.0032387137916608,0.002345128085457,-0.0006340988861041,0.00063409830348154,1.4098354612812e-09,-1.9983267702077e-09,6.4514072204452e-10,-1.2918422323713e-09,-0.00068025375072705,0.00068025572709419,-0.0006802554108875,0.00068025400270352,-0.00068025513386288,0.00068025436991839,-0.00068025572444503,0.00068025372646122,-0.00061386519645511,0.00061386581697811,-0.00061386691090485,0.00061386388667722,-7.3678412792711e-11,-9.9135877172884e-11,-1.6839968547579e-09,1.5203033226006e-09,-0.00081451756179637,0.00081451740456944,-0.00085664855246885,0.00085664842192568,-0.0008566483493729,0.00085664868723534,-0.00085664943850929,0.00085664755627426,-0.00085664793450469,0.00085664905855698,-0.00074841566220878,0.00074841082516991,-0.00074841115099321,0.00074841540366333,-0.00077580189430233,0.00077580143179946,-0.00077580046869915,0.00077580278459928,1.2578138886859e-09,-2.0995615396142e-09,-0.00053667098854316,0.00053667014710031,4.7092964529024e-09,-5.7471479906309e-09,-0.00058473859402362,0.00058474302152182,-0.0005847426490404,0.00058473894101104,-0.00058474027438472,0.00058474128416766,-0.00058474327910772,0.00058473838447781,-0.00056128290317451,0.00056127695495254,-0.00056128127860663,0.00056127867606501,0.70211760837914,128566,2924,0.0026385826314022,0.0033878582719296,0.0022340992202425,35.957304495814,5.005843596651e-05,5.005843596651e-05,5.005843596651e-05,3600617.6031564,0.0082948608896895
6619200,0.4950137942842,0.008658706303653,0.0027958464496694,0.00341425850994,0.0024486013440436,-0.00066453505846921,0.00066453469315332,1.5551111054581e-09,-1.9279900837319e-09,4.6120671064275e-10,-8.8144541180066e-10,-0.00071454827916729,0.00071455031275295,-0.00071454997915845,0.00071454855362723,-0.0007145494733614,0.00071454914795281,-0.00071455009319205,0.00071454847683904,-0.00064354012948118,0.00064354124505427,-0.00064354192574797,0.00064353923287567,2.0815163552218e-10,-4.1812596421528e-10,-1.2845027284998e-09,1.0867535762183e-09,-0.00085991255694021,0.00085991236528308,-0.00090583466843482,0.00090583501967272,-0.00090583477635759,0.00090583496213328,-0.00090583578615837,0.00090583391786113,-0.00090583451802765,0.00090583516230286,-0.00078817413603153,0.00078816982855213,-0.00078817033631396,0.00078817359829923,-0.0008182524957094,0.00081825224863524,-0.00081825157107656,0.00081825304796635,1.365798139876e-09,-2.0643540581294e-09,-0.00056019668880418,0.0005601959934469,4.3970465561577e-09,-5.2729649995227e-09,-0.00061254031183145,0.00061254467024072,-0.00061254412301818,0.00061254083243895,-0.00061254203437321,0.00061254289187701,-0.00061254477758307,0.00061254025384905,-0.0005860393481632,0.00058603375879085,-0.00058603768590731,0.00058603551804133,0.74071517914244,128566,2924,0.0027650606211755,0.0035763028385272,0.0023319836550143,36.728956782775,5.6231654262197e-05,5.6231654262197e-05,5.6231654262197e-05,3637547.6926097,0.0087111969938786
6819200,0.52166340257702,0.0091202346092568,0.0029405049544938,0.0036126623057164,0.0025670673490466,-0.00070015102567,0.00070015089635066,1.8929000311335e-09,-2.0311448958677e-09,2.945650124543e-10,-4.6926449017429e-10,-0.00075310846522021,0.00075311074054084,-0.0007531103641323,0.00075310878388381,-0.00075310951310938,0.00075310972409826,-0.00075311024725006,0.00075310893973243,-0.00067847780554896,0.00067847966665456,-0.00067847992380495,0.00067847732993562,4.9621821540355e-10,-7.5909998478124e-10,-7.2350445867072e-10,4.7672756515307e-10,-0.00091084725564911,0.00091084701444894,-0.00096091825334955,0.0009609192082542,-0.0009609188010973,0.00096091870083149,-0.00096091963784939,0.0009609178421738,-0.00096091868360038,0.00096091874031948,-0.00083276678200208,0.00083276327737093,-0.00083276402045752,0.00083276596639472,-0.000866148507489,0.000866148328668,-0.00086614809041861,0.00086614861735592,1.6430592233331e-09,-2.2265195943203e-09,-0.00058790299477509,0.00058790241735789,4.0492781590083e-09,-4.7895501564233e-09,-0.00064382799750537,0.00064383239963524,-0.00064383158530464,0.0006438287829318,-0.00064382992144942,0.00064383041916829,-0.00064383234773193,0.00064382809863492,-0.00061583770096009,0.00061583221480824,-0.00061583575920171,0.00061583425536033,0.79222279046137,128566,2924,0.0029130425636512,0.0037877016756526,0.0024472529516446,38.160037820668,6.7680302565342e-05,6.7680302565342e-05,6.7680302565342e-05,3720101.3226348,0.0091901147883101
7019200,0.55007041482098,0.0095737478453001,0.0030826357384794,0.0038113075050216,0.0026798046017992,-0.00073653288436455,0.00073653292580084,2.2738653184184e-09,-2.2418380743147e-09,1.7500671592966e-10,-1.7208650593419e-10,-0.00079349378045722,0.00079349634651447,-0.0007934959359352,0.0007934941313802,-0.00079349474160186,0.00079349541930594,-0.00079349563747927,0.00079349447023046,-0.00071360011152143,0.00071360273702767,-0.00071360267213492,0.00071359993142297,7.0604760273039e-10,-1.0253867098752e-09,-2.7846808696168e-10,-2.1017226761679e-11,-0.00096398625581706,0.0009639859613447,-0.0010181610732971,0.0010181625195241,-0.0010181620015414,0.001018161623297,-0.001018162679191,0.0010181609353802,-0.0010181619765858,0.0010181615564017,-0.00087933626228383,0.00087933338536085,-0.00087933432529006,0.00087933522496366,-0.00091550817946856,0.00091550797993588,-0.0009155081042985,0.00091550791131025,1.9733892406671e-09,-2.4896446846553e-09,-0.00061553606032789,0.00061553555086236,3.8235011036953e-09,-4.4833117926711e-09,-0.00067625537026753,0.00067625994144317,-0.00067625884863876,0.00067625643266014,-0.000676257563415,0.00067625769092096,-0.00067625977024259,0.00067625558928818,-0.00064492687253996,0.00064492119432683,-0.00064492449852263,0.00064492367293302,0.73336568017344,128566,2924,0.003064181744027,0.0040081921573096,0.002562221031655,39.886925494573,8.1495403956581e-05,8.1495403956581e-05,8.1495403956581e-05,3755092.549421,0.0096813284076093
7219200,0.57867363295827,0.010012001167609,0.0032202078235957,0.0040046276121485,0.0027871657318652,-0.00077042130247843,0.0007704212910177,2.3078186501692e-09,-2.3278300921391e-09,2.981585848349e-10,-3.5154314942162e-10,-0.00083194633985331,0.0008319490241766,-0.0008319485604061,0.00083194673805836,-0.00083194741345563,0.0008319479840482,-0.00083194835646832,0.00083194698563263,-0.00074582172322859,0.00074582433682792,-0.00074582441651193,0.00074582138814337,5.5445200084255e-10,-9.1428410945393e-10,-5.5829117882301e-10,2.1900742447352e-10,-0.0010145582007635,0.0010145578661405,-0.0010731067150759,0.0010731079090216,-0.001073107526628,0.0010731071554125,-0.0010731082691223,0.0010731063977415,-0.0010731073932366,0.0010731071868715,-0.00092327785891636,0.00092327454538307,-0.00092327544244425,0.00092327687411113,-0.00096215640683855,0.00096215606037414,-0.000962156038728,0.00096215625041227,1.9554149371172e-09,-2.6339165749572e-09,-0.00064070062287928,0.00064069994866037,4.0725441574539e-09,-4.9088117023857e-09,-0.00070656465836709,0.00070656938622572,-0.00070656839021339,0.00070656562185229,-0.00070656693146585,0.0007065670529108,-0.00070656935687853,0.00070656473375828,-0.00067130119437451,0.00067129503829364,-0.00067129873214631,0.00067129760958153,0.70719547630969,128566,2924,0.003204941346467,0.0042179762248885,0.002666926538329,40.739881334306,8.8319050674449e-05,8.8319050674449e-05,8.8319050674449e-05,3794077.1675104,0.010141117039434
7419200,0.60681298859779,0.010427127074257,0.003350560442242,0.0041885690774202,0.0028879975545951,-0.00080211791345974,0.00080211776163843,2.093004971383e-09,-2.2521618113928e-09,4.326480713359e-10,-6.3257821052283e-10,-0.00086869083419814,0.00086869340665058,-0.00086869293616974,0.00086869122889126,-0.00086869200801345,0.00086869226000944,-0.0008686929142874,0.00086869130274578,-0.00077560678555101,0.00077560896778211,-0.0007756093236245,0.00077560617553632,3.2202554137017e-10,-6.9449160916982e-10,-9.814342050646e-10,6.2829485864099e-10,-0.0010626071419521,0.0010626067935135,-0.0011256879314166,0.0011256886721729,-0.0011256884592501,0.0011256882226475,-0.0011256893076554,0.0011256873478433,-0.001125688220158,0.0011256883660687,-0.00096488082358594,0.00096487698371151,-0.00096487776687251,0.00096487999814483,-0.0010062309476826,0.0010062305398356,-0.0010062302524398,0.0010062310494538,1.7413878786835e-09,-2.5602243253372e-09,-0.00066387668841858,0.00066387586998984,4.2846346101185e-09,-5.2804410359359e-09,-0.00073528222321433,0.00073528691291837,-0.00073528613224135,0.00073528296778867,-0.00073528439053557,0.00073528468130717,-0.0007352870497253,0.00073528213082113,-0.00069546777140229,0.00069546146360075,-0.00069546548842843,0.00069546385115183,0.6850208385616,128566,2924,0.0033365797448618,0.0044172467249875,0.0027633624051717,41.271781687641,9.257425350113e-05,9.257425350113e-05,9.257425350113e-05,3839444.5824937,0.010572919321876
7619200,0.63330144116032,0.010808142747365,0.0034699853273671,0.0043579966914365,0.0029801607285618,-0.00082983530634764,0.00082983491658316,1.7559575763411e-09,-2.1515211808777e-09,6.0879193966972e-10,-1.0558589775271e-09,-0.0009018848362516,0.00090188716975651,-0.00090188672888952,0.0009018851871035,-0.00090188613470174,0.00090188588742319,-0.00090188698117522,0.00090188499801148,-0.00080153768282537,0.00080153920433725,-0.00080154000266636,0.00080153664711663,1.4231821051165e-11,-3.7139919068613e-10,-1.6188329549115e-09,1.2781789523045e-09,-0.0011059890488815,0.0011059887134052,-0.0011733386483722,0.0011733387001099,-0.0011733386914624,0.0011733387559432,-0.0011733397402803,0.0011733376614338,-0.0011733383335919,0.001173339038232,-0.001002187170168,0.0010021825404364,-0.0010021831553826,0.0010021866222317,-0.0010462385566835,0.0010462381891205,-0.0010462374702144,0.0010462391077125,1.4196770736653e-09,-2.444985713902e-09,-0.00068366053970678,0.00068365950999022,4.6391723053235e-09,-5.8722975188748e-09,-0.00076076790295925,0.00076077249408449,-0.00076077205452767,0.00076076830274678,-0.00076076986390392,0.00076077046350962,-0.00076077289748473,0.000760767543362,-0.00071585503480032,0.00071584846610662,-0.00071585300138595,0.00071585059672715,0.67223853694072,128566,2924,0.0034516786907986,0.0045971218473339,0.0028456924149419,41.070991677778,9.0967933422223e-05,9.0967933422223e-05,9.0967933422223e-05,3868662.3663586,0.010954319592267
7819200,0.65832026179729,0.011163541212376,0.0035811482386193,0.0045162914099205,0.0030661015638362,-0.00085589241547697,0.0008558918854341,1.6926129910556e-09,-2.2266781495638e-09,6.7977606073443e-10,-1.2757193031216e-09,-0.00093328346814954,0.00093328572332528,-0.00093328532561353,0.00093328377515519,-0.00093328483399764,0.00093328437540325,-0.00093328569503786,0.00093328346275471,-0.00082579474022385,0.00082579609101604,-0.0008257971214424,0.00082579346450067,-1.2445178914209e-10,-2.1222301508551e-10,-1.7793005475896e-09,1.4576602866553e-09,-0.001147022381399,0.0011470220649752,-0.0012184520474956,0.0012184518533759,-0.0012184519208408,0.001218452070938,-0.0012184529888896,0.0012184509548362,-0.0012184515228117,0.0012184524163829,-0.0010373582779711,0.0010373535381712,-0.0010373540677216,0.0010373578822153,-0.0010839658922062,0.0010839654752079,-0.0010839646640396,0.0010839666108739,1.3857474371189e-09,-2.4864546193954e-09,-0.00070203299967356,0.00070203189220662,4.7674967888927e-09,-6.0879078514934e-09,-0.00078440940046065,0.00078441398153756,-0.00078441362042635,0.00078440971722628,-0.00078441132323606,0.00078441198275121,-0.00078441449134077,0.00078440893357098,-0.00073472700474933,0.00073472019888934,-0.00073472493290706,0.00073472237963995,0.6665568420402,128566,2924,0.0035598723404122,0.0047672256581208,0.0029221519701737,40.972105182463,9.0176841459704e-05,9.0176841459704e-05,9.0176841459704e-05,3877517.6845718,0.011313063130829
8019200,0.68202980059367,0.011496845464288,0.0036853560977545,0.0046649781629662,0.0031465112035674,-0.00088057002020742,0.00088056944622254,1.6489896596577e-09,-2.2264563229443e-09,6.8618832764739e-10,-1.3277427866046e-09,-0.00096283658459184,0.00096283882788681,-0.00096283845483187,0.00096283686859571,-0.00096283799868412,0.00096283743175274,-0.00096283881369999,0.00096283656457838,-0.00084861700486482,0.00084861815813253,-0.0008486192514315,0.00084861567243479,-1.4891316621676e-10,-1.7230336883859e-10,-1.7227297074958e-09,1.4158022091555e-09,-0.0011858772363146,0.0011858769349018,-0.0012613254433047,0.0012613252893832,-0.0012613253583343,0.0012613254566439,-0.0012613263777259,0.0012613243906698,-0.0012613249269255,0.0012613258452042,-0.0010705233202908,0.0010705186427672,-0.0010705191521817,0.0010705229771191,-0.0011195334730207,0.0011195329015788,-0.0011195321235618,0.0011195341897048,1.3735620264685e-09,-2.4501288078492e-09,-0.00071928027875406,0.00071927919607688,4.6994353755633e-09,-5.9979075852256e-09,-0.00080669910032092,0.00080670368320307,-0.00080670331431834,0.00080669942859907,-0.00080670104861638,0.00080670166219983,-0.00080670412602792,0.00080669870004022,-0.00075243453423011,0.000752427960153,-0.00075243262099997,0.00075242998781858,0.66097842556872,128566,2924,0.0036623285573007,0.0049282685634144,0.0029939311688666,40.977141520476,9.0217132163811e-05,9.0217132163811e-05,9.0217132163811e-05,3883383.4606882,0.011652228877232
8219200,0.70454985899037,0.011810427251332,0.0037834795505034,0.0048049908053285,0.0032219568955004,-0.00090402007369782,0.0009040195006565,1.6304133960101e-09,-2.207273069269e-09,6.6168134707434e-10,-1.3016043865853e-09,-0.00099098452380376,0.0009909866707852,-0.00099098631428538,0.00099098479277147,-0.00099098585452946,0.00099098535766707,-0.00099098672233827,0.00099098443915945,-0.00087025616458191,0.00087025746503869,-0.00087025853281099,0.00087025483909967,-1.2103440112919e-10,-1.9107770229559e-10,-1.5623702317795e-09,1.2643848609692e-09,-0.0012226875572529,0.0012226872651079,-0.001302143154784,0.0013021430556724,-0.0013021430963034,0.0013021431897809,-0.0013021440343992,0.0013021422093857,-0.001302142750255,0.0013021434940069,-0.0011017401681573,0.0011017360056804,-0.0011017365252896,0.0011017398246403,-0.0011531021521877,0.0011531017511477,-0.0011531010766293,0.0011531027846449,1.3804834890116e-09,-2.3998099437293e-09,-0.00073554816384849,0.00073554713981546,4.5682797352487e-09,-5.80525690074e-09,-0.00082767092266293,0.0008276753763649,-0.00082767496440626,0.00082767129440007,-0.00082767279234258,0.00082767343429968,-0.00082767582619927,0.00082767051586089,-0.00076903887940879,0.00076903232652676,-0.00076903681087744,0.00076903450925139,0.65549730881742,128566,2924,0.0037596790917924,0.0050808100490588,0.0030616360448766,41.071129116589,9.0969032932711e-05,9.0969032932711e-05,9.0969032932711e-05,3889810.9467058,0.011973615170164
8419200,0.72596099457181,0.012107759056324,0.0038766644067233,0.0049376529543915,0.0032934416952088,-0.00092638946849454,0.00092638890764256,1.6657251654896e-09,-2.230740951379e-09,6.2117184178655e-10,-1.2486509234832e-09,-0.0010176754929181,0.0010176775856948,-0.001017677248975,0.0010176757424471,-0.0010176767403742,0.0010176763553664,-0.0010176776756382,0.0010176753696051,-0.00089103111034067,0.00089103265547193,-0.00089103367169389,0.00089102982394983,-7.7193539143308e-11,-2.2986157371024e-10,-1.3860056944186e-09,1.0933700680008e-09,-0.0012576232167643,0.0012576229292406,-0.0013410441146912,0.0013410441045013,-0.0013410441111819,0.0013410441785248,-0.0013410449694783,0.0013410432842525,-0.0013410438443457,0.0013410444004096,-0.0011312630545147,0.0011312593804294,-0.0011312599193745,0.0011312626862058,-0.0011848508235541,0.0011848505720224,-0.0011848500178706,0.0011848513585164,1.4359910824379e-09,-2.399210713221e-09,-0.00075104420977001,0.00075104324321438,4.4321572459326e-09,-5.6050695438746e-09,-0.00084760437321873,0.00084760873897596,-0.00084760825471779,0.00084760481728445,-0.0008476062121725,0.00084760682841344,-0.00084760918175004,0.00084760397338218,-0.00078476934382743,0.00078476279472656,-0.00078476711534969,0.00078476514357624,0.6538152788473,128566,2924,0.0038525341640332,0.0052255581967959,0.0031261298255115,41.233841707971,9.2270733663768e-05,9.2270733663768e-05,9.2270733663768e-05,3892897.1450831,0.012279412703144
8619200,0.74675276572377,0.01239603301341,0.0039671442114084,0.0050661270959131,0.0033627617060882,-0.00094894506417785,0.00094894452734208,1.7407773693452e-09,-2.2817960750112e-09,5.4885786679282e-10,-1.151562715873e-09,-0.0010443877395121,0.0010443898665241,-0.0010443895647117,0.0010443879577538,-0.0010443889583656,0.0010443886665664,-0.0010443899062185,0.0010443876690242,-0.00091208453339143,0.00091208620065174,-0.00091208713218206,0.00091208332963067,-4.1214970322712e-13,-3.0946082883116e-10,-1.1371327511397e-09,8.4213327887698e-10,-0.0012922496622677,0.0012922493723691,-0.001379593594475,0.0013795938249592,-0.0013795937798152,0.001379593705808,-0.0013795945309464,0.0013795929261178,-0.001379593533882,0.0013795939009228,-0.0011605812040491,0.0011605778880695,-0.0011605784708918,0.0011605807709459,-0.0012164177656014,0.0012164174212728,-0.0012164170368377,0.0012164181345092,1.5310999696197e-09,-2.4278151324905e-09,-0.00076688470775838,0.00076688381034224,4.2289667835559e-09,-5.3249676678502e-09,-0.00086774093921284,0.00086774528552285,-0.00086774469190343,0.00086774149298603,-0.0008677428511923,0.00086774330261099,-0.00086774562942318,0.00086774063892314,-0.00080089251916292,0.00080088618683832,-0.0008008902820375,0.00080088854887358,0.65261451370817,128566,2924,0.0039461517587062,0.0053690025385844,0.0031920537121137,41.855183722957,9.7241469783656e-05,9.7241469783656e-05,9.7241469783656e-05,3900940.4369298,0.012586203238916
8819200,0.76635513399278,0.012657132740442,0.0040490454076119,0.0051832795398536,0.0034248077929767,-0.00096874138566779,0.00096874085263661,1.7125588173713e-09,-2.2507038585902e-09,5.2002427910053e-10,-1.1162986610775e-09,-0.001068313156999,0.0010683152576798,-0.0010683149761727,0.0010683133581512,-0.0010683143629704,0.0010683140731068,-0.0010683152867736,0.0010683130981139,-0.00093037328647971,0.00093037490890232,-0.00093037581325806,0.00093037210508718,2.7660882155508e-11,-3.4070726986207e-10,-1.1254185404714e-09,8.275639513717e-10,-0.0013234398183904,0.0013234395256538,-0.0014146053439822,0.0014146056074113,-0.0014146055471336,0.0014146054733911,-0.0014146063097144,0.0014146046833331,-0.001414605309591,0.0014146056536591,-0.0011867448968438,0.0011867415653418,-0.0011867421674746,0.0011867444397344,-0.0012445867373674,0.0012445864161051,-0.0012445860367217,0.0012445870863143,1.5101881032405e-09,-2.3869277486281e-09,-0.00078042182712364,0.00078042095059223,4.2117360817949e-09,-5.2859218097617e-09,-0.00088550760282375,0.00088551194664461,-0.00088551134763426,0.00088550816199413,-0.00088550950928807,0.00088550996963914,-0.00088551225990064,0.00088550733396551,-0.00081444744517946,0.00081444123341447,-0.00081444528186891,0.00081444351779623,0.62942561222605,128566,2924,0.0040283093728325,0.005498187991055,0.0032484027548641,41.996758374556,9.837406699645e-05,9.837406699645e-05,9.837406699645e-05,3914499.9390974,0.012857340360392
9019200,0.78470032573844,0.012901566469415,0.0041257961508649,0.0052927050673949,0.0034830652511551,-0.00098706107539857,0.00098706054004999,1.7040363698108e-09,-2.2447998660857e-09,5.0427088738708e-10,-1.1026403995339e-09,-0.0010903586830305,0.0010903607641571,-0.0010903604958247,0.0010903588713867,-0.0010903598755278,0.001090359593297,-0.0010903607984465,0.001090358618549,-0.00094724850124562,0.00094725011930755,-0.00094725101435364,0.0009472473230905,3.6773862289632e-11,-3.5294124871065e-10,-1.1650050350723e-09,8.642534543561e-10,-0.0013523377618699,0.0013523374661109,-0.0014471732820685,0.0014471735231643,-0.0014471734607197,0.0014471734171397,-0.0014471742559922,0.0014471725942591,-0.0014471732287229,0.0014471735879122,-0.0012108491713638,0.0012108457655662,-0.0012108463784984,0.0012108487040146,-0.0012704939062061,0.0012704936372867,-0.0012704932369108,0.0012704942760072,1.5023823257806e-09,-2.3755848800268e-09,-0.00079283399503085,0.00079283312226543,4.2420383475521e-09,-5.312070097665e-09,-0.00090176860888433,0.00090177296924293,-0.00090177237117953,0.00090176916742604,-0.00090177051024196,0.00090177099779999,-0.00090177327939389,0.00090176834308432,-0.00082689253726651,0.00082688631300448,-0.00082689036954838,0.00082688859893408,0.62978086232564,128566,2924,0.0041043332893391,0.0056178632232664,0.0033000713215059,42.046686168984,9.8773489351871e-05,9.8773489351871e-05,9.8773489351871e-05,3919034.5140706,0.013107957364592
9219200,0.80165726923237,0.013124859235224,0.0041959407338471,0.0053927317206582,0.0035361867807184,-0.0010034380819135,0.0010034375415085,1.6947121987167e-09,-2.2408595558945e-09,5.0329524882085e-10,-1.1046850058667e-09,-0.0011101582234777,0.0011101602994733,-0.0011101600380237,0.0011101584070834,-0.0011101594208917,0.0011101591263188,-0.0011101603357006,0.0011101581569296,-0.00096223905382891,0.00096224064625365,-0.00096224154569733,0.00096223786620384,3.305060620902e-11,-3.5125638247627e-10,-1.2529038852346e-09,9.5019930476937e-10,-0.001378431165602,0.0013784308678109,-0.0014767198812248,0.0014767200639866,-0.0014767200081146,0.0014767200147119,-0.0014767208576992,0.0014767191352816,-0.0014767197687255,0.0014767201887027,-0.0012325266852961,0.0012325231083401,-0.0012325237290177,0.001232526224504,-0.0012936994868632,0.0012936992650772,-0.0012936988059612,0.0012936999068914,1.4886336127319e-09,-2.3703661406717e-09,-0.00080378808492854,0.00080378720343058,4.3133702856162e-09,-5.3945365680299e-09,-0.00091628974795324,0.00091629414864242,-0.00091629356449506,0.0009162902932525,-0.00091629164757512,0.00091629217983967,-0.00091629446329658,0.00091628947780118,-0.00083790942375219,0.00083790316361688,-0.00083790727140977,0.00083790543060378,0.62301125275493,128566,2924,0.004172290541874,0.0057259093061557,0.00334567562397,41.896893985178,9.7575151881422e-05,9.7575151881422e-05,9.7575151881422e-05,3921398.7457338,0.013332531262749
9419200,0.81704677195835,0.013325136494868,0.0042588777033421,0.0054824896300435,0.0035837691614819,-0.0010174414648974,0.0010174409123998,1.6328527092555e-09,-2.1960076917268e-09,5.2196286690925e-10,-1.1318655252263e-09,-0.001127260981864,0.0011272630135446,-0.0011272627488451,0.001127261179384,-0.001127262182602,0.0011272618502669,-0.0011272631031168,0.0011272609088669,-0.00097493330633805,0.00097493482227516,-0.00097493581737044,0.00097493213199523,2.0152518530863e-11,-3.2437952366351e-10,-1.3880087796963e-09,1.1020422230724e-09,-0.0014012265175086,0.00140122623939,-0.0015026825271344,0.0015026826128844,-0.0015026825545861,0.001502682715,-0.0015026834825491,0.0015026817269171,-0.0015026823193504,0.001502682871267,-0.001251309202459,0.0012513054367864,-0.0012513061430971,0.0012513088316023,-0.001313804529455,0.0013138044221629,-0.0013138038328633,0.0013138050048267,1.4475620446644e-09,-2.2954962483418e-09,-0.00081293182522709,0.00081293096560282,4.4425835245052e-09,-5.489890712121e-09,-0.00092866350572166,0.00092866793339021,-0.00092866737859678,0.00092866404358886,-0.00092866535339507,0.000928666019406,-0.00092866826662994,0.00092866324313748,-0.00084711048535099,0.00084710421576147,-0.00084710837947525,0.00084710644442395,0.61621359602346,128566,2924,0.0042303951307784,0.0058202870553861,0.0033837500474235,41.414676991564,9.3717415932513e-05,9.3717415932513e-05,9.3717415932513e-05,3920940.3529628,0.013525681226408
9619200,0.83067056839213,0.01350033659403,0.0043139336570816,0.0055610452194522,0.0036253577174959,-0.0010286276789774,0.0010286271122458,1.5987530856796e-09,-2.1738174608081e-09,5.5629222475549e-10,-1.1832320578375e-09,-0.0011411840899714,0.0011411860904219,-0.001141185812334,0.0011411842913836,-0.0011411852965183,0.0011411849224234,-0.0011411862080219,0.0011411839739595,-0.00098491624199754,0.00098491772158445,-0.00098491869667182,0.00098491498898303,-2.1139018688078e-11,-2.8417689812024e-10,-1.5605568643531e-09,1.2720957996406e-09,-0.0014201760385289,0.0014201757531836,-0.001524461827971,0.0015244617385993,-0.0015244617188582,0.0015244619551946,-0.0015244627284879,0.0015244608948213,-0.0015244614799234,0.0015244621235959,-0.0012667082121335,0.0012667042213647,-0.0012667048268377,0.0012667078573154,-0.0013303097343657,0.0013303097562761,-0.0013303090709803,0.0013303103634649,1.3890474477635e-09,-2.2899870821977e-09,-0.00081989930110707,0.00081989838860501,4.5527918547752e-09,-5.6642151239901e-09,-0.00093846851940996,0.00093847295139129,-0.00093847248158156,0.00093846898667963,-0.00093847032700631,0.00093847108945948,-0.00093847335874346,0.00093846818949816,-0.00085409836569016,0.00085409198822825,-0.00085409626074743,0.00085409419961626,0.60938555776551,128566,2924,0.0042768089590573,0.0058987324590609,0.0034127731401443,40.447902107728,8.5983216861821e-05,8.5983216861821e-05,8.5983216861821e-05,3914451.2747369,0.013681687753693
9819200,0.84300606722218,0.013659898097942,0.004364104752565,0.0056323411243432,0.0036634522210338,-0.0010393234371916,0.0010393228671283,1.6371827865077e-09,-2.2141178371632e-09,5.519012106259e-10,-1.1859426669126e-09,-0.0011542926207146,0.0011542946606554,-0.0011542943856489,0.0011542928199182,-0.0011542938426305,0.0011542934739862,-0.0011542947595736,0.0011542925153973,-0.0009945636188792,0.00099456512636928,-0.00099456610065355,0.00099456237065283,-2.760762737064e-11,-2.7716744578361e-10,-1.5641501891678e-09,1.2754899434225e-09,-0.0014378494979401,0.0014378492131373,-0.0015446895617969,0.0015446894831482,-0.0015446894670979,0.0015446896820588,-0.0015446904784626,0.0015446886241247,-0.0015446892062983,0.0015446898755393,-0.001281160202763,0.001281156151557,-0.0012811567480477,0.0012811598367888,-0.0013458168285514,0.0013458167895025,-0.0013458161131338,0.0013458174789536,1.420497385859e-09,-2.3272922253683e-09,-0.00082677050970686,0.00082676959535979,4.5808161488875e-09,-5.692002820891e-09,-0.00094784305587731,0.00094784754389965,-0.00094784704650876,0.00094784353939383,-0.00094784490302165,0.00094784563730534,-0.00094784792758106,0.00094784273837725,-0.00086108337041404,0.00086107694263543,-0.0008610812554256,0.00086107917614724,0.61214217158647,128566,2924,0.0043211855875711,0.0059718904348025,0.0034413889960761,39.873794415686,8.1390355325492e-05,8.1390355325492e-05,8.1390355325492e-05,3909462.5245011,0.013829876548225
10019200,0.85405902683032,0.013803951773581,0.0044094313119267,0.0056965054789288,0.0036980149827255,-0.0010483818971999,0.0010483813236685,1.6334415395337e-09,-2.2143798505871e-09,5.5465119185116e-10,-1.1885132346777e-09,-0.001165490806523,0.001165492842597,-0.0011654925707722,0.0011654910028904,-0.0011654920308064,0.0011654916550813,-0.0011654929452569,0.0011654906958883,-0.0010027304217568,0.0010027319338696,-0.0010027329070935,0.0010027291565086,-2.8850117413422e-11,-2.7498438359231e-10,-1.5682334014872e-09,1.2802923716528e-09,-0.0014531342841177,0.001453133999466,-0.001562243579161,0.0015622434904107,-0.0015622434748326,0.0015622436959102,-0.0015622444895876,0.0015622426347569,-0.0015622432180359,0.0015622438871006,-0.0012935924718534,0.0012935884129159,-0.0012935890144898,0.0012935921090798,-0.0013592344192954,0.0013592343872229,-0.0013592337011647,0.0013592350708051,1.4125828253805e-09,-2.3220286526029e-09,-0.00083246931784299,0.0008324684007489,4.58826989771e-09,-5.7045545594835e-09,-0.00095574643510681,0.00095575092540787,-0.00095575043208564,0.0009557469137633,-0.00095574828144893,0.00095574901996481,-0.00095575130956671,0.00095574611680725,-0.00086691182892275,0.0008669054000617,-0.00086690971689292,0.00086690762507536,0.61575181229843,128566,2924,0.0043587678340602,0.0060351544300474,0.0034651278084117,39.08386113148,7.5070889051839e-05,7.5070889051839e-05,7.5070889051839e-05,3900333.9258802,0.013956217401968
10219200,0.86384898842955,0.013932690590022,0.0044499621812168,0.0057536544865624,0.0037290739222428,-0.0010557452078525,0.001055744629727,1.5741864754999e-09,-2.1595613102097e-09,5.5680861227433e-10,-1.1950565970766e-09,-0.0011747426960549,0.0011747446616931,-0.0011747443950751,0.0011747428922948,-0.0011747438928582,0.0011747435048131,-0.0011747448024363,0.0011747425520574,-0.0010093783784876,0.0010093798499012,-0.001009380851942,0.0010093771278597,-4.6773910618549e-11,-2.6070606507926e-10,-1.6245305867645e-09,1.3323934291777e-09,-0.0014660068860065,0.0014660066011474,-0.0015771097843202,0.0015771096242297,-0.0015771096197763,0.0015771098959581,-0.0015771106535984,0.0015771088118751,-0.0015771093823529,0.001577110065536,-0.0013039614411752,0.0013039574022047,-0.0013039579946303,0.001303961107932,-0.0013705341557863,0.0013705342273993,-0.001370533494789,0.0013705348338073,1.356987019228e-09,-2.2551729649004e-09,-0.00083694272912748,0.00083694182505303,4.5441605632199e-09,-5.6528873686105e-09,-0.00096213993166372,0.00096214433713302,-0.00096214386957889,0.00096214038597529,-0.00096214170599459,0.00096214250331319,-0.00096214473667125,0.00096213959922905,-0.00087148658244856,0.00087148025958201,-0.00087148451533552,0.00087148244061272,0.62007541772503,128566,2924,0.0043893165328919,0.0060884288632499,0.0034837698221585,38.044406491171,6.675525192937e-05,6.675525192937e-05,6.675525192937e-05,3887194.2280504,0.014060139816535
10419200,0.87287727006196,0.014052612862244,0.0044877322284893,0.0058066938346831,0.0037581867990715,-0.0010637795626765,0.001063778994692,1.6185039490966e-09,-2.1931496250624e-09,5.2257690891907e-10,-1.1531196759266e-09,-0.0011845085803924,0.0011845105730464,-0.0011845103179727,0.0011845087595066,-0.0011845097655245,0.0011845094241308,-0.0011845106844848,0.001184508459812,-0.0010168692529384,0.0010168707980297,-0.001016871746365,0.0010168680260623,2.4488393661089e-12,-3.1053009987155e-10,-1.4484467689455e-09,1.1565750706608e-09,-0.0014791005833275,0.0014791002957425,-0.0015920328267285,0.0015920328236391,-0.0015920327870606,0.0015920329615571,-0.0015920337427676,0.0015920319607793,-0.0015920325684873,0.00159203311559,-0.0013147314237584,0.001314727640329,-0.0013147282649834,0.0013147310398464,-0.0013822484865802,0.0013822484857536,-0.0013822478920135,0.0013822490589483,1.4024840606831e-09,-2.2785881053955e-09,-0.00084227010748631,0.00084226922433279,4.4647387427961e-09,-5.5444593776188e-09,-0.00096924343185594,0.00096924782268449,-0.00096924731594516,0.00096924392371023,-0.00096924524341338,0.00096924595222831,-0.00096924818867993,0.00096924313059078,-0.00087700573996973,0.00087699946020389,-0.00087700364647484,0.00087700167324816,0.62506671067421,128566,2924,0.0044226473807688,0.0061426168541544,0.0035059563893843,37.717607698434,6.4140861587475e-05,6.4140861587475e-05,6.4140861587475e-05,3880069.3606503,0.014171414559693
10619200,0.88132016777343,0.014162624516096,0.0045223524847001,0.0058554796492231,0.0037847923821726,-0.0010716361900821,0.0010716356318791,1.8136601419681e-09,-2.3789181551826e-09,5.149198035553e-10,-1.1368126145079e-09,-0.0011940304277216,0.0011940326556065,-0.0011940323944615,0.001194030602815,-0.0011940317081828,0.001194031408338,-0.0011940326412917,0.0011940304135078,-0.0010241829126309,0.0010241845786661,-0.0010241854561236,0.0010241816524268,1.083412920126e-10,-4.122572111193e-10,-1.0446838575076e-09,7.5752281060989e-10,-0.0014916957582141,0.0014916954654526,-0.0016063557444138,0.0016063561514386,-0.0016063560499766,0.0016063559175905,-0.0016063568301107,0.0016063551113353,-0.0016063557959493,0.0016063561113944,-0.0013251386492697,0.0013251352321151,-0.0013251359218895,0.0013251381593037,-0.0013935115758379,0.0013935112028929,-0.0013935109034911,0.0013935119317657,1.5774913516742e-09,-2.4745052562739e-09,-0.00084758542027753,0.00084758451558841,4.5562299708019e-09,-5.6481560953481e-09,-0.0009762748813176,0.00097627953196854,-0.00097627892310632,0.00097627546964187,-0.00097627692453567,0.00097627742984387,-0.00097627981382102,0.00097627465795795,-0.00088245007200299,0.00088244359764942,-0.00088244789928395,0.00088244589583336,0.61395642802941,128566,2924,0.0044552394174085,0.0061947383918035,0.0035280904600184,37.647302926797,6.3578423414374e-05,6.3578423414374e-05,6.3578423414374e-05,3877389.1092538,0.014279803114002
10819200,0.88924228166836,0.014264026180366,0.0045542437369395,0.0059005516998653,0.0038092307435616,-0.0010790321850439,0.0010790316344201,2.0229125074262e-09,-2.5802418303515e-09,5.1018484914792e-10,-1.1241646198366e-09,-0.0012029919962512,0.0012029946144943,-0.0012029943641763,0.0012029921827773,-0.0012029935400103,0.0012029931254586,-0.0012029943382884,0.0012029922539202,-0.0010310446824069,0.0010310460550714,-0.0010310469326409,0.0010310434629585,1.7954550124348e-10,-5.014900901161e-10,-7.0326816064044e-10,3.979431600508e-10,-0.0015035251148908,0.0015035248094244,-0.0016198291179009,0.0016198300561064,-0.0016198299111721,0.0016198293413878,-0.0016198305224199,0.0016198287082071,-0.0016198294410135,0.0016198297366381,-0.0013349002588709,0.0013348966880418,-0.0013348974170439,0.0013348996875957,-0.0014040726446551,0.0014040713656608,-0.0014040712676118,0.0014040727010238,1.7692252892661e-09,-2.6817649104614e-09,-0.00085260561815468,0.00085260470314322,4.6475211769771e-09,-5.7577268612808e-09,-0.00098289726443309,0.0009829023674096,-0.00098290163398758,0.00098289798220094,-0.00098289969650925,0.00098289987643549,-0.00098290239186294,0.00098289730161825,-0.00088754229481897,0.00088753612771341,-0.0008875404877575,0.00088753806375634,0.60387279335973,128566,2924,0.004485919330267,0.0062436882950103,0.0035489946415952,37.649663953246,6.3597311625971e-05,6.3597311625971e-05,6.3597311625971e-05,3878541.705816,0.014381797952836
11019200,0.89673920099757,0.014358133592009,0.0045838211475804,0.0059424907000358,0.003831821744393,-0.001086256448167,0.0010862559224983,1.5225237130596e-09,-2.0549746390059e-09,4.0233309689712e-10,-9.8881192170983e-10,-0.0012117072080919,0.0012117087449661,-0.0012117085560293,0.0012117073548211,-0.001211707971206,0.0012117080513132,-0.0012117091624945,0.0012117067824933,-0.0010377510113774,0.0010377536561043,-0.0010377544588951,0.0010377499183569,1.1367681036912e-10,-4.3955517306766e-10,-1.159169900567e-09,8.4981298532605e-10,-0.0015149291493543,0.0015149288428681,-0.0016328113413803,0.0016328112520098,-0.0016328111511167,0.0016328115386428,-0.001632811989973,0.0016328106665001,-0.0016328113644537,0.0016328112461038,-0.0013443371642851,0.0013443349518314,-0.0013443356680152,0.0013443366708349,-0.001414261557581,0.0014142627728317,-0.0014142623765664,0.0014142619260481,1.3084572558709e-09,-2.1102423593367e-09,-0.00085757259175023,0.00085757178901549,4.055898065157e-09,-5.0476212058135e-09,-0.00098938330947671,0.00098938709161133,-0.00098938656921185,0.00098938382034379,-0.00098938471007701,0.00098938563604301,-0.00098938771771496,0.00098938274764293,-0.00089254150853753,0.0008925347567589,-0.00089253859324455,0.00089253780280712,0.59321240739736,128566,2924,0.0045158857774094,0.0062908763514165,0.0035696742756769,37.826082851133,6.5008662809061e-05,6.5008662809061e-05,6.5008662809061e-05,3883820.9915933,0.01448106358078
11219200,0.90379970262024,0.014446706864646,0.004611670101091,0.0059819203782614,0.0038531163852941,-0.0010929308880582,0.0010929303707016,1.4340465950649e-09,-1.9586042042284e-09,3.9450010568779e-10,-9.7003793341876e-10,-0.0012197587169268,0.0012197597402734,-0.0012197595429757,0.0012197588527896,-0.0012197590048121,0.0012197595016453,-0.0012197606066743,0.0012197578419127,-0.0010439534491712,0.0010439569801122,-0.001043957771188,0.0010439523640682,1.013809115298e-10,-4.3006210960364e-10,-1.2040097275058e-09,8.9229711652382e-10,-0.0015255070238105,0.0015255067151264,-0.0016448844553161,0.0016448839192139,-0.0016448838231325,0.0016448846424288,-0.0016448846611205,0.001644883769759,-0.0016448844680972,0.001644883923774,-0.0013530586719198,0.0013530578108466,-0.0013530585292531,0.0013530581898231,-0.0014237240729117,0.0014237266648875,-0.0014237262751549,0.0014237244588677,1.2301716334172e-09,-2.000270339997e-09,-0.00086213466395659,0.00086213389110203,3.9557372519717e-09,-4.9152871619247e-09,-0.00099533729500546,0.00099534050334639,-0.00099534001550102,0.00099533776785476,-0.00099533817011703,0.00099533957101059,-0.00099534156203197,0.00099533630016742,-0.00089712391071828,0.00089711619675897,-0.00089711991673593,0.00089712030930702,0.5926375714037,128566,2924,0.0045435707282066,0.0063346439894911,0.0035886680556022,37.93613070386,6.5889045630884e-05,6.5889045630884e-05,6.5889045630884e-05,3888798.1957826,0.014572842003305
11419200,0.91037896162339,0.014529850879736,0.0046378320392815,0.0060188382544755,0.003873180585979,-0.0010988321917176,0.0010988316654982,1.59181117807e-09,-2.1255234914147e-09,4.4276312696393e-10,-1.0279036003682e-09,-0.0012269181863161,0.0012269195693354,-0.0012269193443069,0.0012269183431092,-0.001226918743242,0.0012269190562771,-0.0012269202046375,0.0012269175404742,-0.001049439229797,0.0010494420812087,-0.0010494429099975,0.0010494380973695,8.9799902321684e-11,-4.1960820172806e-10,-1.1096545409919e-09,7.9690267069984e-10,-0.0015350210797454,0.0015350207699409,-0.0016557834986287,0.0016557832476938,-0.0016557831583317,0.0016557836720358,-0.0016557839345557,0.0016557828643202,-0.001655783554788,0.0016557832053124,-0.001360849276786,0.0013608478471583,-0.0013608485514652,0.0013608487946508,-0.0014322289057592,0.0014322305517152,-0.0014322302270999,0.0014322292200681,1.3769479797138e-09,-2.1683433208853e-09,-0.00086608956173102,0.00086608876732301,4.121392540581e-09,-5.1042493513625e-09,-0.0010005636912837,0.0010005673192021,-0.0010005667596963,0.0010005642348202,-0.0010005649021619,0.001000566050106,-0.0010005681562419,0.0010005629177989,-0.00090111094221969,0.00090110358796342,-0.00090110742978964,0.00090110721622282,0.59626754178654,128566,2924,0.0045680484962448,0.0063740075739913,0.0036051366331008,37.863871166244,6.531096932995e-05,6.531096932995e-05,6.531096932995e-05,3889755.6435982,0.014654342173429
11619200,0.91644127375324,0.01460686519868,0.0046620790417721,0.0060529631129572,0.0038918230439503,-0.0011038682210915,0.001103867679451,1.6742362811831e-09,-2.2232411353627e-09,4.9071939471963e-10,-1.0921448034906e-09,-0.0012331043464154,0.0012331060812913,-0.0012331058373622,0.0012331045262732,-0.0012331052197147,0.0012331052564896,-0.0012331064537105,0.0012331039629572,-0.0010541183780927,0.001054120575358,-0.0010541214580921,0.0010541171998417,4.3461922797504e-11,-3.7123686908612e-10,-1.1580460268417e-09,8.4691235834997e-10,-0.001543374245275,0.0015433739375554,-0.0016654028904684,0.0016654028189282,-0.0016654027606048,0.0016654030344828,-0.0016654035474569,0.0016654022162249,-0.0016654028715912,0.0016654028531014,-0.0013676205201077,0.0013676181413391,-0.0013676188111319,0.0013676200743613,-0.0014396640975798,0.0014396647894819,-0.0014396644139256,0.0014396644456895,1.4511602215495e-09,-2.2625480074968e-09,-0.00086936348130677,0.0008693626670757,4.249243490734e-09,-5.2549599813022e-09,-0.0010049989498541,0.0010050029834402,-0.0010050023926646,0.0010049995254094,-0.0010050004982934,0.0010050013771152,-0.0010050035526021,0.0010049984441938,-0.00090442204969717,0.00090441531206077,-0.00090441926129873,0.00090441821886698,0.59873866679765,128566,2924,0.0045889371825447,0.006408565560691,0.0036187739653455,37.584050407895,6.3072403263158e-05,6.3072403263158e-05,6.3072403263158e-05,3886439.0724169,0.01472445621041
11819200,0.92195040119969,0.014677357551254,0.0046842847264682,0.0060841214925098,0.0039089513322764,-0.0011078868472273,0.0011078862873738,1.6657520730646e-09,-2.2327686091913e-09,5.3562108843018e-10,-1.1561726399548e-09,-0.0012381556062323,0.0012381575302025,-0.001238157268681,0.0012381558045487,-0.0012381566862261,0.0012381565000223,-0.0012381577496863,0.0012381553742176,-0.0010578338401689,0.001057835608601,-0.0010578365456026,0.0010578326091915,-1.7382056519517e-11,-3.050070088923e-10,-1.2923134723576e-09,9.8594969791351e-10,-0.0015503966912014,0.0015503963880878,-0.0016735664544025,0.0016735664030593,-0.0016735663847155,0.0016735665624686,-0.0016735672214767,0.0016735656927674,-0.0016735663026365,0.0016735665742126,-0.0013732175640756,0.0013732144232245,-0.0013732150503117,0.0013732171674948,-0.0014458651531933,0.0014458652885326,-0.0014458648118625,0.0014458656000582,1.438389916532e-09,-2.2657591189795e-09,-0.00087182794271669,0.00087182711185658,4.3442933284385e-09,-5.3689406921814e-09,-0.001008500727914,0.0010085049833769,-0.0010085044109071,0.0010085012851894,-0.0010085024459672,0.0010085032075065,-0.0010085053967275,0.0010085003776166,-0.0009069215400554,0.00090691523663566,-0.00090691927247559,0.00090691762390898,0.60218599258347,128566,2924,0.0046056060302046,0.0064376157721584,0.0036290460416175,37.033272133517,5.8666177068137e-05,5.8666177068137e-05,5.8666177068137e-05,3878722.3775773,0.014781286940194
12019200,0.92700357763151,0.014744132758825,0.0047053531294923,0.0061134234725584,0.0039253561567745,-0.0011118671604894,0.0011118665901282,1.6270276050522e-09,-2.203621474266e-09,5.5625290016088e-10,-1.1907472481948e-09,-0.0012430478829839,0.0012430496524657,-0.001243049382104,0.0012430480890637,-0.001243048837648,0.0012430487468661,-0.0012430500237469,0.001243047498141,-0.0010615843156036,0.0010615865090679,-0.0010615874710756,0.0010615830592167,-3.8931758837962e-11,-2.805855158345e-10,-1.3558880397864e-09,1.0521382793095e-09,-0.0015571166249555,0.0015571163241293,-0.0016813073887336,0.0016813071308966,-0.0016813071266672,0.0016813074840903,-0.0016813079905412,0.0016813065872987,-0.0016813071803837,0.0016813073609508,-0.00137863420704,0.0013786313834899,-0.0013786319929014,0.001378633826999,-0.0014518866298666,0.0014518872275847,-0.0014518867149897,0.0014518871303617,1.3946855939485e-09,-2.2325787596696e-09,-0.00087437873492975,0.00087437789348242,4.4089164101007e-09,-5.4438367337562e-09,-0.0010119770027154,0.0010119811281584,-0.0010119805897279,0.0010119775256631,-0.001011978555878,0.0010119795164173,-0.0010119816926393,0.0010119765005093,-0.00090957154918391,0.00090956482323198,-0.00090956891934023,0.00090956757739962,0.6193037585573,128566,2924,0.0046221155731751,0.0064654141146795,0.0036396748230991,36.631042449078,5.5448339592627e-05,5.5448339592627e-05,5.5448339592627e-05,3869683.959408,0.014837049031361
12219200,0.9317332218356,0.014808782060087,0.0047257835413987,0.0061415975736422,0.0039414009450466,-0.0011163471362553,0.001116346569423,1.6065770726806e-09,-2.1793415430692e-09,5.458175415109e-10,-1.1763509652855e-09,-0.0012483795703347,0.0012483812463785,-0.0012483809814852,0.0012483797706475,-0.001248380441341,0.0012483804249939,-0.0012483816890116,0.0012483791131652,-0.0010659059013274,0.001065908274688,-0.0010659092195114,0.0010659046539219,-6.5599878321688e-13,-3.2193323163135e-10,-1.3078597239597e-09,1.0013844270402e-09,-0.0015641829222123,0.0015641826183313,-0.0016892875723214,0.0016892873014084,-0.001689287273513,0.0016892876892137,-0.0016892881321175,0.0016892867985723,-0.0016892874203707,0.0016892874729416,-0.0013844870645105,0.0013844845456325,-0.0013844851861829,0.0013844866554894,-0.0014583426487679,0.0014583435220823,-0.0014583430487627,0.0014583431158898,1.3666453112253e-09,-2.2072981004479e-09,-0.00087747634923062,0.00087747550507853,4.4268271669982e-09,-5.4643838692336e-09,-0.0010159704910591,0.0010159745322772,-0.0010159740134531,0.0010159709943228,-0.0010159719517539,0.0010159730129562,-0.0010159751745609,0.0010159699105536,-0.00091285380247745,0.00091284688309842,-0.00091285099643419,0.00091284981541928,0.63790519709259,128566,2924,0.0046406970183412,0.0064946445933191,0.0036525756662442,36.590970892286,5.5127767138287e-05,5.5127767138287e-05,5.5127767138287e-05,3859919.6321554,0.014898675901874
12419200,0.93619821779269,0.01486776901209,0.0047443965738154,0.0061674612478768,0.0039559111903979,-0.0011207899009845,0.0011207893515438,1.6646476194814e-09,-2.2202370854623e-09,4.7830522238135e-10,-1.0905078970852e-09,-0.0012536974807411,0.0012536994432137,-0.0012536992122813,0.0012536976517921,-0.001253698589848,0.0012536983873631,-0.0012536995891572,0.0012536973332244,-0.0010701844469329,0.0010701861149453,-0.0010701870066106,0.0010701832835293,1.2966391826807e-11,-3.3443270778093e-10,-1.3431305176376e-09,1.0385221327441e-09,-0.0015711405963043,0.0015711402953281,-0.001697094298639,0.0016970943099216,-0.001697094270754,0.0016970944398281,-0.0016970951593427,0.0016970935103531,-0.0016970941361534,0.0016970944999529,-0.0013902997107286,0.001390296234197,-0.0013902969068537,0.0013902993088425,-0.0014646606369985,0.0014646606588086,-0.0014646601580287,0.0014646611182224,1.4301034770704e-09,-2.2339017272704e-09,-0.00088059176344807,0.00088059095400807,4.3141787094489e-09,-5.3096235655253e-09,-0.0010200309627676,0.0010200352598146,-0.0010200346827239,0.0010200315291917,-0.0010200327366725,0.0010200334270787,-0.0010200355887347,0.0010200307009304,-0.00091611915001626,0.00091611311915465,-0.00091611711455138,0.00091611528418892,0.61827140307978,128566,2924,0.0046591237294726,0.0065234232167814,0.0036655514106033,36.717324335837,5.6138594686694e-05,5.6138594686694e-05,5.6138594686694e-05,3851320.5058261,0.014959768245535
12619200,0.94035664661177,0.014919682599907,0.0047607348647192,0.0061904577319966,0.0039684900031914,-0.0011243268218883,0.0011243262791591,1.6684020437643e-09,-2.2179235784183e-09,4.6672545028985e-10,-1.0697350887391e-09,-0.0012580699492116,0.0012580719468606,-0.0012580717204536,0.0012580701129532,-0.0012580710868361,0.0012580708602991,-0.0012580720412475,0.0012580698437975,-0.001073494793667,0.0010734964001191,-0.0010734972678573,0.0010734936324429,2.7398708282387e-11,-3.5297663527667e-10,-1.3304338803347e-09,1.0215440476482e-09,-0.0015770071357461,0.0015770068295309,-0.0017037866805874,0.0017037867475486,-0.0017037867032867,0.0017037868198232,-0.0017037875899236,0.0017037858973146,-0.0017037865411936,0.0017037869084064,-0.0013950976484905,0.0013950940259121,-0.0013950946919848,0.0013950972232847,-0.0014698623588376,0.0014698622527285,-0.0014698617564957,0.001469862824423,1.4239965525887e-09,-2.232032950601e-09,-0.00088294058503123,0.00088293977218844,4.2909924938307e-09,-5.29549735612e-09,-0.0010232529274724,0.0010232572527057,-0.0010232566784151,0.0010232534881321,-0.001023254741468,0.0010232553810971,-0.0010232575377573,0.0010232527070895,-0.00091851766376156,0.00091851178084217,-0.00091851575312051,0.00091851381191758,0.58731727084519,128566,2924,0.0046737930735065,0.0065476871670409,0.0036753386284772,36.603600426521,5.5228803412171e-05,5.5228803412171e-05,5.5228803412171e-05,3847014.4293608,0.015009230961241
12819200,0.9442246197422,0.014968379653635,0.0047760695042158,0.0062119679980635,0.003980342151356,-0.0011275680755512,0.0011275675343913,1.6671596882689e-09,-2.2150322235745e-09,4.6730247797455e-10,-1.0686358020863e-09,-0.0012620166665368,0.001262018766114,-0.001262018538753,0.0012620168308976,-0.0012620179053339,0.0012620175781893,-0.0012620187575469,0.0012620166651191,-0.0010765175384155,0.0010765189083903,-0.0010765197751906,0.0010765163807362,3.4762363504245e-11,-3.624991436647e-10,-1.312057784653e-09,1.0009999477858e-09,-0.0015823346911693,0.0015823343833649,-0.0017099054284296,0.0017099056142037,-0.0017099055659868,0.0017099055712138,-0.0017099064454475,0.0017099046565851,-0.0017099053062486,0.0017099057564947,-0.0013994238830932,0.0013994199888285,-0.0013994206607005,0.0013994234491829,-0.0014746072533552,0.0014746068352725,-0.0014746063530642,0.0014746077030047,1.4186977303207e-09,-2.2237983245915e-09,-0.00088509824683558,0.00088509743779663,4.2846744857238e-09,-5.2851033348331e-09,-0.001026122462124,0.0010261268810969,-0.0010261263075179,0.0010261230219996,-0.0010261243727873,0.0010261249125546,-0.0010261270612968,0.001026122346394,-0.00092070765773829,0.00092070205230428,-0.00092070601493554,0.00092070381611604,0.59135073482828,128566,2924,0.0046872356487957,0.0065697234452596,0.0036843260874927,36.464674496933,5.4117395975468e-05,5.4117395975468e-05,5.4117395975468e-05,3847481.4388014,0.015054375268459
13019200,0.94774348089467,0.01501284398375,0.0047900751823226,0.0062315780506413,0.0039911907507864,-0.001129696845239,0.0011296962956604,1.6800247949398e-09,-2.236592725074e-09,4.8792600655388e-10,-1.0971001088742e-09,-0.0012647702688555,0.0012647724129259,-0.0012647721783161,0.0012647704411498,-0.0012647715486872,0.0012647711839864,-0.0012647723881283,0.0012647702841669,-0.0010784650220139,0.0010784663912277,-0.0010784672894266,0.0010784638442246,-8.2529305256963e-12,-3.167803975763e-10,-1.3792431025994e-09,1.0704816636376e-09,-0.0015863400089772,0.0015863397041248,-0.0017146247256877,0.0017146248640345,-0.0017146248439562,0.0017146248440724,-0.0017146257377244,0.0017146239138739,-0.0017146245308582,0.001714625081516,-0.0014025373230913,0.0014025332554011,-0.0014025338955452,0.0014025369253217,-0.0014780880302856,0.001478087514763,-0.0014780869763796,0.0014780885226351,1.4321618421281e-09,-2.2357883166704e-09,-0.00088629639408069,0.00088629558654436,4.2877596487389e-09,-5.2885515799125e-09,-0.0010279476757195,0.001027952131592,-0.0010279515481889,0.0010279482454758,-0.0010279496189623,0.0010279501306466,-0.0010279522853674,0.001027947586624,-0.00092190854697718,0.00092190297689793,-0.00092190693448186,0.00092190470935958,0.59303210242745,128566,2924,0.0046960650545292,0.0065862884974467,0.0036893255058759,35.905603040839,4.9644824326713e-05,4.9644824326713e-05,4.9644824326713e-05,3842231.617226,0.015085235630759
13219200,0.95092177988403,0.015053188942786,0.0048027863608792,0.0062493365294221,0.0040010660524844,-0.0011312079934408,0.0011312074314952,1.672303231957e-09,-2.2409654583945e-09,5.2106851795159e-10,-1.1441981742959e-09,-0.0012668314076813,0.0012668335168206,-0.0012668332669598,0.0012668315931521,-0.0012668326635713,0.0012668323100602,-0.0012668335525674,0.0012668313610053,-0.0010798282969965,0.001079829805311,-0.001079830738217,0.0010798270780358,-4.2833036009564e-11,-2.7832978692195e-10,-1.4109997562789e-09,1.1057455697613e-09,-0.0015895309455881,0.0015895306438463,-0.0017184531075572,0.0017184531543922,-0.0017184531561556,0.0017184532044449,-0.0017184540479237,0.0017184522767099,-0.0017184528670763,0.0017184534187442,-0.0014049365015391,0.001404932556269,-0.0014049331696726,0.0014049361297369,-0.0014808126830057,0.0014808122958958,-0.0014808117368974,0.0014808132044723,1.4228559894468e-09,-2.2325810902179e-09,-0.00088700464368758,0.00088700382967018,4.3289633745228e-09,-5.3359869688151e-09,-0.0010292055301957,0.001029209951453,-0.001029209377913,0.0010292060894536,-0.0010292074177024,0.0010292080058369,-0.0010292101640207,0.0010292053816644,-0.00092261281569966,0.00092260704906374,-0.00092261104371362,0.00092260894140855,0.59512912773938,128566,2924,0.0047023333430212,0.0065994841813589,0.0036922877837482,35.183602917251,4.3868823338009e-05,4.3868823338009e-05,4.3868823338009e-05,3833912.5895144,0.015108007820733
13419200,0.95379683103297,0.015089088796472,0.0048140870238603,0.0062651701358117,0.0040098316368004,-0.00113239331319,0.0011323927424418,1.6707645615119e-09,-2.2477948901874e-09,5.4345811006602e-10,-1.1754475926476e-09,-0.0012685212712769,0.001268523383452,-0.0012685231252173,0.0012685214647816,-0.0012685225364917,0.0012685221671421,-0.0012685234360667,0.0012685212076135,-0.001080876254507,0.0010808777644333,-0.0010808787212559,0.0010808750089713,-6.4701393181557e-11,-2.539641150412e-10,-1.4308573452315e-09,1.1278218949917e-09,-0.001592234066962,0.0015922337674236,-0.0017217309092994,0.0017217309251451,-0.0017217309407904,0.0017217309933017,-0.0017217318316359,0.0017217300660679,-0.0017217306386166,0.0017217312205032,-0.0014069304457764,0.0014069265099181,-0.0014069271061774,0.0014069300916129,-0.0014830795123208,0.001483079132811,-0.0014830785577921,0.0014830800490786,1.419309811304e-09,-2.2322939688909e-09,-0.00088748584425931,0.00088748502704293,4.3523914582815e-09,-5.3631689796779e-09,-0.001030192658096,0.0010301970807047,-0.0010301965108828,0.0010301932137437,-0.0010301945341007,0.0010301951461005,-0.00103019730632,0.0010301924962227,-0.00092307603193886,0.00092307020645362,-0.00092307422190742,0.00092307213846404,0.58608787320132,128566,2924,0.0047072504519695,0.0066106616328093,0.0036943051473934,34.453032027338,3.8024256218705e-05,3.8024256218705e-05,3.8024256218705e-05,3825184.8753716,0.015126400496391
13619200,0.95642910542715,0.015121529432156,0.0048242916157079,0.0062794951561809,0.0040177426602669,-0.0011336903964448,0.0011336898281339,1.6653017029996e-09,-2.2395449792984e-09,5.2615736698339e-10,-1.1574562218011e-09,-0.0012702716521362,0.0012702734694618,-0.0012702732210065,0.0012702718386245,-0.0012702726251415,0.0012702725470305,-0.0012702738016087,0.0012702713118102,-0.0010820405387447,0.0010820428743829,-0.0010820438283452,0.0010820393206062,-7.2458435503356e-11,-2.4781806709287e-10,-1.4281646280804e-09,1.1235846000853e-09,-0.0015949056244547,0.0015949053249273,-0.0017249355380732,0.0017249352719959,-0.0017249352925102,0.0017249356205838,-0.0017249361758449,0.0017249347010398,-0.0017249352667894,0.001724935569792,-0.0014089479841861,0.0014089449467969,-0.0014089455332104,0.001408947634852,-0.0014853499006131,0.0014853504062976,-0.0014853498293717,0.0014853504288947,1.4122689452598e-09,-2.2166383343749e-09,-0.00088813533768615,0.00088813452978817,4.3206076494315e-09,-5.3221185237789e-09,-0.0010312934567036,0.0010312975738444,-0.0010312970033028,0.0010312940139886,-0.0010312950415489,0.0010312959307298,-0.0010312980733082,0.0010312930220752,-0.00092370323875554,0.00092369663823232,-0.00092370061270554,0.00092369938868802,0.5789032554758,128566,2924,0.0047126307834682,0.0066217095496863,0.0036970190545155,33.908172375971,3.3665379007766e-05,3.3665379007766e-05,3.3665379007766e-05,3820328.8034569,0.015145838637867
13819200,0.95886165418924,0.015151499121439,0.0048337191409064,0.006292713854263,0.0040250661262695,-0.0011350853705884,0.0011350848074409,1.6425250641228e-09,-2.2116206448697e-09,5.1779636848887e-10,-1.1435967530218e-09,-0.0012720740683636,0.0012720757187852,-0.0012720754716724,0.001272074250118,-0.0012720748824319,0.0012720749534221,-0.0012720761939921,0.0012720735808943,-0.0010833165884622,0.0010833192267185,-0.0010833201545535,0.0010833153698226,-3.0293235738913e-11,-2.9063550581421e-10,-1.3416983870353e-09,1.036787251567e-09,-0.0015975534896179,0.0015975531877856,-0.00172807963166,0.0017280793047705,-0.0017280792989026,0.0017280797346623,-0.0017280801563315,0.001728078843611,-0.0017280794408772,0.0017280795177365,-0.0014109885527216,0.0014109861416825,-0.0014109867606636,0.0014109881692213,-0.0014876350220547,0.0014876360367722,-0.0014876355296667,0.0014876355035054,1.3829116641707e-09,-2.1868022755362e-09,-0.00088892712279959,0.00088892631454532,4.3208092407436e-09,-5.3202735241607e-09,-0.0010324887928482,0.0010324927322596,-0.0010324921802625,0.0010324893303456,-0.0010324902056076,0.0010324912610974,-0.0010324933875014,0.0010324882009345,-0.00092447662976848,0.00092446961985649,-0.00092447360062144,0.00092447277230455,0.57842618072011,128566,2924,0.0047184168503369,0.0066326603187884,0.0037003219646541,33.507792276646,3.0462338213167e-05,3.0462338213167e-05,3.0462338213167e-05,3818104.8681006,0.015166187699647
14019200,0.96114708333329,0.015179657874763,0.0048425779831201,0.0063051206779248,0.0040319592137184,-0.0011368926061145,0.0011368920604966,1.6997011035149e-09,-2.2512663303229e-09,4.6405157220661e-10,-1.0719372908163e-09,-0.0012742688563855,0.0012742711050608,-0.0012742708827656,0.0012742690150487,-0.0012742702196024,0.00127426979124,-0.0012742709723142,0.0012742689763973,-0.0010850227790997,0.0010850237550589,-0.0010850246279338,0.0010850216239643,5.3303006923845e-12,-3.2763902855846e-10,-1.323213869254e-09,1.0167344371079e-09,-0.0016005423878473,0.0016005420837739,-0.0017315306445801,0.0017315309516969,-0.0017315309259062,0.0017315307664448,-0.0017315317946285,0.0017315298655026,-0.0017315304894965,0.0017315311263898,-0.0014134007992193,0.0014133965783365,-0.0014133972194388,0.0014134003887129,-0.0014902891966717,0.0014902883839811,-0.0014902878870123,0.0014902896801012,1.4371071247903e-09,-2.2213440877432e-09,-0.00089013473353658,0.00089013394609458,4.2153960522795e-09,-5.1924533195813e-09,-0.00103408999794,0.0010340945002665,-0.0010340938988704,0.0010340905842447,-0.0010340920290551,0.001034092411022,-0.0010340945448635,0.0010340900157979,-0.00092568318321744,0.00092567792260716,-0.00092568180689849,0.00092567942628795,0.57821463647547,128566,2924,0.0047259123227043,0.0066450223681876,0.0037053514419795,33.391092953727,2.952874362982e-05,2.952874362982e-05,2.952874362982e-05,3818793.0628534,0.015191458006307
14219200,0.96328998822953,0.015205066151782,0.0048505571745212,0.0063163903633897,0.0040381186138711,-0.001138446559383,0.0011384460242976,1.6939227102964e-09,-2.2353280094106e-09,4.4421043547023e-10,-1.0389781921059e-09,-0.0012762046106664,0.0012762069844579,-0.0012762067703503,0.001276204761261,-0.0012762060965775,0.0012762055483846,-0.0012762067025368,0.0012762048814866,-0.0010864674509104,0.0010864682037909,-0.0010864690483852,0.0010864663211862,4.2553654426832e-11,-3.7132719044452e-10,-1.2649564466253e-09,9.5267892548924e-10,-0.0016032083928762,0.0016032080839716,-0.0017346354382291,0.0017346359258629,-0.0017346358760203,0.0017346355839647,-0.0017346367302827,0.0017346346969061,-0.0017346353497015,0.0017346360321103,-0.0014155283501915,0.0014155237312736,-0.0014155244049023,0.0014155279067288,-0.0014926190726172,0.0014926178346601,-0.0014926173788657,0.0014926194871447,1.4248392428873e-09,-2.2028732310814e-09,-0.00089113685452099,0.00089113607337628,4.1979263133504e-09,-5.1684211987939e-09,-0.0010354794797371,0.0010354841165332,-0.0010354835182837,0.0010354800629857,-0.0010354816535812,0.001035481884588,-0.0010354840018789,0.0010354796575749,-0.00092666242219818,0.00092665766747782,-0.0009266615279464,0.00092665868386455,0.5585676713898,128566,2924,0.00473235736015,0.0066560482789527,0.0037095265458197,33.233991061535,2.8271928492284e-05,2.8271928492284e-05,2.8271928492284e-05,3819377.5527914,0.015213438825351
14419200,0.96528666144062,0.015229005913645,0.0048580815903685,0.0063269735454844,0.0040439507777924,-0.0011396538476044,0.0011396533138607,1.6646047050718e-09,-2.2052216954186e-09,4.4971126399723e-10,-1.0415651930748e-09,-0.0012777240537079,0.0012777259088245,-0.0012777256918384,0.0012777242072654,-0.001277725038445,0.0012777249744784,-0.0012777261295511,0.0012777238215661,-0.0010875628763267,0.0010875651746394,-0.0010875660187663,0.0010875617422895,5.4524516313454e-11,-3.8515263979241e-10,-1.2343016232856e-09,9.203604969127e-10,-0.0016053988427957,0.0016053985320226,-0.0017372488162249,0.0017372488132233,-0.0017372487567473,0.0017372489675321,-0.0017372496001337,0.0017372480911996,-0.0017372487534622,0.0017372488918482,-0.0014172126694512,0.0014172096569993,-0.0014172103425786,0.0014172122169482,-0.0014945187558385,0.0014945191573515,-0.0014945187228745,0.0014945191448644,1.3895001115122e-09,-2.1703487627257e-09,-0.00089185990500447,0.00089185912088292,4.2192650177029e-09,-5.1935639851439e-09,-0.001036495728285,0.0010364998472902,-0.0010364992737562,0.0010364962874544,-0.0010364973740084,0.0010364981440409,-0.0010365002426929,0.0010364953963487,-0.0009273483773515,0.00092734218670093,-0.00092734606365006,0.00092734462080343,0.56383593789792,128566,2924,0.0047373645782856,0.0066651083419538,0.0037125392742111,32.955926133075,2.6047409064598e-05,2.6047409064598e-05,2.6047409064598e-05,3821325.1712139,0.015230782939207
14619200,0.96706272150129,0.015250422599333,0.0048648159164431,0.0063364230269801,0.0040491836559102,-0.0011390689855041,0.0011390684439246,1.6032622019421e-09,-2.1523667439444e-09,4.8906708303669e-10,-1.0880079048112e-09,-0.0012773885022845,0.0012773908331234,-0.0012773905959434,0.0012773886714444,-0.0012773900039595,0.0012773893768747,-0.001277390562078,0.0012773887474901,-0.0010868791186948,0.0010868796683713,-0.0010868805360303,0.0010868779337353,6.1370358118862e-11,-3.9223776934657e-10,-1.2735422341001e-09,9.5800202122526e-10,-0.0016056143848786,0.0016056140706031,-0.0017378347381834,0.0017378352260458,-0.0017378351728054,0.0017378348756409,-0.001737836048305,0.0017378339717748,-0.0017378346474272,0.0017378353261306,-0.001417017574909,0.0014170129785144,-0.0014170136436093,0.0014170171093907,-0.0014944824396587,0.001494481314893,-0.0014944808517015,0.0014944828853253,1.307156158931e-09,-2.1302973822569e-09,-0.00089094803796941,0.00089094721341114,4.3700885008549e-09,-5.3949230533177e-09,-0.0010357975692832,0.0010358022190646,-0.001035801718934,0.0010357980494785,-0.0010357996675953,0.0010358000637771,-0.001035802156196,0.0010357976883879,-0.00092635376507194,0.00092634898258192,-0.0009263530078641,0.00092634985713708,0.56645706562484,128566,2924,0.0047349405960967,0.0066659972512693,0.0037087594419654,31.823367988182,1.6986943905454e-05,1.6986943905454e-05,1.6986943905454e-05,3810673.8698498,0.015225390067956
14819200,0.96866274397203,0.01526985170149,0.0048709287180158,0.0063449696107141,0.0040539533727606,-0.0011386762491717,0.0011386756992268,1.6416127606291e-09,-2.19847683631e-09,4.9801726138694e-10,-1.1119187786446e-09,-0.0012772105438611,0.0012772127566026,-0.0012772125165756,0.001277210725802,-0.0012772119002976,0.0012772114379714,-0.0012772126597864,0.0012772106458282,-0.0010864045992059,0.0010864058391807,-0.0010864067729737,0.001086403458542,6.6477899145813e-12,-3.3877894912389e-10,-1.3853129914626e-09,1.068628587542e-09,-0.0016059340322822,0.0016059337230874,-0.0017384779197884,0.0017384781364154,-0.0017384781182062,0.0017384780640684,-0.0017384790239276,0.0017384770971274,-0.0017384777258572,0.0017384783652844,-0.0014169712806562,0.0014169669795533,-0.0014169676497831,0.0014169708792934,-0.0014945798809004,0.0014945792261313,-0.0014945786886916,0.0014945803922485,1.3649903977983e-09,-2.1492565649023e-09,-0.00089026444710521,0.00089026365440235,4.4001356744343e-09,-5.3775193070822e-09,-0.0010353014443703,0.0010353059861937,-0.0010353054386123,0.0010353019741156,-0.0010353034088178,0.0010353039559655,-0.0010353060532477,0.001035301432177,-0.00092561000337768,0.0009256046893305,-0.00092560871878156,0.00092560611953025,0.56962155997694,128566,2924,0.0047333133584844,0.0066673172778215,0.0037059270947673,30.87117373223,9.3693898578385e-06,9.3693898578385e-06,9.3693898578385e-06,3800778.6436627,0.015222205333712
15019200,0.97007561264325,0.015286946212777,0.004876306655146,0.0063524846870388,0.004058154870592,-0.0011373952680132,0.0011373947110072,1.488621154004e-09,-2.0534228705864e-09,5.601106336094e-10,-1.1740767302324e-09,-0.0012761049591361,0.001276106921468,-0.0012761066499553,0.0012761051563329,-0.0012761061744489,0.0012761057460433,-0.0012761069911712,0.0012761048473692,-0.0010850438774126,0.0010850452763744,-0.0010850461765062,0.0010850425934601,6.5031367159902e-11,-4.0871881456783e-10,-1.2859596033462e-09,9.5717593557926e-10,-0.0016052191481736,0.0016052188205493,-0.0017380426811785,0.0017380428029045,-0.0017380427553021,0.0017380427974283,-0.0017380436412765,0.0017380418863256,-0.0017380425834211,0.0017380428996095,-0.0014159601324776,0.0014159565513374,-0.0014159571942368,0.0014159596310051,-0.001493668238494,0.0014936682113684,-0.0014936677641755,0.0014936686741743,1.1599610934315e-09,-2.048030372293e-09,-0.00088877702676954,0.00088877613981845,4.5930271142627e-09,-5.6915096186832e-09,-0.0010339553409399,0.0010339596946728,-0.0010339593282843,0.0010339556859095,-0.0010339570307456,0.0010339579500832,-0.0010339600183142,0.0010339550672723,-0.00092404110324225,0.00092403531295872,-0.00092403956748407,0.00092403696348723,0.56738227932232,128566,2924,0.0047280028580438,0.006664357015737,0.0036997544787902,29.525916588965,-1.3926672882791e-06,-1.3926672882791e-06,-1.3926672882791e-06,3784907.2947402,0.015207544231481
15219200,0.9712365434017,0.015300359733333,0.0048805176186352,0.0063584239765013,0.0040614181381968,-0.001133462334505,0.0011334617994083,1.6014796824814e-09,-2.1444890676485e-09,4.5998006031277e-10,-1.0532839567805e-09,-0.0012722571240143,0.0012722592216614,-0.0012722590016184,0.0012722572813301,-0.0012722583888965,0.0012722580030744,-0.0012722591578341,0.0012722571586995,-0.0010810067915526,0.0010810080731152,-0.0010810089254035,0.0010810056529765,1.0996422037443e-10,-4.4463814796273e-10,-1.5207756363482e-09,1.2012748129379e-09,-0.001601558724375,0.0016015584070641,-0.0017346107110186,0.0017346108413667,-0.0017346107620253,0.0017346108783171,-0.001734611830967,0.0017346097739044,-0.0017346104895462,0.0017346110758917,-0.0014121189290293,0.0014121144844209,-0.0014121152031395,0.0014121184377238,-0.0014898495935377,0.0014898494480448,-0.001489848826001,0.0014898502315475,1.2641042996468e-09,-2.1373604489584e-09,-0.00088481638855554,0.000884815514425,4.6437330745539e-09,-5.7238350843104e-09,-0.0010300080816921,0.0010300126587453,-0.001030012214898,0.0010300084982992,-0.0010300099532727,0.0010300107270746,-0.0010300128505831,0.001030007937166,-0.00091990297384221,0.00091989732627987,-0.00091990160792722,0.00091989882142257,0.54391445785802,128566,2924,0.0047116953152237,0.0066492102715267,0.0036833057000994,26.88422560917,-2.2526195126642e-05,-2.2526195126642e-05,-2.2526195126642e-05,3752601.1490246,0.015158914035675
15419200,0.97229308403008,0.015314375842899,0.0048849521521822,0.0063644517298471,0.0040649719608697,-0.0011326723027303,0.0011326717589138,1.6603718917233e-09,-2.2102159851185e-09,4.8869528047405e-10,-1.0954450423177e-09,-0.0012715053736122,0.0012715074081097,-0.0012715071715147,0.001271505551885,-0.0012715065482518,0.0012715062859247,-0.0012715074774587,0.0012715052880416,-0.0010801567665335,0.001080158518394,-0.0010801594050131,0.0010801556100239,1.995542325787e-11,-3.5335427968107e-10,-1.470616739374e-09,1.1535067268672e-09,-0.0016010853030737,0.001601084990508,-0.0017343406226708,0.0017343406212077,-0.0017343405891156,0.0017343407500961,-0.0017343415640557,0.0017343397387483,-0.0017343403834327,0.0017343408807485,-0.001411429518281,0.0014114256122893,-0.0014114262776171,0.0014114290846012,-0.0014892823914841,0.0014892823935974,-0.0014892818146292,0.001489282948688,1.3420540321356e-09,-2.1697952221957e-09,-0.00088390613589589,0.00088390530657606,4.4569040259061e-09,-5.4801902686926e-09,-0.0010290864835249,0.0010290908756882,-0.0010290903609174,0.0010290869783092,-0.0010290882685895,0.0010290890315954,-0.001029091149928,0.0010290862648347,-0.00091895068692118,0.0009189447353282,-0.00091894884312775,0.00091894671079823,0.61488004001147,128566,2924,0.0047084199809329,0.0066472523614365,0.0036795256555345,25.931615080084,-3.0147079359328e-05,-3.0147079359328e-05,-3.0147079359328e-05,3744280.6991681,0.015149763495327
15619200,0.97328928012341,0.015327880403336,0.0048892291410095,0.0063702366734978,0.0040684145888287,-0.0011329220545296,0.0011329214618837,1.4413838303862e-09,-2.0391889527822e-09,6.9084321594926e-10,-1.3506714764429e-09,-0.0012719348236997,0.0012719362716778,-0.0012719359365195,0.0012719350960894,-0.0012719355858333,0.0012719355618344,-0.0012719369337353,0.0012719341165779,-0.0010804419630401,0.0010804448312681,-0.0010804458662102,0.00108044055843,9.1460149190517e-11,-4.4338356828928e-10,-8.9459956753847e-10,5.5877409242327e-10,-0.0016018442102694,0.0016018438784303,-0.0017352274680957,0.0017352273087447,-0.0017352272332264,0.0017352275961422,-0.0017352278883223,0.0017352269312691,-0.0017352276421682,0.0017352271218569,-0.0014120122044677,0.0014120111175433,-0.001412011781913,0.0014120116541009,-0.0014899192787964,0.0014899207834699,-0.0014899206281804,0.0014899194595228,1.1075232984566e-09,-2.000682409647e-09,-0.00088396278149595,0.00088396189411442,4.6196166038544e-09,-5.7138674537476e-09,-0.0010293685292985,0.0010293723070903,-0.001029371970986,0.0010293688367549,-0.0010293696250212,0.0010293711510177,-0.0010293731826536,0.001029367695166,-0.00091904942813838,0.00091904199261511,-0.00091904629126247,0.0009190452686187,0.62695262445836,128566,2924,0.0047094574275655,0.0066503873929746,0.003679770161381,25.554178968474,-3.3166568252206e-05,-3.3166568252206e-05,-3.3166568252206e-05,3730314.8057946,0.015154251092358
15819200,0.97420820757828,0.015341272504436,0.004893483484367,0.0063759068614859,0.0040718821585835,-0.0011324285634205,0.00113242798926,1.5510004818143e-09,-2.1320291912795e-09,6.1622982595108e-10,-1.2532131299638e-09,-0.0012716014487387,0.0012716030352833,-0.0012716027366731,0.0012716016922551,-0.0012716022691428,0.001271602270803,-0.0012716035823751,0.0012716008803269,-0.0010800112635466,0.0010800139785746,-0.0010800149843292,0.0010800099746574,-6.802153845928e-12,-3.2463249199432e-10,-1.0117640181273e-09,6.9592457645248e-10,-0.0016018058728426,0.00160180556161,-0.0017352852829803,0.0017352851156351,-0.0017352850958333,0.0017352853818784,-0.0017352857600081,0.0017352846941257,-0.0017352853140417,0.0017352850915861,-0.0014118406035189,0.00141183900866,-0.0014118396441065,0.0014118401814769,-0.0014897886865984,0.0014897897306531,-0.0014897894526902,0.0014897889509635,1.2442256462973e-09,-2.0518099161274e-09,-0.00088331855319056,0.00088331774554335,4.3316084134834e-09,-5.3336217822179e-09,-0.0010289310119732,0.0010289348234714,-0.0010289343576402,0.001028931456277,-0.001028932286337,0.0010289334899705,-0.0010289355139239,0.0010289303738715,-0.00091844485932587,0.00091843792400648,-0.00091844191674643,0.00091844100040399,0.66920158086836,128566,2924,0.0047074130081353,0.0066502232809331,0.0036771041077608,24.792394972748,-3.9260840218014e-05,-3.9260840218014e-05,-3.9260840218014e-05,3710191.2659882,0.015149305826607
16019200,0.97508569759332,0.015354030418679,0.0048975360708654,0.006381311188564,0.0040751831592495,-0.0011329217018846,0.0011329211419393,1.6863772431122e-09,-2.251444080782e-09,5.6714072749008e-10,-1.1923570193704e-09,-0.0012723271612404,0.0012723294734575,-0.0012723291943357,0.0012723273875419,-0.0012723286152707,0.0012723280863165,-0.0012723293434928,0.0012723272684672,-0.0010806242397752,0.001080625180301,-0.0010806261309553,0.001080623001742,-1.0605994258862e-10,-2.1069369774628e-10,-1.098442178169e-09,7.9782587367309e-10,-0.001602894381636,0.0016028940836247,-0.0017364200925043,0.0017364204813548,-0.0017364205113307,0.0017364201328479,-0.0017364211689254,0.0017364194662525,-0.0017364200060245,0.0017364205777792,-0.0014128138372114,0.0014128101201784,-0.0014128106858061,0.0014128135026329,-0.0014907721637771,0.0014907710336359,-0.0014907707031073,0.0014907725013425,1.3907937671794e-09,-2.1447432520447e-09,-0.00088360544818906,0.00088360469555636,4.0381627183715e-09,-4.9749555132189e-09,-0.0010295512354677,0.0010295556297576,-0.0010295550345707,0.0010295518135752,-0.0010295532506847,0.0010295535614699,-0.0010295556119536,0.0010295513153976,-0.00091882863165608,0.0009188237344656,-0.00091882745465641,0.00091882503606251,0.66743247889739,128566,2924,0.0047094603724887,0.0066547184547464,0.0036783103031242,24.593426857654,-4.0852585138769e-05,-4.0852585138769e-05,-4.0852585138769e-05,3691523.3814824,0.015157177269763
16219200,0.97595158629803,0.015366562685834,0.0049015157202274,0.006386625271931,0.0040784216936751,-0.0011344063668467,0.0011344057928447,1.6759167223357e-09,-2.255258315807e-09,6.2065345881581e-10,-1.260241171262e-09,-0.0012740647404718,0.0012740673573767,-0.0012740670517675,0.0012740649891412,-0.0012740665064966,0.001274065643912,-0.0012740669613133,0.0012740651156169,-0.0010822362423398,0.0010822363745422,-0.0010822373879119,0.0010822349517194,-9.8255603299941e-11,-2.2209972706462e-10,-9.2828924493018e-10,6.2320916538779e-10,-0.0016050498535472,0.0016050495516211,-0.0017386225310398,0.0017386233089616,-0.0017386233399148,0.0017386225765829,-0.001738623883047,0.0017386220160811,-0.0017386225659595,0.0017386232817974,-0.0014148311858582,0.0014148269252507,-0.001414827484973,0.00141483083571,-0.0014928185186596,0.0014928164246705,-0.0014928162020558,0.0014928187466909,1.3837437510819e-09,-2.1316071168125e-09,-0.00088484314085667,0.00088484239349206,4.0223298010562e-09,-4.9545813494123e-09,-0.0010311510286463,0.0010311556871676,-0.0010311550917802,0.0010311516020807,-0.0010311533162687,0.0010311533399675,-0.0010311553781813,0.0010311513907951,-0.00092018423294939,0.00092018023951674,-0.00092018395021487,0.0009201806535356,0.66426057488391,128566,2924,0.0047156189102305,0.0066636281426409,0.003683466266081,24.944785556316,-3.8041715549473e-05,-3.8041715549473e-05,-3.8041715549473e-05,3682860.8254775,0.015177713684098
16419200,0.9767458949614,0.01537683596897,0.0049047600951774,0.0063910702934186,0.0040810055803738,-0.0011334816951051,0.0011334810793756,1.2556645291175e-09,-1.8787208096048e-09,7.8352139802897e-10,-1.4641989971375e-09,-0.0012733580755062,0.0012733583079263,-0.0012733579262656,0.0012733584033456,-0.0012733577681097,0.0012733586823241,-0.0012733601557938,0.0012733562120278,-0.0010813860522561,0.0010813920050371,-0.0010813931651503,0.0010813845743996,2.3130801769884e-10,-5.8876357220643e-10,-3.6648376358435e-10,2.8738810225545e-11,-0.0016046338940498,0.0016046335636386,-0.0017382552374781,0.0017382543848073,-0.0017382541995903,0.0017382554891365,-0.0017382545982018,0.0017382550721786,-0.0017382558635509,0.0017382537500285,-0.0014143277079521,0.0014143309469974,-0.001414331786023,0.001414327098211,-0.0014922801779201,0.0014922849237276,-0.0014922851246236,0.001492279929894,9.1132894750967e-10,-1.7919338756198e-09,-0.00088379525963213,0.00088379437619362,4.7374281147054e-09,-5.8204787565118e-09,-0.0010303877441204,0.0010303903207489,-0.0010303901301397,0.0010303879219857,-0.0010303875672215,0.001030390437502,-0.0010303923447871,0.0010303857792047,-0.00091914591041612,0.0009191353845783,-0.00091913975913907,0.00091914167443476,0.59982143481357,128566,2924,0.0047117860787053,0.0066618986674999,0.0036791261129112,24.073553615047,-4.5011571079621e-05,-4.5011571079621e-05,-4.5011571079621e-05,3661503.4562327,0.015167665262396
16619200,0.97750048419659,0.015388461620743,0.0049084605467118,0.006395948910318,0.0040840521637132,-0.0011336645517398,0.0011336639964674,1.6152425597905e-09,-2.177006718206e-09,5.456557951617e-10,-1.1641640050593e-09,-0.0012736226764106,0.0012736245507459,-0.001273624288428,0.0012736228940685,-0.0012736237336657,0.0012736235597369,-0.0012736247982761,0.0012736224095274,-0.00108161792413,0.0010816197365332,-0.001081620670711,0.0010816167198868,3.8442499549203e-11,-3.7303904950134e-10,-1.0099768479006e-09,6.9252260208634e-10,-0.0016052013657688,0.0016052010519815,-0.001738903454354,0.0017389036210925,-0.0017389035737211,0.0017389035824405,-0.0017389042783968,0.0017389028527161,-0.0017389035048563,0.0017389035786962,-0.0014147725195604,0.0014147700826655,-0.0014147707512343,0.0014147720651719,-0.0014928046564719,0.0014928049773168,-0.0014928047045203,0.0014928049245534,1.2800461392908e-09,-2.0684383987233e-09,-0.00088385267251298,0.0008838518837751,4.2452060021648e-09,-5.2243315909729e-09,-0.0010305381238017,0.0010305421606638,-0.0010305416628678,0.0010305386029275,-0.0010305396663366,0.0010305405610159,-0.0010305425827612,0.0010305377567659,-0.00091924127997793,0.0009192350499876,-0.00091923897742622,0.00091923749671581,0.70236007918647,128566,2924,0.0047125451032068,0.0066642439157746,0.0036793705768039,23.766422147093,-4.7468622823254e-05,-4.7468622823254e-05,-4.7468622823254e-05,3657356.6558147,0.015171065212929
16819200,0.97822564006175,0.015399686868938,0.0049120328496152,0.0064006617172255,0.0040869923020978,-0.0011341598586381,0.0011341592919929,1.4803923020479e-09,-2.0535117566726e-09,5.8829792743891e-10,-1.2198800975004e-09,-0.0012743498071961,0.0012743508803877,-0.0012743505940643,0.0012743500423149,-0.0012743501594399,0.0012743505898679,-0.0012743518716288,0.0012743487941067,-0.0010822707426481,0.001082274571035,-0.0010822755485078,0.0010822694850378,1.1319760789078e-10,-4.5489866645211e-10,-8.9413014217321e-10,5.7022051497821e-10,-0.0016062816608967,0.0016062813406195,-0.0017399774950333,0.0017399770287318,-0.0017399769307565,0.0017399776685395,-0.0017399775988694,0.0017399769775205,-0.0017399776892227,0.001739976837084,-0.0014157832921733,0.0014157831860178,-0.001415783912045,0.0014157827740212,-0.00149380475627,0.0014938072325433,-0.00149380704759,0.0014938049287354,1.1244047767905e-09,-1.9504951757756e-09,-0.00088416422343517,0.00088416339685793,4.4330673960105e-09,-5.4538873732758e-09,-0.0010311932160022,0.0010311965305298,-0.0010311961615485,0.0010311935671876,-0.0010311939348146,0.0010311957545815,-0.0010311977215738,0.0010311920791514,-0.00091965941130328,0.00091965107818121,-0.00091965518117575,0.00091965545152846,0.70571910796078,128566,2924,0.004714601115837,0.0066687038342196,0.0036806801133589,23.64362501552,-4.845099987584e-05,-4.845099987584e-05,-4.845099987584e-05,3640373.1007694,0.015179014662312
17019200,0.97891832777531,0.015410193942678,0.0049153730973901,0.0064050891834826,0.0040897316618055,-0.0011343969392315,0.0011343963946408,1.6721220145261e-09,-2.2235569968972e-09,5.1025567392361e-10,-1.1153538561171e-09,-0.0012748178929138,0.001274820009288,-0.0012748197620341,0.001274818087515,-0.0012748191447024,0.0012748188149377,-0.0012748200162036,0.0012748178604042,-0.0010826604442891,0.0010826617008227,-0.0010826625989653,0.0010826592718186,5.5808519205694e-11,-3.9124943165725e-10,-1.1499295512651e-09,8.3099900813896e-10,-0.0016071019685371,0.0016071016524229,-0.0017407848163044,0.001740785118934,-0.0017407850626227,0.001740784952024,-0.0017407858590791,0.0017407841290743,-0.0017407848022822,0.0017407851402085,-0.001416543276921,0.0014165398614258,-0.0014165405436801,0.0014165428111168,-0.001494547256399,0.0014945470102613,-0.0014945466418416,0.001494547620407,1.3098213712386e-09,-2.1114017957991e-09,-0.00088423733735367,0.00088423653563628,4.2960049989374e-09,-5.2923523744011e-09,-0.0010316032347437,0.0010316075514897,-0.0010316070398878,0.0010316037238413,-0.0010316050281006,0.0010316057006941,-0.0010316077562259,0.0010316030814424,-0.00091982786371556,0.00091982222113407,-0.00091982619510184,0.00091982402863706,0.69246305260009,128566,2924,0.0047155860731936,0.0066720876921229,0.0036809997453603,23.41643945741,-5.0268484340717e-05,-5.0268484340717e-05,-5.0268484340717e-05,3623705.6070254,0.015183779206686
17219200,0.9795725480569,0.015419844692968,0.0049184368555554,0.0064091743665733,0.0040922334708389,-0.0011342109269415,0.0011342103923197,1.6508772448481e-09,-2.1918628461897e-09,4.9333425678776e-10,-1.0837559149419e-09,-0.0012748289552577,0.0012748308019951,-0.0012748305622084,0.0012748291342873,-0.0012748299550748,0.001274829865105,-0.0012748310139208,0.0012748286686945,-0.0010825976944779,0.001082599732415,-0.0010826005506931,0.0010825964743574,6.4743773239817e-11,-4.0624406311096e-10,-1.2297417720565e-09,9.0298550594204e-10,-0.0016074319085279,0.0016074315791079,-0.0017411120106021,0.0017411119881832,-0.0017411119323935,0.0017411120963083,-0.0017411127865255,0.0017411112590103,-0.0017411119604725,0.0017411120142465,-0.0014168166597342,0.0014168137544107,-0.0014168143682311,0.0014168161161409,-0.0014948028218608,0.0014948032968667,-0.0014948028716691,0.001494803259631,1.2418237795771e-09,-2.1095317974612e-09,-0.00088392308134675,0.00088392222589565,4.3088008982079e-09,-5.3843906887406e-09,-0.0010315664596211,0.0010315705265597,-0.0010315700757094,0.0010315668747865,-0.0010315680016814,0.00103156893614,-0.0010315709947951,0.0010315660322693,-0.00091957696834573,0.00091957061953577,-0.00091957465503509,0.00091957305155956,0.67476320913625,128566,2924,0.0047148161058682,0.0066734439558874,0.0036797079240233,22.993403017292,-5.3652775861663e-05,-5.3652775861663e-05,-5.3652775861663e-05,3608234.6864744,0.015183066726601
17419200,0.98019707260108,0.015428653007214,0.0049212272087632,0.0064129295733223,0.0040944962251286,-0.0011342884541282,0.0011342879099495,1.6248258715526e-09,-2.1751213734009e-09,5.0599563602072e-10,-1.1111509038085e-09,-0.0012750753040188,0.0012750770146185,-0.0012750767687329,0.0012750754910862,-0.0012750761776651,0.0012750761874943,-0.0012750773862955,0.001275074900399,-0.001082772281036,0.0010827746739365,-0.001082775575152,0.0010827711153039,7.341005202036e-11,-4.1333315848514e-10,-1.2122120949291e-09,8.8867493376726e-10,-0.0016079812654116,0.0016079809442111,-0.0017416751294876,0.0017416750090796,-0.0017416749473899,0.0017416752671199,-0.0017416757881491,0.0017416744018788,-0.0017416750962508,0.0017416750441299,-0.0014172981045706,0.0014172956307973,-0.0014172962978277,0.0014172976011744,-0.0014952793640179,0.0014952802413687,-0.0014952798294747,0.0014952797760813,1.2312180199618e-09,-2.0620117454299e-09,-0.00088387691512929,0.0008838760895559,4.3913480901537e-09,-5.4189302894141e-09,-0.0010317514438518,0.001031755406715,-0.0010317549568894,0.0010317518635214,-0.0010317528317706,0.0010317539585792,-0.0010317559892379,0.0010317509032524,-0.00091957740683933,0.00091957067074259,-0.00091957475062445,0.00091957347053741,0.64748127790578,128566,2924,0.0047151385378847,0.0066757098251208,0.0036795272772781,22.736816618738,-5.5705467050092e-05,-5.5705467050092e-05,-5.5705467050092e-05,3598969.5949367,0.015185513851495
17619200,0.98070647804042,0.015435552969611,0.0049234083093581,0.0064158914886676,0.0040962531715851,-0.0011294369747279,0.0011294364231506,1.4517928352971e-09,-2.0140441342475e-09,5.3504641405226e-10,-1.1420865366285e-09,-0.0012702396150248,0.0012702415080061,-0.001270241248291,0.0012702398113975,-0.0012702407870151,0.0012702403835664,-0.0012702416118225,0.0012702394867895,-0.0010779315995048,0.0010779327896844,-0.0010779337218973,0.0010779303960408,3.6748489982386e-10,-7.3388739506737e-10,-9.5875733779792e-10,6.112119770113e-10,-0.0016031725028347,0.001603172160294,-0.0017368888342893,0.001736889347138,-0.0017368891014889,0.0017368891646383,-0.0017368899746142,0.0017368882511519,-0.0017368891643775,0.001736889018599,-0.0014125275410946,0.001412524538764,-0.0014125254738418,0.0014125268395169,-0.0014904367850038,0.0014904372319555,-0.0014904370029315,0.0014904369608593,9.9734920696781e-10,-1.9471560387357e-09,-0.00087916243779445,0.00087916148376971,5.1127669488322e-09,-6.2824859778006e-09,-0.0010270127292676,0.0010270172432771,-0.0010270170360153,0.0010270129123006,-0.0010270142823335,0.0010270156297429,-0.001027017677967,0.0010270123414623,-0.0009147119970683,0.0009147057725101,-0.00091471049328072,0.00091470741442966,0.62390559563887,128566,2924,0.0046950210354677,0.0066558095638434,0.0036599477393667,19.88570912329,-7.8514327013682e-05,-7.8514327013682e-05,-7.8514327013682e-05,3560587.6570853,0.015125012040766
17819200,0.98118273293645,0.015441778288293,0.0049253744939984,0.0064185707656869,0.004097833028608,-0.0011285920950164,0.0011285915665218,1.6844993979754e-09,-2.2198849305802e-09,4.4184384484883e-10,-1.0307547478559e-09,-0.0012694155961844,0.0012694174149863,-0.0012694172002531,0.0012694157569472,-0.0012694165316863,0.0012694165337356,-0.0012694176733742,0.001269415317518,-0.0010771003266151,0.0010771025902095,-0.0010771034374135,0.0010770992374409,1.2873543022097e-10,-4.7366187842534e-10,-1.4145679745664e-09,1.0872043261247e-09,-0.0016025055505802,0.0016025052273952,-0.0017362528436405,0.0017362527351672,-0.0017362526351006,0.0017362530317853,-0.0017362536463854,0.0017362519854545,-0.0017362527210305,0.0017362528726379,-0.0014118214520469,0.0014118182420713,-0.0014118189843962,0.0014118209256644,-0.0014897321741292,0.0014897329829234,-0.0014897324460232,0.0014897326930793,1.2637777621076e-09,-2.1028567974316e-09,-0.0008783026416647,0.00087830180318262,4.5237116854485e-09,-5.5613790200138e-09,-0.001026165272219,0.0010261694402886,-0.00102616898236,0.0010261657072535,-0.0010261667869961,0.0010261678683077,-0.001026169940338,0.0010261648230663,-0.00091382258763693,0.00091381594939902,-0.00091382013889638,0.00091381854320725,0.60341924380791,128566,2924,0.0046915177483956,0.0066530486953233,0.0036563784472238,19.211063591424,-8.3911491268608e-05,-8.3911491268608e-05,-8.3911491268608e-05,3553856.2666879,0.015115029137473
18019200,0.98164619775856,0.015447830412991,0.0049272860185872,0.0064211727704186,0.0040993716239854,-0.0011289296983541,0.0011289291535821,1.7167679201924e-09,-2.267763577525e-09,5.0335525580017e-10,-1.1118497427536e-09,-0.0012697881884932,0.0012697898895386,-0.0012697896457431,0.0012697883848789,-0.0012697890000091,0.0012697891388417,-0.00126979034368,0.0012697877251771,-0.0010774358668534,0.0010774386472249,-0.0010774395556145,0.0010774347153515,4.3667465988889e-13,-3.367762625987e-10,-1.3013382000113e-09,9.826495056733e-10,-0.0016030523279028,0.0016030520152362,-0.0017368596321253,0.0017368593550525,-0.0017368593252462,0.0017368597530906,-0.0017368601762037,0.0017368588695389,-0.0017368595005474,0.0017368595053031,-0.0014122925153943,0.0014122901495136,-0.0014122907980807,0.0014122920780688,-0.0014902347133725,0.0014902357168347,-0.0014902352520651,0.0014902351290766,1.3211245454325e-09,-2.1107113736475e-09,-0.0008785803193539,0.00087857953053149,4.3074737676332e-09,-5.2856097317343e-09,-0.0010264709778699,0.0010264748767219,-0.0010264743536961,0.0010264714828639,-0.0010264723373402,0.0010264734598319,-0.0010264755058892,0.0010264704053893,-0.0009140883420333,0.0009140813280962,-0.00091408530991895,0.00091408450108102,0.6026601471468,128566,2924,0.0046929176406297,0.0066553109767481,0.0036575326348156,19.169492195081,-8.4244062439349e-05,-8.4244062439349e-05,-8.4244062439349e-05,3559190.1142285,0.015119917844899
18219200,0.98205850843217,0.015453321256922,0.0049290216349829,0.0064235248693221,0.0041007747526175,-0.0011265576489864,0.0011265571434261,1.9747004012288e-09,-2.4864651817016e-09,4.0361522375476e-10,-9.5968997430651e-10,-0.0012673957174115,0.0012673973041173,-0.001267397108133,0.001267395868718,-0.0012673962576032,0.0012673968798588,-0.0012673979148243,0.0012673950414277,-0.0010750342938746,0.0010750382573821,-0.0010750389622112,0.0010750331472876,-8.3970838689695e-11,-2.3605804164769e-10,-1.6924181207293e-09,1.3925455614537e-09,-0.0016006903245248,0.0016006900208618,-0.0017345537469624,0.0017345529516605,-0.0017345529510078,0.0017345537627336,-0.0017345540158286,0.0017345527485137,-0.001734553309958,0.0017345533728297,-0.0014099162163525,0.0014099137607195,-0.0014099143490246,0.0014099158247418,-0.0014878455941854,0.0014878473137345,-0.0014878465989305,0.0014878462323248,1.5459673085485e-09,-2.3432087643619e-09,-0.00087627936584852,0.000876278584471,3.9165220697921e-09,-4.9030240863382e-09,-0.0010241035855417,0.0010241072095624,-0.001024106520107,0.001024104260738,-0.0010241048879527,0.0010241058788155,-0.0010241080478117,0.0010241028279794,-0.00091168424103469,0.00091167641318548,-0.00091168006897798,0.00091168065407065,0.61339063582521,128566,2924,0.0046830812247455,0.006645538390097,0.0036479734466967,17.685069977309,-9.6119440181528e-05,-9.6119440181528e-05,-9.6119440181528e-05,3545333.6265323,0.015090307232661
18419200,0.9824309757748,0.015458319952631,0.0049306029351899,0.0064256595116933,0.0041020575057477,-0.0011245697672136,0.0011245692314069,1.8243932972522e-09,-2.3659924996576e-09,4.8563237984503e-10,-1.0804849542793e-09,-0.0012653882456953,0.0012653898599009,-0.001265389625217,0.0012653884222937,-0.0012653888924194,0.0012653892703909,-0.0012653904322951,0.0012653876259694,-0.0010730329854186,0.0010730363705512,-0.0010730372237152,0.0010730318189514,3.5513912721403e-12,-3.3432470743321e-10,-1.3666229725475e-09,1.0515976414139e-09,-0.0015987152130225,0.0015987148974634,-0.0017326118090921,0.0017326113199617,-0.0017326112997924,0.0017326118867466,-0.0017326122020469,0.0017326109791627,-0.0017326116214815,0.0017326115018918,-0.0014079361179229,0.0014079340504722,-0.0014079346384498,0.0014079356549584,-0.0014858493213768,0.001485850857635,-0.0014858503321633,0.0014858498509367,1.3971712700367e-09,-2.2091215007521e-09,-0.00087435458748335,0.00087435378500313,4.1814570964148e-09,-5.1885635407202e-09,-0.0010221278291348,0.0010221315655946,-0.0010221309837603,0.0010221283792172,-0.0010221291059895,0.0010221302339865,-0.0010221323371972,0.0010221271012547,-0.0009096853592791,0.00090967784172825,-0.00090968174435543,0.00090968158733455,0.61738716893495,128566,2924,0.0046748378843333,0.006637366027016,0.0036399775484876,16.426318029288,-0.00010618945576569,-0.00010618945576569,-0.00010618945576569,3531676.5987224,0.015065526130836
18619200,0.98278535317761,0.015463030792371,0.0049320930619524,0.0064276714270858,0.0041032663033333,-0.0011240530552038,0.0011240525047148,1.735791054977e-09,-2.2922486404483e-09,5.2696018969668e-10,-1.1401423695509e-09,-0.0012648865605987,0.0012648885216431,-0.0012648882692719,0.0012648867611576,-0.0012648876139705,0.0012648875203426,-0.0012648887439791,0.0012648863179783,-0.0010725209879151,0.0010725230681648,-0.0010725239956572,0.0010725198116307,-3.5600498605675e-11,-2.979188342547e-10,-1.2206060010304e-09,9.0336590196826e-10,-0.0015982959305983,0.0015982956179878,-0.0017322217186084,0.0017322216849353,-0.0017322216869606,0.0017322218023499,-0.0017322224649206,0.0017322209950564,-0.0017322215994124,0.0017322218125683,-0.001407489165811,0.0014074862755619,-0.001407486870926,0.0014074887480733,-0.0014854017716136,0.0014854019579972,-0.0014854015355296,0.0014854021704024,1.3290753764537e-09,-2.1008240255751e-09,-0.00087383718829695,0.00087383641962018,4.1604998098514e-09,-5.1192199661639e-09,-0.0010216209756749,0.0010216250207456,-0.0010216244693498,0.0010216214995688,-0.0010216225699708,0.0010216233637845,-0.0010216253903877,0.0010216206516845,-0.00090914474851563,0.00090913856285239,-0.00090914241836494,0.00090914103726113,0.61178947052725,128566,2924,0.0046726953943781,0.0066356307306862,0.0036378290650685,15.967347781667,-0.00010986121774666,-0.00010986121774666,-0.00010986121774666,3527719.2552065,0.015059408788961
18819200,0.98312880880011,0.015467906859864,0.0049336402135088,0.0064297297529421,0.0041045368934134,-0.0011240739207936,0.0011240733656919,1.6592574273779e-09,-2.220763260758e-09,5.8739970702414e-10,-1.2061205028466e-09,-0.0012649270513627,0.0012649292302231,-0.0012649289313199,0.0012649272964442,-0.0012649283938478,0.0012649279703246,-0.0012649292185598,0.0012649270208133,-0.0010725484101473,0.0010725496265979,-0.0010725505794112,0.0010725471545666,-3.1637570670404e-11,-2.8819698013302e-10,-1.0160095313709e-09,7.1399842436766e-10,-0.0015984311901257,0.0015984308894031,-0.0017323921009824,0.00173239243671,-0.0017323924037128,0.0017323921687927,-0.0017323930855297,0.0017323915227992,-0.0017323921206675,0.0017323924250885,-0.0014075830852743,0.0014075798940865,-0.0014075805243876,0.0014075826818385,-0.0014855127992501,0.0014855121434037,-0.0014855118472092,0.0014855130695599,1.2300896346134e-09,-2.0322501492159e-09,-0.00087383557500838,0.0008738347807144,4.1747933527523e-09,-5.1630107004807e-09,-0.001021638313444,0.0010216425331578,-0.0010216420664503,0.001021638772929,-0.0010216400968814,0.0010216407240456,-0.0010216427132931,0.0010216382095204,-0.00090913801613711,0.00090913261750827,-0.00090913648748945,0.00090913426962074,0.64923264949932,128566,2924,0.0046727821361999,0.0066361902866814,0.0036378228295093,15.791129037071,-0.00011127096770343,-0.00011127096770343,-0.00011127096770343,3528263.8799581,0.015060058306468
19019200,0.98347374015379,0.015473117974391,0.0049352979414763,0.0064319084748953,0.0041059115580199,-0.0011251414683625,0.0011251409012838,1.6981483003215e-09,-2.2711075226253e-09,6.0421607485447e-10,-1.2348480897091e-09,-0.0012660884246646,0.0012660903884328,-0.001266090094886,0.0012660886669711,-0.0012660895204709,0.0012660893526656,-0.0012660906433507,0.001266088144432,-0.0010736783217872,0.0010736803568824,-0.0010736813547535,0.0010736770672717,-7.5471638393253e-11,-2.4813656395124e-10,-9.8037115215779e-10,6.7277980597992e-10,-0.0015997537567522,0.001599753452547,-0.0017337190240474,0.001733719098136,-0.0017337191160897,0.0017337190773591,-0.0017337197195716,0.0017337184628269,-0.0017337190278808,0.0017337190980772,-0.0014088622259217,0.0014088599059209,-0.0014088604725999,0.0014088618454457,-0.0014867988115359,0.0014867988257339,-0.0014867985531166,0.0014867990654685,1.2897197498017e-09,-2.0502304522154e-09,-0.00087481270451872,0.0008748119476535,4.0738153473552e-09,-5.0197277148384e-09,-0.0010227607090855,0.0010227646528666,-0.0010227641196197,0.0010227612183496,-0.0010227622551848,0.0010227630503267,-0.0010227650365591,0.0010227603770032,-0.00091017560488723,0.00091016948471994,-0.000910173257874,0.00091017197284571,0.68719398154004,128566,2924,0.0046772099464239,0.0066416595619162,0.0036418869485492,16.17205635439,-0.00010822354916488,-0.00010822354916488,-0.00010822354916488,3529929.0121707,0.015074231949483
19219200,0.983840872825,0.015478836368502,0.0049371189293649,0.0064342905701484,0.0041074268689882,-0.0011279602924165,0.0011279597127062,1.6888938590107e-09,-2.2740607287917e-09,6.5872825232244e-10,-1.3037971571271e-09,-0.0012690943990137,0.0012690963328822,-0.0012690960104919,0.0012690946704158,-0.0012690954811245,0.0012690953130385,-0.0012690966553478,0.001269094050402,-0.0010766237202535,0.0010766258577528,-0.0010766269086796,0.0010766224134359,-1.021940922171e-10,-2.1705408020567e-10,-8.2999836711962e-10,5.2668507577953e-10,-0.0016030315382505,0.0016030312380347,-0.0017369771387909,0.001736977242014,-0.0017369772730249,0.0017369771745158,-0.0017369777630318,0.0017369766807251,-0.0017369772207728,0.0017369771610975,-0.0014120743227614,0.0014120724817157,-0.0014120730242742,0.0014120739601102,-0.0014900210807682,0.0014900211062546,-0.0014900209298761,0.0014900212375353,1.2812919051067e-09,-2.0361550317103e-09,-0.00087743499312861,0.0008774342431801,4.0260516957961e-09,-4.9636169270755e-09,-0.0010256810086713,0.0010256848619518,-0.0010256843302097,0.0010256815172504,-0.0010256824924286,0.0010256833229857,-0.0010256852949813,0.001025680629137,-0.00091293845731313,0.00091293223419337,-0.00091293596787064,0.00091293486623286,0.70678359884089,128566,2924,0.0046889005564018,0.0066552156468252,0.0036527898990155,17.485317347461,-9.7717461220311e-05,-9.7717461220311e-05,-9.7717461220311e-05,3538740.0340572,0.015110931925866
19419200,0.98421686652628,0.015484562084726,0.0049389397580283,0.0064366884212762,0.0041089339054219,-0.00112969688519,0.0011296962672302,1.620207977093e-09,-2.2447966038541e-09,8.0233077593377e-10,-1.4868933354881e-09,-0.0012710366448714,0.0012710391004768,-0.0012710387070357,0.0012710369868454,-0.0012710383213383,0.0012710374938322,-0.0012710389784961,0.001271036741307,-0.0010784955345098,0.0010784959746749,-0.0010784971600762,0.0010784940587036,1.2342895050676e-10,-4.6704991029878e-10,-3.992931323983e-10,7.4323169419368e-11,-0.0016052259613088,0.001605225641507,-0.0017391437958033,0.0017391448152006,-0.0017391446957126,0.0017391439700086,-0.0017391450531909,0.0017391436104754,-0.0017391443188222,0.0017391442785404,-0.0014142270622576,0.0014142244890464,-0.0014142252192695,0.0014142265208522,-0.0014921558117305,0.0014921545665372,-0.001492154717179,0.0014921556304806,1.1768356480376e-09,-2.0268573034774e-09,-0.00087900828375113,0.00087900743655967,4.5039034983986e-09,-5.5482167331503e-09,-0.0010275672491315,0.001027571802035,-0.0010275714060041,0.0010275676276033,-0.0010275691766343,0.0010275698180922,-0.0010275718505497,0.0010275672560419,-0.00091462290601689,0.00091461777312239,-0.00091462196545516,0.00091461886289583,0.69265168929679,128566,2924,0.0046961032310081,0.0066642875014651,0.0036593368440145,18.222106553495,-9.1823147572043e-05,-9.1823147572043e-05,-9.1823147572043e-05,3538720.492523,0.015134103512032
19619200,0.98458960064906,0.015490092332986,0.0049406960514359,0.0064390159458825,0.0041103803356676,-0.0011304744903867,0.0011304739371815,1.7160231276622e-09,-2.2766108070825e-09,5.6074417009169e-10,-1.1739258482535e-09,-0.0012719767674593,0.0012719786768803,-0.0012719784003899,0.0012719769839327,-0.0012719777781164,0.0012719777085135,-0.0012719789548192,0.0012719764506823,-0.0010793823577937,0.0010793846479665,-0.0010793856056559,0.0010793811612068,1.0252857135194e-11,-3.3986318958932e-10,-1.0200510801985e-09,7.0471768677017e-10,-0.0016063828359712,0.001606382522002,-0.0017402851327744,0.001740285149553,-0.0017402851337582,0.0017402852222763,-0.001740285826457,0.0017402845109948,-0.001740285152112,0.0017402851316469,-0.0014153451172881,0.0014153427700267,-0.0014153433957821,0.0014153446786149,-0.0014932619353108,0.0014932622868779,-0.0014932619684461,0.0014932622569011,1.2644012770982e-09,-2.0516035121861e-09,-0.00087967297308777,0.00087967218876542,4.1716417123563e-09,-5.1514118020792e-09,-0.0010284699009559,0.0010284738455969,-0.0010284733401818,0.0010284703709927,-0.0010284714002727,0.0010284722866983,-0.0010284742890282,0.0010284694951795,-0.00091535806497371,0.0009153517376471,-0.00091535561832464,0.0009153543346181,0.67639367326597,128566,2924,0.0046993288872375,0.0066690674662756,0.0036621082213916,18.456061715712,-8.9951506274303e-05,-8.9951506274303e-05,-8.9951506274303e-05,3534938.7022897,0.015145047167571
19819200,0.98495594750537,0.015495365472056,0.0049423682221126,0.0064412466385257,0.0041117506114177,-0.0011309884886005,0.0011309879723103,1.7806124827903e-09,-2.3039031903847e-09,4.2045648105635e-10,-9.9329558032538e-10,-0.001272617934895,0.0012726195070358,-0.0012726193001601,0.0012726180803082,-0.0012726185451451,0.0012726189459379,-0.0012726200432679,0.0012726173529952,-0.0010799812586522,0.0010799846190805,-0.0010799854179222,0.0010799801804343,-1.1471989126842e-11,-3.1625097574977e-10,-1.4092892288873e-09,1.0964090788082e-09,-0.0016072236490692,0.0016072233362535,-0.0017411241985761,0.0017411236772091,-0.0017411236686149,0.0017411242707632,-0.001741124593403,0.0017411233352184,-0.0017411239663994,0.001741123910645,-0.0014161411090749,0.0014161389130419,-0.0014161395285634,0.001416140691197,-0.0014940577568925,0.0014940592257058,-0.0014940586679169,0.0014940583419657,1.307610717403e-09,-2.0843926773632e-09,-0.0008800946310909,0.00088009385958549,4.0650269626578e-09,-5.0315069336578e-09,-0.0010290718588422,0.0010290754734266,-0.0010290749289727,0.0010290723687941,-0.0010290730856937,0.0010290741923358,-0.001029076205673,0.0010290711692512,-0.00091582809527312,0.00091582087768717,-0.00091582465907096,0.00091582444793352,0.65787306549892,128566,2924,0.0047014610311112,0.0066725411180249,0.0036638678492989,18.558123869561,-8.913500904351e-05,-8.913500904351e-05,-8.913500904351e-05,3532260.4697003,0.015152526537256
20019200,0.98531021087924,0.015500658240061,0.0049440491213043,0.0064434720282293,0.0041131370905275,-0.0011310236533681,0.0011310231387798,1.7772007908222e-09,-2.2991196339857e-09,4.0269211957261e-10,-9.7391982718251e-10,-0.0012727337627846,0.0012727354335314,-0.0012727352388253,0.0012727339011572,-0.0012727344771962,0.0012727347736883,-0.0012727358659625,0.0012727333095405,-0.001080076071106,0.0010800790334689,-0.0010800798367708,0.0010800750221872,7.4238161663356e-11,-4.1028631626996e-10,-1.4540223843201e-09,1.135478302682e-09,-0.0016075046581059,0.0016075043431184,-0.0017414175519827,0.0017414172049975,-0.0017414171346908,0.0017414177081884,-0.0017414181347076,0.0017414166802903,-0.0017414173667403,0.0017414174036898,-0.0014163781292539,0.0014163754811155,-0.0014163761882694,0.0014163776559717,-0.0014943083015076,0.0014943096284836,-0.0014943090498271,0.0014943088455912,1.2868140287037e-09,-2.0808797245923e-09,-0.0008800699632187,0.00088006917061696,4.2733452945581e-09,-5.259858618972e-09,-0.0010291538303155,0.0010291576647667,-0.0010291571574556,0.0010291543139597,-0.0010291551566188,0.0010291562832045,-0.0010291583140301,0.001029153234507,-0.00091582495099996,0.00091581792063635,-0.00091582186819904,0.00091582113660857,0.68048787790931,128566,2924,0.0047016071955579,0.0066737003192754,0.003663770827243,18.401283275318,-9.0389733797453e-05,-9.0389733797453e-05,-9.0389733797453e-05,3529046.5426162,0.015153754196411
20219200,0.98565517139108,0.01550596614523,0.0049457367178293,0.0064456936986472,0.0041145357287538,-0.0011312566349855,0.0011312561153743,1.7357654707181e-09,-2.26202364213e-09,4.1397750189464e-10,-9.94111665571e-10,-0.0012730712727079,0.0012730732495921,-0.0012730730482142,0.0012730714158011,-0.0012730723227499,0.0012730722533973,-0.001273073357119,0.0012730711393578,-0.0010803915003588,0.0010803933956837,-0.0010803942068844,0.0010803904344634,1.1817562258056e-10,-4.5865288358689e-10,-1.4120652049067e-09,1.089262698184e-09,-0.0016080219259045,0.0016080216060585,-0.0017419283253073,0.0017419283516336,-0.0017419282565937,0.0017419285022226,-0.0017419292603657,0.0017419274736597,-0.0017419281946298,0.0017419284919269,-0.0014168621425204,0.0014168585765275,-0.0014168593043624,0.0014168616247916,-0.0014947922453782,0.0014947926540908,-0.0014947921150804,0.0014947927681984,1.2219220822515e-09,-2.0515379563897e-09,-0.00088022751600328,0.00088022668852236,4.4369493588604e-09,-5.4609732804836e-09,-0.0010294618798725,0.0010294660952785,-0.0010294656522875,0.0010294622976945,-0.0010294635012475,0.0010294644179226,-0.0010294664505477,0.0010294615757397,-0.00091602479370021,0.00091601867553653,-0.00091602278195555,0.00091602082624384,0.69909043169844,128566,2924,0.0047025740023782,0.006675835840277,0.0036644324179604,18.352428904167,-9.0780568766665e-05,-9.0780568766665e-05,-9.0780568766665e-05,3524113.8749601,0.015157577047466
20419200,0.98599767820122,0.015511243827806,0.0049474145709809,0.0064479028429407,0.0041159264138848,-0.0011320604082965,0.00113205989195,1.8385229423475e-09,-2.3618874380861e-09,3.8274279685999e-10,-9.6248304262725e-10,-0.0012740153458396,0.0012740167305995,-0.0012740165438992,0.0012740154760572,-0.0012740157190106,0.0012740163956923,-0.0012740175035114,0.001274014589269,-0.0010812996900411,0.0010813038198278,-0.0010813046652331,0.0010812987230234,3.4644232054256e-11,-3.6026578636282e-10,-1.6354135649441e-09,1.3275151983219e-09,-0.0016091812633493,0.0016091809623165,-0.0017430692087825,0.0017430683797944,-0.0017430683382269,0.0017430693834584,-0.00174306942884,0.0017430682227104,-0.0017430688666366,0.0017430687671162,-0.0014179826635585,0.0014179806167472,-0.0014179813479298,0.0014179822855594,-0.0014959098618044,0.0014959121287179,-0.0014959114257111,0.0014959105455104,1.36491761227e-09,-2.0970206752414e-09,-0.00088092316366505,0.00088092242247847,4.2413936838344e-09,-5.1530327846761e-09,-0.0010303661785266,0.0010303697072073,-0.0010303691270815,0.0010303667404704,-0.0010303672146286,0.001030368605357,-0.0010303706398853,0.0010303653021074,-0.00091679314286572,0.0009167851421405,-0.00091678901850898,0.00091678942361462,0.69998783452102,128566,2924,0.0047059079584842,0.0066806266353974,0.0036673315149001,18.615929366923,-8.8672565064618e-05,-8.8672565064618e-05,-8.8672565064618e-05,3521207.6276002,0.015168770962153
20619200,0.98632733535108,0.015515776052718,0.0049488477645617,0.0064498368876866,0.00411709140047,-0.0011319019262932,0.0011319013771926,1.6265411968344e-09,-2.1835752724737e-09,5.2537898688185e-10,-1.1342313578341e-09,-0.0012739882753417,0.001273990832158,-0.0012739905791456,0.001273988474456,-0.0012739900029126,0.001273989164516,-0.0012739903840881,0.0012739887102417,-0.0010812285321451,0.0010812283253808,-0.0010812292547653,0.0010812273494313,1.6581530286808e-10,-5.1338769306426e-10,-1.1129108627488e-09,7.8376693869332e-10,-0.0016093252814816,0.0016093249585611,-0.0017431981709501,0.0017431990416575,-0.0017431989095627,0.0017431983939366,-0.0017431997431705,0.001743197529664,-0.0017431982776143,0.0017431989454093,-0.0014181058514811,0.0014181011213719,-0.0014181018959275,0.0014181052914269,-0.0014960065162812,0.0014960050901524,-0.0014960047426452,0.0014960067736968,1.0931803332089e-09,-1.962936735507e-09,-0.00088070190581356,0.0008807010333787,4.7134688416741e-09,-5.7883293109853e-09,-0.0010303284022554,0.0010303332880316,-0.0010303329653017,0.0010303287073617,-0.0010303305378826,0.001030331095387,-0.0010303330993325,0.0010303286486119,-0.00091659474428589,0.00091659034815764,-0.00091659469500383,0.00091659053613501,0.63099508444799,128566,2924,0.0047052514506471,0.0066812165064781,0.0036664208705228,18.385393019286,-9.0516855845712e-05,-9.0516855845712e-05,-9.0516855845712e-05,3512725.1817855,0.015167781389913
20819200,0.98663592723489,0.015520358743933,0.0049503021110098,0.0064517656393668,0.0041182909935562,-0.0011309162578431,0.0011309157266549,1.7465797983919e-09,-2.2863897514009e-09,4.5211478614297e-10,-1.0410089730081e-09,-0.0012730045617275,0.0012730064374841,-0.0012730062212863,0.0012730047215584,-0.0012730055047221,0.0012730055403697,-0.0012730066915323,0.0012730042887659,-0.0010802493299575,0.0010802517161994,-0.0010802525841853,0.0010802482400408,1.022948630798e-10,-4.4209686877354e-10,-1.4029577925436e-09,1.0791638858723e-09,-0.0016084327250455,0.0016084324059412,-0.0017423431490274,0.0017423429883811,-0.0017423429138042,0.0017423433235962,-0.0017423439059529,0.001742342287443,-0.0017423429966033,0.0017423431581258,-0.0014171743569011,0.0014171711701603,-0.0014171718913118,0.0014171738677178,-0.0014951013412637,0.001495102070444,-0.0014951015109143,0.0014951018725762,1.2205115386386e-09,-2.0433313098544e-09,-0.00087972742924067,0.0008797266033795,4.4861542798897e-09,-5.5105067297413e-09,-0.0010293310136772,0.001029335127921,-0.001029334685738,0.0010293314284088,-0.0010293325037803,0.001029333576218,-0.0010293356066445,0.0010293305805417,-0.00091558651459654,0.00091558000752414,-0.00091558414741906,0.00091558252306483,0.67643100043615,128566,2924,0.0047011638489603,0.0066775230545995,0.0036623741021817,17.704654696553,-9.5962762427572e-05,-9.5962762427572e-05,-9.5962762427572e-05,3507947.0469371,0.015155772828356
21019200,0.98692004929336,0.015524438215323,0.0049515947758156,0.0064534915670496,0.0041193518724578,-0.0011293948397164,0.0011293943124863,1.7675497849479e-09,-2.302903769499e-09,4.3937025246134e-10,-1.0252731053163e-09,-0.0012715233627229,0.0012715252002399,-0.001271524990546,0.0012715235247887,-0.0012715242633068,0.0012715243687458,-0.0012715255036945,0.0012715230551346,-0.0010787648500797,0.0010787673862488,-0.0010787682343288,0.0010787637700573,1.0664440108675e-10,-4.4132455830827e-10,-1.4318166007504e-09,1.1162511578816e-09,-0.0016070210597186,0.0016070207495426,-0.0017409293839335,0.0017409291919793,-0.0017409290935876,0.0017409295808109,-0.001740930110368,0.0017409285272389,-0.0017409292218161,0.0017409293778814,-0.0014157695113019,0.0014157663921204,-0.0014157671582676,0.0014157690412941,-0.0014936669781323,0.0014936678456835,-0.001493667289084,0.0014936674764133,1.2378887825864e-09,-2.0470791028826e-09,-0.00087822787400197,0.00087822706025066,4.4816877664269e-09,-5.4845905702021e-09,-0.0010278776400356,0.0010278817195303,-0.0010278812676697,0.0010278780790963,-0.0010278790960369,0.0010278802094402,-0.0010278822426573,0.0010278771829558,-0.0009140534333291,0.00091404676222365,-0.00091405087740623,0.00091404945430007,0.65602047473652,128566,2924,0.004694855373529,0.0066716794361294,0.0036561488601345,16.748751907774,-0.00010360998473781,-0.00010360998473781,-0.00010360998473781,3493007.6093843,0.015137117339029
21219200,0.98716794511235,0.015528021350806,0.0049527307227613,0.0064550042817702,0.0041202863462741,-0.0011262566734494,0.0011262561529294,1.762643270686e-09,-2.2909420310209e-09,4.10608965189e-10,-9.893269917395e-10,-0.0012683519986514,0.0012683539215217,-0.0012683537255231,0.0012683521404605,-0.0012683529782032,0.0012683529985747,-0.0012683541036331,0.0012683517975473,-0.001075620864849,0.0010756230686911,-0.0010756238830473,0.001075619804918,1.4024971823209e-10,-4.8261553872069e-10,-1.4699366942665e-09,1.1452236233221e-09,-0.0016038198684485,0.0016038195478806,-0.0017377365955816,0.0017377364964008,-0.0017377363901035,0.0017377367948777,-0.001737737451652,0.0017377356977771,-0.0017377364330393,0.0017377366754803,-0.0014126050419828,0.001412601520153,-0.0014126022811759,0.0014126045207334,-0.0014904630525164,0.0014904637356784,-0.0014904631494776,0.0014904636011131,1.2102680361018e-09,-2.042594086048e-09,-0.00087520600496863,0.00087520517079465,4.5263944268161e-09,-5.557758045588e-09,-0.0010247828294575,0.0010247870237407,-0.0010247865964997,0.0010247832344866,-0.0010247843777644,0.001024785419071,-0.0010247874529766,0.0010247824538011,-0.00091092979292639,0.0009109234159133,-0.00091092759043457,0.00091092575947336,0.65967491211023,128566,2924,0.0046818421178397,0.0066584336338935,0.0036435962307649,14.935926485381,-0.00011811258811695,-0.00011811258811695,-0.00011811258811695,3469976.7024732,0.015097717072007
21419200,0.98739406730338,0.015531314394093,0.0049537755342879,0.0064563902207131,0.0041211486390916,-0.0011243591612607,0.0011243586481611,1.8442885643698e-09,-2.3642525840178e-09,3.7961564947308e-10,-9.5153596640586e-10,-0.0012664339344346,0.0012664357931775,-0.0012664356143197,0.001266434062034,-0.0012664347909985,0.0012664349925026,-0.0012664360683414,0.0012664336409456,-0.0010737301154879,0.0010737328012734,-0.0010737335830118,0.0010737290873821,2.9158544638241e-11,-3.6405462355762e-10,-1.6298184525768e-09,1.3117139878616e-09,-0.0016019115339296,0.0016019112199476,-0.0017358274895487,0.0017358271149158,-0.0017358270788526,0.0017358276199077,-0.001735828169301,0.0017358264938958,-0.0017358271482322,0.0017358274763319,-0.0014107177129627,0.0014107142516594,-0.001410714919197,0.0014107172707994,-0.0014885518165,0.0014885526885456,-0.0014885519927541,0.0014885524883119,1.3068239302146e-09,-2.0853146431987e-09,-0.00087337737001926,0.00087337659175199,4.2359975439474e-09,-5.2049788994849e-09,-0.0010229140174393,0.0010229180016974,-0.0010229174729795,0.0010229145222558,-0.00102291551068,0.0010229164513808,-0.0010229184749525,0.0010229135959939,-0.00090904651503836,0.00090903996715367,-0.00090904387659771,0.00090904274606681,0.66373848546875,128566,2924,0.004673973622638,0.0066505370343326,0.0036360007554313,13.8003682919,-0.0001271970536648,-0.0001271970536648,-0.0001271970536648,3455085.2762632,0.01507400283677
21619200,0.98760873907489,0.015534470517254,0.0049547775603817,0.0064577150576387,0.0041219778992341,-0.0011235803755132,0.0011235798318215,1.7643460249584e-09,-2.3149683436425e-09,5.0142129710739e-10,-1.1061316197912e-09,-0.0012656653700865,0.0012656673490783,-0.0012656671089207,0.0012656655586032,-0.001265666420319,0.0012656663570399,-0.0012656675520542,0.0012656651480501,-0.00107297198536,0.0010729741187325,-0.0010729750222927,0.0010729708342903,2.667984559609e-11,-3.5863656054631e-10,-1.2596874594716e-09,9.4449247710903e-10,-0.0016011906396691,0.001601190328518,-0.0017351052454722,0.0017351052115097,-0.0017351051720361,0.0017351053727503,-0.0017351060235796,0.0017351044934522,-0.0017351051373278,0.0017351053324302,-0.0014099990305937,0.0014099959944493,-0.001409996659218,0.0014099985902401,-0.0014878215742538,0.0014878218905488,-0.0014878214369611,0.0014878219988985,1.2278389352843e-09,-2.0188629989378e-09,-0.00087261787367475,0.00087261708234074,4.3031321477667e-09,-5.2857208934662e-09,-0.0010221658055594,0.001022169875667,-0.0010221694088109,0.0010221662492054,-0.0010221673522455,0.0010221682710552,-0.0010221702615096,0.0010221654725426,-0.00090826894508076,0.00090826278045769,-0.00090826675112853,0.00090826511697392,0.66921248016474,128566,2924,0.0046707443033085,0.0066475531701335,0.0036328471877942,13.269350084984,-0.00013144519932013,-0.00013144519932013,-0.00013144519932013,3447925.8095802,0.015064494613832
21819200,0.98782426634688,0.015537591615003,0.0049557679165783,0.0064590277116259,0.0041227959867984,-0.0011243891282504,0.001124388548472,1.6582810936325e-09,-2.2440910062895e-09,6.5783418390952e-10,-1.3018696815984e-09,-0.0012665306575048,0.0012665327320269,-0.001266532410072,0.0012665309283009,-0.0012665319077062,0.0012665315578723,-0.0012665328890782,0.0012665304666718,-0.0010738216650412,0.0010738232556344,-0.0010738242866367,0.0010738203359197,2.7965522790122e-11,-3.5498762219534e-10,-7.6221036899643e-10,4.5280108829639e-10,-0.0016021707643436,0.0016021704568278,-0.0017360854628109,0.0017360858300386,-0.0017360857735699,0.0017360855741074,-0.0017360863138409,0.0017360850417649,-0.0017360856746163,0.0017360856123018,-0.0014109495115041,0.0014109472231612,-0.0014109478810196,0.0014109490575735,-0.0014887793210285,0.0014887790723477,-0.0014887789585842,0.0014887794091373,1.111721133892e-09,-1.9408077031895e-09,-0.00087336906140913,0.00087336823581856,4.3965318371468e-09,-5.4176348418062e-09,-0.0010230041367861,0.0010230082625401,-0.0010230078940392,0.001023004486875,-0.0010230056969665,0.0010230066534806,-0.0010230086106843,0.0010230038500151,-0.00090905544137252,0.00090904957612505,-0.00090905364560711,0.00090905150813451,0.65989248330661,128566,2924,0.0046740984039472,0.006651606746506,0.0036359705448165,13.593407041069,-0.00012885274367145,-0.00012885274367145,-0.00012885274367145,3451520.4435057,0.015075185345522
22019200,0.98804245762999,0.015540698191027,0.0049567528051869,0.0064603382065093,0.0041236071793305,-0.0011254518248004,0.0011254512788976,1.9507818543266e-09,-2.5030260205809e-09,5.2859451228395e-10,-1.1385614234948e-09,-0.001267654144593,0.0012676561266105,-0.0012676558709482,0.0012676543732812,-0.0012676550975014,0.0012676552728547,-0.0012676564927694,0.0012676537986465,-0.0010749159439514,0.001074918879298,-0.001074919827245,0.0010749148030768,-1.9895287794968e-10,-9.50901647078e-11,-1.333797615869e-09,1.0597080895865e-09,-0.001603415113226,0.0016034148443688,-0.0017373449283263,0.0017373445884312,-0.0017373446485893,0.0017373449653522,-0.0017373454130649,0.0017373441871677,-0.0017373446191554,0.0017373449411753,-0.0014121497602821,0.0014121471411636,-0.0014121477079243,0.0014121495533152,-0.0014899968605596,0.001489997138712,-0.001489996623726,0.0014899972918307,1.4765560607075e-09,-2.1107125811312e-09,-0.0008743617375838,0.00087436109946754,3.6642992861133e-09,-4.4640680940928e-09,-0.0010240843384114,0.001024088045062,-0.001024087333871,0.0010240850566986,-0.0010240858619191,0.0010240864824498,-0.0010240884507885,0.0010240840280586,-0.00091008408255896,0.00091007776559455,-0.00091008109116064,0.00091008088019224,0.64982771932846,128566,2924,0.0046785055633931,0.0066567540594135,0.0036400969991467,14.052916309082,-0.00012517666952735,-0.00012517666952735,-0.00012517666952735,3458540.668825,0.015089073595232
22219200,0.98826419607343,0.015543828902657,0.0049577448429689,0.0064616610836071,0.0041244229760805,-0.0011266454161235,0.0011266447457869,9.1729638024362e-10,-1.5952109820649e-09,9.680307629074e-10,-1.7150665763051e-09,-0.0012689027599585,0.001268905289411,-0.0012689048130734,0.0012689031748318,-0.0012689049828919,0.0012689031045716,-0.0012689048007566,0.0012689032664105,-0.0010761364337096,0.0010761341248234,-0.0010761355460575,0.0010761348588633,2.5845088338527e-10,-6.0123557631291e-10,6.7316565289844e-10,-9.9780205824381e-10,-0.0016047873398205,0.0016047870244495,-0.001738742277607,0.0017387444894697,-0.0017387442909397,0.0017387425825468,-0.0017387440381901,0.0017387427828776,-0.0017387435612547,0.0017387432021918,-0.0014134646956683,0.0014134628533118,-0.0014134637138106,0.0014134641066023,-0.0014913424914959,0.0014913395007483,-0.0014913403445898,0.0014913416119688,3.46523991838e-10,-1.2875218840034e-09,-0.00087547982603913,0.00087547886966875,5.3895384401531e-09,-6.5337565687374e-09,-0.0010252767295646,0.0010252816657328,-0.0010252819082062,0.0010252764730049,-0.0010252785688719,0.0010252797451618,-0.0010252813936289,0.0010252770485349,-0.00091123525838994,0.0009112321721036,-0.00091123711612288,0.00091123050831375,0.64497826562077,128566,2924,0.0046834550453378,0.0066624307674996,0.0036447427721839,14.582382573589,-0.00012094093941128,-0.00012094093941128,-0.00012094093941128,3467685.1953626,0.015104576875604
22419200,0.98848592532773,0.015547099830659,0.0049587831556088,0.0064630339612139,0.0041252827138364,-0.0011273999061206,0.0011273993301833,1.5986096968027e-09,-2.1812400708932e-09,6.4970660017037e-10,-1.28828459379e-09,-0.0012696978528091,0.0012697000482538,-0.0012696997348636,0.0012696981226084,-0.0012696992603554,0.0012696987197764,-0.0012697000351097,0.0012696978230407,-0.0010769059996059,0.0010769071417228,-0.0010769081618436,0.0010769046950432,-2.0579062559059e-11,-3.0572231745188e-10,-6.6305731176015e-10,3.520917210749e-10,-0.0016056862148595,0.001605685905771,-0.0017396727504571,0.0017396732631986,-0.0017396732449598,0.001739672814264,-0.0017396737032976,0.0017396723669379,-0.0017396729673929,0.001739673032834,-0.0014143103543768,0.001414307782509,-0.0014143083717953,0.0014143099199723,-0.0014922163254177,0.0014922154048594,-0.0014922153538765,0.0014922163831243,1.0405524949238e-09,-1.8425566866355e-09,-0.00087617780475025,0.00087617700757844,4.2034236656747e-09,-5.1970714235235e-09,-0.0010260249564978,0.0010260290911712,-0.0010260287424865,0.0010260252818707,-0.0010260266260243,0.0010260273707022,-0.0010260292424727,0.0010260248587107,-0.00091195494382421,0.0009119498604437,-0.00091195375801271,0.00091195118281939,0.67139743261091,128566,2924,0.0046865840348075,0.00666614936422,0.0036476438841872,14.871192490402,-0.00011863046007679,-0.00011863046007679,-0.00011863046007679,3473889.227305,0.015114473211347
22619200,0.98870541706838,0.015550375876079,0.0049598234676603,0.006464407120085,0.0041261452883334,-0.0011278671771078,0.0011278666580778,2.3129089235822e-09,-2.8423077540429e-09,3.549897461323e-10,-9.3862996791055e-10,-0.0012702342371004,0.0012702360494176,-0.0012702358877836,0.001270234369427,-0.0012702347107469,0.0012702355989033,-0.0012702367540616,0.001270233655401,-0.0010774139244096,0.0010774187477856,-0.0010774197107398,0.0010774131216039,-2.0677125798588e-10,-8.3549171688979e-11,-1.8463061723197e-09,1.5723465220695e-09,-0.0016063285219413,0.0016063282649852,-0.0017403236790849,0.0017403226755157,-0.0017403227822557,0.0017403238222227,-0.0017403238354984,0.0017403226000615,-0.001740323023013,0.0017403234509726,-0.0014149200043353,0.0014149173454527,-0.0014149179901981,0.0014149199238699,-0.0014928290822041,0.0014928306685254,-0.0014928297492104,0.0014928298856081,1.9036964587292e-09,-2.3441364502235e-09,-0.00087658893881183,0.00087658846647763,3.3968399368128e-09,-3.9888792654085e-09,-0.0010265343651353,0.00102653784182,-0.0010265367655001,0.0010265354456691,-0.0010265357740927,0.0010265363465751,-0.0010265384142785,0.0010265338648419,-0.00091239741489213,0.00091238986677709,-0.00091239284736591,0.0009123946192318,0.67880651692759,128566,2924,0.0046885223207604,0.006668804672473,0.0036493562215132,15.008170934081,-0.00011753463252735,-0.00011753463252735,-0.00011753463252735,3473883.464796,0.015120875802705
22819200,0.98892189290177,0.01555359698749,0.004960846131044,0.0064657582425447,0.0041269926139018,-0.001128223951695,0.0011282234204621,1.9627417967655e-09,-2.5020075118019e-09,4.6400702177899e-10,-1.0550981292999e-09,-0.0012706659084325,0.0012706678366721,-0.0012706676125421,0.0012706660827775,-0.00127066677569,0.0012706670342361,-0.0012706681891581,0.0012706655435001,-0.0010778199743866,0.0010778229635071,-0.0010778238195778,0.0010778188453825,2.9386996953298e-12,-3.2948375379161e-10,-1.2994991741922e-09,9.889409280629e-10,-0.0016068679529,0.0016068676478049,-0.0017408642049068,0.0017408640160994,-0.0017408639768398,0.0017408643292845,-0.0017408648232009,0.0017408634619446,-0.0017408640839027,0.0017408641543754,-0.0014154302443769,0.0014154276500714,-0.0014154283173765,0.0014154298336818,-0.0014933387199957,0.0014933394931505,-0.0014933390141061,0.0014933391435328,1.4033588073113e-09,-2.1365537388712e-09,-0.00087689237876533,0.00087689164229576,4.0301093065153e-09,-4.9481531555502e-09,-0.0010269446266898,0.0010269484815258,-0.0010269478718238,0.0010269452226501,-0.0010269461051683,0.0010269469518893,-0.0010269489834479,0.0010269441903441,-0.00091273044169877,0.00091272374615939,-0.00091272744509277,0.00091272687024158,0.67692182422771,128566,2924,0.0046900022969654,0.0066710335931623,0.0036506207070438,15.090216228152,-0.00011687827017479,-0.00011687827017479,-0.00011687827017479,3472210.1653239,0.015125925908295
23019200,0.98913449728679,0.015556533888996,0.0049617754029366,0.0064670053593941,0.0041277531266652,-0.0011284437090429,0.0011284431773562,1.8670246311534e-09,-2.4063046164268e-09,4.4404658114683e-10,-1.0350718841468e-09,-0.0012709568429059,0.0012709588285272,-0.0012709586192875,0.0012709569952457,-0.0012709578131724,0.0012709578951949,-0.0012709590476433,0.0012709566104568,-0.0010780815304191,0.0010780839686436,-0.0010780848285109,0.0010780804426005,6.3576003443794e-11,-3.9973568823147e-10,-1.3081104383593e-09,9.8661763721431e-10,-0.0016072593780048,0.0016072590613739,-0.0017412604366541,0.0017412603780867,-0.001741260329733,0.0017412605925238,-0.001741261218319,0.0017412596514663,-0.0017412603308324,0.0017412604992271,-0.001415793773461,0.0014157907280707,-0.0014157914105302,0.0014157933081665,-0.0014936983086671,0.0014936988427113,-0.0014936983480074,0.0014936987843279,1.2824848477293e-09,-2.0478991835002e-09,-0.00087706578730465,0.0008770650178456,4.2189814325721e-09,-5.1769681764378e-09,-0.0010272162673075,0.0010272202837601,-0.0010272197668243,0.0010272167533807,-0.0010272178031044,0.001027218678761,-0.0010272206766591,0.0010272159141033,-0.00091292383828105,0.00091291757000136,-0.0009129214608979,0.0009129200990313,0.63260382964678,128566,2924,0.0046909140153453,0.0066726503766107,0.0036513451938564,15.108070240606,-0.00011673543807515,-0.00011673543807515,-0.00011673543807515,3470306.5600166,0.01512922945891
23219200,0.98934306989851,0.015559548663984,0.0049627313453307,0.0064682753205794,0.0041285419980738,-0.0011286421282183,0.0011286415987128,1.7276939872449e-09,-2.2651765219116e-09,4.4607527849504e-10,-1.0338854302157e-09,-0.0012711595540663,0.0012711617202303,-0.0012711615081165,0.0012711597120425,-0.0012711608047775,0.0012711605236726,-0.0012711616654317,0.0012711595915538,-0.0010782763172304,0.0010782777049891,-0.0010782785528957,0.0010782752190633,1.132983536366e-10,-4.525411442375e-10,-1.2776921237944e-09,9.556031036282e-10,-0.0016075382839732,0.0016075379663624,-0.0017415797701336,0.0017415800347646,-0.0017415799429976,0.0017415799544649,-0.0017415808559881,0.0017415790062961,-0.0017415797179143,0.0017415801000876,-0.0014160206834101,0.0014160168437887,-0.0014160175806623,0.0014160201846068,-0.0014939631978763,0.00149396296268,-0.0014939625016812,0.0014939636231315,1.1118732223322e-09,-1.9207059417694e-09,-0.00087723844055939,0.000877237629667,4.3976552114755e-09,-5.402042325805e-09,-0.0010273794741786,0.0010273837632111,-0.0010273833863967,0.0010273798278991,-0.0010273811894286,0.0010273819888974,-0.0010273839283727,0.0010273793607785,-0.00091309244350593,0.00091308708372285,-0.00091309113789298,0.00091308853024123,0.65900390497783,128566,2924,0.0046917365703887,0.0066738048707963,0.0036520621286864,15.109151484935,-0.00011672678812052,-0.00011672678812052,-0.00011672678812052,3474435.6697449,0.015131963464935
23419200,0.9895469673845,0.015562463627299,0.0049636551052193,0.0064695055747001,0.0041293029473791,-0.0011287337572394,0.0011287332293745,1.7641804088616e-09,-2.3008274304437e-09,4.3075156628018e-10,-1.0171286864756e-09,-0.0012712896498067,0.0012712917547062,-0.0012712915510815,0.0012712898031943,-0.0012712908115467,0.0012712906461304,-0.001271291788435,0.0012712896228295,-0.0010783847230385,0.0010783864719305,-0.0010783873374969,0.0010783836704843,1.1615155241451e-10,-4.5197489600659e-10,-1.3543116907075e-09,1.0364850189177e-09,-0.0016077470378698,0.0016077467269201,-0.0017418078114733,0.0017418079473852,-0.0017418078512011,0.0017418080262086,-0.0017418088147969,0.0017418070058974,-0.0017418077097827,0.001741808079641,-0.0014161959481733,0.0014161921930975,-0.0014161929657578,0.0014161954776879,-0.0014941479393248,0.0014941479843191,-0.001494147463936,0.0014941483957211,1.1504650999008e-09,-1.9387374635603e-09,-0.00087729678956145,0.00087729599327941,4.4448292224007e-09,-5.4267277206858e-09,-0.0010274859551459,0.0010274902116271,-0.0010274898086875,0.0010274863424571,-0.0010274876078374,0.0010274884972426,-0.001027490451231,0.0010274857742542,-0.000913157263011,0.00091315158729423,-0.00091315565944966,0.00091315333771707,0.65256752295016,128566,2924,0.004692116784733,0.0066746674299326,0.0036523065754891,15.055182916601,-0.00011715853666719,-0.00011715853666719,-0.00011715853666719,3473696.58379,0.015133473649594
23619200,0.98975947094239,0.015565574356467,0.0049646420027939,0.0064708130211969,0.0041301193324759,-0.0011306999036162,0.0011306993790824,1.8922875379624e-09,-2.4231648822724e-09,4.1896294835371e-10,-1.0052867800613e-09,-0.0012733240638071,0.0012733261314178,-0.001273325934859,0.0012733242126027,-0.0012733251051844,0.0012733251474935,-0.0012733262669482,0.0012733239172849,-0.0010803833282328,0.0010803856686867,-0.0010803864954455,0.0010803822655826,-3.3870351931057e-11,-2.9294423940163e-10,-1.5526599470103e-09,1.2420945386292e-09,-0.0016099420299764,0.0016099417240398,-0.0017440294992827,0.0017440292925872,-0.0017440292923666,0.0017440295992154,-0.0017440302858457,0.0017440285674107,-0.0017440291663663,0.0017440296469002,-0.0014183124854709,0.0014183087796852,-0.0014183093989831,0.0014183120966755,-0.0014963114043091,0.0014963116366855,-0.0014963109920196,0.0014963120308889,1.2893144959448e-09,-2.0339069782282e-09,-0.00087914517271966,0.00087914442701631,4.0888836441467e-09,-5.0177150696111e-09,-0.0010294347251678,0.0010294387517512,-0.0010294382164419,0.0010294352378843,-0.001029436339779,0.0010294370764473,-0.0010294390495044,0.0010294344806139,-0.00091507617785451,0.00091507023664418,-0.00091507400308253,0.00091507255400331,0.66669415576701,128566,2924,0.0047002701623711,0.0066837480002053,0.0036599876192341,16.005995372637,-0.0001095520370189,-0.0001095520370189,-0.0001095520370189,3486854.4133202,0.01515876729833
23819200,0.98998452133618,0.015569052077596,0.0049657475449155,0.0064722639037754,0.0041310406289046,-0.0011332066212929,0.0011332060825338,1.9684500638562e-09,-2.5141889386645e-09,4.7939941647469e-10,-1.0797870886574e-09,-0.0012759441846207,0.0012759462196728,-0.0012759459898608,0.0012759443628036,-0.0012759451493233,0.0012759453060306,-0.0012759464896749,0.0012759439088128,-0.0010829506198617,0.0010829534021269,-0.0010829543010671,0.0010829495043995,-9.5740021561001e-11,-2.2180546823049e-10,-1.4570873456288e-09,1.1550335865756e-09,-0.0016127625944697,0.0016127622972317,-0.0017468703194755,0.0017468700303852,-0.0017468700646655,0.0017468703883593,-0.001746870951824,0.001746869462663,-0.0017468700119527,0.0017468703647006,-0.0014210439300219,0.0014210408103504,-0.0014210413916844,0.0014210436008746,-0.0014990914761318,0.0014990918846021,-0.0014990912846554,0.001499092047615,1.3789008405222e-09,-2.0939010636697e-09,-0.00088149575134016,0.0008814950339043,3.9754913260571e-09,-4.8730945352298e-09,-0.0010319540631126,0.0010319579610127,-0.0010319573506251,0.0010319546528504,-0.0010319556123148,0.0010319563527385,-0.0010319583496461,0.0010319537297928,-0.00091752627084375,0.00091751995766191,-0.00091752360836953,0.00091752275962124,0.700795709696,128566,2924,0.0047106652373327,0.0066954151612348,0.0036697571492383,17.23882049363,-9.9689436050958e-05,-9.9689436050958e-05,-9.9689436050958e-05,3501618.5634852,0.015191084615117
24019200,0.99020610364408,0.015572515411447,0.0049668485252703,0.0064737087682938,0.004131958117883,-0.0011336034097309,0.0011336028711301,1.8872187835704e-09,-2.4336946405903e-09,4.7976289233583e-10,-1.0781623464686e-09,-0.0012764652422015,0.0012764672870462,-0.0012764670571326,0.0012764654177521,-0.0012764662700498,0.0012764663087442,-0.0012764674915389,0.0012764650303681,-0.0010834271019835,0.0010834295157449,-0.0010834304108438,0.0010834259788589,-3.2951284419703e-11,-2.9112783489154e-10,-1.3670601797205e-09,1.0588158821957e-09,-0.0016134197518521,0.0016134194488354,-0.0017475189805467,0.001747518864375,-0.0017475188593958,0.0017475190865158,-0.0017475197277908,0.0017475181789878,-0.0017475187770749,0.0017475190913436,-0.0014216699850322,0.0014216668203421,-0.0014216674533598,0.0014216696091807,-0.0014997088731519,0.0014997091565839,-0.0014997086205931,0.001499709371577,1.2739680231091e-09,-2.0186660704286e-09,-0.00088181544053784,0.00088181469228747,4.1236107051118e-09,-5.056274598143e-09,-0.0010324515166441,0.001032455496428,-0.0010324549752313,0.0010324520171563,-0.0010324530702041,0.0010324538836095,-0.0010324558513204,0.0010324512165031,-0.00091789473813034,0.00091788865140031,-0.0009178924388975,0.00091789108730229,0.70866617415514,128566,2924,0.0047123113943037,0.0066981289837703,0.003671092902219,17.342833111248,-9.8857335110013e-05,-9.8857335110013e-05,-9.8857335110013e-05,3496768.2144916,0.015196869723009
24219200,0.99042384356015,0.015575769366745,0.0049678808933047,0.0064750761629466,0.0041328123104937,-0.0011339229302668,0.0011339223930939,1.515437661291e-09,-2.0609286007843e-09,4.9127261718303e-10,-1.0888640928906e-09,-0.0012769044669886,0.0012769064994271,-0.0012769062595691,0.0012769046544257,-0.0012769057297876,0.0012769052845382,-0.0012769064696359,0.0012769044797608,-0.0010838323065524,0.0010838333090848,-0.0010838342120321,0.0010838311803865,3.0542252308098e-11,-3.6381227654939e-10,-1.2854335517109e-09,9.6895018682514e-10,-0.0016140030316027,0.0016140027200873,-0.0017480841522731,0.0017480843526249,-0.0017480843087772,0.0017480842933902,-0.0017480851745882,0.0017480833997832,-0.0017480840510341,0.0017480844821676,-0.0014222279673645,0.0014222242496363,-0.0014222249393398,0.0014222275355241,-0.0015002547748356,0.0015002544556486,-0.0015002539779361,0.0015002551932666,8.7633992565211e-10,-1.6526010010286e-09,-0.00088206171590012,0.00088206093677034,4.2581649563659e-09,-5.2261590728496e-09,-0.0010328721259236,0.0010328761508261,-0.0010328759116524,0.0010328723418102,-0.0010328736559832,0.0010328745708866,-0.0010328763058052,0.0010328720259265,-0.00091819220221385,0.00091818741495008,-0.00091819133168766,0.00091818842306147,0.68010473779221,128566,2924,0.004713637174707,0.0067005368142498,0.0036721240885173,17.418087377345,-9.8255300981241e-05,-9.8255300981241e-05,-9.8255300981241e-05,3490846.4639063,0.015201709652232
24419200,0.99063776076802,0.015578963319149,0.0049688941468846,0.0064764183377895,0.0041336508344754,-0.0011342370360607,0.001134236506902,2.2509341645229e-09,-2.7870981079863e-09,4.4231555686115e-10,-1.0308122657458e-09,-0.0012772940864836,0.0012772961556998,-0.0012772959455326,0.0012772942441715,-0.0012772948900638,0.0012772954050079,-0.001277296547933,0.0012772936843848,-0.0010841977160144,0.0010842014916152,-0.0010842023484075,0.0010841966347633,2.3586847085071e-11,-3.5326767197394e-10,-1.3809016458732e-09,1.0678693551477e-09,-0.0016145228291741,0.0016145225210989,-0.0017486105376786,0.001748610233609,-0.0017486101965351,0.0017486106763343,-0.0017486111163786,0.0017486097191786,-0.0017486103585124,0.001748610434718,-0.0014227051525433,0.0014227024893546,-0.0014227031584287,0.0014227047247041,-0.0015007466280496,0.0015007475912507,-0.0015007470521483,0.0015007471275179,1.6052192849413e-09,-2.3722892109632e-09,-0.00088231701648903,0.00088231624668302,4.2190555245439e-09,-5.1758310857431e-09,-0.0010332292527385,0.0010332333182152,-0.00103323258872,0.00103322996152,-0.0010332308413377,0.0010332316719438,-0.001033233887863,0.0010332287382973,-0.00091848176978827,0.00091847433574745,-0.0009184782188646,0.00091847802823248,0.67934994089242,128566,2924,0.004714940003727,0.0067026842038732,0.0036731898276999,17.491705455598,-9.7666356355212e-05,-9.7666356355212e-05,-9.7666356355212e-05,3489496.3331672,0.015206295505435
24619200,0.99084701214968,0.015582239204963,0.0049699354004719,0.0064777848929597,0.0041345189115312,-0.0011344330129774,0.0011344324816287,1.8591799276015e-09,-2.3977447195739e-09,4.5146974018507e-10,-1.0421043210754e-09,-0.0012775542035608,0.001277556244653,-0.0012775560300692,0.0012775543649565,-0.0012775552493916,0.0012775552565674,-0.0012775564025085,0.0012775540294411,-0.0010844432430549,0.0010844454899253,-0.00108444634546,0.0010844421386374,6.0555898117703e-11,-3.9436240073465e-10,-1.3352587295859e-09,1.0187534572518e-09,-0.0016149037084262,0.0016149033961876,-0.0017489987047992,0.0017489987048378,-0.0017489986406508,0.0017489988581822,-0.0017489995551787,0.0017489979148552,-0.0017489985840645,0.0017489988403291,-0.0014230479026167,0.0014230446393985,-0.0014230453355935,0.0014230474420118,-0.0015011051568799,0.0015011055056697,-0.0015011050020707,0.0015011056102661,1.193018736137e-09,-1.9832087980724e-09,-0.0008824609483,0.00088246015704711,4.2937399029286e-09,-5.2760527592769e-09,-0.0010334592394262,0.0010334633068498,-0.0010334628655065,0.001033459659952,-0.0010334607898387,0.0010334617003469,-0.0010334636667588,0.0010334589356893,-0.00091865302024786,0.00091864697703904,-0.00091865093403721,0.0009186491986012,0.70944813245172,128566,2924,0.0047157529644276,0.0067042572290583,0.0036737922418265,17.497795998068,-9.7617632015453e-05,-9.7617632015453e-05,-9.7617632015453e-05,3487567.0057993,0.015209330309333
24819200,0.99105156755694,0.015585203218711,0.0049708741867552,0.0064790370999514,0.0041352919320045,-0.0011345882662925,0.0011345877325402,1.613990467609e-09,-2.1550733367147e-09,4.5599146120769e-10,-1.0495238284733e-09,-0.0012778135916893,0.0012778156135684,-0.0012778153963412,0.0012778137544892,-0.0012778147777701,0.001277814480487,-0.0012778156373702,0.0012778135561856,-0.0010846718218342,0.0010846731980287,-0.0010846740691872,0.0010846707230606,7.4213282070469e-11,-4.0824452176303e-10,-1.3129790158041e-09,9.9621430627795e-10,-0.0016152942827065,0.0016152939705888,-0.0017493743092198,0.001749374460455,-0.0017493743907759,0.0017493744762318,-0.0017493753001282,0.0017493735308952,-0.0017493742088831,0.0017493745787739,-0.0014234184418184,0.0014234147982574,-0.0014234155088198,0.0014234179772633,-0.0015014609332555,0.0015014608782748,-0.0015014603897425,0.0015014613805394,9.4025151430724e-10,-1.7303149894793e-09,-0.00088255466162341,0.00088255386910536,4.3305858632216e-09,-5.3126251613166e-09,-0.0010337027531761,0.0010337068126566,-0.0010337065413525,0.0010337030035939,-0.0010337042756234,0.0010337052319395,-0.0010337070346334,0.0010337025857756,-0.00091878338924719,0.00091877822686828,-0.00091878221578426,0.00091877954210032,0.66112595672167,128566,2924,0.004716397486295,0.0067058684366546,0.0036741885982862,17.493842122512,-9.7649263019907e-05,-9.7649263019907e-05,-9.7649263019907e-05,3481798.2017779,0.015212024981552
25019200,0.99126310215542,0.015588231486804,0.004971832845934,0.0064803182672676,0.0041360803736025,-0.0011364252774746,0.0011364246833105,6.3318386404443e-10,-1.232516762613e-09,6.999526249002e-10,-1.3610845065673e-09,-0.0012797243611588,0.0012797263886597,-0.0012797260478446,0.0012797246392559,-0.0012797262427797,0.0012797245659223,-0.0012797259379177,0.0012797247548065,-0.0010865511981815,0.0010865489995199,-0.0010865500428896,0.001086549793073,2.208850315845e-10,-5.8245938997134e-10,-4.5106308621469e-10,1.0727600349761e-10,-0.0016173891431859,0.0016173888019427,-0.001751496393203,0.0017514976931369,-0.0017514975272285,0.0017514965891301,-0.0017514979834721,0.0017514961443107,-0.0017514969503677,0.0017514971045094,-0.001425427113655,0.0014254235384601,-0.0014254242832415,0.0014254264455035,-0.0015035258784379,0.0015035240026127,-0.001503524145679,0.0015035257567354,-1.0367236588774e-10,-8.5484369812284e-10,-0.00088427346033744,0.00088427250996071,4.9102206963341e-09,-6.0746188755926e-09,-0.0010355230288029,0.0010355272682869,-0.0010355277730928,0.0010355224932285,-0.0010355244315121,0.0010355258096431,-0.001035527115186,0.001035523221252,-0.00092056872520577,0.00092056634244899,-0.00092057093140031,0.00092056427978667,0.65362908561867,128566,2924,0.0047240148137249,0.0067145337391645,0.0036813317351804,18.391931557694,-9.0464547538451e-05,-9.0464547538451e-05,-9.0464547538451e-05,3494815.4518842,0.015235808445003
25219200,0.99149262896995,0.015591631984261,0.0049729107155996,0.0064817496469028,0.0041369716217588,-0.0011397945138659,0.0011397939292213,1.2031912290397e-09,-1.7935575288285e-09,6.5777499820841e-10,-1.3091220715723e-09,-0.001283200547216,0.0012832026982171,-0.001283202383822,0.0012832008198209,-0.0012832021630939,0.0012832011495238,-0.0012832024982463,0.0012832007283899,-0.0010899701063942,0.0010899698798545,-0.0010899709417643,0.001089968815452,3.0681010892648e-11,-3.626736185699e-10,-6.78713684704e-10,3.638687834702e-10,-0.0016211165197132,0.0016211162095161,-0.001755266598071,0.0017552673457932,-0.0017552673008803,0.0017552667200261,-0.001755267797627,0.0017552662056564,-0.0017552668407478,0.0017552671054818,-0.0014290257312845,0.0014290224994418,-0.0014290231454163,0.001429025272164,-0.001507210914118,0.0015072094871561,-0.0015072094321756,0.0015072109767873,5.2513162594959e-10,-1.3452744751614e-09,-0.00088744861777255,0.00088744779935358,4.4253480269496e-09,-5.436794875495e-09,-0.0010388529165329,0.0010388570374291,-0.0010388570532779,0.0010388528787848,-0.0010388544532205,0.0010388554417099,-0.0010388570057572,0.0010388529986741,-0.00092385929959389,0.00092385560739637,-0.00092385970252802,0.00092385536423015,0.67455041556705,128566,2924,0.0047379857208383,0.006729953227429,0.0036945255908006,20.100884509712,-7.6792923922304e-05,-7.6792923922304e-05,-7.6792923922304e-05,3519390.9099498,0.015279044364797
25419200,0.99172914317432,0.01559543625071,0.0049741201359175,0.0064833336360324,0.0041379824787606,-0.0011417263119258,0.0011417257326061,1.5962393587002e-09,-2.1826381618229e-09,6.4203803378356e-10,-1.2849675487117e-09,-0.0012852506340395,0.0012852526847551,-0.0012852523759049,0.0012852508955193,-0.0012852518892919,0.0012852514932405,-0.0012852528248171,0.0012852504722998,-0.0010919675350481,0.0010919691009631,-0.0010919701447197,0.0010919662490136,4.3740841100271e-11,-3.7676341072466e-10,-7.5228478003989e-10,4.3609574698604e-10,-0.0016233756993194,0.0016233753873818,-0.0017575537018214,0.0017575540820407,-0.0017575540251484,0.0017575538309471,-0.0017575545699902,0.0017575532682141,-0.0017575539192801,0.0017575538655632,-0.0014311910195029,0.0014311886683785,-0.001431189337107,0.0014311905574939,-0.0015094282089024,0.0015094279088477,-0.001509427800559,0.0015094283096291,9.1550200423154e-10,-1.7207666251284e-09,-0.00088923619338883,0.00088923538801962,4.3505842923127e-09,-5.3474031019737e-09,-0.0010408065636983,0.0010408105471157,-0.0010408102987023,0.0010408067901555,-0.0010408080029724,0.0010408090497626,-0.001040810852141,0.0010408063096201,-0.00092573242576617,0.00092572701963719,-0.00092573104536639,0.00092572854832115,0.727897480365,128566,2924,0.0047459963219716,0.0067392965051222,0.0037019572827396,21.026433499048,-6.9388532007618e-05,-6.9388532007618e-05,-6.9388532007618e-05,3530174.762031,0.015304211228219
25619200,0.99195796868276,0.015599138753009,0.0049752969858375,0.0064848762964524,0.0041389654707195,-0.0011417613996986,0.0011417608922072,2.3567515929742e-09,-2.8727672346768e-09,3.9239045882723e-10,-9.5384314198205e-10,-0.0012854302928285,0.0012854318964053,-0.0012854317078888,0.0012854304441813,-0.0012854305680734,0.0012854317197107,-0.0012854327816142,0.0012854293979297,-0.0010921044512466,0.0010921100480036,-0.0010921108335707,0.0010921034240175,-5.3694728015858e-11,-2.5260113379699e-10,-1.6061257507255e-09,1.3193995743075e-09,-0.0016237170955065,0.0016237168109387,-0.0017578745679778,0.0017578735534016,-0.0017578735310035,0.0017578746591845,-0.001757874582806,0.0017578736075327,-0.0017578741665239,0.0017578739830932,-0.0014315063112023,0.0014315047192844,-0.0014315053906844,0.0014315060119584,-0.0015097255480645,0.001509727929791,-0.0015097272504095,0.0015097261881833,1.6900661012032e-09,-2.3762544890124e-09,-0.00088919299317788,0.00088919230560339,3.805556102638e-09,-4.6690431159019e-09,-0.0010409711741998,0.0010409745344696,-0.0010409737050866,0.0010409720036158,-0.0010409722889375,0.0010409733883224,-0.0010409755596214,0.0010409702398154,-0.00092574567747313,0.00092573697876018,-0.00092574044166399,0.00092574231956085,0.73244076326643,128566,2924,0.0047461429485475,0.0067407021434204,0.0037017884213978,20.943813893338,-7.0049488853296e-05,-7.0049488853296e-05,-7.0049488853296e-05,3520162.9641785,0.015305619074291
25819200,0.99216946855853,0.015602466924549,0.004976353511668,0.0064862691557586,0.0041398442571225,-0.0011403698946601,0.0011403693738698,1.6602604760975e-09,-2.1887950013719e-09,4.1018518614251e-10,-9.8737769634796e-10,-0.0012841420135559,0.0012841440135544,-0.0012841438090992,0.0012841421403758,-0.0012841431301872,0.0012841429193493,-0.0012841440349752,0.0012841419622891,-0.0010908041895959,0.0010908056769597,-0.0010908065177643,0.0010908031484042,1.6130345129029e-10,-5.04911210015e-10,-1.2848636592972e-09,9.5690074392735e-10,-0.0016225325369386,0.001622532211378,-0.0017566590503877,0.0017566592848067,-0.0017566591740255,0.0017566592503214,-0.0017566601117515,0.0017566582745833,-0.001756659041789,0.0017566593052588,-0.0014303318700985,0.0014303283181891,-0.0014303291036817,0.0014303313463956,-0.0015085128494215,0.0015085130910499,-0.0015085126143978,0.0015085133015612,9.2048901849381e-10,-1.7415251642965e-09,-0.00088779574677519,0.00088779492258439,4.4484586224662e-09,-5.4679673997059e-09,-0.0010397153024629,0.0010397193853848,-0.0010397191458888,0.0010397155094146,-0.0010397167894831,0.0010397178387892,-0.0010397196611685,0.0010397150651029,-0.00092435478028051,0.00092434940225383,-0.00092435351561783,0.00092435080844322,0.7138686516363,128566,2924,0.0047403738353138,0.0067357948396489,0.0036959934227133,20.110384614872,-7.6716923081021e-05,-7.6716923081021e-05,-7.6716923081021e-05,3500485.8851047,0.015288897743343
26019200,0.99237052608501,0.015605502458264,0.0049773155257005,0.0064875467273306,0.0041406402052324,-0.001139782108889,0.0011397815940501,1.7277631803664e-09,-2.2497010976257e-09,3.829610004385e-10,-9.5614087361146e-10,-0.0012836303880143,0.0012836323843305,-0.001283632203006,0.0012836305118382,-0.0012836314632058,0.0012836313623773,-0.001283632437175,0.0012836303045232,-0.0010902849566651,0.0010902867909986,-0.0010902875742727,0.0010902839172347,1.7474737299947e-10,-5.2082239564509e-10,-1.3875503436424e-09,1.0590460735165e-09,-0.0016221420153911,0.0016221416893675,-0.0017562524902895,0.0017562525893531,-0.0017562524631282,0.0017562526964363,-0.0017562534904523,0.0017562516444257,-0.0017562524119722,0.0017562526737043,-0.0014299283498817,0.0014299246586348,-0.0014299254269169,0.0014299277876699,-0.0015080983729677,0.0015080987327741,-0.0015080982122058,0.0015080988824142,9.6686199600397e-10,-1.8070800610815e-09,-0.0008871810390083,0.00088718020030235,4.4796009428249e-09,-5.5183512827803e-09,-0.0010392048991267,0.001039209014625,-0.001039208750823,0.0010392051359734,-0.0010392063969326,0.0010392074614039,-0.0010392093320148,0.0010392046302244,-0.0009237587327312,0.00092375312911777,-0.00092375727792926,0.00092375472433552,0.68688839536007,128566,2924,0.0047379371052424,0.006734174546608,0.0036934468121491,19.716868600495,-7.9865051196038e-05,-7.9865051196038e-05,-7.9865051196038e-05,3490043.7951203,0.015282194407557
26219200,0.99256539816838,0.015608625788601,0.0049783079910899,0.0064888482131156,0.0041414695843955,-0.0011397774965887,0.0011397769835273,1.8041435326535e-09,-2.3240500076772e-09,3.6883865553373e-10,-9.4175057569577e-10,-0.0012836710064628,0.0012836729606241,-0.0012836727897995,0.0012836711300805,-0.0012836719902274,0.0012836720354025,-0.0012836731070777,0.001283670852083,-0.0010903245652001,0.0010903268263492,-0.0010903276254837,0.0010903235682337,1.047764193876e-10,-4.4395927329012e-10,-1.539559429575e-09,1.2185918159153e-09,-0.0016223065298238,0.0016223062141157,-0.0017564254797097,0.0017564253595205,-0.0017564252730047,0.0017564256681167,-0.0017564263509946,0.0017564245510085,-0.001756425256851,0.0017564256063562,-0.0014300545553731,0.0014300508579933,-0.0014300515879407,0.001430054060479,-0.0015082475532022,0.0015082481067202,-0.0015082474716421,0.0015082481367469,1.0598284655432e-09,-1.8479907098619e-09,-0.0008871367937817,0.00088713600501373,4.3295114487795e-09,-5.3105928740156e-09,-0.0010392178779196,0.0010392218791476,-0.0010392215275974,0.0010392182102513,-0.0010392193340947,0.0010392203674769,-0.001039222238553,0.001039217575422,-0.00092373391517214,0.00092372810211069,-0.00092373208248745,0.0009237300772692,0.72525110197902,128566,2924,0.0047379181259132,0.0067348527542316,0.0036932671465777,19.629337300688,-8.0565301594495e-05,-8.0565301594495e-05,-8.0565301594495e-05,3487868.7540847,0.015282681539489
26419200,0.99275871892471,0.01561181568145,0.0049793226564288,0.0064901721895536,0.0041423208354674,-0.001140471033703,0.0011404705166921,2.1037020409937e-09,-2.6266820939799e-09,3.8233337067466e-10,-9.6189245602221e-10,-0.001284473907995,0.0012844757397451,-0.0012844755598895,0.0012844740352535,-0.001284474562559,0.0012844751375689,-0.0012844762236447,0.0012844734122323,-0.0010911085067067,0.0010911123448845,-0.0010911131436879,0.0010911074868344,-2.0097128987681e-12,-3.2600695571128e-10,-1.7392567061368e-09,1.4280819590764e-09,-0.0016232789742868,0.0016232786673222,-0.0017573785366287,0.0017573778852138,-0.001757377860881,0.0017573786528828,-0.0017573789972543,0.0017573774773621,-0.0017573781073722,0.0017573783395433,-0.0014309966066678,0.0014309935741477,-0.0014309942335987,0.0014309962143568,-0.0015091916095995,0.0015091930661129,-0.0015091923225162,0.0015091923886675,1.3853839753179e-09,-2.1084842066886e-09,-0.00088774333617927,0.00088774261238424,4.0067024346968e-09,-4.9087629584433e-09,-0.0010399879917986,0.0010399916722275,-0.0010399910584687,0.0010399885831254,-0.0010399893093567,0.0010399902960931,-0.001039992308244,0.0010399874092225,-0.00092440503979929,0.00092439793528762,-0.00092440161815915,0.00092440149780073,0.74503105946512,128566,2924,0.0047407946895464,0.0067388709257725,0.0036957945275471,19.918385360116,-7.825291711907e-05,-7.825291711907e-05,-7.825291711907e-05,3485840.537569,0.015292250011828
26619200,0.99295693907155,0.015615054903087,0.0049803523768185,0.0064915194396147,0.0041431830866534,-0.0011421743108198,0.0011421737667312,2.2423479962307e-09,-2.7912084420675e-09,5.0532460791723e-10,-1.1121051610684e-09,-0.0012863398715642,0.0012863418216875,-0.0012863415780949,0.001286340057087,-0.0012863405793566,0.0012863411675272,-0.0012863423534798,0.0012863392939376,-0.0010929359044159,0.0010929399517899,-0.0010929408372206,0.0010929347219825,-3.9353480542889e-11,-2.9066562677639e-10,-1.4640092974621e-09,1.1491040488366e-09,-0.0016253776043067,0.0016253772899658,-0.0017594459909568,0.0017594454800722,-0.0017594454822902,0.0017594460458015,-0.001759446408219,0.0017594451192653,-0.0017594457323677,0.001759445738261,-0.0014330472764779,0.0014330449402499,-0.0014330455104771,0.0014330468452962,-0.0015112496391243,0.0015112509796973,-0.0015112504045288,0.0015112502370729,1.504448661672e-09,-2.2725278433031e-09,-0.00088930481907121,0.00088930405968028,3.9969283134366e-09,-4.9532743487915e-09,-0.0010417966531004,0.0010418003775619,-0.0010417996946446,0.001041797304669,-0.0010417980216207,0.0010417989571921,-0.0010418010773101,0.0010417959988857,-0.0009260743723271,0.00092606684759883,-0.00092607055914968,0.00092607079160012,0.73848802307858,128566,2924,0.0047478583291197,0.0067475464193442,0.0037022913213768,20.757103439278,-7.1543172485773e-05,-7.1543172485773e-05,-7.1543172485773e-05,3489160.0594133,0.015314829986138
26819200,0.99315859275414,0.01561826562911,0.0049813715507353,0.0064928613901487,0.0041440326882257,-0.0011436835187563,0.0011436829513779,2.5196845125497e-09,-3.0943460724359e-09,5.8053524862753e-10,-1.2089615388784e-09,-0.0012880080451385,0.0012880101479172,-0.001288009867585,0.0012880082619278,-0.0012880087095035,0.0012880094985048,-0.0012880108065465,0.0012880073882501,-0.0010945596038001,0.0010945643746387,-0.0010945654207582,0.0010945584291256,-5.571964892062e-11,-2.7794225517254e-10,-1.2663026594406e-09,9.4748078881816e-10,-0.0016272748363848,0.0016272745266495,-0.0017613223386458,0.0017613218726878,-0.0017613218988227,0.0017613224391543,-0.0017613226679028,0.0017613215981189,-0.0017613221923268,0.0017613220493288,-0.0014348915950774,0.00143488990604,-0.0014348905514915,0.0014348912559598,-0.0015131049440284,0.0015131063674488,-0.0015131059030931,0.0015131053939346,1.8159667079636e-09,-2.5251108311866e-09,-0.00089068053458048,0.00089067981855907,4.0488788316192e-09,-4.9414853148272e-09,-0.0010434054077314,0.0010434092676567,-0.0010434083599776,0.0010434062792661,-0.0010434068778008,0.0010434077203116,-0.0010434100154478,0.0010434046931226,-0.00092754919303121,0.00092754088530169,-0.00092754460763258,0.00092754563357107,0.72122275677203,128566,2924,0.0047541169417106,0.0067553888323067,0.0037080163722441,21.49524344463,-6.5638052442959e-05,-6.5638052442959e-05,-6.5638052442959e-05,3492663.0243724,0.015334963271079
27019200,0.99335711573338,0.015621335326141,0.0049823443911931,0.0064941511635852,0.0041448397713626,-0.0011442261431516,0.0011442255860647,1.9605746493895e-09,-2.5255982972113e-09,5.5306535637455e-10,-1.1721044644838e-09,-0.001288663204263,0.0012886652856967,-0.0012886650173381,0.0012886634154561,-0.0012886642416119,0.001288664296721,-0.0012886655484047,0.0012886629233001,-0.0010951864040837,0.0010951889571545,-0.0010951899203723,0.0010951852030812,-4.0636317000174e-11,-2.8609775155713e-10,-1.1822058067182e-09,8.7105247900351e-10,-0.0016281071997445,0.0016281068935026,-0.0017621499385494,0.001762149917706,-0.0017621499153251,0.0017621500253071,-0.0017621506565244,0.0017621492572712,-0.0017621498536588,0.0017621500162034,-0.0014356775901984,0.0014356749752631,-0.0014356755995478,0.0014356772134987,-0.00151390309476,0.0015139034066209,-0.0015139030006425,0.0015139034741704,1.2153471791323e-09,-1.975202543953e-09,-0.00089113849374065,0.00089113773222184,4.1250340862755e-09,-5.073470367495e-09,-0.00104401947587,0.0010440233603535,-0.0010440228860567,0.0010440199257692,-0.0010440209361734,0.0010440218412613,-0.0010440237806514,0.0010440191073322,-0.00092805736475502,0.00092805119616426,-0.00092805500483245,0.00092805369451976,0.70228868678815,128566,2924,0.0047563672695373,0.0067588272508153,0.0037099265958721,21.714710998528,-6.3882312011778e-05,-6.3882312011778e-05,-6.3882312011778e-05,3491847.340482,0.015342680706671
27219200,0.99355019740214,0.01562422621551,0.0049832590856594,0.0064953721668061,0.0041455949630448,-0.0011444041630064,0.0011444036058852,2.8989010203707e-09,-3.4631825141587e-09,5.5193622055269e-10,-1.1699706749637e-09,-0.0012889104746269,0.0012889126082666,-0.0012889123422388,0.0012889106843935,-0.0012889109335249,0.0012889121984148,-0.0012889134490876,0.0012889096160113,-0.0010954159564102,0.0010954220814881,-0.0010954230439145,0.0010954147571607,4.0885085694579e-11,-3.7536284821676e-10,-1.2326404837382e-09,9.142990380861e-10,-0.0016285006862252,0.0016285003728114,-0.0017625556561269,0.0017625550585465,-0.0017625550095468,0.001762555793931,-0.0017625558395663,0.0017625549331697,-0.0017625555918248,0.0017625551350536,-0.0014360215701578,0.0014360204562298,-0.001436021139858,0.0014360211258454,-0.00151426914218,0.0015142712980043,-0.0015142708703371,0.0015142695484094,2.1411717381621e-09,-2.9105793799955e-09,-0.00089126042820874,0.0008912596576805,4.1708781170954e-09,-5.1300130619468e-09,-0.0010442296683454,0.0010442336274616,-0.0010442325403721,0.0010442307313149,-0.0010442311780807,0.0010442320585213,-0.0010442346281867,0.0010442287177659,-0.00092820406416271,0.00092819434413423,-0.00092819819977834,0.00092820034920323,0.68192143216331,128566,2924,0.0047571054858434,0.0067604518407344,0.0037104383259899,21.739869041386,-6.3681047668915e-05,-6.3681047668915e-05,-6.3681047668915e-05,3491144.2310296,0.015345600010152
27419200,0.99373941685639,0.01562715172636,0.0049841860569162,0.0064966009549134,0.0041463647145306,-0.0011448312048099,0.0011448306593372,2.0175899784964e-09,-2.5704634659897e-09,4.9223927251819e-10,-1.1017871634526e-09,-0.0012893748196297,0.00128937690359,-0.0012893766682746,0.0012893750083721,-0.0012893758175155,0.001289375959162,-0.001289377171899,0.0012893745710718,-0.0010958736358901,0.0010958763165437,-0.0010958772610721,0.0010958725394344,4.010652653785e-11,-3.6930198572489e-10,-1.2531115546551e-09,9.4235032284449e-10,-0.0016291008180596,0.0016291005159806,-0.0017631849857156,0.0017631849829228,-0.001763184925245,0.0017631851649209,-0.0017631857647566,0.0017631842680607,-0.0017631849077494,0.0017631850978866,-0.0014365588271083,0.001436556030869,-0.0014365567644996,0.0014365584281109,-0.001514849769043,0.0015148502874384,-0.0015148498346786,0.0015148501382454,1.2592139813221e-09,-1.9971093659748e-09,-0.00089162779434528,0.00089162704805235,4.2352451389329e-09,-5.1554134454228e-09,-0.001044638375823,0.0010446423394317,-0.001044641842109,0.0010446388621541,-0.0010446398483374,0.0010446408051424,-0.0010446427645738,0.0010446380146661,-0.00092858940865411,0.00092858308974502,-0.00092858696617602,0.00092858568547809,0.7021524914728,128566,2924,0.0047588760692369,0.0067629331991775,0.0037119671936872,21.8917178571,-6.2466257143199e-05,-6.2466257143199e-05,-6.2466257143199e-05,3494654.6194488,0.015351469346234
27619200,0.99392746631784,0.015630105474236,0.0049851225117213,0.0064978387314113,0.0041471442311038,-0.0011457051321299,0.0011457045912532,1.6068277597024e-09,-2.1547088343201e-09,4.8429609035893e-10,-1.0872048109334e-09,-0.0012903214544866,0.0012903235077239,-0.0012903232756312,0.0012903216331734,-0.0012903226895435,0.0012903223248979,-0.0012903235104129,0.0012903214392573,-0.001096798001989,0.0010967992058927,-0.0010968001067667,0.0010967968776206,4.0564117676402e-11,-3.7495662227375e-10,-1.2270132622342e-09,9.0895469976374e-10,-0.0016302028550187,0.0016302025426126,-0.0017643021011074,0.0017643023329264,-0.0017643022836277,0.0017643022454503,-0.0017643031101223,0.0017643013868774,-0.0017643020409746,0.0017643024088519,-0.0014375997940381,0.0014375963093303,-0.0014375969915075,0.0014375993481977,-0.0015159212183102,0.0015159209744484,-0.0015159205476859,0.0015159216063729,8.1417169906567e-10,-1.5930416091246e-09,-0.00089240999580689,0.00089240921474334,4.2521064902714e-09,-5.2211206002255e-09,-0.0010455218357465,0.0010455257824771,-0.0010455255886048,0.0010455220087333,-0.0010455232868285,0.0010455242730836,-0.0010455259729445,0.0010455216993522,-0.00092941800607533,0.00092941321263844,-0.00092941713531773,0.00092941422728338,0.71253170170849,128566,2924,0.004762500041491,0.0067674895604354,0.0037152210791215,22.28134735448,-5.9349221164156e-05,-5.9349221164156e-05,-5.9349221164156e-05,3498327.3606852,0.015363080229803
27819200,0.99411167464423,0.015633048312203,0.0049860560781499,0.0064990692202252,0.0041479230138281,-0.0011461508115357,0.0011461502815515,1.0507099420362e-09,-1.5885290163959e-09,4.4480476333415e-10,-1.0332098930293e-09,-0.0012908482569227,0.0012908502222885,-0.0012908500097247,0.0012908484137193,-0.0012908497599659,0.0012908487684708,-0.0012908499151866,0.0012908485528761,-0.0010973027853909,0.0010973021031677,-0.0010973029699143,0.0010973017055683,3.2091464980715e-11,-3.6307206228007e-10,-1.3029500272416e-09,9.8826721229151e-10,-0.0016308727569693,0.001630872447525,-0.0017649795133603,0.0017649799752451,-0.0017649799324438,0.0017649796557551,-0.001764980804041,0.001764978746583,-0.0017649793940597,0.0017649801139118,-0.0014382218287333,0.0014382172962239,-0.0014382179799971,0.0014382214020202,-0.0015165604828836,0.0015165593766571,-0.0015165588901474,0.0015165609301951,2.5087328031151e-10,-1.0223028265416e-09,-0.00089278317761323,0.00089278240266342,4.2371523314342e-09,-5.1997159221026e-09,-0.0010460064699406,0.0010460103395148,-0.0010460105179849,0.0010460062697215,-0.0010460078528142,0.0010460088978657,-0.001046010216452,0.0010460066470333,-0.00092982904857992,0.00092982629183951,-0.00092983019462791,0.00092982528544173,0.72383699025308,128566,2924,0.0047643484298485,0.0067702574183213,0.0037167769676709,22.443460883328,-5.8052312933375e-05,-5.8052312933375e-05,-5.8052312933375e-05,3497689.1066718,0.015369348538359
28019200,0.99429276233611,0.015635994588856,0.00498699138847,0.0065002980094778,0.0041487051909081,-0.001146714878705,0.0011467143410088,2.0569324313504e-09,-2.6020512059616e-09,4.6507052908921e-10,-1.0648898596987e-09,-0.0012915047245906,0.001291506823386,-0.0012915066023897,0.0012915048965766,-0.0012915056870596,0.0012915059151958,-0.00129150709098,0.00129150446118,-0.0010979372787147,0.0010979402790327,-0.0010979411796761,0.0010979361873402,6.2082460599914e-11,-3.9586889159474e-10,-1.2922734313455e-09,9.7610770399144e-10,-0.0016316802526992,0.001631679943831,-0.0017657857364864,0.0017657856626896,-0.0017657855960039,0.0017657859152831,-0.0017657864784389,0.0017657849859444,-0.0017657856503781,0.0017657857761147,-0.0014389832564012,0.001438980325329,-0.0014389810411625,0.0014389828079582,-0.0015173341816162,0.0015173346986826,-0.0015173342373055,0.0015173346005944,1.2588895263222e-09,-2.0225089867066e-09,-0.00089326271186866,0.00089326194279306,4.2800225970123e-09,-5.2310999561011e-09,-0.0010466204860527,0.0010466245018628,-0.0010466240055005,0.0010466209665612,-0.0010466219874344,0.0010466229404301,-0.0010466249315484,0.0010466201160336,-0.00093036090949665,0.00093035453177176,-0.0009303584604071,0.00093035712578973,0.73612814657864,128566,2924,0.0047666878222071,0.0067735937469844,0.0037187757086341,22.670306894188,-5.6237544846499e-05,-5.6237544846499e-05,-5.6237544846499e-05,3496416.2560608,0.015377142751084
28219200,0.99447354766181,0.015638993863588,0.0049879442197388,0.00650154569448,0.0041495039493687,-0.0011477771249693,0.0011477765872222,1.5420206653492e-09,-2.0865207381918e-09,4.7119794080356e-10,-1.0711483115661e-09,-0.0012926815467918,0.0012926835347416,-0.0012926833101603,0.0012926817204686,-0.0012926827572353,0.0012926823823116,-0.0012926835521099,0.0012926815172491,-0.0010990923064067,0.0010990935089651,-0.001099094391218,0.0010990911886965,2.6888178937531e-11,-3.5787806836479e-10,-1.2958161878226e-09,9.8155695363825e-10,-0.0016330307018686,0.0016330303926803,-0.0017671265795687,0.0017671267352211,-0.0017671266884389,0.0017671267146758,-0.0017671275532654,0.0017671258211061,-0.0017671264640481,0.0017671268669633,-0.0014402843153599,0.0014402807363528,-0.0014402814035883,0.0014402838783877,-0.0015186466423635,0.0015186464584112,-0.0015186459870303,0.0015186470733258,7.2982504468961e-10,-1.5014239716193e-09,-0.00089420398823852,0.00089420321450836,4.224102035053e-09,-5.1849555125643e-09,-0.0010477381916402,0.0010477420513675,-0.0010477419104419,0.001047738313451,-0.0010477395694036,0.0010477406170275,-0.0010477422508689,0.0010477380498419,-0.00093137636382976,0.00093137173173123,-0.00093137562319829,0.00093137261201187,0.74949207877123,128566,2924,0.0047710930338453,0.0067791753012464,0.0037226939528299,23.163210362306,-5.2294317101549e-05,-5.2294317101549e-05,-5.2294317101549e-05,3497141.9651411,0.015391264191886
28419200,0.99464876502466,0.015641961162469,0.0049888875587728,0.0065027772594777,0.0041502963442188,-0.001147927880581,0.0011479273582991,9.1065268936191e-10,-1.4411121165626e-09,4.147577676077e-10,-9.9584326178957e-10,-0.0012929499724541,0.0012929516847285,-0.0012929514871684,0.001292950123794,-0.0012929513215562,0.0012929504063538,-0.0012929515260503,0.0012929501461991,-0.0010993408764312,0.0010993404149537,-0.0010993412564315,0.0010993398342474,4.4899498939363e-13,-3.1691027678505e-10,-1.4668051839908e-09,1.1685942031904e-09,-0.0016334544317115,0.0016334541409116,-0.0017675299341895,0.0017675301393308,-0.0017675300938896,0.0017675300908075,-0.001767531056319,0.0017675290870296,-0.0017675296857481,0.0017675304242068,-0.0014406824443093,0.0014406780392616,-0.0014406787439811,0.0014406820911363,-0.0015190375353729,0.001519036870124,-0.001519036280548,0.0015190380507569,1.0350704564772e-10,-8.3037982199033e-10,-0.00089428517052275,0.00089428443708613,4.1332350725645e-09,-5.0395354725329e-09,-0.0010479899607611,0.0010479935139511,-0.0010479937822299,0.0010479896900007,-0.0010479910849006,0.0010479923379113,-0.0010479935130241,0.0010479900406723,-0.0009315080976713,0.00093150535230375,-0.00093150912650178,0.00093150445362259,0.7640264679785,128566,2924,0.0047717189025558,0.0067809222562685,0.0037230403437915,23.176354792319,-5.2189161661449e-05,-5.2189161661449e-05,-5.2189161661449e-05,3490649.4143314,0.015394027674141
28619200,0.99481891662217,0.015644862813071,0.0049898101676655,0.0065039807649674,0.0041510718804382,-0.0011481273127921,0.001148126804429,-4.5737957024125e-10,-5.798815908461e-11,3.591203130033e-10,-9.2695630094483e-10,-0.0012932760966969,0.0012932771290188,-0.0012932769611428,0.0012932762134574,-0.0012932776671434,0.0012932756106799,-0.0012932766721416,0.001293276549332,-0.0010996528069684,0.0010996489361654,-0.0010996497165114,0.0010996518142607,-5.3956315848059e-11,-2.6629068188481e-10,-1.6863147538889e-09,1.3816169195515e-09,-0.001633947016801,0.0016339467169894,-0.0017679903147052,0.001767990593864,-0.0017679906069178,0.0017679904171864,-0.0017679916671398,0.0017679893166634,-0.00176798989354,0.0017679910465705,-0.0014411556481451,0.0014411500663532,-0.0014411506529435,0.0014411552644,-0.0015194978581178,0.0015194964750768,-0.0015194957083971,0.0015194985371072,-1.2717683114319e-09,5.6435384538385e-10,-0.00089440999117174,0.00089440928038903,3.9598755023157e-09,-4.8501127590591e-09,-0.0010483025973991,0.0010483054031619,-0.0010483065706295,0.0010483014105545,-0.0010483030638238,0.0010483048803075,-0.0010483050858019,0.0010483029744285,-0.00093169128851106,0.00093169222746464,-0.00093169584751053,0.00093168779939214,0.76896222575291,128566,2924,0.0047725467520685,0.0067829532861391,0.0037235688913294,23.222737917402,-5.1818096660786e-05,-5.1818096660786e-05,-5.1818096660786e-05,3483377.2907412,0.015397469943573
28819200,0.99499054227182,0.015647710793441,0.0049907145439695,0.0065051670994294,0.0041518291500421,-0.0011495274091117,0.0011495268606973,2.8775050968985e-09,-3.432112841276e-09,5.0603466207115e-10,-1.1184348177017e-09,-0.0012948243393813,0.0012948269966732,-0.0012948267507087,0.0012948245255233,-0.0012948252813107,0.0012948261054513,-0.0012948273150675,0.0012948240071638,-0.0011011823414898,0.0011011871342587,-0.0011011880568648,0.0011011811802299,2.2502619501597e-11,-3.5167942725843e-10,-1.2265997758659e-09,9.1409593770245e-10,-0.001635700846454,0.0016357005386307,-0.0017697111866407,0.0017697110873758,-0.0017697110376756,0.0017697113221113,-0.001769711839882,0.0017697104945521,-0.0017697111356553,0.0017697111521673,-0.0014428616190268,0.0014428589870838,-0.001442859642522,0.0014428611754348,-0.0015212144804852,0.0015212149991298,-0.0015212146179817,0.0015212148987534,2.0470789661428e-09,-2.8309765705622e-09,-0.00089565497829566,0.00089565419308098,4.2671907723981e-09,-5.2389337869612e-09,-0.0010497815626832,0.0010497860775042,-0.0010497850370627,0.0010497825834019,-0.0010497835733202,0.0010497840090012,-0.0010497865669808,0.0010497811305562,-0.00093303766730486,0.00093302954081704,-0.00093303347911883,0.00093303386529841,0.74978588682537,128566,2924,0.0047783528943293,0.0067902015673505,0.0037287512621895,23.910148747739,-4.631881001809e-05,-4.631881001809e-05,-4.631881001809e-05,3484145.1554605,0.015415991149335
29019200,0.99515316722367,0.015650258146716,0.0049915212286783,0.006506238559828,0.0041524983582092,-0.0011489837998045,0.0011489832634848,2.1005074477059e-09,-2.6450859377259e-09,4.5867497612153e-10,-1.0523518295504e-09,-0.0012943758515024,0.0012943780661238,-0.0012943778499794,0.001294376010201,-0.0012943769037424,0.0012943770564929,-0.0012943782233444,0.0012943756847836,-0.0011007202897884,0.0011007230175621,-0.0011007238991894,0.0011007191841175,4.2228708000781e-11,-3.7738389523987e-10,-1.352088060579e-09,1.0327319822174e-09,-0.0016353811479734,0.0016353808349232,-0.0017693784771624,0.0017693784635827,-0.0017693784131836,0.0017693786235801,-0.0017693793147807,0.0017693776739103,-0.0017693783383377,0.0017693786221331,-0.0014425250805926,0.0014425217963733,-0.0014425224893571,0.0014425246478564,-0.001520866744494,0.0015208670468011,-0.0015208665191284,0.0015208672055028,1.254010988178e-09,-2.0297887823129e-09,-0.00089507833597065,0.00089507755554658,4.2738578461353e-09,-5.2443592542794e-09,-0.0010493330855575,0.0010493371894598,-0.0010493366945826,0.0010493335546734,-0.0010493346787755,0.0010493355311863,-0.0010493375321968,0.0010493327911172,-0.00093247537604091,0.00093246926241776,-0.00093247320020297,0.00093247157766827,0.71130445579312,128566,2924,0.004776099285346,0.006788873499214,0.0037263639556387,23.567837712023,-4.9057298303813e-05,-4.9057298303813e-05,-4.9057298303813e-05,3475160.5799771,0.01540993157623
29219200,0.9953143666779,0.015652721544968,0.0049923004690362,0.0065072780328802,0.0041531430430521,-0.0011498386225748,0.0011498380760588,1.553796119937e-09,-2.1073786236227e-09,4.9868390331009e-10,-1.1078505356913e-09,-0.0012952851872022,0.0012952871601538,-0.0012952869204978,0.0012952853697854,-0.0012952863705522,0.0012952860262566,-0.0012952872289617,0.0012952851041997,-0.0011016248562243,0.0011016262166316,-0.0011016271325893,0.0011016237083353,3.9055135598298e-11,-3.7159369994989e-10,-1.2287641231583e-09,9.1267905092854e-10,-0.0016364506848798,0.0016364503739933,-0.0017704667254478,0.0017704668819321,-0.001770466830527,0.0017704668686232,-0.0017704676559782,0.0017704660108623,-0.0017704666652059,0.0017704669569025,-0.0014435270263921,0.001443523712394,-0.0014435243895351,0.0014435265810782,-0.0015219133967058,0.0015219133274621,-0.0015219128981023,0.0015219137911322,6.9368617023499e-10,-1.4829449413533e-09,-0.0008958524591236,0.00089585166775207,4.3034200729708e-09,-5.2830344853144e-09,-0.0010501806059084,0.0010501844454141,-0.0010501843359238,0.0010501806929648,-0.001050181923116,0.0010501830683166,-0.0010501847055277,0.0010501803987489,-0.00093328964585884,0.00093328485578857,-0.00093328882737127,0.00093328581728619,0.69517197521606,128566,2924,0.0047796436365499,0.0067932956849329,0.0037295837120288,23.974230973668,-4.5806152210659e-05,-4.5806152210659e-05,-4.5806152210659e-05,3480968.5511753,0.015421290569831
29419200,0.99547472834251,0.015655000533604,0.0049930186125779,0.0065082517609734,0.0041537301600529,-0.0011508540893774,0.0011508535345368,1.0547212546441e-09,-1.6163388559484e-09,5.3067626882007e-10,-1.1500947609827e-09,-0.0012963418050659,0.0012963435589514,-0.0012963433023291,0.001296342004815,-0.0012963431007699,0.0012963423150797,-0.0012963435474576,0.0012963418000253,-0.0011026712577249,0.0011026713901689,-0.001102672333291,0.0011026700748249,3.369518910569e-11,-3.6433289005677e-10,-1.1115219058864e-09,7.9723325595363e-10,-0.001637640462589,0.0016376401529377,-0.0017716948777037,0.0017716951866595,-0.0017716951365835,0.0017716950142089,-0.0017716958866386,0.0017716942374772,-0.001771694884252,0.0017716951911621,-0.0014446346682242,0.0014446313257405,-0.0014446319920169,0.0014446342215263,-0.0015230775739689,0.0015230771490014,-0.0015230768073657,0.0015230779020018,1.8677487438374e-10,-9.8219191795835e-10,-0.00089676654357497,0.00089676574618871,4.3270190853018e-09,-5.3117036122533e-09,-0.0010511491289066,0.0010511527366315,-0.0010511529660242,0.0010511488776658,-0.0010511502039462,0.00105115160241,-0.0010511529141641,0.0010511490048529,-0.00093422787549543,0.0009342242937078,-0.00093422828940651,0.00093422402196692,0.65090116472609,128566,2924,0.0047838538480303,0.0067982165474144,0.0037333831234053,24.457000102939,-4.1943999176491e-05,-4.1943999176491e-05,-4.1943999176491e-05,3489486.1966986,0.015434420520337
29619200,0.99563462038276,0.015657238115317,0.0049937231637076,0.0065092100768969,0.0041543048747128,-0.0011519961999858,0.0011519956470356,1.9846930719375e-09,-2.5444600211845e-09,5.015088373375e-10,-1.1175925968427e-09,-0.0012974691913408,0.001297471364311,-0.0012974711281212,0.0012974693741101,-0.0012974702843097,0.0012974703241157,-0.001297471535856,0.0012974690063786,-0.001103790546823,0.0011037930680576,-0.0011037939948997,0.0011037893909492,-1.1177954344697e-11,-3.15427982774e-10,-1.2313980009305e-09,9.206943447727e-10,-0.0016388694800849,0.0016388691742508,-0.0017730014208444,0.0017730014338617,-0.0017730014144564,0.0017730015331788,-0.0017730022141141,0.001773000703971,-0.0017730013162722,0.0017730015543511,-0.0014457512060251,0.0014457481874371,-0.0014457488154745,0.0014457507924507,-0.0015242902395456,0.0015242903408881,-0.0015242899085391,0.0015242906504183,1.1270039222872e-09,-1.8859639731935e-09,-0.00089781130582535,0.00089781054526287,4.1507126907235e-09,-5.096083465639e-09,-0.0010521572324969,0.0010521611803226,-0.0010521607592943,0.0010521576319286,-0.0010521587405542,0.0010521596137518,-0.001052161503116,0.0010521569638814,-0.00093527747667561,0.00093527172603047,-0.0009352755539419,0.00093527379051913,0.64191650271379,128566,2924,0.0047885885628478,0.0068033030199071,0.0037377210726245,24.997739674259,-3.7618082605925e-05,-3.7618082605925e-05,-3.7618082605925e-05,3503980.7521276,0.015448796554449
29819200,0.99579473137815,0.015659618597,0.0049944750541422,0.0065102189553628,0.0041549245874947,-0.0011533417729154,0.0011533412178102,1.2255266383885e-09,-1.787499246411e-09,5.1458869741852e-10,-1.132776846739e-09,-0.001298792490968,0.0012987943708592,-0.0012987941268592,0.0012987926796654,-0.0012987937923179,0.0012987931218308,-0.0012987943441012,0.0012987925022348,-0.0011051037643495,0.0011051042152258,-0.0011051051509412,0.0011051025939548,1.4424526870017e-11,-3.4265546193438e-10,-1.1144684448717e-09,8.0230749223331e-10,-0.0016402812173329,0.0016402809097142,-0.0017744983006891,0.0017744986115,-0.0017744985717102,0.001774498423005,-0.0017744993118161,0.0017744976562437,-0.0017744982901314,0.0017744986336522,-0.0014470420211865,0.0014470386345665,-0.0014470392911399,0.0014470415971858,-0.0015256883383105,0.0015256878253209,-0.0015256874812334,0.0015256886820103,3.543888553402e-10,-1.1252679843456e-09,-0.00089904297923131,0.00089904220676576,4.2077207431078e-09,-5.1661876946059e-09,-0.0010533426595295,0.0010533463316056,-0.0010533464282371,0.0010533425411214,-0.0010533438622482,0.0010533450701936,-0.001053346465474,0.0010533425792997,-0.00093651958795924,0.00093651586757972,-0.00093651974764696,0.00093651584992615,0.67837952472912,128566,2924,0.0047941668865067,0.0068091460413204,0.0037428345306536,25.634558283129,-3.2523533734966e-05,-3.2523533734966e-05,-3.2523533734966e-05,3519795.2792187,0.015465585163019
30019200,0.99595151958813,0.01566198727253,0.004995223788816,0.006511220724792,0.0041555427589225,-0.0011540091705276,0.0011540086121376,4.5495591970398e-09,-5.1153683470937e-09,5.2564435846059e-10,-1.1441930600992e-09,-0.0012994831258358,0.0012994862149856,-0.0012994859683228,0.0012994833174656,-0.0012994834402653,0.0012994859504669,-0.0012994871870026,0.0012994821409265,-0.0011057669081784,0.0011057767649202,-0.0011057777059265,0.0011057657210698,1.239566520329e-11,-3.4453124457168e-10,-1.2054522293795e-09,8.8952117226819e-10,-0.0016410580168079,0.0016410577064073,-0.0017753291099326,0.0017753283611961,-0.0017753283296826,0.0017753292390125,-0.0017753291259919,0.0017753284083427,-0.0017753290401684,0.0017753284455595,-0.0014477344118282,0.0014477337661442,-0.0014477344065141,0.0014477339679022,-0.0015264370443175,0.00152643952253,-0.0015264390955842,0.001526437404759,3.6758829502403e-09,-4.4418968195065e-09,-0.0008996247117168,0.00089962394332227,4.1899919237111e-09,-5.1444398475585e-09,-0.0010539489194505,0.0010539537836965,-0.0010539516784226,0.0010539510026751,-0.0010539513225691,0.0010539513207483,-0.0010539549079743,0.0010539478472549,-0.00093712127981697,0.00093710817158378,-0.00093711204022157,0.0009371175488007,0.68873329067074,128566,2924,0.0047969340057602,0.0068123594968122,0.0037452519955536,25.914321093362,-3.0285431253103e-05,-3.0285431253103e-05,-3.0285431253103e-05,3525137.8121225,0.015474113012045
30219200,0.99610315007726,0.015664173209689,0.0049959131909618,0.0065121525789054,0.0041561074398214,-0.0011542796595457,0.0011542791013775,1.0686054883248e-09,-1.6342900435617e-09,5.1898312475267e-10,-1.1376711836322e-09,-0.0012997861787021,0.0012997880349912,-0.0012997877905572,0.0012997863642914,-0.0012997875797663,0.0012997866794202,-0.0012997879097316,0.00129978628395,-0.0011060471228718,0.0011060468665745,-0.0011060478084484,0.0011060459425752,-7.535100278447e-12,-3.2112584694345e-10,-1.2383542328929e-09,9.2775921118117e-10,-0.0016414390788734,0.0016414387712219,-0.0017757518206557,0.0017757521528155,-0.0017757521309321,0.0017757519262329,-0.0017757529359179,0.0017757510896368,-0.0017757517136097,0.001775752273135,-0.0014480493928428,0.0014480455027018,-0.0014480461532758,0.0014480490074478,-0.0015267883319423,0.0015267876246509,-0.0015267871723625,0.0015267887481167,1.7175127316062e-10,-9.5556501936793e-10,-0.00089983482269922,0.00089983403672425,4.2605480190061e-09,-5.2371929186849e-09,-0.0010541954205551,0.0010541990875263,-0.0010541993286686,0.0010541951534794,-0.0010541965889093,0.0010541978589734,-0.0010541991313879,0.0010541954252892,-0.0009373364037316,0.00093733336919166,-0.00093733730323744,0.00093733261144716,0.66008544246961,128566,2924,0.0047980556140371,0.0068139350788748,0.0037461267136004,25.990793352572,-2.9673653179427e-05,-2.9673653179427e-05,-2.9673653179427e-05,3526143.2972113,0.015477740434593
30419200,0.99624739511251,0.015666132403673,0.0049965292312678,0.0065129961175199,0.0041566070548853,-0.0011540221011234,0.0011540215449439,7.736460608461e-10,-1.3373137073242e-09,5.1222363020647e-10,-1.1287442397559e-09,-0.0012995079685773,0.0012995098023116,-0.0012995095614492,0.0012995081522418,-0.0012995095198237,0.0012995083013919,-0.001299509523011,0.0012995082290854,-0.0011057540018439,0.0011057528445296,-0.0011057537766673,0.0011057528248292,-1.5400849514619e-11,-3.1085677642121e-10,-1.3404087865493e-09,1.0298398868631e-09,-0.0016411998246218,0.0016411995182951,-0.0017755777584482,0.0017755781431811,-0.0017755781285336,0.0017755778653153,-0.0017755789951418,0.0017755769679066,-0.0017755775807603,0.0017755783363134,-0.0014477398474218,0.0014477352910909,-0.0014477359312431,0.001447739453725,-0.0015265268813964,0.0015265257005771,-0.0015265252077727,0.0015265273873674,-1.3770856930729e-10,-6.5421736970494e-10,-0.00089956117991953,0.00089956038581446,4.304061841924e-09,-5.2895735527554e-09,-0.0010538706910773,0.0010538743548542,-0.0010538747870948,0.0010538702353858,-0.001053871831725,0.0010538731557525,-0.0010538742539259,0.0010538708442282,-0.00093703509934277,0.00093703295453478,-0.00093703692685413,0.00093703126557077,0.62526766488466,128566,2924,0.0047969873396689,0.0068129468742696,0.0037449886091712,25.7869454389,-3.1304436488799e-05,-3.1304436488799e-05,-3.1304436488799e-05,3527451.1329236,0.015474495028928
30619200,0.99638364266059,0.015668107670977,0.0049971525494808,0.0065138362191597,0.004157118902336,-0.0011535383582763,0.0011535378030499,1.6470791975027e-09,-2.2097573143788e-09,5.0459280932832e-10,-1.119961155779e-09,-0.001298941436801,0.0012989435508574,-0.0012989433157402,0.0012989416157815,-0.0012989426908933,0.0012989423463347,-0.001298943563135,0.0012989414088628,-0.0011051899972652,0.0011051914430968,-0.0011051923710396,0.0011051888298755,1.5681632113374e-12,-3.3144648659617e-10,-1.3949971987343e-09,1.0812623897056e-09,-0.0016406346860659,0.0016406343771908,-0.0017751047163342,0.0017751047831314,-0.0017751047608845,0.0017751048379169,-0.0017751056713192,0.0017751038901678,-0.0017751045161795,0.0017751050002586,-0.0014470926339388,0.0014470888110334,-0.0014470894567879,0.0014470922180067,-0.0015259558443111,0.0015259555891249,-0.0015259550553351,0.0015259563653163,7.2470636053065e-10,-1.5248925774461e-09,-0.00089909053445456,0.00089908973171795,4.363579534964e-09,-5.358461308256e-09,-0.0010532524551283,0.0010532564351583,-0.0010532563022302,0.0010532525641009,-0.0010532538769605,0.0010532549524597,-0.0010532566326593,0.0010532523086571,-0.00093651136735138,0.00093650661540828,-0.00093651064056921,0.00093650748187947,0.66318500941419,128566,2924,0.0047949807616987,0.0068106134438865,0.0037430281597515,25.453981750574,-3.3968145995406e-05,-3.3968145995406e-05,-3.3968145995406e-05,3531448.0486225,0.015468093935093
30819200,0.99651988481455,0.015670178094334,0.0049978074600831,0.0065147096408788,0.0041576609933721,-0.0011548544952642,0.0011548539386659,1.722288857004e-09,-2.2854527757354e-09,5.0740604485466e-10,-1.1267628785793e-09,-0.0013002713050442,0.0013002734043606,-0.0013002731672615,0.001300271488259,-0.0013002724982597,0.0013002722640178,-0.0013002734841493,0.0013002712108981,-0.0011064951461058,0.0011064969928559,-0.0011064979216704,0.0011064939761631,-1.6069562380018e-11,-3.1213659155903e-10,-1.3304039658956e-09,1.0185425349894e-09,-0.0016420493960944,0.0016420490892144,-0.0017765736731831,0.0017765737075734,-0.0017765736916988,0.0017765737836858,-0.0017765745511501,0.0017765728925611,-0.0017765735039062,0.0017765738941289,-0.0014484148567051,0.0014484113577923,-0.0014484119875025,0.0014484144491343,-0.0015273435658721,0.0015273434154077,-0.0015273429259084,0.0015273440406602,8.0008244205265e-10,-1.5809763998987e-09,-0.00090031130290729,0.0009003105203832,4.2655410089737e-09,-5.2361396181539e-09,-0.0010544905118755,0.0010544944251342,-0.0010544942329178,0.0010544906824441,-0.001054491920761,0.001054492957664,-0.0010544946586677,0.0010544903319546,-0.00093777289300813,0.00093776793367373,-0.0009377718687322,0.00093776909983589,0.69236590045978,128566,2924,0.0048004378428422,0.0068164666327738,0.0037480992670637,26.086961442148,-2.8904308462813e-05,-2.8904308462813e-05,-2.8904308462813e-05,3541147.6620762,0.015484728945977
31019200,0.99666049132014,0.015672381079541,0.0049985052365585,0.0065156350908306,0.0041582407521517,-0.0011572854891999,0.0011572849685597,1.9342453723154e-09,-2.4617591353536e-09,3.5915907837052e-10,-9.3859321473921e-10,-0.0013027899375706,0.0013027922361712,-0.0013027920762377,0.001302790045539,-0.0013027911643488,0.001302791058258,-0.0013027921344056,0.0013027900254111,-0.0011089718516933,0.0011089737182564,-0.0011089745137228,0.0011089708385379,-1.1618108862985e-10,-1.9898044998972e-10,-1.6083732301254e-09,1.307811348261e-09,-0.0016446711030321,0.0016446708058633,-0.0017792236769687,0.0017792236067658,-0.0017792236603039,0.0017792237251313,-0.0017792246336858,0.001779222717582,-0.0017792232553943,0.0017792240534643,-0.0014509344522431,0.0014509300517049,-0.0014509306057417,0.0014509341381533,-0.0015299293879815,0.0015299288272895,-0.0015299281265801,0.0015299300884482,1.0333822052249e-09,-1.7171283094879e-09,-0.00090252739131444,0.00090252670680071,3.7723407851079e-09,-4.6361139879809e-09,-0.0010568499564145,0.0010568538606013,-0.0010568534512949,0.0010568503403895,-0.0010568516227393,0.0010568521367883,-0.0010568538616695,0.0010568500078867,-0.00094008451007728,0.0009400800901382,-0.00094008355731356,0.00094008118060873,0.71216092447298,128566,2924,0.0048105179050127,0.0068273100796085,0.0037573091197402,27.296468878983,-1.9228248968137e-05,-1.9228248968137e-05,-1.9228248968137e-05,3552746.0716695,0.015515331945206
31219200,0.99680587441912,0.01567477434199,0.0049992650799262,0.0065166340015456,0.0041588752605184,-0.0011599026569695,0.0011599020934191,1.6142551892554e-09,-2.1847305778136e-09,5.8168377951129e-10,-1.2090658346922e-09,-0.0013055373235304,0.0013055391184704,-0.0013055388306396,0.0013055375449396,-0.0013055382896994,0.001305538198432,-0.0013055394708374,0.0013055369382499,-0.0011116750426029,0.0011116773573404,-0.0011116783283825,0.001111673784973,1.7700120308769e-10,-5.2282891058273e-10,-6.4464413338776e-10,3.1599014571795e-10,-0.0016475435257538,0.001647543200037,-0.0017821041248451,0.0017821044659381,-0.0017821043255249,0.0017821043303135,-0.0017821048601567,0.0017821037839183,-0.0017821045461243,0.00178210403231,-0.0014537051395265,0.0014537036746,-0.0014537044368521,0.0014537045635307,-0.0015327613367932,0.0015327619389368,-0.0015327619229218,0.0015327613516369,6.460791971946e-10,-1.487649787368e-09,-0.00090489655284402,0.00090489571119283,4.4744797259511e-09,-5.5097739680633e-09,-0.0010594269093723,0.0010594305543818,-0.0010594305039494,0.0010594269317063,-0.0010594279452578,0.001059429457889,-0.0010594311297694,0.0010594263798009,-0.00094257166885143,0.00094256590902468,-0.00094257007404502,0.0009425676502452,0.74546454061628,128566,2924,0.0048213698422607,0.0068391885215581,0.0037671569889841,28.60246716379,-8.7802626896834e-06,-8.7802626896834e-06,-8.7802626896834e-06,3562672.2086016,0.015548419934706
31419200,0.99694990096331,0.01567702981659,0.0049999796965951,0.006517583925446,0.0041594661945485,-0.0011611913810507,0.0011611908329706,1.7681259679838e-09,-2.3242727323284e-09,4.9775854842464e-10,-1.1040982508504e-09,-0.0013069859733363,0.0013069879813162,-0.0013069877490428,0.0013069861526001,-0.001306987044241,0.0013069869623495,-0.0013069881625063,0.0013069857746194,-0.0011130753851751,0.001113077524797,-0.0011130784399074,0.0011130742353439,6.3625650162415e-11,-3.9989864348859e-10,-1.0011872091239e-09,6.8144726001868e-10,-0.0016491197276958,0.0016491194127865,-0.0017836614964226,0.0017836616889883,-0.0017836616267072,0.0017836616447484,-0.001783662332303,0.0017836609085179,-0.0017836615792513,0.0017836616121153,-0.0014552288725243,0.0014552262969261,-0.0014552269844196,0.0014552284052289,-0.0015342887481253,0.0015342889095818,-0.0015342886279759,0.0015342890002921,8.1757370133169e-10,-1.5937382870042e-09,-0.00090601272472926,0.00090601194719433,4.2019996857057e-09,-5.1694514103373e-09,-0.0010607864327145,0.0010607901867048,-0.001060789981184,0.0010607866131476,-0.0010607877225984,0.0010607888357383,-0.0010607905385919,0.0010607861295561,-0.00094378217375929,0.00094377691730833,-0.00094378080002727,0.00094377843295958,0.71243067697912,128566,2924,0.0048267141144651,0.0068457021818758,0.0037718039635729,29.22178226556,-3.8257418755181e-06,-3.8257418755181e-06,-3.8257418755181e-06,3560212.7016898,0.01556518606301
31619200,0.99708582284399,0.015679054864544,0.0050006199086586,0.0065184438701005,0.0041599910857849,-0.0011609014054792,0.0011609009392235,2.0119410526701e-09,-2.4873771696323e-09,1.9984873643659e-10,-7.1561457558358e-10,-0.001306767670821,0.0013067699629062,-0.0013067698783222,0.0013067677109492,-0.001306768818315,0.0013067688793955,-0.001306769773555,0.001306767853695,-0.0011128405858232,0.0011128425454649,-0.0011128431711419,0.0011128397549421,-2.8616921143291e-10,-4.9138981779014e-12,-2.2453417549977e-09,1.9678183340889e-09,-0.0016489798006679,0.0016489795257063,-0.0017835305112531,0.00178352995773,-0.0017835301103976,0.0017835304631611,-0.0017835314006919,0.0017835291424156,-0.0017835295470631,0.001783530969898,-0.0014550515696354,0.0014550459377496,-0.0014550464145455,0.0014550514418512,-0.0015341157287504,0.0015341151734182,-0.0015341140116077,0.0015341168590564,1.1028510028317e-09,-1.6961968056984e-09,-0.00090567093631382,0.00090567034194593,3.3211259812045e-09,-4.0877335000631e-09,-0.0010605427520806,0.0010605464606577,-0.0010605459497217,0.0010605432456475,-0.0010605444732525,0.0010605446962359,-0.0010605463506043,0.001060542933104,-0.00094345659324389,0.00094345266398738,-0.00094345567771676,0.00094345368758998,0.68058195252722,128566,2924,0.0048255122312499,0.0068451197422513,0.0037703906272272,29.011640200197,-5.506878398422e-06,-5.506878398422e-06,-5.506878398422e-06,3553080.8503445,0.015561940081126
31819200,0.99721292016322,0.015680880501686,0.0050011960983094,0.0065192233874825,0.004160461015894,-0.0011602933416641,0.0011602927464735,1.6877659292403e-09,-2.2899591384916e-09,6.7399375313364e-10,-1.3318367879474e-09,-0.00130616171249,0.0013061635451843,-0.0013061632159337,0.0013061619674285,-0.0013061626928201,0.0013061626076898,-0.0013061639889133,0.0013061612476026,-0.0011122356138881,0.0011122381189159,-0.0011122391997209,0.0011122342489276,2.1756310824344e-10,-5.6789792028483e-10,-6.7660775021532e-10,3.4514697411451e-10,-0.001648412586488,0.0016484122605638,-0.0017829966244203,0.0017829969576723,-0.0017829967807593,0.0017829968777589,-0.0017829973388856,0.0017829962990043,-0.0017829970889321,0.0017829964872292,-0.0014544366127656,0.001454435244648,-0.0014544360561222,0.0014544360119325,-0.0015335313547601,0.0015335322038151,-0.0015335321669387,0.0015335313210876,6.6420739091095e-10,-1.5954942038125e-09,-0.00090504601162725,0.00090504507803171,5.0037729967873e-09,-6.1432840225196e-09,-0.0010599073557552,0.0010599112787491,-0.0010599112792089,0.0010599073337633,-0.0010599083764419,0.0010599101959827,-0.0010599119994399,0.0010599066880617,-0.00094281543990386,0.00094280896745208,-0.00094281358318933,0.00094281095683303,0.65806101942436,128566,2924,0.0048229906187564,0.0068427727276746,0.003767795543779,28.629795322459,-8.56163742033e-06,-8.56163742033e-06,-8.56163742033e-06,3548461.7185635,0.015554359627715
32019200,0.9973339989794,0.015682793693378,0.0050018027572691,0.0065200268941536,0.0041609640419551,-0.0011602799577884,0.0011602793815717,1.7572087092265e-09,-2.3395606046599e-09,5.9833912677172e-10,-1.2388513906463e-09,-0.0013061195834761,0.0013061214651875,-0.0013061211751368,0.0013061198020064,-0.0013061205479572,0.0013061205373943,-0.0013061218397154,0.001306119175103,-0.0011122005286517,0.0011122030295495,-0.0011122040605865,0.0011121992948663,9.345890530636e-11,-4.3396456062174e-10,-1.0489317095622e-09,7.2433151111071e-10,-0.0016484136063119,0.0016484132852594,-0.0017830495015311,0.001783049504304,-0.0017830494286755,0.0017830496559133,-0.0017830501760529,0.0017830488837137,-0.0017830495870033,0.0017830494192522,-0.0014543732455801,0.0014543710905856,-0.0014543717803897,0.0014543727440986,-0.0015335249364573,0.001533525745909,-0.0015335254482157,0.0015335252384933,7.3574472672055e-10,-1.6254799637985e-09,-0.00090500276375717,0.00090500187429379,4.7366498055116e-09,-5.8302979753723e-09,-0.0010598103474477,0.0010598141899946,-0.001059814106629,0.0010598104003064,-0.0010598114384299,0.0010598130360999,-0.0010598148269328,0.0010598097516626,-0.00094276149316936,0.00094275526038255,-0.00094275965825486,0.0009427572467374,0.71766731189434,128566,2924,0.0048229347701073,0.0068427785330527,0.0037676146218355,28.559391693243,-9.1248664540594e-06,-9.1248664540594e-06,-9.1248664540594e-06,3551036.407169,0.015554123625633
32219200,0.99745071454816,0.015684681423029,0.0050024018817737,0.0065208171762354,0.0041614623650199,-0.0011606338521997,0.0011606332962243,1.9294934940629e-09,-2.491728370414e-09,5.2588072823966e-10,-1.1449120228412e-09,-0.0013065422430884,0.0013065446957912,-0.001306544439785,0.0013065424300399,-0.0013065436514028,0.0013065433260912,-0.0013065445555316,0.0013065423529918,-0.0011126029802622,0.0011126044070614,-0.001112605371828,0.0011126018266642,-2.9545754397484e-11,-2.9533630561977e-10,-1.4767160068102e-09,1.1669286405428e-09,-0.0016489225946216,0.0016489222871164,-0.0017835581767987,0.001783558319662,-0.0017835583193021,0.0017835582619491,-0.0017835592639085,0.0017835572909578,-0.0017835579018404,0.0017835586082091,-0.0014548512879041,0.0014548469149675,-0.0014548475348664,0.00145485090337,-0.001534005699081,0.0015340050900584,-0.0015340044979836,0.00153400630685,9.340292877817e-10,-1.7335498683499e-09,-0.00090528652862618,0.00090528572905325,4.3102025560647e-09,-5.3023098474939e-09,-0.0010601990175124,0.0010602032339907,-0.0010602029617414,0.0010601992599888,-0.0010602007086812,0.0010602014833314,-0.0010602032904595,0.0010601990073179,-0.00094308442124616,0.00094307973730233,-0.00094308373157077,0.00094308056824972,0.73341164826395,128566,2924,0.0048244028110905,0.0068448808901123,0.0037687986128668,28.694050101318,-8.0475991894563e-06,-8.0475991894563e-06,-8.0475991894563e-06,3547657.3300158,0.015558953803005
32419200,0.99756409650656,0.015686563395386,0.0050029997962023,0.006521602254786,0.0041619613443972,-0.0011612421652232,0.0011612416022669,1.9445857820921e-09,-2.5137690839632e-09,5.270057469814e-10,-1.1532378453754e-09,-0.0013072472863966,0.0013072496727051,-0.0013072494215917,0.00130724747415,-0.0013072486282971,0.0013072483755602,-0.0013072496188713,0.0013072473216933,-0.0011132861873642,0.0011132879301496,-0.0011132888958755,0.0011132850093907,-5.0438626369881e-11,-2.7193588248663e-10,-1.427656673598e-09,1.1211442951643e-09,-0.0016497378215377,0.0016497375188608,-0.0017843592542164,0.0017843593456881,-0.0017843593499282,0.0017843593389405,-0.0017843602419063,0.0017843584193588,-0.0017843590082824,0.0017843596104972,-0.0014556362526647,0.0014556321863124,-0.0014556327991404,0.001455635886139,-0.0015347881629692,0.0015347876366386,-0.0015347870743705,0.0015347887146417,9.5415402632298e-10,-1.7327376349251e-09,-0.00090580810516197,0.00090580732591758,4.2530178221955e-09,-5.2215888529345e-09,-0.0010608697361616,0.0010608738692917,-0.0010608735750655,0.0010608700069907,-0.0010608713698982,0.0010608721782222,-0.0010608739724675,0.0010608696864598,-0.0009436644488023,0.00094365963199135,-0.00094366354954431,0.00094366066869456,0.75109666923862,128566,2924,0.0048269258202271,0.0068482487177383,0.0037709721384666,28.971640419667,-5.8268766426609e-06,-5.8268766426609e-06,-5.8268766426609e-06,3544626.5623518,0.015567146271299
32619200,0.99767711669224,0.015688291175159,0.0050035466171183,0.0065223327119292,0.0041624118461117,-0.0011627286384685,0.0011627280639135,2.1537718706595e-09,-2.7334856297393e-09,5.8085212457587e-10,-1.223704871362e-09,-0.001308873602394,0.0013088762444767,-0.0013088759623968,0.0013088738195857,-0.0013088750630333,0.001308874828937,-0.0013088761209892,0.0013088737023877,-0.0011148857167187,0.0011148876173011,-0.0011148886169791,0.0011148844734816,5.2061344502838e-11,-3.8598792109867e-10,-1.1071444233802e-09,7.8989040956666e-10,-0.0016515002852789,0.0016514999718981,-0.0017860915052007,0.0017860919508634,-0.0017860918865136,0.0017860916431438,-0.0017860926383852,0.0017860908681791,-0.0017860915368057,0.001786091923409,-0.0014573547400911,0.0014573510057765,-0.0014573516941908,0.001457354289824,-0.0015365135978324,0.0015365128410621,-0.0015365125320394,0.0015365139536485,1.1479937015841e-09,-1.9512996391217e-09,-0.00090712869181657,0.00090712788821619,4.3462629392683e-09,-5.336064305742e-09,-0.001062413075557,0.0010624174701243,-0.0010624170604614,0.001062413459987,-0.0010624149258703,0.0010624155578945,-0.0010624175195463,0.0010624130742002,-0.00094508136569815,0.00094507626479031,-0.00094508029406667,0.00094507748714789,0.69654115406318,128566,2924,0.0048330898335411,0.0068555331354649,0.003776467171549,29.721069415972,1.6855532777629e-07,1.6855532777629e-07,1.6855532777629e-07,3545222.055909,0.015586388710155
32819200,0.99777983169539,0.015689733151309,0.0050040010909369,0.006522951376024,0.0041627806843484,-0.0011612093973618,0.0011612088492349,2.0417865677226e-09,-2.5977698977031e-09,4.6669056048439e-10,-1.0738082657181e-09,-0.0013073635781723,0.0013073658996601,-0.0013073656833814,0.00130736373562,-0.0013073647858642,0.0013073647386087,-0.0013073659217681,0.0013073635393354,-0.0011133780829293,0.0011133803515298,-0.0011133812511831,0.001113376958473,5.1570539555416e-11,-3.8612936377769e-10,-1.3402533048874e-09,1.0219693930071e-09,-0.0016499963130873,0.0016499959996917,-0.0017846066374098,0.0017846067471072,-0.0017846066933203,0.0017846067833072,-0.0017846076020571,0.0017846058394858,-0.0017846065072402,0.0017846068932598,-0.0014558386358544,0.0014558349092145,-0.0014558356063955,0.0014558381955108,-0.0015349969362618,0.0015349967998291,-0.0015349962943863,0.0015349974143443,1.0210403337826e-09,-1.8080143061586e-09,-0.00090563783654406,0.00090563704727345,4.2987610091549e-09,-5.2795966929433e-09,-0.0010609171288114,0.0010609212414733,-0.0010609209118148,0.0010609174351198,-0.0010609187200712,0.0010609195918988,-0.0010609214419267,0.0010609169795204,-0.00094354337263758,0.00094353811763429,-0.00094354208346036,0.00094353954779503,0.64446385125429,128566,2924,0.0048267906069829,0.0068493101396766,0.0037702770076072,28.866599385144,-6.6672049188515e-06,-6.6672049188515e-06,-6.6672049188515e-06,3533672.0119877,0.01556738422034
33019200,0.99787631152924,0.01569120634308,0.0050044675065837,0.0065235734019736,0.0041631654345226,-0.0011607257913985,0.0011607252413649,1.9193678731069e-09,-2.4751933286569e-09,4.6488796488333e-10,-1.0783982151454e-09,-0.0013068052750653,0.0013068073965366,-0.0013068071794168,0.0013068054258154,-0.0013068063568238,0.0013068063491923,-0.0013068075315656,0.0013068051073319,-0.001112849473364,0.0011128518258391,-0.0011128527129818,0.0011128483390837,4.9616589188435e-11,-3.8889718769316e-10,-1.2926629385051e-09,9.6830089160184e-10,-0.001649448634085,0.0016494483130034,-0.0017841177022554,0.0017841177176229,-0.0017841176737619,0.0017841178259372,-0.0017841185476236,0.0017841169225654,-0.0017841176031136,0.0017841178212978,-0.0014552343860939,0.0014552311200057,-0.0014552317716257,0.001455233915365,-0.0015344572251883,0.0015344574481712,-0.0015344569892836,0.0015344577180278,8.7795265738794e-10,-1.6890350039176e-09,-0.00090516429683172,0.00090516348779978,4.3342486632079e-09,-5.3381327608362e-09,-0.0010603184640038,0.0010603223812471,-0.0010603221512819,0.0010603186606167,-0.0010603198438512,0.0010603209387129,-0.001060322715276,0.0010603181671885,-0.00094302947000149,0.00094302406528513,-0.00094302809112089,0.00094302559696388,0.69524391173475,128566,2924,0.0048247846439947,0.0068470478258094,0.0037683060127571,28.558582426485,-9.1313405881225e-06,-9.1313405881225e-06,-9.1313405881225e-06,3536234.5646187,0.015561044884931
33219200,0.99796948584424,0.015692704763156,0.0050049430012283,0.0065242009012771,0.004163560860651,-0.0011611209917639,0.0011611204325633,1.898066290499e-09,-2.4637885418688e-09,5.0638283975441e-10,-1.1278462524241e-09,-0.0013072239583552,0.0013072261081351,-0.0013072258720164,0.001307224135349,-0.0013072250936049,0.0013072250186988,-0.0013072262401607,0.0013072238030837,-0.0011132627201812,0.0011132649620583,-0.0011132658970711,0.0011132615506501,1.8272429966278e-11,-3.6383848445464e-10,-1.2016395862649e-09,9.0219934060591e-10,-0.0016499337865027,0.0016499334819075,-0.0017846183794504,0.0017846184580508,-0.0017846184188375,0.0017846185010914,-0.0017846192246412,0.0017846176681698,-0.001784618317213,0.0017846185298144,-0.0014556796342393,0.0014556764925233,-0.0014556771237073,0.0014556792035867,-0.0015349266266461,0.0015349266643975,-0.0015349262215508,0.0015349270276877,8.8842026559131e-10,-1.6804731825241e-09,-0.00090550930075872,0.00090550850839575,4.2980295387949e-09,-5.280946495341e-09,-0.0010606987138691,0.0010607026585095,-0.0010607023912661,0.0010606989550657,-0.0010607001377818,0.0010607011752234,-0.0010607029661338,0.0010606984550375,-0.00094339652927204,0.00094339113989591,-0.00094339511000334,0.00094339270363861,0.72923013783018,128566,2924,0.0048264233860465,0.0068490538491893,0.0037697410095224,28.726238922199,-7.7900886224041e-06,-7.7900886224041e-06,-7.7900886224041e-06,3537459.8964343,0.015566204082792
33419200,0.9980608744323,0.015694203943322,0.0050054190842458,0.0065248271274826,0.0041639577315932,-0.0011620303637037,0.0011620297732937,1.8142817518349e-09,-2.53989767406e-09,4.7178487399264e-10,-1.1014712995726e-09,-0.0013082211449695,0.001308223367713,-0.0013082231517776,0.0013082213069557,-0.0013082222909379,0.0013082222436565,-0.0013082234570514,0.0013082210316458,-0.0011142378541613,0.0011142389029935,-0.0011142410800665,0.001114236729986,-1.0111433396768e-10,-1.876299689156e-10,-1.3451395734976e-09,1.0865110223047e-09,-0.0016510379677946,0.0016510376836777,-0.0017857117195803,0.0017857116451836,-0.0017857116805403,0.0017857117711381,-0.0017857125225427,0.0017857108910221,-0.0017857114507442,0.001785711930884,-0.0014567534846325,0.0014567500828649,-0.0014567505172798,0.0014567531477044,-0.0015360018293815,0.0015360016278725,-0.0015360010783387,0.0015360023904823,9.4631593917006e-10,-1.6943806389044e-09,-0.0009063303857684,0.00090632958576586,4.0135923899781e-09,-4.9187924661471e-09,-0.001061657954733,0.0010616617855159,-0.0010616614572629,0.0010616582561637,-0.0010616594188727,0.0010616602625469,-0.0010616619873388,0.0010616577961146,-0.00094427795264596,0.00094427180865067,-0.00094427550982389,0.0009442732587267,0.74278857333574,128566,2924,0.0048301945012073,0.0068536177582399,0.0037731573722578,29.176380576632,-4.1889553869421e-06,-4.1889553869421e-06,-4.1889553869421e-06,3537973.2948473,0.015578140876553
33619200,0.99814941733794,0.01569565673549,0.0050058803581241,0.0065254343592921,0.0041643420180734,-0.0011625644804304,0.0011625639449839,1.9891328628123e-09,-2.5392945536212e-09,3.7571402874947e-10,-9.5561714714035e-10,-0.0013088561567162,0.0013088583944919,-0.0013088582261872,0.0013088562716906,-0.0013088572800271,0.0013088573117932,-0.0013088584051305,0.0013088561330777,-0.0011148527386601,0.0011148549149286,-0.0011148558251447,0.0011148517127202,-2.3281854525914e-10,-8.4830977060117e-11,-1.6921869968488e-09,1.4136608893361e-09,-0.0016517769864968,0.001651776701066,-0.0017864290276477,0.001786428718694,-0.0017864288380679,0.0017864290051063,-0.0017864297926974,0.0017864280183443,-0.001786428470059,0.0017864293069657,-0.001457474594055,0.0014574704437083,-0.0014574708916209,0.001457474385751,-0.0015367108216429,0.0015367104403749,-0.0015367096623484,0.0015367115849681,1.0119932579403e-09,-1.6569121487157e-09,-0.00090678802149575,0.00090678735315659,3.6631848517467e-09,-4.5006849177286e-09,-0.0010622712481351,0.0010622749560634,-0.0010622745430433,0.001062271636275,-0.0010622727779877,0.0010622733704346,-0.0010622750455372,0.0010622712115625,-0.00094478864886194,0.00094478406596993,-0.00094478741860898,0.00094478540749489,0.74303226385271,128566,2924,0.0048324099854931,0.0068566700036502,0.0037750656774422,29.431170363322,-2.1506370934225e-06,-2.1506370934225e-06,-2.1506370934225e-06,3534769.3323716,0.015585431423864
33819200,0.99823557044774,0.01569707484275,0.0050063306403531,0.0065260269809621,0.0041647172214346,-0.0011632569019293,0.0011632563015098,1.890733062741e-09,-2.5096563122197e-09,6.5949998313446e-10,-1.3198320636247e-09,-0.0013096491055784,0.0013096513027808,-0.0013096509789747,0.0013096493590752,-0.0013096502989358,0.0013096501475039,-0.0013096515211343,0.0013096488637974,-0.0011156336674071,0.0011156358177939,-0.0011156370388528,0.0011156323258775,8.6150133760785e-11,-4.1845930506136e-10,-7.2359102355563e-10,4.1578370609318e-10,-0.0016526815816185,0.0016526812696707,-0.0017873102708856,0.0017873106978507,-0.0017873106026068,0.0017873104389744,-0.0017873111175687,0.001787309906673,-0.001787310599654,0.0017873103657647,-0.0014583527822736,0.0014583507282736,-0.0014583514171007,0.0014583522891396,-0.0015375886736083,0.0015375886570605,-0.0015375885766123,0.0015375887275178,8.4121187163931e-10,-1.6829034269086e-09,-0.00090739172869085,0.00090739087403149,4.5401092250149e-09,-5.5788817510407e-09,-0.001063031227577,0.0010630352108242,-0.0010630350353974,0.0010630313786432,-0.0010630325587892,0.0010630338172497,-0.0010630356268557,0.0010630308609909,-0.00094545373910386,0.00094544796188554,-0.00094545217213198,0.00094544958262967,0.74517939404981,128566,2924,0.0048352814171941,0.0068604069510921,0.0037775804022296,29.774906171504,5.9924937203261e-07,5.9924937203261e-07,5.9924937203261e-07,3532967.4534045,0.015594699329906
34019200,0.99831971339009,0.015698417549419,0.005006756353738,0.0065265909976728,0.0041650701980086,-0.0011641068519538,0.0011641063048805,2.0092981872608e-09,-2.5734699029353e-09,4.2783449106395e-10,-1.0318437395291e-09,-0.001310603873814,0.0013106061424134,-0.0013106059504672,0.0013106040146775,-0.0013106050302828,0.0013106050331608,-0.0013106061799551,0.0013106038167763,-0.001116577997436,0.0011165801747588,-0.0011165811537965,0.001116576913513,-1.2450585460808e-10,-1.8666425859386e-10,-1.4960992833703e-09,1.2051025065339e-09,-0.0016537481817097,0.0016537478870081,-0.0017883529584382,0.0017883528180487,-0.0017883528754598,0.0017883529898462,-0.0017883537875122,0.0017883520481276,-0.0017883525811807,0.0017883532163433,-0.0014593903869592,0.0014593865781925,-0.0014593871090749,0.0014593900848783,-0.0015386307917839,0.0015386305379151,-0.0015386299089276,0.0015386314325647,9.9211827744926e-10,-1.6938450760385e-09,-0.00090813312475185,0.0009081324153391,3.8361251262165e-09,-4.7179085095747e-09,-0.0010639370572342,0.0010639408382421,-0.0010639404665054,0.0010639374028352,-0.0010639385741019,0.0010639392643732,-0.0010639409846358,0.0010639369603142,-0.00094625973496236,0.00094625485901051,-0.00094625840038906,0.00094625625976277,0.72426717634004,128566,2924,0.0048388061079092,0.006864813937055,0.0037806680781289,30.203635762387,4.0290860990939e-06,4.0290860990939e-06,4.0290860990939e-06,3532195.4241696,0.015605893218749
34219200,0.99840041622038,0.015699669864938,0.0050071528998882,0.0065271194827273,0.0041653974823228,-0.0011643833634436,0.0011643828196453,2.0255444191812e-09,-2.5859614440336e-09,4.221865846514e-10,-1.0207774298914e-09,-0.001310944981314,0.001310947260266,-0.0013109470675689,0.0013109451156082,-0.0013109461349088,0.0013109461469686,-0.0013109472918071,0.001310944935746,-0.0011169146805663,0.0011169168889029,-0.0011169178570921,0.0011169135934629,-1.2010979572819e-10,-1.9239761644371e-10,-1.581184338845e-09,1.2885794397238e-09,-0.0016541780080831,0.001654177713499,-0.0017887785816657,0.0017887784321543,-0.0017887784793642,0.001788778628758,-0.0017887794224049,0.001788777652205,-0.0017887781926831,0.0017887788454024,-0.0014597895856306,0.0014597855994852,-0.0014597861436825,0.0014597892786308,-0.0015390430658303,0.0015390428340517,-0.0015390421518904,0.0015390437322906,9.9630198077602e-10,-1.6985717876471e-09,-0.00090835047983552,0.00090834977008597,3.8619414314285e-09,-4.7459684863396e-09,-0.0010642486565992,0.0010642524678478,-0.001064252095279,0.0010642490042101,-0.0010642501828716,0.0010642508834881,-0.0010642526072318,0.0010642485696714,-0.00094650899754114,0.00094650413223695,-0.00094650768211159,0.00094650550337835,0.70594539332581,128566,2924,0.0048399527352756,0.0068665885505939,0.0037815761656087,30.330168236722,5.0413458937758e-06,5.0413458937758e-06,5.0413458937758e-06,3531020.2360295,0.015609783497592
34419200,0.99847868253782,0.015700889668089,0.0050075392291438,0.0065276337672377,0.004165716671708,-0.0011650558208211,0.0011650552809661,2.0872117746351e-09,-2.6418216240413e-09,4.0584460985259e-10,-1.003644136537e-09,-0.0013116552730687,0.0013116576496939,-0.0013116574639772,0.0013116553995121,-0.0013116564779819,0.0013116564782052,-0.0013116576130573,0.0013116553008033,-0.0011176288979397,0.0011176310577718,-0.0011176320042344,0.0011176278303375,-1.0592837760784e-10,-2.118495759644e-10,-1.6914685264446e-09,1.393228834639e-09,-0.0016549702209764,0.0016549699222294,-0.0017895819935038,0.0017895818564659,-0.0017895818984959,0.0017895820550951,-0.0017895829115758,0.0017895809980253,-0.0017895815547534,0.0017895823234449,-0.0014605324267741,0.0014605280268763,-0.0014605285777034,0.0014605321009627,-0.001539824284003,0.0015398239526173,-0.001539823210879,0.0015398250171384,1.0513902207284e-09,-1.7415939460887e-09,-0.0009089440964125,0.00090894339856023,3.8234434908671e-09,-4.6926410744316e-09,-0.0010648989450285,0.0010649028356087,-0.0010649024192331,0.0010648993337641,-0.0010649005675389,0.0010649011497559,-0.0010649028954236,0.0010648989332865,-0.00094713482029608,0.00094713009464976,-0.0009471336144509,0.00094713136912949,0.70868167666676,128566,2924,0.0048427407142492,0.0068698638607203,0.0037840450086964,30.662368771879,7.6989501750317e-06,7.6989501750317e-06,7.6989501750317e-06,3534779.4746168,0.015618449292851
34619200,0.99855921527954,0.015702197957452,0.0050079543790409,0.0065281817626286,0.0041660618157824,-0.0011678027476597,0.0011678022033165,2.2313726973017e-09,-2.7897746405983e-09,4.6978935374485e-10,-1.0743698149161e-09,-0.0013144824882413,0.0013144851486267,-0.0013144849177966,0.0013144826511366,-0.0013144838838573,0.0013144837887133,-0.001314484965912,0.0013144826498397,-0.001120452917574,0.0011204549204691,-0.0011204558829802,0.0011204517747552,7.3971156349597e-11,-4.0666150071147e-10,-1.3124843972673e-09,1.0012147540471e-09,-0.0016579177194253,0.0016579174063433,-0.0017925366946759,0.0017925370676311,-0.0017925369882644,0.001792536850607,-0.0017925378737365,0.0017925359383494,-0.0017925366322337,0.0017925371387883,-0.0014633831652818,0.0014633789512028,-0.0014633796452712,0.0014633826969743,-0.0015427585456068,0.0015427578791336,-0.0015427574284034,0.0015427590238844,1.1631266352466e-09,-1.9024301484371e-09,-0.00091145939583771,0.00091145864996462,4.0085586537259e-09,-4.9267627840371e-09,-0.0010675527146033,0.0010675569357491,-0.0010675564754868,0.0010675531482442,-0.0010675545781027,0.0010675550114229,-0.0010675568986601,0.0010675528005723,-0.00094975550942648,0.00094975074297228,-0.0009497544577395,0.00094975186761124,0.73613945524021,128566,2924,0.0048541295610144,0.0068820539518895,0.0037944974559759,32.085542452826,1.9084339622612e-05,1.9084339622612e-05,1.9084339622612e-05,3550828.8848869,0.015653014825173
34819200,0.99864193490758,0.015703553292173,0.0050083846576586,0.0065287494246477,0.004166419209867,-0.0011706699220938,0.0011706694969418,7.9959778882171e-10,-1.2387057381496e-09,-5.0860542425488e-11,-4.2207670366996e-10,-0.0013174902340831,0.0013174900143228,-0.0013174900666209,0.0013174901329947,-0.0013174896440562,0.0013174906470847,-0.0013174913245845,0.0013174889229698,-0.0011234343756778,0.0011234387066734,-0.001123439179304,0.001123433775933,-3.9393659768382e-10,1.0664232832654e-10,-1.9654211502036e-09,1.6953387835051e-09,-0.001661061231369,0.0016610609609469,-0.0017956694300284,0.0017956674576142,-0.0017956676824744,0.001795669318489,-0.0017956686926355,0.0017956682706744,-0.0017956685961084,0.0017956683372599,-0.0014664346262377,0.0014664340914726,-0.0014664344111047,0.0014664345355468,-0.0015458730338586,0.0015458764961113,-0.001545875519321,0.0015458739846445,-2.6363721508611e-10,-3.2157776733704e-10,-0.00091406021648601,0.00091405962574577,3.2978614618314e-09,-4.0517710372468e-09,-0.0010703852567947,0.001070386490001,-0.0010703868905016,0.0010703848319004,-0.0010703845115694,0.0010703871821859,-0.0010703879024811,0.0010703839032435,-0.00095248236027807,0.00095247656729448,-0.00095247957301138,0.00095247941660805,0.74236296815384,128566,2924,0.004866017345543,0.0068950520016378,0.0038053095154702,33.574062056131,3.0992496449045e-05,3.0992496449045e-05,3.0992496449045e-05,3563742.5571851,0.015689275972382
35019200,0.99872426384209,0.015704859974036,0.005008798972432,0.0065293000630217,0.0041667609385825,-0.001172620907062,0.0011726202980401,3.5510343519704e-09,-4.174483479424e-09,8.0253395250444e-10,-1.4739989671669e-09,-0.001319576014993,0.001319580931584,-0.0013195805148342,0.0013195763493131,-0.001319578802261,0.0013195781738774,-0.0013195796577762,0.001319577257807,-0.0011255006100562,0.001125501301494,-0.0011255025750981,0.0011254991142986,4.6771550149484e-10,-8.4269149294157e-10,-5.4648045345609e-10,1.9679315804528e-10,-0.0016632743025835,0.0016632739522872,-0.0017978644332937,0.0017978668167617,-0.0017978664757492,0.0017978648360202,-0.0017978671076297,0.0017978641842572,-0.001797865192042,0.0017978660357374,-0.0014685779965463,0.0014685718529954,-0.0014685728507489,0.0014685771852751,-0.0015480638002831,0.001548060276714,-0.0015480603881831,0.0015480636888789,2.4292577084622e-09,-3.3152628570928e-09,-0.00091579502768927,0.00091579413516496,4.6780973906594e-09,-5.7647364362764e-09,-0.0010723375188852,0.0010723441319953,-0.0010723429043202,0.0010723387163561,-0.0010723414056991,0.0010723401760479,-0.0010723431144325,0.0010723385795485,-0.00095432056871229,0.00095431579123891,-0.00095432014289335,0.00095431628702973,0.72136733537655,128566,2924,0.0048741057780982,0.0069042001575622,0.0038125244250253,34.583370209716,3.9066961677728e-05,3.9066961677728e-05,3.9066961677728e-05,3569873.0493919,0.015714114963423
35219200,0.99880481307513,0.015706101019098,0.0050091920234043,0.0065298257650687,0.0041670832306255,-0.0011740990262641,0.0011740984491717,2.8240300662464e-09,-3.4150369362741e-09,6.0648651859692e-10,-1.2431244756947e-09,-0.0013211489100242,0.0013211524230599,-0.0013211521312052,0.0013211491480028,-0.0013211508145132,0.001321150571544,-0.0013211518756144,0.0013211494345483,-0.001127061730252,0.0011270637624139,-0.0011270648412414,0.0011270604696472,1.7640190486642e-10,-5.2004602177454e-10,-9.9133267570253e-10,6.6992497284017e-10,-0.0016649547893973,0.0016649544675803,-0.0017995476398363,0.0017995485734891,-0.0017995484430372,0.0017995478440814,-0.0017995492165021,0.0017995470439674,-0.0017995477993723,0.0017995484148102,-0.0014701813775025,0.0014701764270267,-0.0014701772007139,0.0014701808369576,-0.0015497250703254,0.0015497230957046,-0.0015497228175002,0.0015497252919167,1.7009056996473e-09,-2.5242530698878e-09,-0.00091709906453102,0.00091709823529865,4.3846816363387e-09,-5.4024307264828e-09,-0.0010737911690082,0.001073796386517,-0.0010737956295531,0.0010737919038634,-0.0010737938299157,0.0010737936677007,-0.0010737960135663,0.001073791590207,-0.00095570114740823,0.00095569621878842,-0.00095570030835313,0.00095569717410813,0.70214462695177,128566,2924,0.0048802337532453,0.0069111472603606,0.0038179482797692,35.344779667562,4.5158237340494e-05,4.5158237340494e-05,4.5158237340494e-05,3575945.2226091,0.015732906832008
35419200,0.99888265746506,0.015707261856611,0.0050095591524075,0.0065303202575169,0.004167382446687,-0.001175247616345,0.0011752471405425,1.7671057786057e-09,-2.2561565603789e-09,9.1240230460354e-11,-6.1440750286077e-10,-0.0013223540513679,0.0013223554957354,-0.0013223554910428,0.0013223540168854,-0.0013223545264431,0.0013223550718345,-0.0013223559115011,0.0013223536357865,-0.0011282627508293,0.0011282661738437,-0.0011282668164629,0.0011282620048376,-4.7877579043413e-10,1.9497770327089e-10,-2.0900113777635e-09,1.8221913588342e-09,-0.0016662460688085,0.0016662458028298,-0.0018008597045573,0.0018008584927259,-0.0018008587777374,0.0018008595424408,-0.0018008598265123,0.0018008584499658,-0.0018008587091286,0.0018008595402743,-0.0014713913381608,0.0014713877758456,-0.001471388047156,0.0014713913258863,-0.0015510019066697,0.0015510024888722,-0.001551001398197,0.0015510029293608,6.7550535541662e-10,-1.3086090647452e-09,-0.00091810464870143,0.00091810401081787,3.5197758269704e-09,-4.3342335850858e-09,-0.0010748841410681,0.001074887096934,-0.0010748869038237,0.0010748843131938,-0.0010748849919212,0.0010748861954266,-0.0010748875973296,0.0010748836991181,-0.00095675636301261,0.00095675137584024,-0.00095675460054702,0.00095675322956577,0.68162530135249,128566,2924,0.0048849953874156,0.0069164863119702,0.0038221300427258,35.929938639961,4.9839509119687e-05,4.9839509119687e-05,4.9839509119687e-05,3582523.1426889,0.015747414951058
35619200,0.99895859728177,0.015708349795158,0.0050099025905584,0.0065307868631059,0.0041676603414933,-0.0011768306291122,0.0011768301182519,1.604282519682e-09,-2.1273827130969e-09,2.6247943155119e-10,-8.2774085126165e-10,-0.0013239664545691,0.0013239677852387,-0.0013239676739065,0.0013239665003015,-0.0013239669178929,0.001323967354951,-0.0013239683582902,0.0013239658710589,-0.0011298768703924,0.0011298800198119,-0.0011298808128746,0.0011298759034004,-3.3470386232087e-10,4.0046537370478e-11,-1.8812460539303e-09,1.6036766562495e-09,-0.0016679318326467,0.0016679315551994,-0.0018025822515776,0.0018025812574023,-0.0018025814235066,0.0018025821876992,-0.0018025824026544,0.0018025811734205,-0.0018025815657738,0.0018025819802762,-0.0014729762559322,0.0014729735392048,-0.0014729739334513,0.0014729761153669,-0.0015526819017088,0.0015526831769614,-0.0015526822974899,0.0015526827927104,4.9827918164649e-10,-1.1824300960299e-09,-0.00091951655531485,0.0009195158651205,3.7835436939255e-09,-4.6479766283464e-09,-0.0010763457925127,0.0010763486461872,-0.0010763485928329,0.001076345817507,-0.001076346395932,0.0010763479825119,-0.0010763493536796,0.0010763451402883,-0.00095822086238809,0.00095821539373451,-0.00095821886019825,0.00095821745755837,0.6573011916582,128566,2924,0.0048915574687896,0.0069234587044574,0.0038279967096036,36.738088069555,5.630470455644e-05,5.630470455644e-05,5.630470455644e-05,3594077.7346495,0.015767122012133
35819200,0.99903311236713,0.015709486848225,0.0050102627405987,0.0065312692711376,0.0041679548364883,-0.0011787691452387,0.0011787685971301,1.7954637197938e-09,-2.3554233727988e-09,4.5482898232908e-10,-1.0614987848819e-09,-0.0013259077376898,0.0013259094809793,-0.001325909265364,0.0013259078839748,-0.0013259085079068,0.0013259087446044,-0.0013259099200485,0.0013259072816336,-0.0011318141680241,0.0011318169732177,-0.001131817922874,0.0011318130122611,-1.0438146710018e-10,-2.1213439202817e-10,-1.4979016157221e-09,1.2002456179085e-09,-0.0016699276806167,0.0016699273830368,-0.001804636300778,0.0018046358718908,-0.0018046358950032,0.0018046363669681,-0.00180463677797,0.0018046354534642,-0.0018046360181509,0.0018046361746364,-0.0014748485743745,0.0014748460074055,-0.0014748465679337,0.0014748482419965,-0.0015546802646854,0.0015546812943313,-0.0015546806960304,0.0015546808688005,6.636900891296e-10,-1.4225295141989e-09,-0.00092126849230026,0.00092126772754616,4.1317858244851e-09,-5.0784289991271e-09,-0.0010781034746811,0.0010781068107937,-0.0010781066923088,0.0010781035635878,-0.0010781043759388,0.0010781058456707,-0.0010781074281789,0.0010781029089669,-0.00096002668270429,0.00096002096512689,-0.00096002476839817,0.00096002295385012,0.69619442084884,128566,2924,0.0048995929983277,0.0069317155621356,0.0038352732342515,37.723777191568,6.4190217532546e-05,6.4190217532546e-05,6.4190217532546e-05,3609945.3785035,0.015791062266158
36019200,0.99910327494468,0.015710623580573,0.0050106238300127,0.0065317472846915,0.004168252465869,-0.0011793397608684,0.0011793391792362,1.9980763055926e-09,-2.5917914742818e-09,5.9467652911744e-10,-1.2350279451558e-09,-0.0013265199333295,0.0013265220005482,-0.0013265217181574,0.0013265201496897,-0.0013265209226496,0.0013265210483875,-0.0013265223579313,0.001326519558893,-0.0011324116173457,0.0011324143780656,-0.0011324154721614,0.0011324103387502,-1.4461742262524e-11,-3.1161930794993e-10,-1.4301338676273e-09,1.1236112668588e-09,-0.0016705910553531,0.0016705907498561,-0.0018053257081912,0.0018053254768303,-0.0018053254517691,0.0018053258274022,-0.001805326355208,0.0018053248897373,-0.0018053255169497,0.001805325685907,-0.0014754469833159,0.0014754441439949,-0.0014754447700234,0.0014754465810989,-0.001555328772842,0.0015553295680901,-0.0015553289976086,0.0015553292969475,8.5563968561479e-10,-1.6519973681052e-09,-0.00092173798400681,0.00092173718163605,4.3124041289846e-09,-5.305624584878e-09,-0.0010786321617154,0.0010786358490262,-0.0010786356303671,0.0010786323524935,-0.0010786333160599,0.0010786346306236,-0.0010786363844621,0.0010786316766878,-0.00096052706645182,0.00096052111457801,-0.00096052508139567,0.00096052318502729,0.73586529653063,128566,2924,0.0049019583226882,0.0069344578767403,0.0038372265753319,37.994247015437,6.6353976123495e-05,6.6353976123495e-05,6.6353976123495e-05,3611651.2110199,0.015798235545345
36219200,0.99916792251246,0.015711636178549,0.0050109449944331,0.0065321755647041,0.0041685156194122,-0.0011791369406185,0.0011791364195196,1.7560895092187e-09,-2.2888604434628e-09,3.3847385337818e-10,-9.1368480979153e-10,-0.0013263937043734,0.0013263957119333,-0.0013263955616749,0.0013263937887838,-0.0013263947585368,0.0013263946973572,-0.0013263957546898,0.0013263936438989,-0.0011322761550083,0.0011322779296454,-0.0011322787543249,0.0011322751372298,-3.2765117671675e-10,3.4118878868141e-11,-1.6471702965487e-09,1.3699384491443e-09,-0.0016705221274382,0.0016705218507509,-0.0018052445102911,0.0018052441711946,-0.0018052443401891,0.0018052444318915,-0.0018052451865494,0.0018052435566786,-0.0018052439377107,0.0018052447735663,-0.0014753593173047,0.0014753555053218,-0.0014753558940027,0.0014753591834478,-0.0015552357011522,0.001555235265821,-0.0015552345303914,0.0015552364391839,5.818993948913e-10,-1.3614406680756e-09,-0.0009214710476152,0.00092147026175921,4.2315055814679e-09,-5.2035780278137e-09,-0.0010784830129633,0.0010784867213678,-0.0010784866784525,0.0010784830300549,-0.001078484239401,0.0010784854371402,-0.0010784869868201,0.0010784828026505,-0.00096029147099876,0.00096028690082377,-0.00096029079731837,0.00096028765638628,0.71361274014679,128566,2924,0.0049011179812482,0.006934168279777,0.0038361249464115,37.867335703832,6.5338685630654e-05,6.5338685630654e-05,6.5338685630654e-05,3603215.6927653,0.015795970787677
36419200,0.99922497054177,0.015712517354113,0.00501122430935,0.0065325489680819,0.0041687440766815,-0.0011773753184699,0.0011773746630553,2.5214545238539e-09,-3.1883482726017e-09,8.3374507221734e-10,-1.5542148774494e-09,-0.0013246336088397,0.0013246360400289,-0.0013246356414793,0.0013246339340947,-0.0013246346581027,0.0013246350279855,-0.0013246365902035,0.0013246330297013,-0.0011305339676958,0.0011305380158974,-0.0011305393428303,0.0011305324091259,3.2399675894494e-10,-6.8348921481483e-10,-1.269325553858e-09,9.3211384920879e-10,-0.0016687383036008,0.0016687379667645,-0.0018034643210559,0.0018034642640176,-0.0018034640274292,0.0018034646370633,-0.0018034650594104,0.0018034635710823,-0.0018034644653754,0.0018034641196097,-0.0014735766879358,0.0014735742332123,-0.0014735751327051,0.0014735760148423,-0.0015534458139033,0.0015534474724188,-0.0015534470600418,0.0015534462029944,1.3492614646263e-09,-2.2433847032475e-09,-0.0009197361214788,0.0009197352210132,4.7830025291147e-09,-5.881966367545e-09,-0.0010767424217969,0.0010767466052721,-0.0010767461205975,0.0010767428783809,-0.0010767438223351,0.0010767451381436,-0.0010767473518745,0.0010767417196455,-0.00095851899220006,0.00095851118162249,-0.00095851561136125,0.00095851466286974,0.70434246946386,128566,2924,0.0048938141230253,0.0069267876241763,0.0038289218694992,36.901809669849,5.7614477358789e-05,5.7614477358789e-05,5.7614477358789e-05,3587399.3915698,0.015773737328201
36619200,0.99927671686483,0.015713270439543,0.0050114624098065,0.0065328709120439,0.0041689371176923,-0.0011764665165612,0.0011764658123203,3.0413193422009e-09,-3.7562363387729e-09,1.0216061279043e-09,-1.7975897212209e-09,-0.0013237131389117,0.0013237157985997,-0.0013237153071344,0.0013237135595316,-0.0013237141093862,0.0013237148701117,-0.0013237166177509,0.0013237122869582,-0.0011296352590236,0.0011296408004767,-0.0011296423018919,0.001129633542201,5.6609901465192e-10,-9.4852660092814e-10,-9.7535550591175e-10,6.1750766885871e-10,-0.0016678165329735,0.0016678161754844,-0.0018025520821864,0.0018025521285738,-0.0018025517566831,0.0018025525254915,-0.0018025527575286,0.0018025514923276,-0.0018025525551053,0.0018025516423135,-0.0014726398117908,0.0014726384325961,-0.0014726395063079,0.0014726389485322,-0.0015525212946792,0.0015525239003822,-0.0015525237007629,0.0015525214561231,1.8635192375018e-09,-2.8015234818246e-09,-0.00091882799005957,0.00091882704670409,4.9996772167047e-09,-6.1449780772573e-09,-0.0010758154175189,0.0010758198342818,-0.0010758190433912,0.0010758161856834,-0.0010758169391167,0.0010758182487555,-0.001075820852947,0.001075814439644,-0.00095759380303105,0.00095758407171599,-0.00095758872305131,0.00095758928863331,0.66675553940802,128566,2924,0.0048900460806552,0.0069229740023026,0.0038251513919144,36.395837964211,5.3566703713692e-05,5.3566703713692e-05,5.3566703713692e-05,3579249.3910421,0.015762205573766
36819200,0.99932509540804,0.015713954914607,0.0050116785572629,0.0065331646426757,0.0041691117146688,-0.0011765703436162,0.0011765698882738,9.3966484411197e-10,-1.4054125137371e-09,7.6643046041377e-11,-5.8364749920483e-10,-0.0013237757263266,0.0013237776087159,-0.0013237775892818,0.0013237756943178,-0.0013237771544174,0.0013237762271131,-0.0013237770336288,0.0013237762951977,-0.0011297167195978,0.0011297154230873,-0.0011297160066004,0.0011297160097151,-4.9743445254246e-10,2.1952982810268e-10,-2.0863521529033e-09,1.8230262725635e-09,-0.0016678937508233,0.0016678934887119,-0.0018026737252064,0.0018026735353254,-0.0018026738225791,0.0018026735424469,-0.001802674847823,0.0018026724798008,-0.0018026727268813,0.0018026745825766,-0.0014726628194401,0.0014726565904427,-0.0014726568675071,0.0014726628405453,-0.0015526028383597,0.0015526006685362,-0.0015525996246419,0.0015526039111136,-2.3850342866706e-10,-4.2940728450516e-10,-0.00091890624573715,0.00091890557348371,3.7213124114014e-09,-4.5706340015609e-09,-0.0010758269768698,0.0010758303962969,-0.0010758308274448,0.0010758265253396,-0.0010758281805463,0.0010758291425489,-0.0010758299956615,0.001075827436702,-0.00095765562792997,0.00095765488576559,-0.00095765831033583,0.00095765231765026,0.64958126487315,128566,2924,0.0048904763921498,0.0069232956714975,0.0038254748540264,36.429632114601,5.3837056916808e-05,5.3837056916808e-05,5.3837056916808e-05,3583742.9674542,0.01576329628221
37019200,0.99937092379606,0.015714647407635,0.005011897942078,0.0065334583713249,0.0041692910942325,-0.0011771536918009,0.0011771529975839,3.636283487723e-09,-4.3339197936037e-09,1.0255514057225e-09,-1.7901032685739e-09,-0.0013243101880936,0.001324312673789,-0.0013243121827124,0.0013243106149874,-0.0013243106081573,0.0013243123021114,-0.001324314032856,0.0013243088021297,-0.0011302550042368,0.0011302632647134,-0.0011302647381847,0.0011302533296821,4.9227937085019e-10,-8.5729806213268e-10,-6.0159333685416e-10,2.5859356379119e-10,-0.0016684488301965,0.0016684484846453,-0.0018032895238238,0.0018032891966425,-0.0018032888754492,0.0018032899218044,-0.0018032895947217,0.0018032891813766,-0.0018032901616141,0.0018032885402928,-0.0014731391616955,0.001473140226393,-0.0014731411954695,0.001473138345089,-0.0015531567844468,0.0015531607204049,-0.0015531607204377,0.001553156770694,2.4624580021866e-09,-3.3269649772638e-09,-0.00091945004933392,0.00091944915390668,4.8152119221987e-09,-5.9062782101446e-09,-0.0010762908809752,0.0010762950157009,-0.0010762938086643,0.0010762920623352,-0.0010762922196612,0.0010762936094539,-0.0010762965357259,0.0010762893948942,-0.00095819900517364,0.00095818679660669,-0.00095819124088142,0.00095819470555384,0.68962108986958,128566,2924,0.0048928936161136,0.0069255946918788,0.0038277295390047,36.716310585527,5.6130484684212e-05,5.6130484684212e-05,5.6130484684212e-05,3593587.6388997,0.015770375232293
37219200,0.9994154169427,0.0157153664378,0.0050121263946987,0.0065337602266028,0.0041694798164985,-0.0011786422194344,0.0011786415581246,3.4179776329751e-09,-4.0767324370563e-09,8.9208172771777e-10,-1.6264271494729e-09,-0.0013258380547479,0.0013258404575871,-0.0013258400289114,0.0013258384232859,-0.0013258385025526,0.0013258400591627,-0.0013258416704422,0.0013258368211157,-0.0011317663113516,0.0011317738960259,-0.0011317752264517,0.0011317647764831,2.8685287290046e-10,-6.4551383858357e-10,-5.9240273650304e-10,2.5817540315395e-10,-0.0016700566812575,0.0016700563483334,-0.0018049215996403,0.0018049212805443,-0.0018049210874392,0.0018049218686513,-0.0018049216600744,0.001804921275624,-0.0018049221028891,0.0018049207615366,-0.0014746797604741,0.0014746805521489,-0.0014746813811571,0.0014746791070567,-0.0015547449709884,0.0015547479906193,-0.0015547480917354,0.0015547450182274,2.2442590563602e-09,-3.02983957257e-09,-0.00092083887392269,0.00092083802494147,4.5259413426575e-09,-5.5617100446485e-09,-0.0010777444407329,0.0010777483685238,-0.0010777472922012,0.0010777455031544,-0.0010777457288622,0.0010777470248499,-0.0010777497156296,0.0010777431286443,-0.00095964424095693,0.0009596331241839,-0.00095963734437706,0.00095964022736937,0.73362849915118,128566,2924,0.0048990649944058,0.0069322445728226,0.0038335002018446,37.49630527367,6.2370442189357e-05,6.2370442189357e-05,6.2370442189357e-05,3603335.6386656,0.015789261616457
37419200,0.99945773288314,0.015716002219681,0.0050123276653061,0.0065340305818264,0.004169643972549,-0.0011794938826346,0.0011794932695314,2.8491850207321e-09,-3.4730119444838e-09,6.7234009859099e-10,-1.3511067564396e-09,-0.0013267895868136,0.0013267919080564,-0.0013267915946116,0.0013267898429247,-0.0013267902961081,0.0013267912497945,-0.0013267926490887,0.0013267888260335,-0.0011326901157644,0.0011326954722971,-0.0011326966239748,0.0011326888016675,1.3439733307726e-11,-3.3733311270496e-10,-8.8226340251749e-10,5.7592487736092e-10,-0.0016710857203108,0.0016710854135972,-0.0018059361483678,0.0018059359003949,-0.0018059358711654,0.0018059362563486,-0.0018059364596231,0.0018059356474752,-0.001805936269302,0.0018059357831887,-0.0014756826957341,0.0014756818924465,-0.0014756825380015,0.0014756822832103,-0.0015557418576137,0.0015557434026156,-0.0015557431826149,0.0015557420493644,1.6738106331348e-09,-2.4277019975855e-09,-0.00092159612957563,0.00092159535807897,4.1684709533679e-09,-5.1235608584772e-09,-0.0010786583580721,0.0010786621303061,-0.0010786613645595,0.0010786591037358,-0.001078659682973,0.0010786607477488,-0.0010786629872538,0.0010786575450101,-0.00096046159142018,0.00096045323882777,-0.00096045710168809,0.00096045787805496,0.68665853000904,128566,2924,0.0049025966973436,0.0069364966210149,0.0038366523856426,37.942645761449,6.5941166091595e-05,6.5941166091595e-05,6.5941166091595e-05,3602491.8823411,0.015800373309129
37619200,0.99949693397881,0.015716570204098,0.0050125071626681,0.0065342735677289,0.0041697894737009,-0.0011794695288628,0.00117946896253,2.2946123259112e-09,-2.8720689311437e-09,4.4782374378284e-10,-1.0743580158648e-09,-0.0013267732760388,0.0013267755414777,-0.0013267753503094,0.0013267734154869,-0.0013267742730993,0.0013267745937776,-0.0013267757891252,0.0013267730193749,-0.0011326775699386,0.001132680663444,-0.00113268162007,0.0011326764619842,-2.5427058056124e-10,-4.6399227947201e-11,-1.3882382343925e-09,1.104753249723e-09,-0.001671092647545,0.0016710923644945,-0.0018059666763247,0.0018059663891664,-0.0018059665246908,0.0018059666381395,-0.0018059672615305,0.0018059658732061,-0.0018059662955518,0.0018059667951703,-0.0014756507954047,0.0014756478937537,-0.0014756483390434,0.0014756506007089,-0.0015557391359835,0.0015557391704478,-0.0015557385849214,0.0015557396895075,1.1223401469848e-09,-1.805255529418e-09,-0.0009215440278489,0.00092154333244502,3.8271047304011e-09,-4.7003820103713e-09,-0.001078613356785,0.0010786170134141,-0.0010786165636964,0.0010786137847697,-0.0010786147431454,0.0010786155706626,-0.0010786173472152,0.0010786130735632,-0.00096041035900825,0.00096040480329608,-0.00096040832189648,0.0009604069694431,0.66415580594686,128566,2924,0.0049024955904296,0.0069365249461676,0.0038364372883158,37.916700840034,6.5733606720272e-05,6.5733606720272e-05,6.5733606720272e-05,3602470.3838815,0.015800080765282
37819200,0.9995322216258,0.015717061285368,0.0050126620501267,0.0065344850391978,0.0041699141960436,-0.0011784244396975,0.0011784237511121,2.8926910398736e-09,-3.5915946200236e-09,9.9375941114831e-10,-1.752029590581e-09,-0.001325672225937,0.001325674485582,-0.001325674004332,0.001325672632585,-0.0013256728937076,0.0013256738612607,-0.0013256755661951,0.0013256711098653,-0.0011315961173678,0.0011316021664554,-0.0011316035935147,0.001131594426935,3.5436977883474e-10,-7.1318322974188e-10,-3.9001195363783e-10,5.3301750197531e-11,-0.0016699515028746,0.0016699511653207,-0.0018048668879448,0.0018048669112141,-0.0018048666602846,0.0018048672023092,-0.0018048671460157,0.0018048667033013,-0.0018048675913188,0.0018048661847657,-0.0014744818071727,0.001474482569243,-0.0014744834635945,0.0014744810946715,-0.0015546020882389,0.0015546047595684,-0.0015546049180522,0.001554601890816,1.6506304682252e-09,-2.5807950591939e-09,-0.00092053182157533,0.00092053087933614,5.0093856082965e-09,-6.1529142793421e-09,-0.0010775054406575,0.0010775094346213,-0.0010775087900699,0.0010775060590767,-0.0010775065375114,0.0010775082715428,-0.0010775107274496,0.0010775041878873,-0.00095935035400202,0.00095934028429929,-0.00095934491870721,0.0009593458460734,0.6401645346786,128566,2924,0.0048981619883031,0.0069318068443879,0.0038322298832447,37.335996879709,6.1087975037674e-05,6.1087975037674e-05,6.1087975037674e-05,3598173.1924639,0.015786610234418
38019200,0.99956331441919,0.015717513207635,0.0050128049342125,0.0065346779716743,0.0041700303017484,-0.0011765603216456,0.0011765596845297,2.7864585436005e-09,-3.4602870722827e-09,8.1673987369058e-10,-1.5279345443544e-09,-0.0013236908778199,0.001323692947276,-0.0013236925563452,0.0013236911939864,-0.0013236913973581,0.0013236924706971,-0.0013236940031814,0.0013236897943278,-0.0011296490476961,0.0011296550199595,-0.0011296562914862,0.0011296475637793,2.7647051160388e-10,-6.319645769748e-10,-8.4837971805255e-10,5.0234791461603e-10,-0.0016678720865771,0.0016678717546622,-0.0018028455161145,0.0018028451741136,-0.0018028449794094,0.0018028457920913,-0.0018028457054374,0.0018028450404018,-0.0018028458675243,0.0018028448125875,-0.0014723849621759,0.0014723849491665,-0.0014723858184746,0.0014723843252964,-0.0015525413885904,0.0015525442830442,-0.0015525441279049,0.0015525414992793,1.5300621311191e-09,-2.4465630939103e-09,-0.00091875522886761,0.00091875431565562,4.9016944604518e-09,-6.0190061617048e-09,-0.0010755355435417,0.001075539385022,-0.0010755388041786,0.0010755361019441,-0.0010755365388545,0.0010755383298928,-0.0010755406632735,0.0010755343100673,-0.0009574779371435,0.00095746823922926,-0.00095747275658598,0.00095747355686551,0.66570161418475,128566,2924,0.0048904327942046,0.0069232103111447,0.0038248444596295,36.307651617783,5.2861212942268e-05,5.2861212942268e-05,5.2861212942268e-05,3591043.2501126,0.015762521260155
38219200,0.99959167547807,0.015717928967812,0.0050129364787001,0.0065348550183714,0.0041701374707403,-0.0011757811276858,0.0011757805800372,2.066196342245e-09,-2.6515679405216e-09,4.6137899567184e-10,-1.0798573612753e-09,-0.0013228546786846,0.0013228575226088,-0.001322857308267,0.0013228548287129,-0.001322856385884,0.0013228558580417,-0.0013228570506792,0.0013228551397244,-0.0011288372681569,0.0011288378831996,-0.0011288388302366,0.0011288361521656,-8.9031190746472e-11,-2.3327628386377e-10,-1.696631350018e-09,1.3796909020959e-09,-0.0016669922586336,0.001666991957649,-0.0018019950105285,0.0018019953491749,-0.0018019953811155,0.0018019950833557,-0.0018019964092343,0.0018019940163013,-0.0018019945771736,0.0018019958063425,-0.0014714891796421,0.0014714834636874,-0.0014714840758532,0.001471488847372,-0.0015516676559052,0.0015516660442142,-0.0015516653044535,0.0015516683895624,8.3130121101165e-10,-1.5993378866719e-09,-0.0009180074013911,0.00091800663920682,4.1881715685864e-09,-5.1391643252147e-09,-0.0010746989933358,0.0010747034099848,-0.0010747031894366,0.0010746991924823,-0.0010747009334622,0.0010747014143139,-0.0010747030919991,0.001074699363056,-0.00095669278440054,0.00095668947331338,-0.00095669332696933,0.00095668907028021,0.6707654842661,128566,2924,0.0048872022306572,0.006919573103844,0.0038217361347026,35.868081389432,4.9344651115456e-05,4.9344651115456e-05,4.9344651115456e-05,3587044.2210328,0.015752386387786
38419200,0.99962395646808,0.01571843481653,0.0050130970686829,0.0065350679074365,0.0041702698404107,-0.0011829228671849,0.0011829222749827,2.1131182502174e-09,-2.7460851865723e-09,6.1251488035372e-10,-1.2798261128966e-09,-0.0013301195017233,0.0013301221191783,-0.0013301218328401,0.0013301197195475,-0.0013301209812292,0.0013301206829786,-0.0013301220308357,0.0013301195712642,-0.0011360510595982,0.0011360526639024,-0.0011360537443878,0.0011360497681202,-1.9942963109108e-12,-3.2629837504392e-10,-8.4039766231064e-10,5.1771231477357e-10,-0.0016744607919533,0.0016744604845617,-0.0018094886145362,0.0018094892230421,-0.0018094891908911,0.00180948872449,-0.0018094897262306,0.0018094881701327,-0.0018094887862341,0.0018094890484021,-0.0014787610398514,0.0014787579598481,-0.0014787586210631,0.0014787606209858,-0.0015591138312781,0.0015591128509454,-0.0015591126972243,0.0015591139964115,8.9462759874831e-10,-1.6594325777946e-09,-0.00092474035880568,0.00092473960287655,4.116776747708e-09,-5.0556679574632e-09,-0.0010816499205046,0.0010816539807201,-0.0010816537160825,0.001081650163833,-0.0010816515579029,0.0010816522893378,-0.0010816540014118,0.0010816499483412,-0.00096369197665852,0.00096368758521792,-0.00096369139090633,0.00096368831669756,0.71254270538968,128566,2924,0.0049168104584976,0.0069504642200407,0.0038497060444172,39.659488227172,7.9675905817376e-05,7.9675905817376e-05,7.9675905817376e-05,3632328.1752225,0.01584225748573
38619200,0.9996538266194,0.015718904671137,0.0050132461951486,0.0065352662688703,0.0041703922071186,-0.001183139652511,0.0011831389861143,2.2207156585029e-09,-2.9047553549454e-09,7.6755452226747e-10,-1.5022252239329e-09,-0.0013304372750239,0.0013304397016244,-0.0013304393629216,0.0013304375489056,-0.0013304385384492,0.001330438480345,-0.0013304400239116,0.0013304369373449,-0.0011363082355702,0.00113631107752,-0.0011363123640541,0.0011363067573504,-3.9941039028674e-10,1.12554649768e-10,-1.2367638718891e-09,9.6451718213275e-10,-0.0016747945332903,0.0016747942628814,-0.0018098296628167,0.0018098293902781,-0.0018098296068473,0.0018098295416163,-0.0018098301402733,0.0018098289837607,-0.0018098292971165,0.0018098297774672,-0.0014790774380718,0.001479075055215,-0.0014790753794722,0.0014790773443195,-0.0015594160003883,0.0015594112860009,-0.0015594107966698,0.0015594164682656,1.0502190925184e-09,-1.7583623420711e-09,-0.00092488650548259,0.00092488578459603,3.9378639445478e-09,-4.8379005987866e-09,-0.0010819375877058,0.0010819412734595,-0.0010819408796311,0.0010819379582573,-0.0010819389439868,0.0010819398662338,-0.0010819416257389,0.0010819372849205,-0.00096385715999419,0.00096385155836233,-0.00096385517806997,0.00096385367348327,0.71626666569382,128566,2924,0.0049177095225829,0.0069518411957205,0.0038503183719862,39.752295912193,8.0418367297548e-05,8.0418367297548e-05,8.0418367297548e-05,3628705.8065184,0.015845194479129
38819200,0.99968132950835,0.015719338796594,0.0050133840287573,0.006535449420135,0.0041705053477013,-0.0011831561529633,0.0011831553811212,2.0862441256336e-09,-2.8766006036593e-09,1.1375011265901e-09,-1.986299426563e-09,-0.001330514506344,0.0013305173391795,-0.001330516814884,0.0013305149542565,-0.0013305163330544,0.0013305155539113,-0.0013305174763762,0.0013305143408374,-0.0011363773299105,0.0011363787101406,-0.0011363803617847,0.001136375435392,-3.331865022046e-10,3.6433591331735e-11,-7.0809599103588e-10,4.2766441420453e-10,-0.0016749072406571,0.0016749069630791,-0.0018099278693405,0.0018099282931985,-0.0018099284599118,0.0018099277772357,-0.0018099286908709,0.0018099275356932,-0.0018099278966708,0.0018099282670335,-0.0014791793283441,0.0014791769857607,-0.0014791773573031,0.0014791791643545,-0.0015595090066893,0.0015595057434837,-0.0015595056332344,0.001559509110181,8.8102792868684e-10,-1.7435231344906e-09,-0.00092485682712759,0.000924855959438,4.6380462696349e-09,-5.7007498319451e-09,-0.0010820042447975,0.001082008542872,-0.0010820083560078,0.0010820044075561,-0.0010820058387246,0.0010820068948837,-0.0010820087397633,0.0010820040929327,-0.00096386210888648,0.00096385693657537,-0.00096386123641902,0.00096385795185701,0.71845446627461,128566,2924,0.0049177781178486,0.0069523039459696,0.0038502000750636,39.755851169507,8.0446809356054e-05,8.0446809356054e-05,8.0446809356054e-05,3622812.5104938,0.015845616004243
38880000,0.99968947673031,0.015719467563251,0.0050134249162165,0.0065355037210502,0.0041705389259847,-0.0011831529008919,0.0011831521763471,2.2615379031136e-09,-3.0022787822811e-09,9.1525035825738e-10,-1.7119618626226e-09,-0.0013305335631135,0.0013305359436586,-0.001330535544759,0.0013305339050418,-0.00133053479435,0.0013305347619361,-0.0013305364739954,0.0013305330149486,-0.0011363994702197,0.0011364027021778,-0.0011364041576129,0.0011363978223671,-4.7977462062644e-10,1.9868202028301e-10,-1.3082659487851e-09,1.0399886886477e-09,-0.0016749418139477,0.0016749415493266,-0.0018099561837377,0.001809955640413,-0.0018099559104961,0.0018099560066485,-0.0018099564552179,0.0018099554401285,-0.0018099556877041,0.001809956159777,-0.0014792083485843,0.0014792061615602,-0.001479206430455,0.0014792083211887,-0.0015595368854662,0.0015595351518516,-0.001559534616786,0.0015595374231833,1.0813140529564e-09,-1.8385432168844e-09,-0.00092483961387711,0.00092483884976536,4.1499608518976e-09,-5.0998149002602e-09,-0.0010820228219128,0.0010820265233982,-0.0010820261377409,0.0010820231854073,-0.0010820240839193,0.0010820252084178,-0.001082027053317,0.0010820223404458,-0.00096385947542252,0.00096385321109741,-0.00096385704254678,0.00096385578542901,0.71910519999324,128566,2924,0.0049177647738367,0.0069524455976317,0.0038501309855938,39.755983981444,8.0447871851554e-05,8.0447871851554e-05,8.0447871851554e-05,3620795.9557225,0.015845676788777
