time,ASR_ext,ASR_strain,ASR_strain_xx,ASR_strain_yy,ASR_strain_zz,disp_x_101,disp_x_102,disp_x_103,disp_x_104,disp_x_105,disp_x_106,disp_x_p1_neg,disp_x_p1_pos,disp_x_p2_neg,disp_x_p2_pos,disp_x_p3_neg,disp_x_p3_pos,disp_x_p4_neg,disp_x_p4_pos,disp_x_p5_neg,disp_x_p5_pos,disp_x_p6_neg,disp_x_p6_pos,disp_y_101,disp_y_102,disp_y_103,disp_y_104,disp_y_105,disp_y_106,disp_y_p1_neg,disp_y_p1_pos,disp_y_p2_neg,disp_y_p2_pos,disp_y_p3_neg,disp_y_p3_pos,disp_y_p4_neg,disp_y_p4_pos,disp_y_p5_neg,disp_y_p5_pos,disp_y_p6_neg,disp_y_p6_pos,disp_y_p7_neg,disp_y_p7_pos,disp_y_p8_neg,disp_y_p8_pos,disp_z_101,disp_z_102,disp_z_103,disp_z_104,disp_z_105,disp_z_106,disp_z_p1_neg,disp_z_p1_pos,disp_z_p2_neg,disp_z_p2_pos,disp_z_p3_neg,disp_z_p3_pos,disp_z_p4_neg,disp_z_p4_pos,disp_z_p5_neg,disp_z_p5_pos,disp_z_p6_neg,disp_z_p6_pos,humidity,ndof,nelem,strain_xx,strain_yy,strain_zz,temp,thermal_strain_xx,thermal_strain_yy,thermal_strain_zz,vonmises,vstrain
2419200,0,0,0,0,0,0,0,0,0,0,0,0,0,0,0,0,0,0,0,0,0,0,0,0,0,0,0,0,0,0,0,0,0,0,0,0,0,0,0,0,0,0,0,0,0,0,0,0,0,0,0,0,0,0,0,0,0,0,0,0,0,0,0,0,0,0,0,0,0,0,0,0,0,0,0
2919200,0.076434908998471,0.0015963683826759,0.00053212279422531,0.00053212279422531,0.00053212279422531,-0.00016628213274993,0.00016627279418374,-3.2602191820492e-09,-3.2602190115112e-09,-2.7102655579372e-09,-3.8009647920832e-09,-0.0001661819647645,0.0001661750159798,-0.00016618367405931,0.0001661767252742,-0.00016618234347393,0.00016617465740094,-0.00016618401959716,0.00016617633352399,-0.00016731101413427,0.00016730372888039,-0.00016731209794411,0.0001673048126918,-3.2977255199108e-10,6.9040938623187e-10,-1.423541330613e-09,1.7693302173455e-09,-0.00017325653222348,0.0001732568794375,-0.00017214335413279,0.00017214217444026,-0.0001721438445328,0.00017214496997794,-0.00017214386172939,0.00017214342329761,-0.0001721443521293,0.00017214621883523,-0.00017244124926132,0.00017243885293233,-0.00017243921561283,0.00017244300580762,-0.00017385723890732,0.00017385769793442,-0.00017385710957786,0.00017385955345819,-8.5585231896003e-09,-8.5585233061629e-09,-0.00016021320683541,0.0001601913232071,-6.7838392647053e-09,-1.0141414620429e-08,-0.00016069081168819,0.00016067326617358,-0.00016069196535036,0.00016067212685821,-0.00016069164797657,0.00016067410246178,-0.00016069278810342,0.00016067294961114,-0.00016400610484603,0.00016398709688301,-0.00016400540493437,0.00016398639697276,0.83502648770561,122718,2924,0.00069258199830571,0.00072164130486421,0.00066728686256078,32.411137813161,0.00017448910250529,0.00017448910250529,0.00017448910250529,1154273.7159577,0.0020836798124689
3419200,0.15577501870282,0.0031231723140198,0.0010443113859068,0.0010689461430291,0.0010099147850839,-0.00028376482336175,0.00028375641020614,-2.9581330794078e-09,-2.9582346216859e-09,-2.7200122962051e-09,-3.2505223059219e-09,-0.00028938336613731,0.00028937709140615,-0.00028938591339925,0.00028937963840072,-0.00028938353855693,0.00028937692355303,-0.00028938607414537,0.00028937945886703,-0.00028264791456408,0.00028264144114106,-0.00028265026282348,0.00028264378909981,-2.7047580419396e-10,2.1509653427206e-10,-6.9207181840159e-10,6.2614685274639e-10,-0.00030553190445791,0.00030553184134197,-0.00030642969851402,0.00030642902191038,-0.00030643162417657,0.00030643184055703,-0.00030643062722276,0.00030643028281165,-0.00030643255285922,0.00030643310142333,-0.0002993412276217,0.00029934005823515,-0.0002993425388418,0.00029934392238324,-0.00030431438497859,0.00030431431864563,-0.0003043162516464,0.00030431713972224,-6.8632673598896e-09,-6.8633692156355e-09,-0.00026363676397851,0.00026361947226766,-6.0310130453457e-09,-7.4760905565669e-09,-0.00027039179948201,0.00027037743475888,-0.00027039228613425,0.00027037695955864,-0.00027039292198487,0.00027037855703695,-0.00027039340126369,0.00027037807447001,-0.00027151481743785,0.00027150005897178,-0.00027151337755618,0.00027149861943203,0.77960726241633,122718,2924,0.0011816356915345,0.001272234347643,0.001097856124743,31.910917487523,0.00017048733990018,0.00017048733990018,0.00017048733990018,1826581.1783071,0.0035580451321763
3919200,0.24287182467231,0.0047034712525721,0.0015617174329767,0.0016750729946771,0.0014666808249183,-0.00040389058662568,0.00040388390483452,-2.4817977307388e-09,-2.4818824285806e-09,-2.2599117223511e-09,-2.414657128794e-09,-0.00041745020516787,0.000417444956035,-0.00041745189529429,0.00041744664593896,-0.00041745024275002,0.00041744490886471,-0.00041745193804494,0.00041744660393742,-0.00039713087571145,0.00039712534907924,-0.00039713238918392,0.00039712686227331,-1.7173595704028e-10,-3.6344242325992e-11,-4.4626507690823e-11,-1.6820102770641e-10,-0.0004566388465286,0.00045663863557005,-0.00046678930229892,0.0004667890979794,-0.00046679086568023,0.00046679055291323,-0.00046678993310867,0.00046678982711361,-0.00046679149643683,0.00046679128196981,-0.00043653619367447,0.0004365361729245,-0.00043653740320013,0.00043653710651116,-0.00044790404670985,0.00044790368255827,-0.00044790490736637,0.00044790480099945,-3.4962926586583e-09,-3.4963776740933e-09,-0.00036419711978368,0.00036418786580838,-3.3471754494406e-09,-3.2663653754734e-09,-0.00037769470767585,0.00037768711488825,-0.00037769467514425,0.00037768715388505,-0.0003776956070192,0.00037768801402581,-0.00037769557154448,0.00037768805008878,-0.00037651269178166,0.00037650517565778,-0.00037651161975607,0.00037650410393854,0.74640349119053,122718,2924,0.0016814470533428,0.0019008366290284,0.0015163553708238,32.496473037528,0.00017517178430022,0.00017517178430022,0.00017517178430022,2587475.9500344,0.0051116688628987
4419200,0.33821939470679,0.0064075479163755,0.0021133887246313,0.0023591520207976,0.0019350071709466,-0.00053197689040755,0.00053197270092201,-1.3293141257272e-09,-1.3294084242807e-09,-1.6324356049417e-09,-1.1460282131248e-09,-0.0005547510011951,0.00055474792129666,-0.00055475209509243,0.00055474901495582,-0.0005547508141853,0.00055474808584884,-0.00055475193134522,0.00055474920277551,-0.00051842430463463,0.00051842140240577,-0.00051842544389558,0.00051842254136571,-1.1865602719864e-11,-4.7783656271513e-10,2.092181827046e-10,-6.9517654359849e-10,-0.00062837260186944,0.00062837211702651,-0.00065174843672502,0.00065174843516085,-0.00065174974273058,0.00065174910012432,-0.0006517491401774,0.00065174882164312,-0.00065175044615449,0.00065174948655205,-0.00058958805188045,0.0005895883202127,-0.00058959002815715,0.00058958849130629,-0.00060896730025067,0.0006089669791013,-0.0006089690434196,0.00060896779632939,-1.6001067801598e-09,-1.6002013510607e-09,-0.00046747216582532,0.0004674673328711,-2.010829264708e-09,-1.0926659659376e-09,-0.00048795586005194,0.00048795229048832,-0.00048795554152721,0.0004879526089612,-0.00048795652443982,0.00048795295467854,-0.00048795620984019,0.00048795327709009,-0.00048585284864291,0.00048584953545039,-0.0004858524400705,0.00048584912720634,0.74424082049435,122718,2924,0.0022141100367452,0.0026147549483247,0.0019459995537763,33.598289124324,0.00018398631299459,0.00018398631299459,0.00018398631299459,3249819.2601046,0.0067978881654886
4919200,0.44170113536615,0.0082475604006533,0.0026982632641351,0.0031357872342156,0.0024135099023026,-0.00066705887525713,0.00066705587096144,-7.9983028450957e-10,-7.9991561621484e-10,-1.2332880968823e-09,-6.2665498435568e-10,-0.00070068202260646,0.00070068004780475,-0.00070068278849049,0.00070068081347319,-0.00070068178993823,0.00070068025539215,-0.00070068258004335,0.00070068104529025,-0.00064594696510943,0.00064594512391549,-0.00064594798099756,0.00064594613949514,-3.9281455684375e-11,-6.0617749231135e-10,2.0158009627819e-10,-8.3930758267065e-10,-0.00082512773574847,0.00082512709796857,-0.00086523783835094,0.00086523774666202,-0.00086523887163433,0.0008652380772161,-0.00086523843955999,0.00086523797089217,-0.00086523947276705,0.00086523830135458,-0.00076248790094293,0.00076248812123784,-0.00076249000812642,0.00076248815056172,-0.0007911987105075,0.00079119828608121,-0.00079120048627356,0.00079119893337656,-9.7537909478671e-10,-9.7546453528502e-10,-0.00057230835020907,0.0005723051248262,-1.507066604385e-09,-4.3640636795451e-10,-0.00060202438966323,0.00060202239872549,-0.00060202402220682,0.00060202276442189,-0.00060202490338324,0.00060202291223897,-0.0006020245416771,0.00060202328369722,-0.00059715877370447,0.00059715679800503,-0.00059715858766534,0.000597156612269,0.74696695512676,122718,2924,0.0027755679725683,0.0034320467227921,0.0023820084429802,35.342979391676,0.00019794383513341,0.00019794383513341,0.00019794383513341,3776585.4878599,0.0086266664086334
5419200,0.54253997190395,0.0099910541263234,0.003237048635777,0.0039081385682858,0.0028458669222606,-0.00078737160698761,0.00078737061681489,9.5423008138926e-11,9.5333402365866e-11,-5.8437031678685e-10,3.2700475014111e-10,-0.00083346717337716,0.00083346697173479,-0.00083346767106926,0.00083346746919458,-0.00083346683873395,0.00083346728184531,-0.00083346736324953,0.00083346780613729,-0.00075826416426846,0.00075826426299178,-0.00075826494978961,0.0007582650481995,5.3415359168031e-11,-8.0046098793687e-10,3.196132262118e-10,-1.0544051682341e-09,-0.001020509686303,0.0010205089510642,-0.0010800039147546,0.0010800039426463,-0.0010800048581927,0.0010800039509897,-0.0010800045567271,0.0010800040093262,-0.0010800055001043,0.001080004017593,-0.00093062582870391,0.00093062617826716,-0.00093062827711887,0.00093062590189167,-0.00096921055649458,0.00096921019981674,-0.00096921272948645,0.00096921068378781,2.5249230755354e-11,2.5159539575781e-11,-0.00066277432395849,0.00066277357919788,-7.5607112189916e-10,6.6218502436979e-10,-0.00070379026318695,0.00070379043005952,-0.00070378977681489,0.00070379091099732,-0.00070379064336192,0.00070379081004433,-0.00070379016560711,0.00070379129961021,-0.00069258491712366,0.0006925852044411,-0.00069258498840683,0.00069258527603464,0.73229095938567,122718,2924,0.0032754003272714,0.0042429512041071,0.0027581913784011,36.272586298327,0.00020538069038661,0.00020538069038661,0.00020538069038661,4139761.499755,0.010329611190715
5919200,0.63388157390428,0.011350932519903,0.0036431829749363,0.0045389732161232,0.0031687763288436,-0.00087374033981432,0.0008737409648775,7.4559361220047e-10,7.4550635050838e-10,-8.5700377805668e-11,1.1587739685154e-09,-0.00093368673494931,0.00093368790326609,-0.00093368699827547,0.00093368816637577,-0.00093368628839106,0.000933688326584,-0.00093368658064259,0.00093368861862817,-0.00083409331660918,0.00083409483853534,-0.00083409405287958,0.00083409557449794,1.181303607868e-10,-1.0463961541981e-09,4.542995878712e-10,-1.3642972208329e-09,-0.0011814392033565,0.001181438292122,-0.0012650744732264,0.0012650745859081,-0.00126507530236,0.0012650741751051,-0.0012650750229305,0.0012650743474479,-0.0012650758519907,0.0012650739365566,-0.0010613888111135,0.001061389314434,-0.0010613916019517,0.001061388512434,-0.0011084588362222,0.0011084584521731,-0.0011084611348172,0.001108458454047,8.768680577276e-10,8.7678073507171e-10,-0.00072549829436514,0.00072549969283207,-1.4086703716753e-10,1.7411220895674e-09,-0.00077860157013565,0.00077860361944071,-0.00077860092577433,0.000778604255973,-0.00077860184860851,0.00077860389771254,-0.00077860121534322,0.00077860454535191,-0.00075572827809963,0.00075573046930168,-0.00075572834984202,0.00075573054134118,0.6360792580923,122718,2924,0.0036340976112124,0.0049103655647301,0.0030190341456487,36.778891879752,0.00020943113503801,0.00020943113503801,0.00020943113503801,4344951.3463658,0.011630738301305
6419200,0.71117399688673,0.012420126365543,0.0039564412588179,0.00504235499958,0.0034213301071452,-0.00093725750808274,0.00093725991991072,1.4877090352271e-09,1.4876212285708e-09,2.7556513201996e-10,2.2634732217997e-09,-0.0010077058148334,0.0010077084231494,-0.0010077058601767,0.0010077084682747,-0.0010077051238923,0.0010077090975085,-0.0010077052004587,0.0010077091738661,-0.00088855111583903,0.00088855440904352,-0.00088855182049918,0.00088855511339474,3.0812469000223e-10,-1.5733286770654e-09,7.9587691315367e-10,-2.0311943966996e-09,-0.0013090268827563,0.0013090256450331,-0.0014162845703411,0.0014162849420221,-0.0014162854877154,0.0014162839387939,-0.0014162851756377,0.001416284275924,-0.0014162860929382,0.0014162832726069,-0.0011615944862589,0.0011615954117522,-0.0011615982278665,0.0011615935858042,-0.0012153710867161,0.0012153707345301,-0.0012153740199806,0.0012153699616194,1.7927398492414e-09,1.7926519271608e-09,-0.00077153239384941,0.00077153604747363,2.4980682774936e-10,3.157707526551e-09,-0.00083293824861437,0.00083294211947716,-0.00083293725850795,0.00083294309854091,-0.0008329384090347,0.00083294227969771,-0.00083293743306854,0.00083294327291266,-0.00080155420201071,0.00080155864020458,-0.00080155429516962,0.00080155873366026,0.59525943091212,122718,2924,0.0038978368147403,0.0054391981581469,0.0032104830446491,36.74152463198,0.00020913219705584,0.00020913219705584,0.00020913219705584,4515310.9532848,0.012626735430189
6919200,0.78073412818267,0.013460458411911,0.0042604175438475,0.0055280757664063,0.003671965101657,-0.00099952643874395,0.00099952815382664,1.2891185322071e-09,1.2890306431651e-09,-3.4516974022784e-13,2.1316200120013e-09,-0.0010792327444989,0.0010792348397123,-0.0010792329352266,0.0010792350302229,-0.0010792320065051,0.0010792355650453,-0.0010792322245506,0.0010792357828831,-0.00094581888579933,0.0009458217796275,-0.00094581968302835,0.00094582257654809,3.0688371114857e-10,-1.7145583789479e-09,6.7254930708033e-10,-2.047176675746e-09,-0.001438939693481,0.0014389383158685,-0.0015647164301007,0.0015647166557995,-0.0015647174031518,0.0015647158060095,-0.0015647170979419,0.0015647159694553,-0.0015647180709168,0.001564715119574,-0.0012689297586058,0.0012689303997617,-0.0012689334822655,0.001268928755989,-0.0013282174316323,0.0013282171145171,-0.001328220551749,0.0013282162507689,8.9626585703153e-10,8.9617790201674e-10,-0.00081841186716163,0.0008184132250653,-5.7955543700863e-10,2.2021540307078e-09,-0.00088825415013442,0.00088825615154215,-0.00088825320629476,0.00088825708622135,-0.00088825438792076,0.00088825638912882,-0.00088825345699694,0.00088825733673445,-0.00084995423528319,0.00084995674937103,-0.00084995426102929,0.00084995677541167,0.64378173705164,122718,2924,0.0041563458824251,0.0059773491663588,0.0034054360063152,38.623711072832,0.00022418968858266,0.00022418968858266,0.00022418968858266,4538809.3260162,0.013631414037201
7419200,0.84063711524677,0.014233901135759,0.0044805190832337,0.0058983452248198,0.0038550368277053,-0.0010373223495069,0.0010373238422483,1.2122819154836e-09,1.2121943200862e-09,-1.0160127376112e-10,2.072170178447e-09,-0.0011291516400442,0.0011291535450805,-0.0011291518736166,0.0011291537784362,-0.0011291508885864,0.00112915428516,-0.0011291511478201,0.0011291545441867,-0.0009785850167222,0.00097858775826838,-0.00097858582982715,0.0009785885710666,3.0589475688986e-10,-1.7578844917766e-09,4.7667342965981e-10,-1.8943668727453e-09,-0.001544770214658,0.0015447687937859,-0.001687786675171,0.001687786751931,-0.0016877876194178,0.0016877861096414,-0.0016877873963787,0.0016877860953737,-0.0016877883405473,0.0016877854529907,-0.0013540470810115,0.0013540473248044,-0.0013540505370653,0.0013540460957236,-0.0014165607709218,0.0014165605679272,-0.001416563969993,0.0014165596995428,5.6149228334396e-10,5.6140416421379e-10,-0.00084589923751613,0.00084589981719754,-7.4729345063922e-10,1.6797336573982e-09,-0.00092799419635631,0.00092799561133992,-0.00092799337219634,0.00092799642789731,-0.0009279944686569,0.00092799588344007,-0.00092799365612796,0.00092799671163948,-0.0008762394030772,0.0008762411089031,-0.00087623940221415,0.0008762411083334,0.55664260548471,122718,2924,0.0043132928031585,0.0064154757531788,0.0035198683938429,40.762308338581,0.00024129846670865,0.00024129846670865,0.00024129846670865,4366149.7837352,0.014350910735381
7919200,0.88561722432593,0.014763816806265,0.0046292200010895,0.0061515642100241,0.0039830325951513,-0.0010578255918813,0.0010578296080831,2.1566570567397e-09,2.1565695205249e-09,6.6924593196492e-10,3.1911650843913e-09,-0.0011561309976196,0.0011561349478782,-0.0011561309103221,0.0011561348603646,-0.0011561301264905,0.001156135805323,-0.0011561300704711,0.0011561357490971,-0.00099490353626573,0.00099490838867688,-0.00099490428029506,0.00099490913239985,3.8802261299905e-10,-1.9980450202138e-09,6.1805942541469e-10,-2.1888245260897e-09,-0.0016137667367977,0.001613765162545,-0.0017723888074206,0.0017723890136256,-0.0017723896157615,0.0017723879078225,-0.0017723894408791,0.0017723880346496,-0.0017723902491404,0.0017723869287519,-0.0014056142846264,0.0014056146851607,-0.0014056180768499,0.0014056129515095,-0.0014705070756093,0.0014705068775059,-0.0014705104774339,0.001470505585389,2.1117511743979e-09,2.111662967144e-09,-0.0008605840856943,0.00086058864846022,5.5472225314536e-10,3.4521093772747e-09,-0.00094848033042978,0.00094848508919863,-0.0009484793420981,0.00094848606671717,-0.00094848042156517,0.00094848518013344,-0.00094847944817686,0.00094848617260634,-0.00088959145813352,0.00088959658772241,-0.00088959149360338,0.0008895966234846,0.5070717593097,122718,2924,0.0043984609366347,0.0067010441132245,0.0035810586827383,40.956006760932,0.00024284805408745,0.00024284805408745,0.00024284805408745,4300860.5818536,0.014789166137714
8419200,0.91909751268154,0.015138896403368,0.0047344296526017,0.0063289394814527,0.0040755272693132,-0.0010690890105497,0.0010690931669539,2.2332722961397e-09,2.2331848405345e-09,6.2705734120917e-10,3.3939331912001e-09,-0.0011731012410163,0.001173105285485,-0.0011731011627039,0.0011731052069566,-0.0011731002908405,0.0011731062256623,-0.0011731002425661,0.0011731061771813,-0.0010037988816182,0.0010038039655612,-0.0010037996429132,0.0010038047265507,4.515822208849e-10,-2.1756782792867e-09,7.1771279607262e-10,-2.3989131906134e-09,-0.001665495919571,0.0016654942345824,-0.0018350867933542,0.0018350870689074,-0.0018350876978903,0.0018350858595209,-0.0018350874856462,0.0018350859907519,-0.001835088390101,0.0018350847812699,-0.0014452112940321,0.001445211809201,-0.00144521540048,0.0014452097799599,-0.0015111869986654,0.0015111868225893,-0.0015111906341089,0.0015111852886437,2.0560137615071e-09,2.0559254982558e-09,-0.00086894233737516,0.00086894673863164,3.4942826891212e-10,3.5529695422791e-09,-0.00096249696169659,0.000962501517355,-0.00096249587221534,0.0009625025963304,-0.00096249705713723,0.00096250161259481,-0.00096249598235948,0.00096250270628488,-0.00089664971356484,0.00089665482241277,-0.00089664972402981,0.00089665483317044,0.48138031764921,122718,2924,0.0044452845630423,0.006915067150702,0.0036159389959409,41.432193340328,0.00024665754672263,0.00024665754672263,0.00024665754672263,4173583.8213502,0.015089346247767
8919200,0.94350056613965,0.015383824487993,0.0048027310001146,0.0064444102107966,0.0041366832770815,-0.0010725320820107,0.0010725365716806,2.370584189431e-09,2.3704968084906e-09,6.7274482975246e-10,3.63252405706e-09,-0.0011817945910225,0.0011817988820007,-0.0011817944884691,0.001181798779231,-0.0011817935779716,0.0011817998871783,-0.0011817935050896,0.0011817998140911,-0.00100589590397,0.0010059013366787,-0.0010058966622376,0.0010059020946424,5.0493706769566e-10,-2.3108686075503e-09,8.0132260643854e-10,-2.5617004520449e-09,-0.0017018591182521,0.0017018573538825,-0.0018792660883989,0.0018792664299365,-0.0018792670446267,0.0018792651088651,-0.001879266810627,0.0018792652560368,-0.0018792677667755,0.0018792639348676,-0.0014730023349958,0.0014730029498649,-0.0014730066729782,0.0014730006688632,-0.0015392073978571,0.0015392072438723,-0.0015392111976359,0.0015392055034271,2.1689517280668e-09,2.1688633825838e-09,-0.00087166599317148,0.00087167067280348,3.3978146726235e-10,3.7905081680857e-09,-0.00097067416960383,0.00097067890011322,-0.00097067299770088,0.00097068006155678,-0.00097067425164108,0.00097067898195094,-0.00097067309445787,0.00097068015812493,-0.00089794431740961,0.00089794974417954,-0.00089794431474534,0.00089794974180714,0.43063171924148,122718,2924,0.0044596591488846,0.0070654640967383,0.0036273957635971,41.891217000528,0.00025032973600423,0.00025032973600423,0.00025032973600423,4021609.1757783,0.015268281896617
9419200,0.96020256217229,0.015542866368002,0.0048472000737205,0.0065183970537907,0.0041772692404913,-0.0010717693321233,0.0010717759349915,3.1754426500704e-09,3.1753552369477e-09,1.2873202707604e-09,4.6482257547174e-09,-0.0011837167419572,0.0011837227511162,-0.0011837163964784,0.0011837224054219,-0.0011837155936821,0.0011837238915386,-0.0011837152819627,0.0011837235796135,-0.0010043109819253,0.0010043182441583,-0.0010043117132712,0.0010043189752,6.1107538289004e-10,-2.5831371356395e-09,1.0172982100027e-09,-2.9384734573e-09,-0.0017231036526915,0.0017231017271531,-0.0019063276716289,0.0019063281981651,-0.001906328573124,0.001906326401463,-0.0019063283334712,0.001906326695618,-0.0019063292348838,0.001906324898819,-0.0014880119892051,0.0014880128909729,-0.0014880168158463,0.001488009946021,-0.0015543494912456,0.0015543493401721,-0.0015543535533362,0.0015543471232428,3.3794107636444e-09,3.3793224187734e-09,-0.00087073850927458,0.00087074625657356,1.2385686172554e-09,5.3092973339041e-09,-0.00097246403650101,0.00097247129711371,-0.00097246265200802,0.00097247266827379,-0.0009724639715948,0.00097247123200786,-0.00097246260471652,0.00097247262079285,-0.00089614093210254,0.00089614910818084,-0.00089614092789418,0.00089614910426445,0.40723906797413,122718,2924,0.0044565624879141,0.0071533287448835,0.0036236475515289,41.151418934857,0.00024441135147886,0.00024441135147886,0.00024441135147886,3934079.9350029,0.015350558772848
9919200,0.97143598833838,0.015649362267198,0.0048771679276398,0.0065672516320712,0.004204942707487,-0.0010682542140839,0.0010682620494834,3.6512224392086e-09,3.6511350026264e-09,1.5583093834147e-09,5.3523244212217e-09,-0.0011829470108148,0.0011829539580377,-0.0011829465384717,0.0011829534854782,-0.0011829457206189,0.0011829552439794,-0.0011829452831407,0.0011829548062944,-0.0010006234177984,0.0010006318247198,-0.0010006241371503,0.0010006325437669,7.3955859446318e-10,-2.8753659478381e-09,1.2936312405124e-09,-3.3727141789558e-09,-0.0017368792289443,0.0017368771449971,-0.0019232994805773,0.0019233002337902,-0.0019233004719966,0.0019232980456374,-0.0019233001692292,0.001923298472434,-0.0019233011605651,0.0019232962841841,-0.0014982286545937,0.0014982299524018,-0.0014982341153152,0.0014982262515859,-0.0015643864232349,0.0015643862848848,-0.0015643908263294,0.0015643835826125,4.0572303382162e-09,4.0571420002494e-09,-0.00086761166552523,0.0008676211099081,1.5606190010137e-09,6.3526030326477e-09,-0.0009723060432532,0.00097231457509682,-0.00097230441620948,0.00097231618740439,-0.00097230589971489,0.00097231443135816,-0.00097230429162053,0.00097231606262608,-0.00089236155470145,0.00089237139211606,-0.00089236154016767,0.0008923713778737,0.40432824355073,122718,2924,0.0044420379538885,0.007210273865594,0.0036107482677117,39.828563900497,0.00023382851120398,0.00023382851120398,0.00023382851120398,3845338.8017605,0.015380551153647
10419200,0.97898420163854,0.01572542336334,0.0048987565283736,0.0066015904765387,0.0042250763584274,-0.0010631455832506,0.0010631543143235,3.9950691157191e-09,3.9949816664254e-09,1.7079654844132e-09,5.9153110725425e-09,-0.0011806469433219,0.0011806545232734,-0.0011806463863065,0.0011806539660417,-0.0011806455190223,0.0011806559478365,-0.0011806449968894,0.0011806554254971,-0.00099580258738535,0.00099581185751029,-0.00099580329567731,0.00099581256549766,8.7164445109564e-10,-3.1486279606948e-09,1.595378160057e-09,-3.8100188271284e-09,-0.0017459997852062,0.0017459975651718,-0.0019339576251892,0.0019339586264833,-0.001933958755641,0.0019339560834617,-0.0019339583644,0.0019339566441191,-0.0019339594947687,0.0019339541009996,-0.0015053801325937,0.0015053818835442,-0.0015053862610758,0.0015053774024147,-0.0015712182219379,0.0015712180960895,-0.0015712229613458,0.0015712149323155,4.5408437411366e-09,4.5407554122767e-09,-0.00086318732699866,0.00086319798044919,1.6803033559741e-09,7.2157087779369e-09,-0.00097096153840825,0.00097097087930356,-0.00097095966291047,0.00097097273924042,-0.00097096134117378,0.0009709706818685,-0.00097095948534479,0.00097097256148547,-0.00088755467845553,0.00088756577964992,-0.00088755465493852,0.00088756575642352,0.42845224819223,122718,2924,0.0044208965989194,0.0072479497039735,0.0035924512822136,38.100556614912,0.0002200044529193,0.0002200044529193,0.0002200044529193,3761247.9473211,0.015378778308737
10919200,0.98451877009904,0.015776989683014,0.0049133283119893,0.0066249088709394,0.004238752500085,-0.0010594357581598,0.0010594420792379,3.092696704336e-09,3.0926092522188e-09,8.0986318382756e-10,4.9963021492813e-09,-0.0011803943579714,0.0011803998635469,-0.001180394093474,0.0011803995988332,-0.0011803929486342,0.0011804012800132,-0.0011803927121028,0.0011804010432754,-0.00099262735157345,0.00099263470601832,-0.00099262808172505,0.00099263543586537,8.8814289549125e-10,-3.1342613930541e-09,1.66455215978e-09,-3.8482549832753e-09,-0.0017556710534903,0.001755668864258,-0.0019442104060845,0.0019442114403427,-0.0019442118616333,0.0019442091935022,-0.0019442113505892,0.0019442096876055,-0.0019442128060545,0.0019442074406669,-0.0015140288062467,0.0015140307050723,-0.00151403513932,0.0015140262016192,-0.0015793173734194,0.0015793172567597,-0.0015793222317164,0.0015793141970648,3.0934828369029e-09,3.0933945256899e-09,-0.00086084031158023,0.00086084726922919,2.0452135121899e-10,5.8115639911973e-09,-0.00097235344200766,0.00097235948204888,-0.00097235155181254,0.00097236136054543,-0.00097235342342608,0.00097235946326702,-0.00097235154899401,0.00097236135753742,-0.00088471889691447,0.00088472697606287,-0.00088471886477952,0.00088472694421841,0.39597081456719,122718,2924,0.0044055536805857,0.0072878869244088,0.0035827669755937,37.946307963193,0.00021877046370555,0.00021877046370555,0.00021877046370555,3655312.1078987,0.015393937114592
11419200,0.98855126319175,0.015814515263147,0.0049239793302725,0.0066416993454865,0.0042488365873883,-0.0010579281818553,0.0010579348268583,3.215085556038e-09,3.2149980720138e-09,9.1868291301468e-10,5.1319417783484e-09,-0.0011791511627471,0.0011791569488343,-0.0011791508620847,0.0011791566479558,-0.0011791497439363,0.0011791583747364,-0.0011791494716654,0.0011791581022589,-0.00099109019457914,0.00099109781812981,-0.00099109092260615,0.00099109854585253,8.8564838693207e-10,-3.1604855733352e-09,1.7058288861573e-09,-3.9175607361498e-09,-0.0017602812698001,0.0017602790525383,-0.001950623623737,0.0019506246782445,-0.0019506250772761,0.0019506223525772,-0.0019506245462174,0.0019506228843913,-0.0019506259996732,0.0019506205586257,-0.0015166399845591,0.0015166419548536,-0.0015166464135933,0.0015166373315134,-0.0015819185616275,0.0015819184015322,-0.0015819234301968,0.0015819153068,3.2585418751097e-09,3.2584535494661e-09,-0.00085964655251196,0.00085965393750493,3.1449045838531e-10,6.0324828367167e-09,-0.00097137739268478,0.00097138378138467,-0.00097137546481102,0.0009713856971832,-0.00097137735032889,0.0009713837388283,-0.00097137543868819,0.00097138567087129,-0.0008834096797465,0.00088341814618043,-0.00088340964658431,0.00088341811330901,0.39457194111806,122718,2924,0.0043993194617855,0.0073069565423528,0.0035778371213707,37.628641703548,0.00021622913362838,0.00021622913362838,0.00021622913362838,3633732.553938,0.015401964068576
11919200,0.99147368266878,0.015843869232709,0.0049323745899833,0.0066546850989101,0.0042568095438151,-0.0010553545273716,0.0010553615666304,3.3617627762324e-09,3.3616753024778e-09,1.037653101956e-09,5.3159544547698e-09,-0.0011780412713773,0.0011780473689339,-0.001178040928613,0.0011780470259534,-0.0011780398306645,0.0011780488167439,-0.0011780395167761,0.0011780485026492,-0.00098872589280134,0.00098873384998038,-0.00098872661489446,0.00098873457176923,9.1091217637594e-10,-3.1967366476545e-09,1.7815111599981e-09,-4.0034886652282e-09,-0.0017645352375325,0.0017645330099568,-0.0019553706670839,0.0019553717889169,-0.0019553721269858,0.0019553693584229,-0.0019553715728376,0.0019553699345811,-0.0019553730326559,0.0019553675039889,-0.0015202182924536,0.0015202203892737,-0.0015202248565877,0.0015202155856236,-0.0015852561082903,0.0015852559431056,-0.0015852610093938,0.0015852527607882,3.4765604186789e-09,3.4764720864545e-09,-0.0008577200352255,0.00085772797486084,4.510270985788e-10,6.3345589666499e-09,-0.00097103143849331,0.00097103825285197,-0.00097102945463465,0.00097104022426189,-0.00097103137015696,0.00097103818431536,-0.00097102940290944,0.00097104017234741,-0.00088123978428554,0.00088124876566055,-0.00088123974684947,0.00088124872851508,0.42516298576731,122718,2924,0.0043886696498258,0.0073245228622481,0.0035698719860513,37.105273785609,0.00021204219028487,0.00021204219028487,0.00021204219028487,3586697.841717,0.015400908113684
12419200,0.9936251486827,0.01586659828338,0.0049388944531114,0.0066646802308562,0.0042630235994122,-0.0010517693385938,0.00105177604978,3.2352355143916e-09,3.235148035387e-09,9.1531967747061e-10,5.1903438787926e-09,-0.0011771099662291,0.0011771157661406,-0.0011771096651002,0.0011771154647955,-0.0011771085277682,0.001177117212537,-0.0011771082543956,0.0011771169389581,-0.00098570493714754,0.00098571262818842,-0.00098570565626142,0.00098571334699823,9.2631846184214e-10,-3.1818703781029e-09,1.8276700379937e-09,-4.0195363160423e-09,-0.0017694116624606,0.0017694094649582,-0.0019598787256835,0.001959879892943,-0.0019598802455747,0.0019598774878091,-0.0019598796575094,0.0019598780682592,-0.0019598811773169,0.0019598756630267,-0.0015251521498124,0.0015251543394481,-0.0015251587804176,0.0015251494778124,-0.00158972499605,0.001589724843095,-0.0015897299033335,0.0015897216639937,3.2766470838168e-09,3.2765587788798e-09,-0.00085535597666324,0.00085536340666968,2.2448767367331e-10,6.1647421479896e-09,-0.00097148927139139,0.00097149559751599,-0.00097148727004278,0.00097149758710657,-0.00097148922939057,0.00097149555531537,-0.00097148724393682,0.00097149756081161,-0.00087860715760801,0.00087861573847851,-0.00087860711672149,0.00087861569788237,0.44663644431852,122718,2924,0.0043738329059133,0.0073446360499053,0.0035600999762343,36.802577399627,0.00020962061919702,0.00020962061919702,0.00020962061919702,3510421.6758656,0.015396358243852
12919200,0.99519037138716,0.015882106277793,0.0049433243449646,0.0066715164162803,0.0042672655165482,-0.001047507090204,0.0010475144400556,3.4689549514655e-09,3.468867473165e-09,1.1208071747664e-09,5.4661068836574e-09,-0.0011747295410731,0.0011747358490625,-0.0011747291705992,0.0011747354783723,-0.0011747280785038,0.001174737319184,-0.0011747277368125,0.0011747369772863,-0.00098186930235992,0.00098187751705847,-0.00098187001217824,0.00098187822657279,9.544415007026e-10,-3.2183520225549e-09,1.9031410619352e-09,-4.1024018201463e-09,-0.0017720856625786,0.0017720834576012,-0.0019626611030492,0.0019626623434194,-0.0019626625986638,0.0019626598013978,-0.0019626619967262,0.0019626604324546,-0.0019626634922567,0.0019626578903345,-0.0015274262313028,0.0015274285449772,-0.0015274329778381,0.0015274234916931,-0.0015916693071337,0.0015916691549652,-0.0015916742336347,0.001591665869615,3.6289260093455e-09,3.6288377144229e-09,-0.00085212462540683,0.00085213296384399,4.9640167335786e-10,6.6018165212116e-09,-0.00097019938624611,0.00097020643643241,-0.00097019732830876,0.00097020848191684,-0.0009701993004945,0.00097020635048077,-0.00097019725915003,0.00097020841256875,-0.00087519884012097,0.00087520822331176,-0.00087519879551025,0.00087520817899142,0.41875849256559,122718,2924,0.0043561823423793,0.007355657211693,0.0035467212968769,36.137126811714,0.00020429701449371,0.00020429701449371,0.00020429701449371,3453940.959914,0.015376051523309
13419200,0.99630554300945,0.015892907646964,0.0049464125499047,0.0066762603730532,0.0042702347240061,-0.0010442186167441,0.0010442271579232,3.915249479009e-09,3.9151619943185e-09,1.4716696271796e-09,6.0205578142091e-09,-0.0011708151745512,0.0011708224492914,-0.0011708146697959,0.0011708219443201,-0.0011708136436471,0.0011708239882457,-0.0011708131697232,0.0011708235141155,-0.00097844374423404,0.00097845297375633,-0.00097844444958909,0.00097845367880724,1.0053499206618e-09,-3.358493663971e-09,2.0404311294649e-09,-4.3258189996107e-09,-0.0017707407095922,0.0017707384182816,-0.0019626539878632,0.0019626553382193,-0.0019626554579456,0.0019626525166842,-0.0019626548364972,0.0019626532454619,-0.0019626563064957,0.0019626504238281,-0.0015246788225634,0.0015246813360397,-0.0015246858683166,0.0015246758797401,-0.0015890217274602,0.001589021550612,-0.001589026781697,0.0015890180203578,4.298238065908e-09,4.2981497498519e-09,-0.00084876855317973,0.00084877860604667,9.8129602269774e-10,7.4611463691551e-09,-0.00096615854400079,0.00096616698932505,-0.00096615635828193,0.00096616916094275,-0.00096615837242968,0.00096616681755367,-0.00096615620497875,0.00096616900745037,-0.000871852479622,0.00087186340068655,-0.00087185242980566,0.00087186335116034,0.40900439415344,122718,2924,0.0043425456544069,0.0073501109677036,0.0035327961296924,34.79658950705,0.0001935727160564,0.0001935727160564,0.0001935727160564,3461072.0942533,0.015342429821743
13919200,0.99712670986653,0.015900694889035,0.004948638988363,0.0066796803984448,0.0042723755022267,-0.0010414588649499,0.0010414668375467,3.7075114198983e-09,3.7074239291509e-09,1.226219640646e-09,5.845348108863e-09,-0.0011682530377379,0.0011682598142605,-0.0011682526007762,0.0011682593770828,-0.0011682514863742,0.001168261376502,-0.0011682510783801,0.0011682609683017,-0.00097565122333617,0.00097566003261051,-0.000975651936595,0.00097566074556535,1.029763407023e-09,-3.4093736148587e-09,2.119849778162e-09,-4.430606905118e-09,-0.001770400433858,0.0017703981170636,-0.0019628195758803,0.0019628209779828,-0.001962821174443,0.0019628181740847,-0.0019628204991094,0.0019628189167936,-0.0019628220975882,0.001962816112797,-0.0015238211075917,0.0015238237547044,-0.0015238283631277,0.0015238181423684,-0.0015881126418356,0.0015881124548397,-0.0015881178044071,0.0015881088817155,3.9691684413934e-09,3.9690801259967e-09,-0.00084616847913614,0.00084617767894485,5.669170054864e-10,7.2215397806824e-09,-0.00096378429564873,0.00096379194530716,-0.0009637820541077,0.00096379417359752,-0.00096378416596033,0.00096379181541861,-0.00096378194181595,0.00096379406111653,-0.00086913052432214,0.00086914080629191,-0.00086913047201174,0.00086914075427179,0.40047476240274,122718,2924,0.004331103274269,0.0073487005250653,0.0035220078001085,33.829544061882,0.00018583635249505,0.00018583635249505,0.00018583635249505,3450138.0978596,0.015318428030146
14419200,0.99773231530816,0.015906173766527,0.0049502028328882,0.0066820906456875,0.0042738802879511,-0.0010383143089464,0.0010383226670722,3.8520878502262e-09,3.8520003717608e-09,1.3272428008843e-09,6.0403085146623e-09,-0.0011653318877098,0.0011653389645675,-0.0011653314091679,0.0011653384858096,-0.0011653303053003,0.0011653405584474,-0.001165329856145,0.0011653401090859,-0.00097252071965179,0.00097252986675762,-0.00097252143064064,0.00097253057744251,1.0582873948701e-09,-3.4711059989768e-09,2.2080109985443e-09,-4.550730391075e-09,-0.001769313007345,0.0017693106584901,-0.001962094397495,0.0019620958700167,-0.0019620960179389,0.001962092946256,-0.001962095315348,0.0019620937409101,-0.001962096935708,0.0019620908170508,-0.0015223359946125,0.0015223387829288,-0.001522343433884,0.0015223329470852,-0.0015865840555303,0.001586583854184,-0.0015865892844909,0.001586580170598,4.1861294546922e-09,4.1860411253455e-09,-0.00084314279272059,0.00084315254508722,6.8008654899923e-10,7.5464079372108e-09,-0.00096100599164102,0.00096101405686473,-0.00096100367883254,0.00096101635595259,-0.00096100583562571,0.00096101390064927,-0.00096100354067378,0.00096101621760453,-0.00086604379205811,0.00086605460178705,-0.00086604373698867,0.00086605454700788,0.38210045494667,122718,2924,0.0043180653619347,0.0073441985071093,0.0035094547475486,32.643512297876,0.00017634809838301,0.00017634809838301,0.00017634809838301,3441688.6453688,0.015287876140118
14919200,0.99816670723838,0.015910258353681,0.0049513738296111,0.0066838764474013,0.0042750080766688,-0.0010339950437926,0.0010340048851992,4.4079299103037e-09,4.4078424404428e-09,1.7575216082044e-09,6.7422819083864e-09,-0.0011607611756939,0.0011607694395084,-0.0011607605312965,0.0011607687948951,-0.001160759502242,0.0011607711249874,-0.0011607588897341,0.0011607705122733,-0.00096811730480259,0.00096812772059288,-0.00096811800646783,0.00096812842195425,1.1357190676797e-09,-3.6505755103652e-09,2.4064382942561e-09,-4.8475170856217e-09,-0.0017659311435787,0.0017659286960822,-0.0019592532045197,0.0019592548437629,-0.001959254808661,0.0019592515572154,-0.0019592540740969,0.001959252484171,-0.0019592556781543,0.0019592491975249,-0.0015183830203985,0.0015183861053047,-0.0015183908716286,0.0015183797167406,-0.0015827056982746,0.0015827054790023,-0.0015827110981684,0.001582701464618,5.0353735440373e-09,5.0352851949684e-09,-0.00083860989496637,0.00083862181365168,1.276959319534e-09,8.6559820339626e-09,-0.00095622232757025,0.00095623213207963,-0.00095621984019277,0.00095623460370898,-0.00095622206710382,0.00095623187141306,-0.0009562195995741,0.00095623436290112,-0.00086154998754982,0.00086156275817221,-0.00086154992690805,0.00086156269782082,0.39678962402156,122718,2924,0.0043001500971768,0.0073302163248132,0.0034906417299885,30.580718436895,0.00015984574749516,0.00015984574749516,0.00015984574749516,3450874.0615919,0.015236390620903
15419200,0.99846269690915,0.015913676675731,0.0049523646126206,0.0066853497068527,0.004275962356258,-0.0010253392039028,0.0010253514379899,5.2994528860083e-09,5.2993654227228e-09,2.4162012667172e-09,7.912976975691e-09,-0.0011534967009138,0.0011535068168187,-0.0011534957974053,0.0011535059130942,-0.0011534948574984,0.0011535086742989,-0.0011534939893098,0.001153507805904,-0.00095968646661658,0.00095969894680201,-0.00095968714611969,0.00095969962600114,1.3058963387044e-09,-3.9713152014584e-09,2.8019197972147e-09,-5.3869353039419e-09,-0.0017611321825586,0.0017611295905197,-0.001954093658153,0.001954095648661,-0.0019540952835318,0.0019540917371322,-0.0019540944750712,0.0019540928942127,-0.0019540961003659,0.0019540889825851,-0.0015137614072503,0.0015137650939216,-0.0015137700390967,0.0015137576623732,-0.0015779396628405,0.0015779394602363,-0.0015779453960943,0.0015779348178177,6.4052273877772e-09,6.4051390586503e-09,-0.000830214547804,0.00083022996066069,2.1777837680537e-09,1.0516160669415e-08,-0.00094930982136765,0.0009493223438133,-0.00094930700896501,0.00094932513746989,-0.00094930939801864,0.00094932192026416,-0.00094930660828189,0.00094932473659752,-0.00085311885197808,0.00085313483266873,-0.00085311878221243,0.00085313476319329,0.48651353790675,122718,2924,0.004264260481042,0.0073103352336022,0.0034558130804264,27.073064063993,0.00013178451251194,0.00013178451251194,0.00013178451251194,3428748.148269,0.015144424187567
15919200,0.99869013149343,0.015916897540676,0.0049533034542919,0.006686726121116,0.0042768679652679,-0.0010166241960298,0.001016633547163,4.2180532956981e-09,4.2179657872615e-09,1.3655754809024e-09,6.7841989303207e-09,-0.0011492436699584,0.0011492513025618,-0.0011492431078549,0.0011492507402421,-0.0011492418607808,0.0011492531320292,-0.0011492413265396,0.0011492525975814,-0.00095198310765703,0.00095199327270562,-0.00095198380111004,0.00095199396585491,1.3341750572208e-09,-3.8964991914479e-09,2.9095717049934e-09,-5.3927152423099e-09,-0.0017624013217853,0.001762398831511,-0.0019534673959579,0.0019534694705771,-0.0019534694066327,0.0019534659170729,-0.0019534684513664,0.0019534670156896,-0.0019534704619567,0.0019534634620865,-0.0015164466322354,0.001516450561721,-0.0015164554906027,0.0015164431156855,-0.0015799156937664,0.0015799155250555,-0.0015799215189544,0.0015799110529909,4.741521779768e-09,4.7414335465241e-09,-0.00082345795317932,0.00082346910461852,4.8715009669306e-10,8.8912431432695e-09,-0.00094714295926212,0.00094715166875858,-0.00094714013504926,0.00094715447854251,-0.00094714274875171,0.00094715145804799,-0.00094713994270354,0.00094715428600742,-0.00084612220979687,0.00084613470622087,-0.00084612214185035,0.0008461346385643,0.59571470761932,122718,2924,0.0042281491370328,0.0073154847137763,0.0034278075783877,25.355152641171,0.00011804122112937,0.00011804122112937,0.00011804122112937,3322296.3747087,0.015084591442818
16419200,0.99887466984197,0.015919098122423,0.0049539363115098,0.0066876800308037,0.0042774817801092,-0.0010078565351755,0.001007864598417,3.7251132409872e-09,3.7250257180301e-09,9.8293785255016e-10,6.1727276618188e-09,-0.0011450489122465,0.0011450554907212,-0.0011450484953642,0.0011450550736227,-0.0011450471798986,0.0011450572428675,-0.0011450467883779,0.0011450568511403,-0.00094435163562748,0.0009443606876438,-0.00094435233134956,0.00094436138306191,1.2914654982626e-09,-3.7215460729103e-09,2.8699257398563e-09,-5.2240412373026e-09,-0.0017653424668211,0.001765340105797,-0.001954999929545,0.0019550019770536,-0.0019550020228815,0.0019549986621728,-0.0019550010219967,0.00195499971387,-0.0019550031152485,0.0019549963988899,-0.0015201993093075,0.0015202032413684,-0.0015202080136754,0.001520196042689,-0.0015829126563013,0.0015829124797342,-0.0015829183239702,0.0015829082740315,3.9862520546992e-09,3.9861639496252e-09,-0.00081728064476101,0.00081728988597486,-1.5832768969776e-10,8.024861445097e-09,-0.00094547308508625,0.00094548016097773,-0.00094547033803027,0.00094548289552502,-0.00094547296584436,0.00094548004153562,-0.00094547023507516,0.00094548279238074,-0.00083971420689211,0.000839725044484,-0.00083971413798929,0.00083972497587063,0.50210013400473,122718,2924,0.0041918315749507,0.0073275491313907,0.003402217827104,24.412728987714,0.00011050183190171,0.00011050183190171,0.00011050183190171,3203598.8079516,0.015034021582021
16919200,0.99902803339832,0.015921482689221,0.0049546343167881,0.0066886843205541,0.0042781640518793,-0.0010078169018882,0.0010078245220718,3.5697590690222e-09,3.5696714923028e-09,9.1093729897243e-10,5.9017429558038e-09,-0.0011406528385618,0.0011406591753941,-0.0011406524615556,0.0011406587981719,-0.0011406511717695,0.0011406608620802,-0.0011406508195075,0.001140660509612,-0.00094355562332076,0.00094356427327625,-0.00094355634081887,0.00094356499047059,1.1745485721121e-09,-3.6395204742066e-09,2.7103899569179e-09,-5.1002828556244e-09,-0.0017615900169157,0.0017615876203818,-0.0019549175460096,0.0019549193961622,-0.0019549195951141,0.001954916229379,-0.0019549186124532,0.0019549172390792,-0.0019549206614734,0.0019549140721972,-0.0015129786728298,0.0015129823583275,-0.0015129871544095,0.0015129754907897,-0.001576214679182,0.0015762143647815,-0.0015762202146421,0.001576210420148,3.7186986370795e-09,3.7186104786881e-09,-0.00081604625437059,0.0008160548140667,-2.8662786374492e-10,7.6091039382586e-09,-0.00093980082731986,0.00093980747789501,-0.00093979817703059,0.00093981011597983,-0.00093980072965946,0.00093980738003455,-0.00093979809566376,0.00093981003442399,-0.00083864851764251,0.00083865869269795,-0.00083864844927453,0.00083865862461922,0.65164127745866,122718,2924,0.0041916335684759,0.0073121308693931,0.0033970587412652,23.780229082394,0.00010544183265915,0.00010544183265915,0.00010544183265915,3278327.4739736,0.015012903411588
17419200,0.99914834517403,0.015923164435593,0.0049551205525996,0.0066894063819176,0.0042786375010758,-0.00099677570895432,0.00099678518808401,4.2358362379745e-09,4.2357487361383e-09,1.5670249112367e-09,6.6376421740584e-09,-0.0011358903746388,0.0011358981635309,-0.0011358898017818,0.0011358975904577,-0.0011358886765942,0.0011358998766849,-0.001135888132089,0.001135899331973,-0.0009336339522016,0.00093364406372305,-0.00093363464151388,0.00093364475273153,1.2491507873597e-09,-3.631229977005e-09,2.8194597814979e-09,-5.1274370523177e-09,-0.0017643223939637,0.0017643200793578,-0.0019549159505122,0.0019549179692383,-0.0019549178257528,0.0019549145129533,-0.0019549168651473,0.0019549156011973,-0.0019549187403031,0.0019549121448132,-0.001518059967462,0.0015180638386003,-0.0015180684491105,0.00151805671449,-0.0015802805295759,0.0015802803119649,-0.0015802859734679,0.0015802761506302,4.7430929599203e-09,4.7430048455138e-09,-0.00080802394339106,0.00080803516521539,6.6442992571009e-10,8.7227705348192e-09,-0.00093810370633156,0.00093811251525488,-0.00093810099668735,0.00093811521101807,-0.00093810348644639,0.0009381122951696,-0.00093810079465913,0.00093811500880064,-0.0008299972813047,0.0008300096898447,-0.00082999719719772,0.00083000960602703,0.58772740813402,122718,2924,0.0041459011447698,0.0073232915219695,0.0033638239099115,21.984164040615,9.1073312324917e-05,9.1073312324917e-05,9.1073312324917e-05,3127738.2938798,0.014944121968024
17919200,0.99924026408656,0.015924239515144,0.0049554288622037,0.0066898704991423,0.0042789401537982,-0.0009915036375756,0.00099151436810001,4.7068577064523e-09,4.7067701440215e-09,1.9169724665239e-09,7.2341605924773e-09,-0.0011276708133629,0.0011276796435061,-0.0011276700974259,0.0011276789273531,-0.0011276690336204,0.0011276814403738,-0.0011276683480984,0.0011276807546455,-0.00092795664413272,0.00092796783667165,-0.00092795734277736,0.00092796853501296,1.2898243637511e-09,-3.8216760891247e-09,2.940471463027e-09,-5.3933556743922e-09,-0.0017582574352443,0.0017582549754419,-0.001951798693296,0.0019518007868869,-0.0019518005405929,0.0019517970306534,-0.0019517995663745,0.0019517982125066,-0.0019518014135872,0.001951794456174,-0.0015090979861526,0.001509102010617,-0.0015091068035535,0.0015090944683217,-0.0015716303573625,0.001571630084948,-0.0015716359824984,0.0015716256536763,5.4190016812258e-09,5.4189135507885e-09,-0.00080200628444365,0.00080201924928619,1.1435664939168e-09,9.6019010675833e-09,-0.00092913307587392,0.00092914333404357,-0.00092913022993467,0.0009291461641448,-0.00092913276080716,0.00092914301877676,-0.00092912993479181,0.00092914586881288,-0.00082413567872841,0.00082414964980151,-0.00082413558347944,0.00082414955484198,0.4915601615792,122718,2924,0.004124010548865,0.007298274213855,0.0033388250584717,19.504454332029,7.1235634656234e-05,7.1235634656234e-05,7.1235634656234e-05,3175416.0172744,0.014871121175318
18419200,0.99931333018495,0.015925133907702,0.0049556869377041,0.0066902539210747,0.0042791930489233,-0.00099039295125727,0.00099040304904802,4.4956142223876e-09,4.4955266198746e-09,1.6309947107863e-09,7.0677103268304e-09,-0.0011221880452031,0.0011221963942721,-0.0011221873931495,0.0011221957420027,-0.001122186229043,0.0011221982316443,-0.0011221856057448,0.0011221976081402,-0.00092589446421132,0.00092590522865333,-0.00092589518758045,0.00092590595171868,1.2875000208758e-09,-3.9458073298828e-09,2.9860758249039e-09,-5.5629230401079e-09,-0.0017516959176707,0.00175169333382,-0.0019481058952153,0.0019481079692352,-0.0019481078859455,0.0019481042244634,-0.0019481068685175,0.0019481054202914,-0.0019481088591637,0.001948101675421,-0.0015000622053613,0.0015000662799201,-0.0015000713030067,0.0015000585908989,-0.0015631980068111,0.0015631976589484,-0.0015632038298597,0.0015631931838481,5.0749081470801e-09,5.0748199922507e-09,-0.00079901058825708,0.00079902263149321,6.9354445519296e-10,9.3569577332833e-09,-0.00092181236367192,0.00092182185374616,-0.00092180945162486,0.00092182475040425,-0.00092181208829815,0.00092182157817245,-0.0009218091958502,0.00092182449444058,-0.0008212792780492,0.0008212925731622,-0.00082127918062613,0.00082129247602856,0.51421839069127,122718,2924,0.0041193588323497,0.0072712324549561,0.0033263406842307,17.480878168212,5.5047025345695e-05,5.5047025345695e-05,5.5047025345695e-05,3266108.8927148,0.014826264065403
18919200,0.99937709314116,0.01592602597366,0.004955945750764,0.006690634814523,0.0042794454083733,-0.00098789266239037,0.00098790040770884,3.6248137425166e-09,3.6247261352233e-09,8.7550004182101e-10,6.055955630536e-09,-0.0011211957077642,0.0011212021136044,-0.0011211953263188,0.0011212017319431,-0.001121193979889,0.0011212038638165,-0.0011211936223651,0.0011212035060862,-0.0009235197145409,0.00092352853924646,-0.00092352044469006,0.00092352926909171,1.2324793438962e-09,-3.7704605541359e-09,2.8735369508304e-09,-5.3345130980513e-09,-0.0017521592197789,0.0017521567520677,-0.0019476876634072,0.0019476896350557,-0.0019476898323914,0.0019476863279378,-0.0019476887790488,0.0019476874032119,-0.0019476909479487,0.001947684095995,-0.0015015276967551,0.0015015316391838,-0.0015015365712713,0.0015015243834145,-0.0015643698004886,0.001564369468083,-0.0015643755206958,0.0015643653357103,3.7595765749796e-09,3.7594884497452e-09,-0.0007970764800587,0.00079708512686316,-4.3860197792241e-10,7.8509346591514e-09,-0.00092151216276013,0.00092151878067986,-0.00092150938215531,0.00092152154926666,-0.00092151206125445,0.00092151867897404,-0.00092150929679996,0.00092152146372228,-0.00081902577450428,0.00081903616091661,-0.00081902568810302,0.00081903607480458,0.5877987766322,122718,2924,0.0041089941714864,0.0072731136708206,0.0033183139362348,16.875470393863,5.0203763150902e-05,5.0203763150902e-05,5.0203763150902e-05,3227687.9533227,0.014809522180301
19419200,0.99943722906094,0.015926966925129,0.004956219654577,0.0066910343483129,0.0042797129222395,-0.00098520899483051,0.00098521457205814,2.8121109411506e-09,2.8120233170494e-09,2.7850214264189e-10,4.9980873731557e-09,-0.0011218767280592,0.0011218814189574,-0.0011218765834083,0.0011218812740903,-0.0011218751526957,0.0011218830137355,-0.0011218750288805,0.0011218828897139,-0.00092164927152555,0.00092165621856847,-0.0009216500038042,0.00092165695054344,1.1108739126233e-09,-3.4522138020028e-09,2.6075789411356e-09,-4.8788444055936e-09,-0.0017565183876695,0.0017565161101994,-0.0019504218617997,0.0019504236165862,-0.0019504240546544,0.0019504208360155,-0.001950423028041,0.001950421742782,-0.0019504252208111,0.0019504189621122,-0.0015072537373644,0.001507257315556,-0.001507262009588,0.0015072508634289,-0.0015694766784149,0.0015694763553193,-0.0015694820793742,0.0015694727639617,2.5377912000095e-09,2.5377031543164e-09,-0.00079626107991142,0.00079626660157406,-1.2981630993614e-09,6.2475915591449e-09,-0.00092406619280274,0.00092407030503771,-0.00092406366483652,0.00092407282386358,-0.00092406624436378,0.00092407035639856,-0.00092406372971136,0.00092407288854944,-0.00081797477519761,0.00081798233462447,-0.0008179746994085,0.00081798225912407,0.65664642788028,122718,2924,0.0040978953271815,0.0072910676109288,0.003314959923847,17.545332524564,5.556266019651e-05,5.556266019651e-05,5.556266019651e-05,3139715.1129172,0.014813094589903
19919200,0.9994952158761,0.015927851057446,0.0049564763230101,0.0066914099537657,0.0042799647806704,-0.00098301337096534,0.00098301811825759,2.4973453688794e-09,2.4972577495536e-09,1.6048758950842e-10,4.4700741450091e-09,-0.0011223553445334,0.0011223594593088,-0.0011223552830718,0.001122359397631,-0.0011223539017183,0.0011223609166074,-0.0011223538609977,0.0011223608756805,-0.00092020205921392,0.00092020820386948,-0.00092020279078793,0.00092020893514,9.848739641882e-10,-3.1750786875256e-09,2.3129630838008e-09,-4.4389135395325e-09,-0.0017613954461668,0.0017613933145488,-0.001954502904274,0.0019545044228976,-0.0019545049551663,0.0019545019914916,-0.0019545040117716,0.0019545027601719,-0.0019545060625793,0.0019545003286666,-0.0015126206583121,0.0015126237966953,-0.0015126282584246,0.0015126181119032,-0.0015742964836847,0.0015742961587005,-0.0015743015341806,0.0015742930106325,2.0644630623426e-09,2.0643750462235e-09,-0.00079604392193145,0.00079604824512191,-1.4125213864707e-09,5.3963822899891e-09,-0.00092642013741271,0.00092642344367702,-0.00092641785556166,0.00092642571747099,-0.00092642024416884,0.000926423550233,-0.00092641797469935,0.00092642583641944,-0.00081755621960582,0.00081756253653413,-0.00081755614719485,0.0008175624644123,0.63949909152815,122718,2924,0.0040888235387155,0.0073111809327629,0.0033140917609303,18.681064691898,6.4648517535183e-05,6.4648517535183e-05,6.4648517535183e-05,3059836.0465934,0.014823431655312
20419200,0.99954699647029,0.015928704443619,0.00495672530918,0.0066917689658333,0.0042802101686057,-0.00098147355062503,0.00098148031926124,3.2406061888708e-09,3.2405185832366e-09,9.2781006941793e-10,5.2163615659701e-09,-0.0011198581880102,0.0011198640132382,-0.0011198579040425,0.0011198637290545,-0.0011198567461676,0.0011198654645735,-0.0011198564875736,0.0011198652057733,-0.00091860539797512,0.00091861312451777,-0.00091860612102634,0.00091861384726557,9.6085484354409e-10,-3.1649156417055e-09,2.2070047007566e-09,-4.3469570993268e-09,-0.0017612626356865,0.0017612604902053,-0.0019558120285032,0.0019558134824147,-0.0019558137774718,0.0019558108490543,-0.0019558129417213,0.0019558116274114,-0.0019558146906054,0.0019558089939519,-0.0015110507880806,0.0015110537196399,-0.0015110580924693,0.0015110481404895,-0.0015727038433427,0.0015727035267729,-0.001572708743009,0.0015727003043142,3.1630079374496e-09,3.1629199119361e-09,-0.00079474486388792,0.00079475203760007,-2.1900707601357e-10,6.4046208067941e-09,-0.00092415888434823,0.00092416472046423,-0.00092415665798912,0.00092416693623581,-0.00092415884730781,0.00092416468322382,-0.00092415663596234,0.00092416691401997,-0.00081618327416675,0.00081619186194032,-0.00081618319133855,0.00081619177940112,0.69004788769245,122718,2924,0.0040824394184688,0.0073106556862461,0.0033087033721035,18.601943392253,6.4015547138023e-05,6.4015547138023e-05,6.4015547138023e-05,3060144.1233259,0.014810943294452
20919200,0.99959006529362,0.015929366886872,0.0049569174932983,0.0066920497198915,0.0042803996736818,-0.00097530515311807,0.00097531404688661,4.0213415950596e-09,4.0212539799484e-09,1.605204970886e-09,6.146232921215e-09,-0.0011155899895757,0.0011155975074461,-0.0011155894785826,0.001115596996237,-0.0011155884611073,0.0011155990438654,-0.0011155879793623,0.0011155985619141,-0.00091278255594936,0.00091279203532555,-0.0009127832681832,0.00091279274725601,1.04644775321e-09,-3.3073827496096e-09,2.3041238465981e-09,-4.4980877501539e-09,-0.0017610101990334,0.0017610079993118,-0.0019552517300506,0.0019552533109915,-0.0019552533101937,0.001955250316119,-0.0019552525222928,0.0019552511664871,-0.0019552541023513,0.0019552481715153,-0.001510994598461,0.001510997635158,-0.0015110020272307,0.0015109917045853,-0.001572265262587,0.001572265024307,-0.0015722702483348,0.0015722614451762,4.323735259069e-09,4.3236472509529e-09,-0.00078983699353617,0.00078984716540556,8.0441341507528e-10,7.7176480368477e-09,-0.00092113526756458,0.00092114358799118,-0.0009211329389267,0.00092114590365639,-0.00092113508473487,0.00092114340496146,-0.00092113277348768,0.00092114573802839,-0.00081099022100369,0.00081100136655374,-0.00081099011913859,0.00081100126497773,0.64466974006305,122718,2924,0.0040568772639083,0.0073095694149308,0.0032883544389295,17.278371401991,5.3426971215929e-05,5.3426971215929e-05,5.3426971215929e-05,3006969.079552,0.014763263021103
21419200,0.99962463091169,0.015929895906511,0.0049570711641082,0.0066922731164969,0.0042805516259063,-0.00097114094147133,0.00097115116484287,4.5218143651438e-09,4.5217267716359e-09,1.9309297967584e-09,6.8373140998652e-09,-0.0011094113038112,0.0011094198698444,-0.0011094106480131,0.0011094192138306,-0.0011094096550765,0.0011094215292062,-0.0011094090304993,0.0011094209044228,-0.00090831465628118,0.00090832531817169,-0.00090831537497488,0.00090832603656215,1.1453946240393e-09,-3.5589967173874e-09,2.4788423289508e-09,-4.8198829267674e-09,-0.0017563535109258,0.0017563511637066,-0.00195250758934,0.0019525093177721,-0.0019525091728555,0.0019525059818849,-0.0019525083739647,0.0019525069233379,-0.0019525099573956,0.0019525035873515,-0.0015045199573396,0.0015045232131917,-0.0015045278175134,0.0015045167452022,-0.0015659739778539,0.0015659737641963,-0.001565979247184,0.001565969781122,5.0438685162791e-09,5.0437804829776e-09,-0.00078506868613469,0.00078508070636548,1.2745455999186e-09,8.6983467451855e-09,-0.00091443272843527,0.00091444252976463,-0.00091443022664471,0.00091444501670309,-0.00091443245036103,0.00091444225149046,-0.00091442996782992,0.00091444475769926,-0.00080626640970338,0.00080627924642012,-0.00080626629408099,0.00080627913108658,0.64095610021346,122718,2924,0.0040395867404292,0.0072903542986196,0.0032685457266181,15.232925962445,3.7063407699564e-05,3.7063407699564e-05,3.7063407699564e-05,3039547.1730845,0.014706106019405
21919200,0.9996540235584,0.015930332921067,0.0049571978382119,0.0066924583571497,0.0042806767257055,-0.0009677798080793,0.00096778873257982,4.0493966008679e-09,4.049308999412e-09,1.4095705114579e-09,6.3958574550039e-09,-0.0011059459651517,0.0011059534179647,-0.0011059454570394,0.0011059529096365,-0.0011059442948424,0.0011059551033272,-0.0011059438146503,0.001105954622929,-0.00090487701769132,0.00090488669356209,-0.00090487774521467,0.00090488742078207,1.1756395230196e-09,-3.6207922204596e-09,2.5385216347301e-09,-4.9098969199606e-09,-0.0017545127848323,0.0017545104071291,-0.0019511094187364,0.0019511111789442,-0.001951111208538,0.0019511079718476,-0.0019511103535439,0.0019511088882744,-0.0019511121432609,0.0019511056810786,-0.001502332569959,0.0015023359183598,-0.001502340647107,0.001502329365175,-0.0015637164677554,0.0015637162700824,-0.0015637219083234,0.0015637122709509,4.3251374238864e-09,4.3250494059627e-09,-0.00078180493418651,0.00078181508303523,4.9011985243965e-10,8.0443398886837e-09,-0.00091113292406196,0.00091114106598836,-0.00091113038331785,0.00091114359363102,-0.00091113274072597,0.0009111408824524,-0.00091113021743872,0.00091114342756286,-0.00080285219057669,0.00080286354347647,-0.00080285207992588,0.00080286343311458,0.62311101531201,122718,2924,0.0040256393612433,0.0072827427580056,0.0032549893900266,13.996984675467,2.7175877403736e-05,2.7175877403736e-05,2.7175877403736e-05,3033923.423532,0.014670476342641
22419200,0.99968253808707,0.01593077608079,0.0049573266638732,0.0066926454529014,0.0042808039640156,-0.00096933486157365,0.00096934024067912,2.7390545481939e-09,2.7389669285644e-09,3.1159941715501e-10,4.8093938845534e-09,-0.0011067866280029,0.0011067912374218,-0.0011067865067761,0.0011067911159793,-0.0011067851236775,0.0011067927579728,-0.0011067850239543,0.0011067926580435,-0.00090636098067947,0.00090636770092376,-0.00090636171992309,0.00090636843986403,1.0206319188072e-09,-3.320878325035e-09,2.2376042796664e-09,-4.4704794175107e-09,-0.0017559919188243,0.0017559896801443,-0.0019531672316841,0.0019531686951739,-0.0019531692041546,0.0019531662077118,-0.001953168343144,0.0019531669124271,-0.00195317031553,0.0019531644248658,-0.001503361733899,0.0015033646597207,-0.0015033692731056,0.0015033590031183,-0.0015647156535074,0.0015647154098791,-0.001564720859802,0.0015647120618977,2.3596484758588e-09,2.359560458748e-09,-0.00078339483048277,0.00078339991795642,-1.0954101262961e-09,5.674677915155e-09,-0.00091205161648687,0.00091205561196485,-0.00091204934650084,0.0009120578734179,-0.00091205168179009,0.00091205567706815,-0.00091204942479222,0.00091205795152027,-0.00080436235925307,0.00080436929088853,-0.00080436227618914,0.00080436920811345,0.65096373206224,122718,2924,0.0040320815293071,0.0072888770323004,0.0032615750670672,14.849372863238,3.3994982905904e-05,3.3994982905904e-05,3.3994982905904e-05,3034590.7475388,0.014689915970439
22919200,0.99970950629319,0.015931153926036,0.0049574358178627,0.0066928062973797,0.0042809118107938,-0.00096845662973647,0.00096846252646463,2.9234454435609e-09,2.9233578390264e-09,6.0152332773186e-10,4.8962102404322e-09,-0.0011072114289795,0.0011072165308163,-0.0011072112455979,0.0011072163472189,-0.0011072099872464,0.0011072179836223,-0.0011072098275506,0.0011072178237204,-0.00090575865733599,0.00090576570722315,-0.000905759390236,0.00090576643981995,9.5832429379182e-10,-3.1756158374101e-09,2.0704404154077e-09,-4.2237623407245e-09,-0.0017582866299017,0.0017582844711025,-0.001954939977322,0.0019549413243638,-0.0019549417526117,0.0019549389011391,-0.0019549409723202,0.0019549395545185,-0.0019549427475253,0.0019549371311945,-0.00150615280303,0.0015061554676157,-0.0015061599099709,0.0015061501957837,-0.0015672142029026,0.0015672139709845,-0.0015672191679238,0.0015672107943512,2.6387006142502e-09,2.6386126157206e-09,-0.00078341513181465,0.00078342095604982,-6.1928931910699e-10,5.7485470882203e-09,-0.00091337121785084,0.00091337597527369,-0.00091336907910748,0.00091337810483236,-0.000913371245228,0.00091337600245092,-0.00091336912019302,0.00091337814572888,-0.00080418997477912,0.00080419736702111,-0.00080418988780121,0.00080419728033209,0.58748017292924,122718,2924,0.0040284562593634,0.0072983389414966,0.0032616748143269,15.357049302479,3.805639441983e-05,3.805639441983e-05,3.805639441983e-05,2995424.8859052,0.014695947936477
23419200,0.9997346987437,0.015931517603496,0.0049575413496809,0.0066929599897167,0.0042810162640981,-0.00097073579219645,0.00097074197919073,3.0341459644033e-09,3.0340583610876e-09,7.5489035062164e-10,4.9582211997458e-09,-0.0011069225860354,0.001106927981006,-0.0011069223694563,0.0011069277642111,-0.0011069211723825,0.0011069294036823,-0.0011069209806382,0.001106929211732,-0.00090766601279409,0.00090767326679952,-0.00090766675080678,0.0009076740045089,9.103747196184e-10,-3.1285304821883e-09,1.9256583396948e-09,-4.0808733608259e-09,-0.0017573195990888,0.0017573174385657,-0.0019556071763894,0.0019556084006385,-0.0019556088266546,0.0019556060361236,-0.001955608116393,0.00195560663403,-0.0019556097665739,0.0019556042694159,-0.0015037204213059,0.0015037228311881,-0.0015037272441389,0.0015037178424536,-0.001565061961116,0.001565061727492,-0.0015650668291951,0.0015650586436687,2.7816476152696e-09,2.7815595749946e-09,-0.00078479348855522,0.00078479968881204,-3.3775339371861e-10,5.7481036223184e-09,-0.0009122408214734,0.00091224601487105,-0.00091223877526936,0.00091224805142035,-0.00091224082591396,0.00091224601911169,-0.00091223879399264,0.00091224806995462,-0.0008056963257161,0.00080570392824293,-0.0008056962384892,0.00080570384130498,0.60459639632209,122718,2924,0.0040378908949034,0.0072943971718097,0.0032673768472657,15.705478710668,4.084382968534e-05,4.084382968534e-05,4.084382968534e-05,3040669.1146659,0.014707291530977
23919200,0.99975952613089,0.015931940149283,0.0049576648444229,0.0066931371326832,0.0042811381721772,-0.00097233686442176,0.00097234141587032,2.424262561634e-09,2.4241749865468e-09,2.6909962949067e-10,4.2008542038465e-09,-0.0011095868531943,0.0011095909351886,-0.0011095868132252,0.0011095908950037,-0.0011095855306193,0.0011095922660612,-0.0011095855129562,0.001109592248192,-0.00090940841611689,0.00090941428296062,-0.00090940915554969,0.00090941502209019,8.3486276192746e-10,-2.9490053775571e-09,1.7196233179822e-09,-3.7747703842382e-09,-0.0017607401953276,0.0017607381351674,-0.0019583734470077,0.0019583744999834,-0.0019583751246843,0.0019583725214747,-0.001958374451127,0.0019583729799311,-0.001958376128719,0.0019583710013232,-0.0015078664206344,0.0015078685189438,-0.0015078728229474,0.0015078641070313,-0.001568965674664,0.0015689654688706,-0.0015689703800878,0.0015689627198801,1.8742494843527e-09,1.8741614397859e-09,-0.0007870607895301,0.0007870646615387,-9.868866555254e-10,4.5680242144591e-09,-0.00091559166842586,0.00091559499439015,-0.00091558980301341,0.00091559685232732,-0.00091559178781902,0.0009155951135833,-0.00091558993452756,0.00091559698365248,-0.00080773156518515,0.00080773707243103,-0.00080773148885144,0.00080773699638617,0.71228945632067,122718,2924,0.0040445432494205,0.0073085217154802,0.0032767947628097,17.003554314537,5.1228434516293e-05,5.1228434516293e-05,5.1228434516293e-05,3008118.1715552,0.014737938875053
24419200,0.99978320178962,0.01593232406552,0.0049577765266601,0.0066932989296,0.0042812486092598,-0.00096908160597281,0.00096908681966592,2.6619419368172e-09,2.6618543770174e-09,5.6354108295123e-10,4.3995253711669e-09,-0.0011107565804576,0.0011107612386765,-0.0011107564627934,0.0011107611207964,-0.0011107552859214,0.0011107625374936,-0.0011107551928382,0.0011107624442042,-0.00090710514020894,0.00090711148531244,-0.0009071058685928,0.00090711221339266,8.1756972304146e-10,-2.8644529447523e-09,1.6180991503581e-09,-3.6079366598352e-09,-0.0017660440758272,0.0017660420811432,-0.0019615065162106,0.0019615075221915,-0.0019615080256008,0.0019615055394647,-0.0019615074235977,0.0019615059649575,-0.0019615089329031,0.0019615039821313,-0.0015149919300404,0.0015149938603412,-0.0015149980309055,0.0015149896789436,-0.001575372908717,0.0015753727553927,-0.0015753774614175,0.0015753700574461,2.2431566794525e-09,2.2430686426415e-09,-0.0007863183155371,0.00078632314546841,-4.9415989560734e-10,4.8066305875603e-09,-0.00091910514161318,0.00091910937136718,-0.0009191033578089,0.00091911114693363,-0.00091910521469973,0.00091910944425371,-0.00091910344379468,0.00091911123273031,-0.00080670655717529,0.00080671276177447,-0.00080670647253344,0.00080671267742154,0.6789410524186,122718,2924,0.0040310913749842,0.0073303587537743,0.0032737602487868,17.881148206499,5.824918565199e-05,5.824918565199e-05,5.824918565199e-05,2902313.5025876,0.014743393786739
24919200,0.999805130136,0.015932642618034,0.004957868866267,0.0066934333147974,0.0042813404369694,-0.0009695026469567,0.00096950858269896,2.931091193051e-09,2.9310036702042e-09,8.1903367570842e-10,4.6874931010093e-09,-0.0011097169728759,0.0011097222410481,-0.0011097167781095,0.0011097220460661,-0.0011097156659481,0.0011097235511952,-0.0011097154973452,0.0011097233823864,-0.00090746873930778,0.00090747566897555,-0.00090746946981398,0.00090747639917867,8.1584246898436e-10,-2.8912653209467e-09,1.5658666206143e-09,-3.5834825651851e-09,-0.0017663434360249,0.0017663414135561,-0.0019633074509782,0.0019633084213887,-0.0019633088539295,0.0019633063722752,-0.0019633083027946,0.0019633067847514,-0.0019633097056612,0.0019633047355387,-0.0015137876891759,0.0015137895047172,-0.0015137936858968,0.0015137853739873,-0.0015742169050113,0.0015742167700774,-0.0015742214496865,0.0015742140176764,2.6207152072398e-09,2.6206271580974e-09,-0.00078671607239624,0.00078672188273419,-8.1861451188858e-11,5.1514056313358e-09,-0.00091806096852074,0.00091806607951386,-0.00091805920503368,0.00091806783381929,-0.00091806099005044,0.00091806610084357,-0.00091805924046374,0.00091806786906021,-0.00080713593353129,0.00080714291808143,-0.0008071358447196,0.00080714282955855,0.60789483588396,122718,2924,0.0040328341541141,0.0073316315624695,0.0032754089528773,18.351613218208,6.2012905745666e-05,6.2012905745666e-05,6.2012905745666e-05,2915746.8879556,0.014748114454161
25419200,0.99982666679519,0.015933022752171,0.0049579803461497,0.006693591234551,0.0042814511714705,-0.00097465991163575,0.00097466399214118,2.2475282546042e-09,2.2474406925613e-09,2.2832185048486e-10,3.8731513022393e-09,-0.0011118855595407,0.0011118893342617,-0.0011118855681933,0.0011118893426987,-0.0011118843293951,0.001111890568888,-0.0011118843608049,0.001111890600092,-0.00091208715727521,0.00091209255477828,-0.00091208789840078,0.00091209329560094,7.3790103057121e-10,-2.7631226395589e-09,1.3694035804253e-09,-3.339461052816e-09,-0.001767444393081,0.0017674424184027,-0.001966232882744,0.0019662336658619,-0.0019662343663051,0.0019662320137388,-0.0019662338389185,0.001966232286229,-0.0019662353223953,0.0019662306340067,-0.0015133847126531,0.0015133862194436,-0.00151339038115,0.0015133826153263,-0.0015740872724263,0.0015740871369282,-0.0015740917335372,0.0015740847012467,1.581477198891e-09,1.5813891385724e-09,-0.00079087979614435,0.00079088293594094,-8.947866570583e-10,3.8741099575505e-09,-0.00091936381042571,0.00091936675231225,-0.00091936220676347,0.00091936834917333,-0.00091936396112706,0.00091936690281348,-0.00091936236905153,0.00091936851127237,-0.00081127472784942,0.00081127935988231,-0.0008112746556926,0.00081127928801478,0.7372586897946,122718,2924,0.0040542018648844,0.0073362543816947,0.0032926643887194,19.918994920548,7.4551959364385e-05,7.4551959364385e-05,7.4551959364385e-05,2962823.2216833,0.014791982185708
25919200,0.99984671163569,0.015933372191064,0.0049580823564379,0.0066937375323617,0.0042815523022642,-0.00097096829909862,0.0009709736028136,2.6920083274016e-09,2.6919208339054e-09,6.849674854488e-10,4.3374957801284e-09,-0.0011135099623753,0.0011135147538337,-0.0011135098311595,0.0011135146224022,-0.0011135087256052,0.0011135159911927,-0.0011135086203568,0.0011135158857384,-0.00090930341722496,0.00090930976776843,-0.00090930414350932,0.00090931049375003,7.5513510014104e-10,-2.7426314344335e-09,1.3382681570617e-09,-3.2713727422201e-09,-0.0017732392905445,0.0017732373528784,-0.0019692150865308,0.0019692158889036,-0.0019692163876756,0.0019692140991751,-0.0019692159249998,0.0019692143814908,-0.00196921722606,0.0019692125916626,-0.0015217460299521,0.001521747471429,-0.001521751530011,0.0015217439017977,-0.0015816246701511,0.0015816245968977,-0.0015816290362762,0.0015816220773724,2.2705773781384e-09,2.2704893509209e-09,-0.00078997452929491,0.00078997944641079,-1.6783413222364e-10,4.5224958910507e-09,-0.0009235928023578,0.00092359730451018,-0.00092359122035105,0.00092359887826441,-0.00092359286814573,0.00092359737009792,-0.00092359129915659,0.00092359895688097,-0.00080989743095151,0.00080990349413995,-0.00080989734387502,0.00080990340735256,0.72914636768882,122718,2924,0.0040389472409889,0.0073601019607647,0.003288958314727,20.733856366761,8.1070850934086e-05,8.1070850934086e-05,8.1070850934086e-05,2840744.8660823,0.014796974764577
26419200,0.99986411285129,0.015933702471942,0.0049581793341393,0.0066938741892563,0.0042816489485468,-0.00096878244410334,0.0009687897639329,3.4387619751637e-09,3.438674494206e-09,1.3250494878867e-09,5.2236166168039e-09,-0.0011108676358734,0.0011108740555089,-0.0011108672908773,0.001110873710297,-0.0011108663149387,0.0011108753760748,-0.0011108659995394,0.0011108750604696,-0.0009072749438775,0.00090728296933664,-0.00090727566755432,0.00090728369271064,8.2544074899878e-10,-2.8994789292619e-09,1.4406653900142e-09,-3.4568845301976e-09,-0.0017728101032655,0.0017728080822466,-0.0019697664198559,0.0019697673323544,-0.0019697675806796,0.0019697651851297,-0.0019697671500664,0.0019697655488056,-0.0019697683108053,0.0019697634014815,-0.0015202349368755,0.0015202364940179,-0.0015202406169117,0.0015202325499209,-0.0015800366769018,0.0015800366383585,-0.0015800411514875,0.0015800337863228,3.3586627805601e-09,3.3585747257147e-09,-0.00078818713464494,0.00078819486080073,7.7202573755542e-10,5.7732358404802e-09,-0.00092133603301711,0.00092134287322534,-0.00092133434211073,0.00092134455336638,-0.0009213359587956,0.00092134279880378,-0.00092133428341477,0.00092134449448136,-0.00080813371215143,0.00080814218611111,-0.00080813360888942,0.00080814208313772,0.7920419595447,122718,2924,0.0040298865780777,0.0073583374688431,0.0032815475539983,20.399109628357,7.8392877026853e-05,7.8392877026853e-05,7.8392877026853e-05,2836011.4579175,0.01477846274026
26919200,0.99988031338968,0.015933992236365,0.0049582640268548,0.0066939947757245,0.0042817334337859,-0.00096707558299902,0.00096708083169364,2.6748627208517e-09,2.674775233511e-09,5.8722642557145e-10,4.4032051509875e-09,-0.00111125926267,0.0011112639607996,-0.0011112591411461,0.0011112638390599,-0.0011112579740498,0.001111265252524,-0.0011112578779392,0.0011112651562073,-0.0009060063521207,0.00090601271900119,-0.00090600707941791,0.00090601344599558,8.1226756178355e-10,-2.8491576351312e-09,1.3951684856193e-09,-3.3751866504823e-09,-0.0017765996653214,0.0017765976805194,-0.0019729297431657,0.0019729306036688,-0.0019729311065225,0.0019729287726382,-0.0019729306399645,0.0019729290488292,-0.0019729320032364,0.001972927217699,-0.0015245407197547,0.0015245422186598,-0.0015245463829761,0.0015245384955849,-0.0015838941768562,0.0015838941639192,-0.0015838987096991,0.0015838914868891,2.2278218100104e-09,2.2277337832616e-09,-0.00078815615803202,0.00078816095835929,-2.8808673426567e-10,4.5596521437422e-09,-0.00092327960619454,0.0009232839593601,-0.00092327797241043,0.00092328558505813,-0.00092327967779355,0.00092328403075907,-0.00092327805682682,0.00092328566928538,-0.0008078003102759,0.00080780633472595,-0.0008078002195548,0.00080780624429355,0.74688297492095,122718,2924,0.0040228320917562,0.0073739646449483,0.0032814365083632,21.286481928795,8.5491855430356e-05,8.5491855430356e-05,8.5491855430356e-05,2774310.9615684,0.014787061586678
27419200,0.99989535209041,0.015934253850163,0.0049583405290456,0.0066941033422831,0.0042818099788347,-0.0009691030138438,0.00096910812060596,2.6235433750986e-09,2.6234558726274e-09,5.6643291424564e-10,4.3115429867331e-09,-0.0011112340983234,0.0011112387067151,-0.0011112339921255,0.0011112386003016,-0.0011112328327415,0.0011112399748802,-0.0011112327518595,0.0011112398937925,-0.0009078190354176,0.00090782526953214,-0.00090781976611705,0.00090782599992898,7.7899864042038e-10,-2.8122701978406e-09,1.3188442835654e-09,-3.2959183097228e-09,-0.0017775172974001,0.0017775153156451,-0.0019755792098407,0.0019755799978918,-0.0019755805419125,0.0019755782397426,-0.0019755800983492,0.0019755784814946,-0.0019755814303363,0.001975576723246,-0.0015238978961365,0.0015238992689133,-0.001523903420925,0.0015238957122278,-0.0015833041006196,0.0015833040735922,-0.0015833085813862,0.0015833014829302,2.133456523603e-09,2.1333684823041e-09,-0.00078990460828822,0.00078990917520426,-3.0548099620643e-10,4.3854881551652e-09,-0.00092310788147033,0.00092311208772251,-0.00092310630017448,0.00092311366108922,-0.00092310796172781,0.00092311216777991,-0.00092310639315932,0.00092311375388506,-0.00080947394233503,0.00080947971773766,-0.00080947385548091,0.00080947963117247,0.72588280929977,122718,2924,0.004031231244871,0.0073778078399959,0.003288683127114,22.250376141325,9.3203009130601e-05,9.3203009130601e-05,9.3203009130601e-05,2794744.3296758,0.014806825030643
27919200,0.99990898269791,0.015934503900219,0.004958413840462,0.0066942067993539,0.004281883260403,-0.00097043851135974,0.00097044413483447,2.8149271496082e-09,2.8148396471475e-09,7.4942906243084e-10,4.5185296359036e-09,-0.001111672620341,0.0011116776620065,-0.0011116724579027,0.0011116774993527,-0.0011116713454379,0.0011116789384608,-0.0011116712094839,0.001111678802301,-0.00090896939980711,0.00090897604990996,-0.00090897013101872,0.00090897678081879,7.8201410377063e-10,-2.8283402504997e-09,1.2998020936441e-09,-3.2897265038194e-09,-0.0017785610425679,0.0017785590479749,-0.001977359523166,0.0019773603029951,-0.0019773607869645,0.0019773584852993,-0.0019773603707972,0.0019773587279512,-0.0019773616345109,0.0019773569101561,-0.001524408387075,0.0015244097135025,-0.0015244138635668,0.0015244061611361,-0.0015837879004786,0.0015837878852672,-0.0015837923715336,0.0015837852494524,2.4089068991121e-09,2.4088188452217e-09,-0.00079115671898187,0.0007911620002978,-2.0357381654788e-11,4.6523551702008e-09,-0.00092356792952213,0.00092357276545877,-0.00092356635267619,0.00092357433372349,-0.00092356797332955,0.00092357280906619,-0.00092356640988248,0.00092357439074074,-0.00081055625550498,0.00081056260879915,-0.00081055616368163,0.00081056251726446,0.76533978020323,122718,2924,0.0040367677428636,0.0073821457725008,0.0032938753433815,22.918135456598,9.8545083652785e-05,9.8545083652785e-05,9.8545083652785e-05,2799181.52246,0.014822111110694
28419200,0.99992117358327,0.015934745213784,0.0049584847525231,0.0066943063550863,0.0042819541061743,-0.00096936880162106,0.00096937468169577,2.9087210992472e-09,2.9086335835371e-09,8.2574002803616e-10,4.6393775661411e-09,-0.0011121410504858,0.0011121462889241,-0.0011121408609388,0.0011121460991614,-0.0011121397605545,0.0011121475802249,-0.0011121395979529,0.0011121474174173,-0.0009081883731487,0.00090819523849293,-0.00090818910109046,0.00090819596613175,8.0157725612976e-10,-2.8512877349404e-09,1.3165027289806e-09,-3.309456305911e-09,-0.0017810074654369,0.0017810054677742,-0.0019791493791341,0.0019791501846753,-0.0019791506244062,0.0019791483208864,-0.0019791502162257,0.0019791485691534,-0.0019791514614129,0.001979146705265,-0.0015274931894812,0.0015274945334704,-0.0015274986850698,0.0015274909302026,-0.0015865553445453,0.0015865553550778,-0.0015865598362345,0.0015865526567632,2.5512207100652e-09,2.5511326941207e-09,-0.00079116215100892,0.00079116779630621,1.026858566058e-10,4.8153169176042e-09,-0.00092505143662514,0.0009250565701945,-0.00092504984576023,0.0009250581522467,-0.00092505146403095,0.00092505659740037,-0.00092504988677454,0.00092505819307193,-0.00081034784293362,0.00081035451007212,-0.0008103477463351,0.00081035441376188,0.82558911402084,122718,2924,0.0040323504677154,0.0073922288530115,0.0032939131341489,23.441117872898,0.00010272894298318,0.00010272894298318,0.00010272894298318,2756429.1480161,0.014827909184508
28919200,0.99993203924473,0.015934944215769,0.0049585429798682,0.0066943888144469,0.0042820124214539,-0.00096721792917977,0.00096722378115005,2.896678824022e-09,2.896591329044e-09,8.045155762172e-10,4.6409401185239e-09,-0.0011120730480645,0.0011120782480603,-0.0011120728625217,0.0011120780623017,-0.0011120717509607,0.0011120795468082,-0.0011120715922058,0.0011120793878474,-0.00090654485545206,0.00090655170386856,-0.00090654557997576,0.0009065524280895,8.1538400157845e-10,-2.8608190936463e-09,1.3306532221045e-09,-3.3191368547651e-09,-0.0017839727310797,0.001783970737858,-0.0019813828097117,0.0019813836344806,-0.0019813840661579,0.0019813817668997,-0.0019813836559345,0.001981382013461,-0.0019813849122958,0.0019813801457805,-0.001531023286974,0.00153102465133,-0.0015310288034136,0.0015310210219169,-0.0015896767398128,0.001589676770233,-0.0015896812503248,0.0015896740442414,2.5355681673076e-09,2.5354801782056e-09,-0.00079060409598012,0.00079060969917752,7.560124384566e-11,4.8114419842501e-09,-0.00092642082820118,0.00092642591021635,-0.00092641922977383,0.00092642749997099,-0.00092642085902707,0.00092642594084213,-0.00092641927405439,0.00092642754406247,-0.00080961135153999,0.00080961799340808,-0.00080961125302547,0.00080961789518192,0.76400561131051,122718,2924,0.0040234569028903,0.0074044452695509,0.0032916192942894,23.983381202559,0.00010706704962047,0.00010706704962047,0.00010706704962047,2699930.3648618,0.014828964579598
29419200,0.99994180563351,0.015935090246068,0.0049585853503096,0.0066944498722289,0.0042820550235298,-0.00096961276690115,0.00096961819721568,2.7447067614767e-09,2.7446192177506e-09,6.6129043298708e-10,4.4647367964732e-09,-0.0011119388992205,0.0011119437678877,-0.0011119387597234,0.0011119436281751,-0.0011119376139039,0.001111945055608,-0.0011119375003746,0.001111944941873,-0.00090866564158163,0.00090867215312061,-0.00090866637206559,0.00090867288330191,7.9408640885235e-10,-2.8521839126805e-09,1.2899331068408e-09,-3.2911082454316e-09,-0.0017841455360585,0.0017841435301808,-0.0019834343774126,0.0019834351523129,-0.001983435664103,0.0019834333664128,-0.001983435254544,0.0019834335854401,-0.0019834365411496,0.0019834317994405,-0.001529497252521,0.0015294985485024,-0.0015295027322424,0.0015294950147093,-0.0015882837618205,0.0015882837742442,-0.001588288279952,0.0015882811136001,2.2901959419702e-09,2.2901079395552e-09,-0.00079236969501961,0.00079237466967957,-1.3400267645728e-10,4.5273731598604e-09,-0.00092584241544252,0.00092584698760071,-0.00092584084308547,0.00092584855174283,-0.00092584247438056,0.00092584704633877,-0.00092584091506818,0.00092584862353657,-0.00081137009918778,0.0008113761977171,-0.00081137000651454,0.00081137610533222,0.62417410960896,122718,2924,0.0040333732681008,0.0074052180521603,0.003298931935512,24.77802192124,0.00011342417536992,0.00011342417536992,0.00011342417536992,2733140.4790906,0.014847216924972
29919200,0.99995047151949,0.015935232984338,0.0049586271370092,0.0066945089074414,0.0042820969398871,-0.00097597402195942,0.00097597966694844,2.8309558326286e-09,2.8308681981311e-09,7.3364013526805e-10,4.5548369806803e-09,-0.0011127805251289,0.0011127855945754,-0.0011127803636389,0.0011127854328701,-0.0011127792333424,0.0011127868886963,-0.0011127790983033,0.0011127867534515,-0.00091406672426856,0.00091407342213196,-0.00091406746470912,0.00091407416226949,7.7793948671798e-10,-2.8828112070376e-09,1.2558286504144e-09,-3.3032586087758e-09,-0.0017817053910867,0.0017817033389869,-0.0019838953230307,0.0019838960525553,-0.0019838965814299,0.0019838942497271,-0.001983896189348,0.0019838944625338,-0.0019838974476628,0.0019838926596063,-0.0015246408963134,0.001524642118732,-0.0015246463569837,0.001524638609879,-0.0015840973637566,0.001584097349498,-0.0015841019027317,0.0015840946826421,2.385750835286e-09,2.3856628328729e-09,-0.00079611706260925,0.00079612229123186,-2.8232121263369e-11,4.6136701795228e-09,-0.00092441074234724,0.00092441556174278,-0.00092440917590724,0.00092441711953053,-0.00092441078392479,0.00092441560312066,-0.00092440923103471,0.00092441717446931,-0.00081533036981062,0.00081533666541853,-0.00081533027956218,0.00081533657545862,0.68688558505508,122718,2924,0.0040597082281561,0.0073952502631591,0.0033144392789579,25.464710578316,0.00011891768462652,0.00011891768462652,0.00011891768462652,2840346.7440391,0.014879535388127
30419200,0.99995810291185,0.015935335620942,0.0049586568025984,0.0066945522167568,0.0042821266015869,-0.0009753078657366,0.00097531351746519,2.8291129786839e-09,2.8290253433053e-09,7.3673867009523e-10,4.5613288940627e-09,-0.0011154793297902,0.001115484384087,-0.0011154791660731,0.0011154842201542,-0.0011154780367316,0.0011154856789641,-0.0011154778995685,0.001115485541595,-0.00091370029612693,0.00091370699230741,-0.00091370102814022,0.00091370772401712,7.9618888997594e-10,-2.8694199209558e-09,1.2679012433697e-09,-3.2842942648293e-09,-0.0017851964226801,0.0017851944015992,-0.0019851494200693,0.0019851501795546,-0.0019851506719001,0.0019851483740706,-0.001985150284296,0.0019851485849147,-0.001985151536042,0.0019851467793313,-0.00153042053212,0.0015304217770407,-0.0015304259744073,0.0015304182639539,-0.0015894231296759,0.0015894231544281,-0.0015894276545288,0.0015894204635541,2.4113627636809e-09,2.4112748305391e-09,-0.00079680077541318,0.00079680606102858,-3.1656050576443e-13,4.6356539895455e-09,-0.00092837624513012,0.00092838110049494,-0.00092837468043522,0.000928382656667,-0.00092837628907006,0.00092838114423488,-0.00092837473771571,0.00092838271375836,-0.00081562039827679,0.00081562674271316,-0.00081562030360394,0.0008156266483286,0.56251928746541,122718,2924,0.0040569742013174,0.0074096128069575,0.0033173002777912,26.130034994695,0.00012424027995756,0.00012424027995756,0.00012424027995756,2771197.2894692,0.014894264119105
30919200,0.99996488971142,0.015935445644981,0.0049586890676532,0.0066945976868001,0.0042821588905273,-0.00098185661632049,0.00098186171794685,2.6302793020283e-09,2.6301916179466e-09,5.5994677123293e-10,4.3188272156167e-09,-0.0011173343227307,0.0011173389442735,-0.0011173342221219,0.0011173388434493,-0.0011173330523277,0.0011173402172214,-0.0011173329771672,0.0011173401418553,-0.00091963703841355,0.00091964328785725,-0.00091963777960549,0.00091964402874605,7.5720336119238e-10,-2.8471451530229e-09,1.1925167950187e-09,-3.2260248615079e-09,-0.0017835540137642,0.0017835519756511,-0.0019857849188553,0.0019857855906919,-0.0019857861974478,0.0019857839083533,-0.001985785817897,0.0019857840758815,-0.0019857870964051,0.0019857823934437,-0.0015267354747952,0.0015267365941128,-0.0015267408229849,0.0015267332459172,-0.0015863821350692,0.0015863821286088,-0.0015863866483156,0.0015863795454714,2.0838154094579e-09,2.0837274558263e-09,-0.0008011499656499,0.00080115441858001,-2.5758813341816e-10,4.2367480441149e-09,-0.00092819449435828,0.00092819867747493,-0.00092819297860803,0.00092820018529766,-0.00092819457508639,0.00092819875800316,-0.00092819307214597,0.00092820027864671,-0.0008204182775947,0.000820423885627,-0.00082041819395942,0.00082042380228021,0.67617106509292,122718,2924,0.0040840951962911,0.00740292360086,0.0033353143418766,27.118982631004,0.00013215186104803,0.00013215186104803,0.00013215186104803,2868708.399807,0.01493325460834
31419200,0.9999709614627,0.015935547328166,0.0049587188218864,0.0066946399697927,0.0042821885364873,-0.00098048844976117,0.00098049290868525,2.3828944679303e-09,2.382806838034e-09,3.8229876249479e-10,4.0053937601465e-09,-0.0011213604446029,0.0011213645416757,-0.0011213604067997,0.0011213645036567,-0.0011213592191086,0.001121365768496,-0.0011213592060345,0.0011213657552157,-0.00091901587744971,0.00091902155833038,-0.0009190166078093,0.00091902228838711,7.3817932565772e-10,-2.737700805002e-09,1.128114017597e-09,-3.0736437198236e-09,-0.0017896745693632,0.0017896726193524,-0.0019886069202225,0.0019886075592557,-0.0019886081961699,0.0019886060240006,-0.0019886078292783,0.0019886061447603,-0.0019886091051408,0.0019886046094057,-0.0015359531363343,0.0015359541757623,-0.0015359582915139,0.0015359510576568,-0.0015948708201537,0.0015948708516914,-0.0015948752212302,0.0015948684072237,1.7581712785008e-09,1.7580833573448e-09,-0.00080222676877003,0.00080223038073124,-4.7687620214172e-10,3.7952296482594e-09,-0.00093445188191345,0.00093445538927694,-0.00093445044127859,0.00093445682290086,-0.00093445200831532,0.00093445551547856,-0.00093445057951629,0.00093445696094962,-0.00082105174017666,0.00082105658270995,-0.00082105165636929,0.00082105649919119,0.69952705654839,122718,2924,0.0040784713310424,0.0074281159040552,0.0033398272874902,28.435976388657,0.00014268781110926,0.00014268781110926,0.00014268781110926,2755087.9629522,0.014957729737007
31919200,0.99997619128125,0.015935637538447,0.0049587452926373,0.0066946772102124,0.0042822150355976,-0.0009802998096124,0.00098030511683864,2.6970050994724e-09,2.6969174882025e-09,6.9264386376056e-10,4.3361099601113e-09,-0.0011222599184887,0.0011222647283662,-0.0011222597892885,0.0011222645989503,-0.0011222586839897,0.0011222659624333,-0.0011222585813703,0.001122265859608,-0.0009192645349748,0.00091927089232323,-0.00091926526280856,0.00091927161985411,7.425945453052e-10,-2.7454252922007e-09,1.1215675901153e-09,-3.0701712759632e-09,-0.0017921259989939,0.0017921240459188,-0.0019907256250383,0.0019907262722467,-0.0019907267994309,0.0019907246295231,-0.0019907264620638,0.0019907247692888,-0.0019907276363715,0.0019907231264657,-0.0015384945956394,0.0015384956142,-0.0015384997000312,0.0015384924700709,-0.0015972115585813,0.0015972115985023,-0.0015972159234459,0.0015972090972966,2.2196759487451e-09,2.2195880269825e-09,-0.00080299396416614,0.00080299876505488,-1.5265882667175e-11,4.2589176210894e-09,-0.00093616687527664,0.00093617141713352,-0.00093616543129925,0.00093617285303497,-0.00093616694270019,0.00093617148435712,-0.00093616551164841,0.0009361729331951,-0.00082187210621792,0.00082187792713953,-0.00082187201533591,0.00082187783654591,0.71926751588325,122718,2924,0.0040777090730446,0.0074382294449413,0.0033430317515389,29.268576537025,0.0001493486122962,0.0001493486122962,0.0001493486122962,2725140.1254516,0.014970475887445
32419200,0.99998048556853,0.015935718881357,0.0049587692612586,0.0066947105644385,0.0042822390556599,-0.00097866212430618,0.00097866887774439,3.2335324048432e-09,3.2334448113376e-09,1.1410829663255e-09,4.9875303294308e-09,-0.001121431180797,0.001121437149648,-0.0011214308985786,0.0011214368672139,-0.0011214298774407,0.0011214384522023,-0.0011214296243068,0.0011214381988624,-0.00091783894844153,0.00091784651663519,-0.00091783967291705,0.00091784724080785,8.0595231429826e-10,-2.8709607397083e-09,1.2328734606797e-09,-3.2410048422327e-09,-0.0017930255787698,0.0017930235659638,-0.0019915796337644,0.0019915803931711,-0.0019915807317179,0.0019915784686491,-0.0019915804014641,0.0019915786837602,-0.0019915814993327,0.0019915767591387,-0.0015393203699254,0.0015393215372833,-0.0015393256758003,0.0015393180483987,-0.0015978660164728,0.0015978660819718,-0.0015978704812827,0.001597863313019,3.0108231627169e-09,3.0107352371075e-09,-0.00080209101867385,0.00080209785247704,6.3078240250118e-10,5.2058010097974e-09,-0.00093599979921445,0.00093600600978327,-0.00093599825123925,0.00093600754791134,-0.00093599976744292,0.0009360059778118,-0.0009359982341438,0.00093600753062691,-0.0008208792267895,0.00082088682240099,-0.00082087912246388,0.00082088671836373,0.78912843059547,122718,2924,0.0040709314452653,0.0074419325977273,0.0033392987821823,29.299081689427,0.00014959265351542,0.00014959265351542,0.00014959265351542,2701779.7732411,0.014963569837912
32919200,0.99998398417954,0.015935776858947,0.0049587862170879,0.0066947345554359,0.0042822560864228,-0.00097492616846376,0.00097493322513053,3.3439383400416e-09,3.3438507520941e-09,1.1758763620343e-09,5.1883123620893e-09,-0.0011201514656868,0.0011201576243116,-0.0011201511552343,0.0011201573136433,-0.0011201501088363,0.0011201589822546,-0.0011201498273587,0.0011201587005711,-0.00091459218639093,0.0009146000468899,-0.00091459290720732,0.00091460076740358,8.695967799447e-10,-2.9717076661354e-09,1.3586458897713e-09,-3.4016879161221e-09,-0.0017949399167704,0.0017949378688363,-0.0019926291199001,0.0019926299946269,-0.0019926302755492,0.0019926279370504,-0.0019926299118275,0.0019926282002547,-0.0019926310673915,0.0019926261425785,-0.0015418807829772,0.0015418821414363,-0.0015418863451239,0.0015418783473747,-0.0016000319011908,0.0016000319969281,-0.0016000365006778,0.0016000290383728,3.1786659119089e-09,3.1785780093971e-09,-0.00080000017804349,0.00080000743832681,6.6002122615754e-10,5.5208883378541e-09,-0.00093616379451968,0.0009361702682277,-0.00093616215121473,0.00093617190149241,-0.00093616374461911,0.00093617021812721,-0.00093616211611991,0.00093617186620855,-0.00081859516482972,0.00081860321109954,-0.00081859505422948,0.0008186031007874,0.69092321609739,122718,2924,0.0040554650082544,0.0074497949146931,0.0033306447377262,29.174701020593,0.00014859760816474,0.00014859760816474,0.00014859760816474,2643103.4220633,0.014947081980358
33419200,0.99998687526847,0.015935830747963,0.0049588021142898,0.006694756554602,0.0042822720790712,-0.00097740267974105,0.00097740931870696,3.1972543596567e-09,3.1971667191802e-09,9.8094356409011e-10,5.0705498698291e-09,-0.0011187708795162,0.0011187766943849,-0.0011187706133788,0.001118776428032,-0.0011187694993633,0.0011187780782656,-0.0011187692610828,0.0011187778397794,-0.00091655184485169,0.0009165594134276,-0.00091655257669989,0.00091656014497288,8.7672688941887e-10,-3.0435412407866e-09,1.4065339594118e-09,-3.512465424357e-09,-0.0017928756133203,0.0017928735023852,-0.0019931562101444,0.0019931570955303,-0.0019931574675981,0.0019931550420035,-0.0019931570673417,0.0019931553182306,-0.0019931583247107,0.0019931532646044,-0.0015374811471852,0.0015374825746903,-0.0015374869008669,0.0015374786571479,-0.0015959656148894,0.0015959656731834,-0.0015959703373265,0.0015959626800811,2.9355544300147e-09,2.9354664954345e-09,-0.00080103686512206,0.00080104349901551,3.4062314904955e-10,5.3533635620971e-09,-0.00093364430936207,0.00093365022139245,-0.00093364261705051,0.00093365190397753,-0.0009336442855047,0.0009336501973352,-0.00093364260772554,0.00093365189446362,-0.00081971613289391,0.00081972371384902,-0.00081971602746224,0.00081972360870557,0.77567308772676,122718,2924,0.0040657033658568,0.0074413455840612,0.0033349190344855,29.316002893506,0.00014972802314805,0.00014972802314805,0.00014972802314805,2708543.3918517,0.014953211539397
33919200,0.99998933180045,0.015935875732341,0.0049588153329843,0.0066947750508605,0.0042822853484966,-0.00097564927590608,0.000975654794686,2.7781856079396e-09,2.7780980030105e-09,6.108952607364e-10,4.594112516722e-09,-0.0011202583824674,0.0011202632625013,-0.0011202582365252,0.0011202631163435,-0.0011202570394607,0.0011202646099854,-0.0011202569191245,0.0011202644894433,-0.00091522010690742,0.00091522674869359,-0.00091522083303648,0.00091522747451966,8.6238325554821e-10,-2.9632670638723e-09,1.3881036033878e-09,-3.4299830578426e-09,-0.0017968331158096,0.001796831069018,-0.0019954187560954,0.0019954196269609,-0.0019954201102075,0.0019954177526399,-0.0019954196820855,0.001995417991902,-0.0019954210361124,0.0019954161174816,-0.0015430676291833,0.001543069057938,-0.0015430733307868,0.0015430652804726,-0.001601064547959,0.0016010646170042,-0.0016010692280186,0.0016010617636192,2.3387456855056e-09,2.3386577812346e-09,-0.0008010921777094,0.00080109726774558,-2.0167072898002e-10,4.6960723954021e-09,-0.00093674070857421,0.0009367452972753,-0.00093673905776989,0.00093674693994675,-0.00093674076528968,0.00093674535379078,-0.00093673912737938,0.00093674700936701,-0.00081940588988256,0.00081941216714826,-0.00081940579096348,0.00081941206851728,0.76303060755973,122718,2924,0.0040584632663552,0.0074576403321144,0.0033351714302767,30.06921140612,0.00015575369124896,0.00015575369124896,0.00015575369124896,2634150.9375382,0.014962679153196
34419200,0.99999146570566,0.015935913037387,0.0049588262878882,0.0066947903673748,0.0042822963821244,-0.00097785022475845,0.00097785454967071,2.3365072152735e-09,2.3364195996742e-09,2.5858312624608e-10,4.0373038989019e-09,-0.0011218049994025,0.0011218089380228,-0.0011218049803082,0.0011218089187125,-0.0011218037251053,0.001121810216731,-0.0011218037296013,0.001121810221021,-0.00091750623927206,0.0009175118716451,-0.00091750696767948,0.00091751259974973,7.9351788980845e-10,-2.8384143438019e-09,1.2690285534017e-09,-3.2574057652546e-09,-0.0017993625664621,0.0017993605733957,-0.0019986420321356,0.0019986427831751,-0.0019986434327881,0.0019986411636476,-0.0019986430047698,0.0019986413324442,-0.0019986444053372,0.0019986397128173,-0.0015449382697692,0.0015449395348266,-0.0015449437509955,0.0015449361032633,-0.001602846139922,0.0016028461744221,-0.0016028507046339,0.001602843584015,1.6795433597871e-09,1.6794554548765e-09,-0.00080359710799372,0.00080360050469572,-7.1328864852141e-10,3.8790880544795e-09,-0.00093862450059635,0.0009386277193515,-0.00093862295460762,0.00093862925869254,-0.00093862463921889,0.00093862785777428,-0.00093862310470368,0.00093862940859973,-0.00082186200798957,0.0008218667892448,-0.00082186192169202,0.00082186670323555,0.72790058071019,122718,2924,0.0040675937900863,0.0074681160344718,0.0033455675882659,31.478317823943,0.00016702654259155,0.00016702654259155,0.00016702654259155,2630440.3010512,0.014993124781272
34919200,0.99999334395303,0.015935947250062,0.0049588363630626,0.006694804357586,0.004282306529413,-0.00098268560985586,0.0009826886515785,1.8597271384323e-09,1.8596395014471e-09,-8.1914910379246e-11,3.3969126351213e-09,-0.0011252088278018,0.001125211770132,-0.0011252089455353,0.0011252118876501,-0.0011252076528155,0.001125212948115,-0.0011252077922364,0.0011252130873302,-0.00092215910568243,0.00092216362381075,-0.00092215983540457,0.00092216435323013,6.9463417116759e-10,-2.6498483656572e-09,1.0709319377644e-09,-2.9736143975919e-09,-0.0018025471466821,0.0018025452396646,-0.0020027230250798,0.0020027235942813,-0.0020027244222448,0.002002722305331,-0.0020027240226768,0.0020027223682628,-0.0020027254197568,0.002002721079213,-0.0015474354562759,0.00154743643414,-0.0015474405334821,0.0015474335384564,-0.0016053538857437,0.0016053538896783,-0.0016053582453562,0.0016053516576034,9.6896554694046e-10,9.6887763817794e-10,-0.00080822124975436,0.00080822282677839,-1.1820090459644e-09,2.914155424133e-09,-0.00094194484674234,0.00094194663693947,-0.00094194346911538,0.00094194800956192,-0.00094194507376068,0.00094194686375798,-0.00094194370604487,0.0009419482463025,-0.00082636888187634,0.00082637199663368,-0.00082636881056888,0.00082637192561463,0.75808686568768,122718,2924,0.0040876429238281,0.0074813193407095,0.0033647512509339,33.571156735642,0.00018376925388514,0.00018376925388514,0.00018376925388514,2642363.9099339,0.015046340077023
35419200,0.99999496787358,0.015935973514564,0.0049588440497792,0.0066948151888231,0.0042823142759617,-0.00098605518008973,0.00098605766238906,1.6472487325477e-09,1.6471610932405e-09,-1.4337569617127e-10,3.0205980466266e-09,-0.0011296820306313,0.0011296845985205,-0.0011296822000679,0.0011296847677415,-0.001129680957107,0.0011296856710245,-0.0011296811484197,0.0011296858621314,-0.00092572311573853,0.00092572707872859,-0.00092572384212318,0.00092572780481049,5.9510142682461e-10,-2.4396341969676e-09,8.3855871778325e-10,-2.6351424952056e-09,-0.0018079164084605,0.0018079146079545,-0.0020074738857622,0.0020074742672789,-0.0020074751601811,0.002007473235235,-0.0020074748313338,0.0020074731955636,-0.0020074761056678,0.0020074721634201,-0.0015534810303906,0.0015534816579005,-0.0015534855804677,0.0015534793544988,-0.0016111252979955,0.0016111252965442,-0.0016111293830039,0.001611123400291,6.6469583416765e-10,6.6460794117901e-10,-0.00081257546855849,0.00081257627448909,-1.2083463083791e-09,2.3153878664459e-09,-0.0009473211177472,0.00094732242548115,-0.00094731993095123,0.00094732360790639,-0.00094732138061211,0.00094732268814615,-0.00094732020317695,0.00094732387994314,-0.00083049454767885,0.00083049682915461,-0.00083049448143299,0.00083049676319693,0.67379056419234,122718,2924,0.004101638391178,0.0075034998054527,0.0033828362617407,35.926893665671,0.00020261514932537,0.00020261514932537,0.00020261514932537,2604824.7687272,0.015101425913083
35919200,0.9999962814425,0.015935996303369,0.0049588507607547,0.0066948244987932,0.0042823210438213,-0.0009917438735928,0.00099174769353763,2.1413198640635e-09,2.1412322133507e-09,3.7117223762123e-10,3.5091989256169e-09,-0.0011322179830613,0.001132221690576,-0.0011322180105082,0.0011322217178074,-0.001132216913658,0.0011322227551753,-0.0011322169661308,0.0011322228074424,-0.00093100776825482,0.00093101277827265,-0.00093100849835108,0.00093101350806592,5.7687208595376e-10,-2.4195654117022e-09,7.4722632069e-10,-2.5425031691558e-09,-0.0018088615349568,0.0018088597358669,-0.0020101521294079,0.0020101524562448,-0.0020101531917838,0.0020101513129966,-0.0020101529433716,0.0020101512641518,-0.0020101540056627,0.0020101501208042,-0.0015529577728484,0.0015529582273041,-0.0015529620810459,0.0015529560514322,-0.0016108757379813,0.0016108757552291,-0.0016108797148317,0.0016108738322921,1.3682227222516e-09,1.3681348094189e-09,-0.00081704456952288,0.00081704720781894,-4.1964761858272e-10,2.9384586442102e-09,-0.00094888575699533,0.00094888870592518,-0.0009488846210427,0.0009488898357786,-0.00094888592538849,0.00094888887411848,-0.00094888480057605,0.00094889001512292,-0.00083504763476076,0.00083505135698502,-0.00083504755931798,0.00083505128183044,0.72183945217264,122718,2924,0.004125212154916,0.0075074789651484,0.0034013686347304,37.534578822654,0.00021547663058123,0.00021547663058123,0.00021547663058123,2656747.556723,0.01514818925332
36419200,0.99999725027477,0.015936012691555,0.0049588555736974,0.0066948312287316,0.0042823258891261,-0.00098987630252856,0.00098988316756755,3.2702693818847e-09,3.2701817649842e-09,1.3494688293595e-09,4.8469641029267e-09,-0.0011325646730201,0.0011325708551608,-0.0011325643709862,0.0011325705529112,-0.0011325634798464,0.0011325720412698,-0.0011325632087015,0.0011325717699189,-0.00092937254974199,0.00092938008301981,-0.00092937327484042,0.0009293808078154,6.8794136568703e-10,-2.6399293845577e-09,9.1519922717418e-10,-2.8153974586579e-09,-0.0018103469803138,0.0018103450759748,-0.0020103564738282,0.0020103569864644,-0.0020103573186232,0.0020103552918218,-0.0020103571161799,0.0020103553766875,-0.0020103579608899,0.0020103536819453,-0.001555681366437,0.0015556820256809,-0.0015556859525209,0.0015556792792931,-0.0016133217488105,0.0016133218262342,-0.0016133258690415,0.0016133194039496,3.0460200517077e-09,3.0459321421198e-09,-0.0008161806718649,0.0008161876194837,1.0271092765166e-09,4.8629714057096e-09,-0.0009501059691858,0.00095011252600915,-0.0009501046653322,0.00095011381992081,-0.00095010592633704,0.0009501124829604,-0.00095010463741654,0.00095011379181621,-0.00083398019466074,0.00083398762279546,-0.00083398008552346,0.00083398751394661,0.70447270805609,122718,2924,0.0041174923459463,0.0075135722861397,0.003397806764373,37.488424238164,0.00021510739390531,0.00021510739390531,0.00021510739390531,2611894.1761916,0.015142937269534
36919200,0.99999794824675,0.015936023541719,0.0049588587517584,0.0066948356939929,0.004282329095968,-0.00098855136121497,0.00098855936360936,3.6987246155681e-09,3.6986370027522e-09,1.5952441250102e-09,5.4792370893033e-09,-0.0011308115394367,0.0011308185761422,-0.0011308111203086,0.0011308181567985,-0.0011308102198051,0.0011308198918669,-0.0011308098328821,0.001130819504738,-0.00092807763044637,0.00092808620095663,-0.00092807835744573,0.00092808692765319,8.0773662867104e-10,-2.8944880552591e-09,1.1382092708998e-09,-3.1677787141818e-09,-0.0018089893778554,0.0018089873436833,-0.0020093958957335,0.0020093966036058,-0.002009396796433,0.0020093945724361,-0.0020093965579828,0.0020093947588593,-0.0020093974585974,0.0020093927275901,-0.0015538905364496,0.0015538915031978,-0.0015538956302513,0.0015538881395696,-0.0016115623768944,0.0016115624955893,-0.0016115668041718,0.0016115596445712,3.6658423375715e-09,3.6657544142244e-09,-0.00081473640776636,0.00081474493657656,1.3599975057156e-09,5.7838979289786e-09,-0.00094826468597249,0.00094827244029468,-0.00094826318398975,0.00094827393086273,-0.00094826456600415,0.00094827232012641,-0.00094826308034506,0.00094827382702905,-0.00083261029687054,0.00083261922938787,-0.00083261017590937,0.00083261910871493,0.64727478642577,122718,2924,0.0041119949596819,0.0075079665968234,0.0033918128153274,36.8623097452,0.0002100984779616,0.0002100984779616,0.0002100984779616,2619646.7666556,0.0151255779795
37419200,0.99999848690296,0.015936032011827,0.0049588612384099,0.0066948391698399,0.0042823316035776,-0.0009919610360038,0.00099196645440858,2.7462155677642e-09,2.7461279171832e-09,6.4051540657635e-10,4.4857518464191e-09,-0.001132272677851,0.0011322775366052,-0.0011322725423242,0.0011322774008628,-0.0011322713786633,0.0011322788380423,-0.0011322712694695,0.0011322787286427,-0.0009311857183028,0.00093119224393036,-0.00093118645126833,0.00093119297659299,7.9718868684459e-10,-2.8905208460429e-09,1.1414723202747e-09,-3.177474830325e-09,-0.0018091722023813,0.0018091701616983,-0.0020105627251667,0.0020105633930741,-0.00201056393639,0.0020105617035491,-0.0020105636195591,0.0020105618164193,-0.0020105648306976,0.0020105601267949,-0.0015532652056114,0.0015532661956019,-0.0015532704407304,0.0015532629320884,-0.0016111377780156,0.0016111378828383,-0.0016111423451019,0.0016111351895942,2.2463345330367e-09,2.2462466065036e-09,-0.00081728218618426,0.00081728705356363,-5.074940552285e-11,4.3499483499168e-09,-0.00094901458592613,0.00094901915712056,-0.00094901310008557,0.00094902063489141,-0.00094901464785271,0.00094901921884726,-0.00094901317495724,0.00094902070957389,-0.00083520880687312,0.00083521472645903,-0.00083520871156857,0.00083521463144288,0.65462458225499,122718,2924,0.0041261153503076,0.0075087662953097,0.0034023571993565,37.673130681403,0.00021658504545122,0.00021658504545122,0.00021658504545122,2654851.3999635,0.015151416903689
37919200,0.99999888419854,0.015936037835248,0.0049588629421429,0.0066948415730574,0.0042823333200481,-0.00099168533353235,0.00099169219657324,3.2812633531312e-09,3.2811757142721e-09,1.1122364232385e-09,5.1104221565816e-09,-0.0011327566563723,0.0011327626934272,-0.0011327563633998,0.0011327624002391,-0.00113275530398,0.0011327640467096,-0.0011327550400832,0.0011327637826071,-0.00093093869805471,0.00093094641363579,-0.00093093942712648,0.00093094714240466,8.4565613666786e-10,-2.9818181226208e-09,1.2513560652253e-09,-3.3284871905893e-09,-0.0018096340547739,0.001809631972833,-0.0020104686820863,0.0020104694580925,-0.0020104698058304,0.0020104674886948,-0.002010469489978,0.0020104676894293,-0.0020104706136373,0.0020104657199321,-0.0015543023865619,0.0015543035389703,-0.0015543078028882,0.0015542999524817,-0.0016121017508252,0.0016121018587503,-0.0016121063683694,0.00161209894557,3.0488259207845e-09,3.0487379979585e-09,-0.0008172318960175,0.00081723882497832,6.1662280286135e-10,5.2953273915292e-09,-0.0009496904294386,0.00094969670947038,-0.00094968884684791,0.00094969828212381,-0.00094969039099564,0.00094969667082753,-0.00094968882318513,0.00094969825827208,-0.00083508267801624,0.00083509038625072,-0.000835082568979,0.00083509027750173,0.61069305856341,122718,2924,0.0041249801526207,0.0075106592099467,0.0034021563698021,37.676456772973,0.00021661165418379,0.00021661165418379,0.00021661165418379,2641403.2185661,0.015151988038705
38419200,0.99999917143238,0.015936042647157,0.0049588643608774,0.0066948435381543,0.0042823347481251,-0.00099210141020912,0.00099210918971845,3.6277347457709e-09,3.6276471084802e-09,1.3527710820992e-09,5.5744864012081e-09,-0.001131913403925,0.0011319201672724,-0.0011319130129929,0.0011319197761247,-0.0011319119775155,0.0011319215958456,-0.0011319116170096,0.001131921235134,-0.00093116582819018,0.00093117435141025,-0.00093116655960905,0.00093117508252613,9.0722751335163e-10,-3.1337247983291e-09,1.4020202479497e-09,-3.5663430714907e-09,-0.0018077710410179,0.0018077688716427,-0.0020092055679606,0.0020092064655352,-0.0020092067108655,0.0020092042475375,-0.0020092063640353,0.0020092045365894,-0.0020092075068554,0.0020092023184924,-0.0015518975119007,0.0015518988843001,-0.0015519032681722,0.0015518948791447,-0.001609893548137,0.0016098936446788,-0.0016098983312898,0.0016098904789324,3.5560232078345e-09,3.5559352674204e-09,-0.00081689506874713,0.00081690329066753,9.2806076582183e-10,6.0062419028234e-09,-0.0009481793423834,0.00094818663924357,-0.00094817762458029,0.00094818834581252,-0.00094817923989635,0.0009481865365566,-0.00094817753814432,0.00094818825918757,-0.00083488009998562,0.00083488901044181,-0.00083487998338654,0.00083488889413101,0.69725492786578,122718,2924,0.0041266930288889,0.0075029821779232,0.003400749279535,37.198494772294,0.00021278795817835,0.00021278795817835,0.00021278795817835,2671434.4208516,0.015144497745711
38880000,0.99999937201098,0.015936046135496,0.0049588653887617,0.0066948449653777,0.0042823357813571,-0.00098888860904847,0.0009888955272528,3.3032071774756e-09,3.3031195671027e-09,1.009971296265e-09,5.2702098492361e-09,-0.0011323412485026,0.0011323472332641,-0.0011323409570953,0.0011323469416412,-0.001132339812859,0.0011323486739031,-0.0011323395493014,0.0011323484101396,-0.00092851875014978,0.00092852659879436,-0.00092851947454752,0.0009285273228893,9.4384123859216e-10,-3.1467034620163e-09,1.50393861659e-09,-3.6443572415055e-09,-0.0018102869612561,0.0018102848156614,-0.0020097010925871,0.0020097020764925,-0.002009702394978,0.0020096999146727,-0.0020097019812125,0.002009700217992,-0.0020097032835184,0.0020096980560726,-0.0015561721803165,0.0015561737412032,-0.0015561781367458,0.0015561695775136,-0.0016137420177053,0.0016137421319738,-0.0016137468794018,0.0016137389424042,3.0965488827943e-09,3.0964609650068e-09,-0.00081543522981571,0.00081544226043695,3.8984129558661e-10,5.6309145936045e-09,-0.0009500785373777,0.00095008470704499,-0.00095007676873914,0.00095008646585982,-0.00095007850025111,0.00095008466971845,-0.00095007674614458,0.00095008644307625,-0.00083325534969803,0.0008332633424534,-0.00083325523770281,0.00083326323074641,0.7241603432261,122718,2924,0.0041134012432906,0.0075133048280314,0.0033947168805533,37.193691405806,0.00021274953124645,0.00021274953124645,0.00021274953124645,2598406.0175709,0.015135381670007
