time,ASR_ext,ASR_strain,ASR_strain_xx,ASR_strain_yy,ASR_strain_zz,disp_x_101,disp_x_102,disp_x_103,disp_x_104,disp_x_105,disp_x_106,disp_x_p1_neg,disp_x_p1_pos,disp_x_p2_neg,disp_x_p2_pos,disp_x_p3_neg,disp_x_p3_pos,disp_x_p4_neg,disp_x_p4_pos,disp_x_p5_neg,disp_x_p5_pos,disp_x_p6_neg,disp_x_p6_pos,disp_y_101,disp_y_102,disp_y_103,disp_y_104,disp_y_105,disp_y_106,disp_y_p1_neg,disp_y_p1_pos,disp_y_p2_neg,disp_y_p2_pos,disp_y_p3_neg,disp_y_p3_pos,disp_y_p4_neg,disp_y_p4_pos,disp_y_p5_neg,disp_y_p5_pos,disp_y_p6_neg,disp_y_p6_pos,disp_y_p7_neg,disp_y_p7_pos,disp_y_p8_neg,disp_y_p8_pos,disp_z_101,disp_z_102,disp_z_103,disp_z_104,disp_z_105,disp_z_106,disp_z_p1_neg,disp_z_p1_pos,disp_z_p2_neg,disp_z_p2_pos,disp_z_p3_neg,disp_z_p3_pos,disp_z_p4_neg,disp_z_p4_pos,disp_z_p5_neg,disp_z_p5_pos,disp_z_p6_neg,disp_z_p6_pos,humidity,ndof,nelem,strain_xx,strain_yy,strain_zz,temp,thermal_strain_xx,thermal_strain_yy,thermal_strain_zz,vonmises,vstrain
2419200,0,0,0,0,0,0,0,0,0,0,0,0,0,0,0,0,0,0,0,0,0,0,0,0,0,0,0,0,0,0,0,0,0,0,0,0,0,0,0,0,0,0,0,0,0,0,0,0,0,0,0,0,0,0,0,0,0,0,0,0,0,0,0,0,0,0,0,0,0,0,0,0,0,0,0
2919200,0.076491365525751,0.0015975202813586,0.00053250676045286,0.00053250676045286,0.00053250676045286,-0.00016130740927372,0.00016128801488553,-7.4018196014267e-09,-7.4018195813869e-09,-6.0148230573673e-09,-8.697881148922e-09,-0.00016210669940999,0.00016209126802887,-0.00016210823785814,0.0001620928064769,-0.00016210760422249,0.00016209035938998,-0.00016210911514537,0.00016209187031268,-0.00016391696174222,0.00016390053074546,-0.00016391786540599,0.00016390143440886,-8.1273329004852e-10,1.7003410803648e-09,-9.4913912690707e-10,1.8005091501226e-09,-0.00017452045478543,0.00017452130954346,-0.00017370680828877,0.00017370575009441,-0.00017370738221988,0.00017370830885281,-0.00017370746175902,0.00017370822641957,-0.00017370803568982,0.00017371078517811,-0.00017388016240245,0.00017387921417557,-0.00017387858390857,0.00017388296312255,-0.00017388000225236,0.00017387937733856,-0.00017387863978369,0.00017388290533702,-7.4217702529126e-09,-7.4217702031839e-09,-0.0001613074293166,0.00016128799484279,-5.9324133936371e-09,-8.8237913763537e-09,-0.0001621066690444,0.00016209127925502,-0.00016210767346857,0.00016209030893074,-0.00016210821006072,0.00016209282027161,-0.00016210918217485,0.00016209181763744,-0.00016391792358491,0.00016390137943615,-0.0001639170251325,0.00016390048098254,0.83502648770561,122718,2924,0.00067184784920665,0.000726904666588,0.00067184784920695,32.419176933783,0.00017455341547026,0.00017455341547026,0.00017455341547026,1350351.6381373,0.0020727476102126
3419200,0.15567595702806,0.0031151236783427,0.001018031676738,0.001079060324867,0.0010180316767377,-0.00026735395589126,0.00026733671312879,-6.7793163299165e-09,-6.7793835224672e-09,-6.0147921060052e-09,-7.6886916013376e-09,-0.00027538534743118,0.00027537096107359,-0.00027538745520185,0.00027537306861297,-0.0002753858969506,0.00027537040805776,-0.00027538798878182,0.00027537249965506,-0.00027103961022458,0.00027102490485167,-0.00027104123102874,0.00027102652541874,-6.2262224336197e-10,8.92780662443e-10,-7.2948547301366e-10,9.6436217047119e-10,-0.00031031490849787,0.00031031515028313,-0.0003122786505471,0.00031227778553539,-0.00031228051062353,0.00031228080713333,-0.00031228057249966,0.00031228074512763,-0.00031228243271337,0.00031228376684801,-0.00030483264818918,0.00030483177327157,-0.00030483388000988,0.00030483629193436,-0.00030483252563696,0.00030483189768103,-0.00030483391870574,0.00030483625193171,-6.7848590675703e-09,-6.7849262275235e-09,-0.00026735396141925,0.00026733670760078,-5.9448216710434e-09,-7.7723198968934e-09,-0.00027538531425604,0.00027537097744518,-0.00027538594024689,0.00027537038117626,-0.00027538742409276,0.00027537308704997,-0.00027538803039853,0.00027537247109592,-0.00027104126470382,0.00027102649369991,-0.00027103964875954,0.00027102487798907,0.77960726241633,122718,2924,0.0011133243631553,0.001292136223605,0.0011133243631553,31.910901944082,0.00017048721555265,0.00017048721555265,0.00017048721555265,2197571.6162534,0.0035249889622149
3919200,0.24253951693785,0.0046790701001589,0.0014864185845684,0.001706232931022,0.0014864185845685,-0.00037128508784444,0.00037127560273117,-3.6478448387945e-09,-3.647833365143e-09,-3.3663767099352e-09,-3.6147556889891e-09,-0.00038783812322666,0.00038783030897288,-0.00038783949630325,0.00038783168171372,-0.00038783819578324,0.00038783023559007,-0.00038783956760801,0.00038783160708216,-0.00037425028660041,0.00037424225390345,-0.0003742513828617,0.00037424334991408,-2.1611328149054e-10,-3.1861489123966e-11,-2.3607287406222e-10,-2.2104862491036e-11,-0.00046756084446527,0.00046756058944267,-0.00048136764040009,0.00048136725482634,-0.00048136886442472,0.00048136862041918,-0.00048136887500523,0.00048136861033585,-0.00048137009984786,0.00048136997672036,-0.00044805005051605,0.00044804967632535,-0.00044805089981738,0.0004480509117562,-0.00044805003412075,0.00044804969341161,-0.00044805090301092,0.00044805090808569,-3.6389572175828e-09,-3.6389457194192e-09,-0.00037128507895798,0.00037127561161778,-3.3458608517771e-09,-3.6180785875726e-09,-0.00038783810589011,0.00038783032133383,-0.00038783819505493,0.00038783024098376,-0.00038783947965181,0.00038783169475889,-0.00038783956650358,0.00038783161210151,-0.0003742513791147,0.0003742433540742,-0.00037425028444456,0.00037424225965122,0.74640349119053,122718,2924,0.001545832946853,0.0019462497974782,0.0015458329468533,32.49668841207,0.00017517350729656,0.00017517350729656,0.00017517350729656,3102576.0387987,0.0050506408585981
4419200,0.33766512471963,0.0063623078845442,0.0019704135015091,0.0024214808815257,0.0019704135015094,-0.00047876102499334,0.00047875615943105,-1.5830061281354e-09,-1.5830706756323e-09,-1.8586103942531e-09,-1.5302881380125e-09,-0.0005049765592403,0.00050497313033579,-0.00050497733708836,0.00050497390789856,-0.00050497642662246,0.00050497325031046,-0.0005049772149048,0.0005049740383091,-0.00048086037164566,0.00048085683262097,-0.00048086092218819,0.00048085738280733,-2.2184801307784e-10,-5.4919139237406e-10,-2.1462042443453e-10,-5.538549737872e-10,-0.0006478939533612,0.00064789318517761,-0.00067880717632224,0.00067880663166819,-0.00067880808559817,0.00067880731757573,-0.00067880808006848,0.00067880732283693,-0.00067880898970572,0.00067880800908548,-0.0006090419221355,0.0006090414173005,-0.00060904372388322,0.00060904250128311,-0.00060904194354311,0.00060904139698904,-0.00060904371860441,0.00060904250587907,-1.5757815586959e-09,-1.5758459492141e-09,-0.00047876101786641,0.00047875616655821,-1.8549363085132e-09,-1.5196520942677e-09,-0.00050497654636268,0.00050497313728381,-0.00050497642518895,0.00050497325742878,-0.00050497732494655,0.00050497391558181,-0.00050497721297894,0.00050497404493673,-0.0004808609151396,0.00048085738957235,-0.00048086036572307,0.00048085684050843,0.74424082049435,122718,2924,0.0019929206336531,0.0026958606745869,0.0019929206336535,33.598702076847,0.00018398961661478,0.00018398961661478,0.00018398961661478,3894513.4761173,0.0067041052500314
4919200,0.44098380624275,0.0081771640270632,0.002468010793903,0.0032411424392567,0.0024680107939035,-0.00058842337675959,0.0005884203884798,-8.2364797941188e-10,-8.2375523832617e-10,-1.2240593362825e-09,-7.5737693118405e-10,-0.00062681165799802,0.00062681003395687,-0.0006268121157167,0.00062681049149207,-0.00062681147645969,0.00062681019951223,-0.00062681194561477,0.00062681066848067,-0.00058916822898563,0.00058916624935612,-0.00058916868503663,0.0005891667050146,-2.0176844140673e-10,-6.4885627256274e-10,-1.6655137529334e-10,-6.7718077876852e-10,-0.00085619851193883,0.00085619766819441,-0.00090884902513889,0.0009088484864802,-0.00090884960724878,0.0009088487495027,-0.00090884958427913,0.00090884877226695,-0.0009088501660571,0.00090884903495159,-0.00079245575423353,0.00079245530724318,-0.00079245772802638,0.00079245621901499,-0.00079245581391789,0.00079245524867763,-0.00079245770793618,0.00079245623842632,-8.1537395821983e-10,-8.154812302842e-10,-0.00058842336867934,0.0005884203965604,-1.2431076439148e-09,-7.2144812584781e-10,-0.00062681165098238,0.00062681003444291,-0.00062681146756154,0.00062681021475023,-0.00062681210942508,0.00062681049270154,-0.00062681193618153,0.00062681068318491,-0.00058916866893225,0.00058916672045854,-0.00058916821374488,0.0005891662656608,0.74696695512676,122718,2924,0.0024489480544377,0.0035610241490293,0.0024489480544384,35.343639355783,0.00019794911484627,0.00019794911484627,0.00019794911484627,4496314.3401416,0.0084948629203789
5419200,0.54175316248644,0.0098959196120354,0.0029178922292645,0.0040601351535058,0.0029178922292652,-0.00068311522331494,0.00068311470326411,2.0974379766948e-10,2.0968332627641e-10,-6.1165359836199e-10,4.5451452401093e-10,-0.00073549549155484,0.00073549594200447,-0.00073549569674501,0.00073549614696827,-0.00073549511295373,0.00073549630783452,-0.00073549533101227,0.00073549652566557,-0.00068135481954818,0.00068135519102686,-0.00068135512651795,0.00068135549771139,-6.2650018143774e-11,-1.0881989335343e-09,5.4564192895479e-11,-1.189444533286e-09,-0.0010640264753815,0.0010640253396736,-0.0011415522411014,0.0011415518568438,-0.0011415528875246,0.0011415516888002,-0.0011415528134161,0.0011415517644336,-0.0011415534599848,0.0011415515965199,-0.00097192963326128,0.00097192941982789,-0.00097193248142766,0.00097192977095385,-0.00097192979701584,0.0009719292549477,-0.00097193241685592,0.00097192983636437,2.270159567099e-10,2.2695557144663e-10,-0.00068311520618339,0.00068311472039607,-6.93464725511e-10,5.7406282625587e-10,-0.00073549550245751,0.00073549592786366,-0.00073549506912875,0.00073549635519622,-0.00073549570751938,0.0007354961326987,-0.00073549528701627,0.00073549657285765,-0.00068135507620249,0.00068135554665113,-0.00068135476865536,0.00068135523938601,0.73229095938567,122718,2924,0.0028426356641187,0.004423436381977,0.0028426356641196,36.272948603561,0.00020538358882849,0.00020538358882849,0.00020538358882849,4889276.0997629,0.010160088382834
5919200,0.63311299764124,0.011236612502128,0.0032531928958593,0.0047302267104084,0.0032531928958601,-0.00074870059957856,0.00074870216123321,1.0332345736338e-09,1.0331572040275e-09,3.0843910088984e-11,1.4493246547737e-09,-0.00081541279561044,0.00081541509890213,-0.00081541280570964,0.00081541510881224,-0.00081541229721857,0.0008154155844933,-0.00081541232214339,0.00081541560922725,-0.00074100614072667,0.00074100835914471,-0.00074100644132968,0.00074100865942524,-9.3581011752563e-12,-1.3615013156576e-09,1.4952845983172e-10,-1.4977441586499e-09,-0.0012355185174616,0.001235517167924,-0.0013424510182809,0.0013424506774386,-0.0013424515012186,0.0013424500650447,-0.0013424514006359,0.0013424501670947,-0.0013424518836191,0.0013424495547324,-0.0011118440690519,0.0011118439243143,-0.0011118471575742,0.0011118437296345,-0.0011118442864533,0.001111843704998,-0.0011118470718763,0.0011118438167402,1.0541205103071e-09,1.0540429798111e-09,-0.00074870057889414,0.00074870218191802,-8.1487528847223e-11,1.6082352807307e-09,-0.00081541281542205,0.00081541507684654,-0.00081541223812327,0.00081541564643167,-0.00081541282509077,0.00081541508632561,-0.00081541226287902,0.00081541567099769,-0.00074100637560576,0.00074100872367246,-0.00074100607371251,0.00074100842209908,0.6360792580923,122718,2924,0.0031153167013612,0.0051345074438195,0.0031153167013621,36.779089656348,0.00020943271725079,0.00020943271725079,0.00020943271725079,5072869.7544065,0.011430134805711
6419200,0.71047994602481,0.012292251566794,0.0035144901430092,0.0052632712807745,0.0035144901430099,-0.00079670028564856,0.00079670388688359,1.8491868326337e-09,1.8491118493294e-09,5.9486251742828e-10,2.4766803873201e-09,-0.00087356496348326,0.00087356906790489,-0.00087356479304509,0.00087356889727792,-0.00087356430866161,0.00087356971059012,-0.00087356415571118,0.000873569557449,-0.00078366288980008,0.00078366697828871,-0.00078366321472781,0.00078366730289599,8.0709065158166e-11,-1.7073187438784e-09,2.915182977867e-10,-1.888250641592e-09,-0.0013710851345783,0.0013710835361373,-0.0015059953117481,0.0015059950598911,-0.0015059957229469,0.0015059940080325,-0.0015059955900376,0.0015059941432425,-0.0015059960012799,0.0015059930914134,-0.0012187855640026,0.0012187855442808,-0.0012187891572616,0.0012187848130802,-0.0012187858475105,0.0012187852576178,-0.0012187890444175,0.0012187849281824,1.8754473257319e-09,1.8753721593498e-09,-0.00079670025964964,0.00079670391288298,4.4413080687342e-10,2.6866337595973e-09,-0.00087356499459317,0.00087356903653032,-0.0008735642285374,0.00087356979189243,-0.00087356482325617,0.00087356886500396,-0.00087356407557209,0.0008735696387376,-0.00078366312842403,0.0007836673874969,-0.00078366280127046,0.0007836670606612,0.59525943091212,122718,2924,0.0033148905335129,0.0056962827352916,0.0033148905335139,36.741514789751,0.000209132118318,0.000209132118318,0.000209132118318,5227298.3689513,0.012402555877458
6919200,0.78015609252933,0.013321157000476,0.0037728425352659,0.0057754719299437,0.0037728425352668,-0.0008451039552858,0.00084510554482223,1.0842712387782e-09,1.0841960450629e-09,-1.1466325728532e-10,1.6417825283766e-09,-0.00093195381342471,0.00093195631072342,-0.00093195378647105,0.00093195628358308,-0.00093195320152616,0.00093195691069642,-0.00093195318850476,0.00093195689748622,-0.00082956223992924,0.00082956468744736,-0.00082956266704245,0.00082956511423771,1.2370432150613e-11,-1.6658350788818e-09,2.5360984515802e-10,-1.8776950943508e-09,-0.0015083038236321,0.0015083021978581,-0.0016652406793531,0.0016652403231547,-0.0016652411412704,0.0016652393791603,-0.0016652409880249,0.0016652395350113,-0.0016652414499827,0.0016652385910435,-0.0013323686339308,0.0013323685854505,-0.0013323722852597,0.0013323679961932,-0.0013323689591409,0.0013323682562599,-0.0013323721523656,0.0013323681319402,1.1126537123822e-09,1.1125782339132e-09,-0.00084510392720771,0.00084510557290118,-2.9291432540372e-10,1.8848567369233e-09,-0.00093195385100314,0.00093195627090457,-0.00093195311144173,0.00093195700424308,-0.00093195382318962,0.00093195624290307,-0.0009319530980588,0.000931956990672,-0.00082956256891308,0.00082956521108628,-0.00082956213987341,0.00082956478236562,0.64378173705164,122718,2924,0.0035161313747321,0.0062645401191706,0.0035161313747339,38.624422807116,0.00022419538245693,0.00022419538245693,0.00022419538245693,5218718.1640277,0.013385872279872
7419200,0.84018948920442,0.014086672267871,0.0039605792871497,0.0061655136935709,0.0039605792871508,-0.00087304106269669,0.00087304193597145,7.7612118135787e-10,7.7604645234954e-10,-2.9089736023937e-10,1.1805186823469e-09,-0.00097312389740003,0.00097312584157326,-0.00097312392052683,0.00097312586451459,-0.00097312337832567,0.00097312634586187,-0.0009731234138361,0.00097312638118483,-0.00085388561298531,0.00085388734043765,-0.00085388608163646,0.00085388780876718,-8.018415601731e-11,-1.48167890655e-09,1.6653001485765e-10,-1.7028082991988e-09,-0.0016197699283862,0.0016197683910117,-0.0017964867963886,0.0017964863444682,-0.0017964872522595,0.0017964855733538,-0.0017964870941838,0.0017964857337501,-0.0017964875500934,0.0017964849626604,-0.0014220378056568,0.0014220376824666,-0.0014220412817254,0.0014220374296428,-0.0014220381403353,0.0014220373437287,-0.0014220411418962,0.0014220375724184,8.0300094542195e-10,8.029253986237e-10,-0.00087304103616783,0.00087304196250091,-4.7886432255306e-10,1.4306986343971e-09,-0.00097312393734389,0.00097312579679168,-0.0009731232892246,0.00097312644114644,-0.00097312395988168,0.00097312581914281,-0.00097312332397877,0.00097312647571378,-0.00085388598270144,0.00085388790688334,-0.00085388551277649,0.00085388743727829,0.55664260548471,122718,2924,0.0036324004338653,0.0067258478382378,0.0036324004338666,40.763139547681,0.00024130511638145,0.00024130511638145,0.00024130511638145,4957096.7221339,0.014089323505031
7919200,0.88528168075925,0.014612249060904,0.0040908510029055,0.0064305470550921,0.0040908510029066,-0.00088781831753853,0.00088782277582766,2.140340191194e-09,2.1402652581391e-09,8.7511614440727e-10,2.7430718620081e-09,-0.00099436635575586,0.00099437129182363,-0.00099436610904556,0.00099437104492884,-0.00099436570009517,0.00099437193144066,-0.00099436547027403,0.0009943717014331,-0.0008656503017868,0.00086565505821596,-0.0008656507680129,0.00086565552411921,3.3305858705349e-11,-1.7296866702595e-09,2.9496575317518e-10,-1.960789471757e-09,-0.0016920155035532,0.0016920138365126,-0.0018861653798658,0.0018861650818291,-0.0018861656917213,0.0018861638760891,-0.0018861655249879,0.0018861640452233,-0.0018861658368809,0.0018861628395067,-0.001476131101001,0.0014761310955335,-0.001476134854862,0.0014761303750031,-0.0014761314529796,0.0014761307393149,-0.0014761347097181,0.0014761305232025,2.1681930666534e-09,2.1681172902376e-09,-0.00088781829009715,0.00088782280326966,6.7812631850057e-10,3.0047143890591e-09,-0.00099436640001234,0.00099437124469334,-0.00099436560516145,0.00099437203065772,-0.00099436615244536,0.00099437099694055,-0.00099436537478829,0.00099437180009866,-0.00086565066431689,0.00086565562672602,-0.00086565019612039,0.00086565515885051,0.5070717593097,122718,2924,0.0036939577732063,0.0070247730318161,0.0036939577732076,40.956098573459,0.00024284878858768,0.00024284878858768,0.00024284878858768,4842638.2861192,0.01451743974844
8419200,0.91885336123938,0.014984776806329,0.0041847066303908,0.0066153635455461,0.0041847066303919,-0.00089594748196963,0.0008959518132584,2.0979729072152e-09,2.0978979220418e-09,6.645893299029e-10,2.8814998724804e-09,-0.0010085135463865,0.0010085182983086,-0.0010085133178006,0.0010085180695387,-0.0010085127794428,0.0010085190543238,-0.0010085125663039,0.0010085188409989,-0.00087172873900799,0.00087173352066356,-0.00087172924276304,0.00087173402409572,1.3715302901029e-10,-1.9746625400619e-09,4.585128471002e-10,-2.2604306886882e-09,-0.0017457835111779,0.0017457817077191,-0.0019519249505023,0.0019519247801,-0.0019519254002507,0.0019519234116827,-0.0019519251962691,0.0019519236197236,-0.0019519256460541,0.0019519222513287,-0.0015172398185402,0.0015172400178617,-0.0015172440303791,0.001517238843894,-0.0015172402460049,0.0015172395841701,-0.001517243851736,0.0015172390269751,2.1320200071714e-09,2.1319441288405e-09,-0.0008959474483467,0.00089595184688194,4.2013819856643e-10,3.2052891251082e-09,-0.0010085136050234,0.0010085182391882,-0.0010085126587586,0.0010085191772665,-0.0010085133750566,0.0010085180090361,-0.0010085124452263,0.0010085189635488,-0.00087172911427097,0.00087173415137105,-0.00087172860782277,0.00087173364524417,0.48138031764921,122718,2924,0.0037278778490991,0.0072471560538443,0.0037278778491004,41.432377464894,0.00024665901971915,0.00024665901971915,0.00024665901971915,4660360.465703,0.014811959278032
8919200,0.94332687786441,0.015228335349418,0.0042465596444184,0.0067352160605802,0.0042465596444195,-0.00089823009264381,0.00089823468245151,2.1978746865124e-09,2.1977996632081e-09,6.6070559611815e-10,3.0967350821042e-09,-0.0010164012441288,0.0010164061626387,-0.0010164010032426,0.0010164059215686,-0.00101640040632,0.0010164069920517,-0.0010164001803046,0.0010164067658505,-0.00087247250079448,0.00087247756830855,-0.00087247302603574,0.00087247809322681,2.0079836780652e-10,-2.1268422273711e-09,5.8974396760896e-10,-2.4772600319947e-09,-0.0017832654425523,0.0017832635533353,-0.0019977237092618,0.0019977236401934,-0.0019977242389468,0.0019977221219022,-0.0019977239923178,0.0019977223745984,-0.0019977245220386,0.0019977208563289,-0.0015457470469841,0.0015457474307449,-0.0015457515820592,0.0015457458967305,-0.0015457475608983,0.0015457469081511,-0.0015457513629845,0.0015457461219793,2.2388026265761e-09,2.2387266554907e-09,-0.00089823005213778,0.00089823472295815,3.6010347508602e-10,3.4931606772371e-09,-0.0010164013188469,0.0010164060888657,-0.0010164002569446,0.0010164071427127,-0.0010164010761122,0.0010164058459459,-0.0010164000305477,0.0010164069161306,-0.00087247286904836,0.00087247824896496,-0.00087247234071396,0.00087247772095209,0.43063171924148,122718,2924,0.0037374997581874,0.0074021221077122,0.0037374997581887,41.8913969179,0.0002503311753432,0.0002503311753432,0.0002503311753432,4453357.1752466,0.014988801142256
9419200,0.96007846580031,0.015386674063246,0.0042874988139571,0.0068116764353308,0.0042874988139582,-0.00089697419690887,0.00089698156056833,3.2679375777355e-09,3.2678623896777e-09,1.528366674927e-09,4.3903662757357e-09,-0.0010179370310097,0.0010179442679309,-0.0010179365873015,0.0010179438240397,-0.0010179360486909,0.0010179452423786,-0.0010179356232039,0.0010179448167056,-0.00087029501176566,0.00087030248357436,-0.00087029556392499,0.00087030303541033,3.138143509517e-10,-2.4093794329945e-09,7.505133868018e-10,-2.8021968425159e-09,-0.0018050792366318,0.0018050771829642,-0.0020256674546374,0.0020256675403635,-0.0020256678992092,0.0020256655892643,-0.0020256676231626,0.0020256658727069,-0.0020256680677702,0.0020256639216296,-0.0015610638559435,0.0015610644117569,-0.001561068760391,0.001561062303723,-0.0015610644295024,0.0015610638278992,-0.0015610685155124,0.0015610625559146,3.3139233154322e-09,3.3138472261441e-09,-0.00089697415137085,0.00089698160610688,1.1912871507894e-09,4.8352668775878e-09,-0.0010179371170967,0.0010179441851812,-0.001017935878729,0.0010179454115384,-0.0010179366710537,0.0010179437389535,-0.0010179354530423,0.0010179449856658,-0.00087029538735837,0.00087030321046795,-0.00087029483135681,0.00087030265478795,0.40723906797413,122718,2924,0.0037323872987687,0.0074923101591934,0.0037323872987698,41.151140014555,0.00024440912011644,0.00024440912011644,0.00024440912011644,4333064.7434569,0.015069985237843
9919200,0.97134592493072,0.015492778378268,0.0043153819173561,0.0068620145435551,0.0043153819173572,-0.00089352308115278,0.0008935319722035,3.8624012750699e-09,3.8623259808737e-09,1.8900180392187e-09,5.2427135503468e-09,-0.0010174638043569,0.0010174722319877,-0.0010174632570182,0.0010174716844655,-0.0010174626609313,0.0010174733715236,-0.0010174621327584,0.0010174728431648,-0.00086636065082942,0.00086636954051889,-0.00086636122749495,0.00086637011686053,4.5877782112307e-10,-2.7389710944308e-09,9.6375683418438e-10,-3.1937034139059e-09,-0.0018191616949643,0.0018191594625733,-0.002043036223178,0.0020430364993502,-0.0020430367246595,0.0020430341944052,-0.0020430364061911,0.0020430345221566,-0.0020430369077077,0.0020430322172327,-0.0015714073801627,0.0015714081897035,-0.0015714128048274,0.0015714054192201,-0.0015714080394738,0.001571407517831,-0.0015714125221048,0.0015714057108461,3.9148758955044e-09,3.9147997594195e-09,-0.00089352302912589,0.00089353202423099,1.4985313039561e-09,5.7575335455165e-09,-0.0010174639075843,0.0010174721351956,-0.0010174624619074,0.0010174735670559,-0.001017463357275,0.0010174715847014,-0.0010174619337618,0.0010174730387246,-0.00086636102325363,0.00086637031933237,-0.00086636044187192,0.00086636973827252,0.40432824355073,122718,2924,0.0037181422407506,0.0075504986493353,0.0037181422407519,39.828054856499,0.000233824438852,0.000233824438852,0.000233824438852,4214847.8920492,0.015100151769614
10419200,0.97891734195611,0.015568607485268,0.0043356520712527,0.0068973033427617,0.0043356520712538,-0.00088879069996549,0.00088880067259521,4.2821754851199e-09,4.2821001526585e-09,2.0832297993626e-09,5.9160649297479e-09,-0.0010157945882747,0.001015803796272,-0.0010157939728074,0.0010158031806212,-0.0010157932887753,0.0010158050967077,-0.0010157926925332,0.0010158045002798,-0.0008615226895384,0.0008615326273891,-0.00086152328468309,0.00086153322221045,6.1033637187809e-10,-3.0571674353981e-09,1.2036500800222e-09,-3.5939615250601e-09,-0.001828438986974,0.0018284365937079,-0.0020538252948249,0.0020538257836812,-0.0020538259038132,0.0020538231578393,-0.002053825530098,0.0020538235433394,-0.0020538261391213,0.0020538209175184,-0.0015785881328168,0.0015785892521621,-0.0015785941203793,0.0015785857903277,-0.0015785889038006,0.00157858846563,-0.0015785937869882,0.00157858613472,4.3426070533869e-09,4.3425309055964e-09,-0.00088879063995277,0.00088880073260867,1.6190935759497e-09,6.5227275903223e-09,-0.0010157947139669,0.0010158036801953,-0.0010157930526175,0.0010158053267192,-0.0010157940948064,0.0010158030608495,-0.0010157924566008,0.0010158047305171,-0.00086152304459807,0.00086153346028058,-0.00086152244390833,0.00086153285991284,0.42845224819223,122718,2924,0.0036985671765277,0.0075888003797093,0.0036985671765292,38.099893088639,0.00021999914470911,0.00021999914470911,0.00021999914470911,4104263.1033552,0.015099309922318
10919200,0.98446929491822,0.015620042471141,0.0043494048262384,0.0069212328186628,0.0043494048262395,-0.00088605659815306,0.00088606319683748,2.9831432675907e-09,2.9830679885e-09,8.4133282846438e-10,4.547173911076e-09,-0.0010167434168011,0.0010167496937889,-0.0010167430548772,0.001016749331681,-0.0010167421678003,0.0010167509481691,-0.001016741819612,0.0010167505997948,-0.00085875472629948,0.00085876187569846,-0.00085875530320648,0.00085876245228187,5.9698053206629e-10,-2.9797959999247e-09,1.2788055714852e-09,-3.6063320936771e-09,-0.0018380992352655,0.0018380969047519,-0.0020639382591468,0.0020639387723218,-0.0020639391774688,0.0020639364355264,-0.0020639387468692,0.0020639368806372,-0.002063939665226,0.0020639345438624,-0.0015871050111012,0.0015871063224188,-0.0015871111959132,0.0015871028712955,-0.0015871058973057,0.0015871054173593,-0.0015871108052252,0.0015871032753364,3.050746822389e-09,3.0506706945207e-09,-0.00088605653089541,0.00088606326409575,2.9709517171114e-10,5.251769599154e-09,-0.0010167435650921,0.001016749554966,-0.0010167418958611,0.001016751214679,-0.0010167431991217,0.0010167491888105,-0.0010167415476811,0.0010167508663136,-0.00085875502641648,0.0008587627272943,-0.00085875444417059,0.00085876214537032,0.39597081456719,122718,2924,0.00368727737438,0.0076286664296416,0.0036872773743814,37.946235612268,0.00021876988489814,0.00021876988489814,0.00021876988489814,3967496.311415,0.015116878904038
11419200,0.98851454564194,0.015657494002092,0.0043595349488282,0.0069384241044349,0.0043595349488292,-0.00088472579939645,0.0008847327752289,3.1244760421884e-09,3.1244006590972e-09,9.9408725652808e-10,4.6772663259596e-09,-0.0010156255611846,0.0010156321827417,-0.0010156251695625,0.0010156317909359,-0.0010156243184431,0.0010156334301944,-0.0010156239409575,0.001015633052523,-0.00085735557769411,0.00085736302344852,-0.00085735615998724,0.00085736360541775,5.7862622054262e-10,-2.9694877792455e-09,1.31363698588e-09,-3.6492842028726e-09,-0.0018427194628733,0.0018427171243128,-0.0020704214815864,0.0020704220072371,-0.0020704223879979,0.0020704196034924,-0.002070421923786,0.0020704200842719,-0.0020704228302322,0.0020704176805478,-0.0015896555309182,0.0015896569186643,-0.0015896617782657,0.0015896533786098,-0.0015896564860842,0.0015896559422193,-0.0015896613535686,0.0015896538183763,3.1988164581618e-09,3.1987402073997e-09,-0.00088472572539881,0.00088473284922719,4.0513610969348e-10,5.4426605980393e-09,-0.0010156257205985,0.0010156320329142,-0.0010156240230371,0.0010156337204741,-0.0010156253246272,0.001015631636758,-0.0010156236454412,0.0010156333426931,-0.00085735585897147,0.00085736390468425,-0.00085735527129929,0.00085736331733434,0.39457194111806,122718,2924,0.0036817793243172,0.0076477728727873,0.0036817793243186,37.628520441386,0.00021622816353109,0.00021622816353109,0.00021622816353109,3937416.5220703,0.015125112082192
11919200,0.99144625398394,0.015686795931254,0.0043675449925289,0.006951705946195,0.00436754499253,-0.00088261371149633,0.00088262118250523,3.312606537714e-09,3.3125311566888e-09,1.1649569001035e-09,4.8914543392217e-09,-0.0010150646699195,0.0010150717027978,-0.0010150642443684,0.0010150712770628,-0.0010150634119953,0.0010150729652096,-0.0010150630009883,0.0010150725540166,-0.00085519603738932,0.00085520389785444,-0.00085519662831731,0.00085520448845851,5.9581591793857e-10,-2.9909137135215e-09,1.3794333818453e-09,-3.7189375002474e-09,-0.0018469610126638,0.0018469586702258,-0.0020751071103376,0.0020751076940767,-0.0020751080147941,0.0020751051947781,-0.0020751075195881,0.0020751057079907,-0.002075108424079,0.0020751032087128,-0.0015931614324251,0.0015931629348645,-0.0015931677846676,0.0015931592354904,-0.0015931624503546,0.0015931618939247,-0.0015931673292635,0.0015931597072009,3.3907130924359e-09,3.3906368274404e-09,-0.00088261363370016,0.00088262126030184,5.3279896888664e-10,5.7094450969358e-09,-0.0010150648419161,0.0010150715407039,-0.001015063097115,0.0010150732749438,-0.0010150644117838,0.0010150711103866,-0.0010150626859326,0.0010150728635764,-0.0008551963075674,0.00085520480745783,-0.0008551957112499,0.0008552042114625,0.42516298576731,122718,2924,0.0036730447257905,0.007665277253498,0.0036730447257915,37.105074313962,0.0002120405945117,0.0002120405945117,0.0002120405945117,3876710.2379701,0.015125157858876
12419200,0.99360459794068,0.015709490544059,0.004373785878696,0.0069619187866658,0.0043737858786971,-0.00087996822037209,0.00087997522341784,3.1297533292466e-09,3.129677980991e-09,1.002590527055e-09,4.692142909902e-09,-0.0010151885920962,0.0010151952086884,-0.0010151882046242,0.0010151948210326,-0.0010151873474034,0.0010151964581584,-0.0010151869736061,0.0010151960841754,-0.00085265698904616,0.00085266445274236,-0.00085265757951533,0.00085266504288748,5.9898740422832e-10,-2.9559242119561e-09,1.4231413443618e-09,-3.7251065879625e-09,-0.0018517444712443,0.0018517421663499,-0.0020793830861918,0.0020793837077387,-0.0020793840443392,0.0020793812348602,-0.0020793835229045,0.0020793817752887,-0.0020793844810863,0.0020793793024306,-0.0015979379514821,0.0015979395528965,-0.0015979443569315,0.0015979358066913,-0.0015979390221652,0.0015979384579628,-0.0015979438750916,0.0015979363057185,3.209149664631e-09,3.2090734281254e-09,-0.00087996814122521,0.00087997530256519,3.3138745507602e-10,5.5530821754436e-09,-0.0010151887763644,0.0010151950341408,-0.0010151870179291,0.001015196782862,-0.0010151883842154,0.0010151946418063,-0.0010151866438593,0.0010151964086069,-0.00085265724385001,0.00085266537685448,-0.00085265664817001,0.00085266478149651,0.44663644431852,122718,2924,0.0036621056954333,0.0076849895336329,0.0036621056954343,36.80245942412,0.00020961967539296,0.00020961967539296,0.00020961967539296,3779621.720786,0.015122975565061
12919200,0.99517483185969,0.01572498029723,0.0043780418792151,0.0069688965387983,0.0043780418792162,-0.00087650135542486,0.0008765091785814,3.438729281486e-09,3.4386539082149e-09,1.2819067293169e-09,5.0449675480868e-09,-0.0010136228033077,0.0010136300931949,-0.0010136223587666,0.0010136296484699,-0.0010136215331027,0.0010136313679262,-0.0010136211030635,0.0010136309377012,-0.00084929577967464,0.00084930392843062,-0.00084929638095807,0.00084930452939005,6.2651219942354e-10,-2.9943465872378e-09,1.4860783746787e-09,-3.7980284747783e-09,-0.0018543086149996,0.0018543063000593,-0.0020819684674933,0.0020819691533083,-0.0020819693951561,0.0020819665529159,-0.0020819688513182,0.0020819671167888,-0.0020819697790156,0.002081964516417,-0.0016000461694939,0.0016000478696518,-0.0016000526633296,0.001600043948091,-0.0016000472855664,0.0016000467280838,-0.0016000521596563,0.0016000444698207,3.5200722479591e-09,3.5199960122012e-09,-0.00087650127429085,0.00087650925971598,5.7901228889555e-10,5.9428496401331e-09,-0.0010136229975407,0.0010136299091367,-0.0010136211901432,0.0010136317058441,-0.0010136225481511,0.0010136294595621,-0.00101362075982,0.0010136312753354,-0.00084929603183431,0.00084930487674672,-0.00084929542528238,0.00084930427051676,0.41875849256559,122718,2924,0.003647750854789,0.0076955469749547,0.0036477508547902,36.136874925766,0.00020429499940612,0.00020429499940612,0.00020429499940612,3707234.6562883,0.015104558922845
13419200,0.99629357192196,0.01573577187218,0.0043810192146753,0.0069737334428283,0.0043810192146764,-0.00087312027410352,0.00087312964381417,4.0294659319953e-09,4.0293904593652e-09,1.7527513807808e-09,5.77037915976e-09,-0.0010095587337667,0.001009567301085,-0.0010095581751767,0.0010095667423113,-0.001009557378167,0.0010095686623527,-0.001009556835711,0.001009568119711,-0.00084586974210629,0.00084587923077222,-0.00084587036220645,0.0008458798505484,6.938696221711e-10,-3.1650783541465e-09,1.5947359167359e-09,-4.0064395528453e-09,-0.0018529609163628,0.0018529585014525,-0.0020820241213078,0.0020820249058121,-0.002082025013163,0.0020820220460066,-0.0020820244441203,0.0020820226367613,-0.00208202533601,0.002082019776976,-0.0015972681567235,0.0015972699843074,-0.0015972749013384,0.0015972656963871,-0.0015972693246323,0.0015972687890235,-0.0015972743745762,0.0015972662425114,4.1165639809377e-09,4.1164876696568e-09,-0.00087312018722817,0.00087312973069009,1.0191161434661e-09,6.7125775819416e-09,-0.0010095589364812,0.0010095671103316,-0.0010095570161774,0.0010095690178227,-0.0010095583726164,0.0010095665462818,-0.0010095564735554,0.0010095684750155,-0.00084586999458138,0.00084588021621754,-0.00084586936866269,0.00084587959062117,0.40900439415344,122718,2924,0.0036337230427399,0.0076899953603255,0.0036337230427411,34.796084454932,0.00019356867563945,0.00019356867563945,0.00019356867563945,3714519.3127401,0.015070439659013
13919200,0.99711738020707,0.015743552222057,0.004383165954687,0.0069772203126821,0.0043831659546881,-0.00087046426093457,0.00087047284678848,3.7326537230829e-09,3.7325782431519e-09,1.4163294889997e-09,5.5081781174101e-09,-0.0010071154296286,0.0010071232994582,-0.0010071149293688,0.0010071227990146,-0.0010071140525919,0.0010071246846126,-0.0010071135669986,0.0010071241988335,-0.00084312919842754,0.00084313807966903,-0.00084312981464395,0.00084313869556132,7.2048556618993e-10,-3.219919002273e-09,1.6623555532378e-09,-4.1011278740056e-09,-0.0018526125701425,0.0018526101280502,-0.0020821811677041,0.0020821819963096,-0.0020821821791553,0.0020821791585528,-0.0020821815841967,0.0020821797765512,-0.0020821825956822,0.0020821769388147,-0.0015963776410137,0.0015963795772528,-0.0015963845774075,0.0015963751585878,-0.0015963788615785,0.0015963783277777,-0.0015963840256165,0.0015963757308276,3.8237293741482e-09,3.8236530582007e-09,-0.00087046417006977,0.00087047293765384,6.4771501942724e-10,6.4949576808118e-09,-0.0010071156423997,0.0010071230994105,-0.0010071136732432,0.0010071250569426,-0.0010071151365989,0.0010071225934248,-0.0010071131874867,0.0010071245710009,-0.0008431294297213,0.00084313907853468,-0.0008431288075025,0.00084313845663822,0.40047476240274,122718,2924,0.0036227040576739,0.0076885521276511,0.0036227040576752,33.829174324251,0.000185833394594,0.000185833394594,0.000185833394594,3700274.1137819,0.015046607147904
14419200,0.99772493626203,0.01574902657338,0.0043846746352739,0.0069796773028314,0.004384674635275,-0.00086739416622695,0.00086740324750966,3.9220865129695e-09,3.9220110323577e-09,1.5533886592045e-09,5.7573219249437e-09,-0.0010042841847571,0.0010042924501224,-0.0010042836495864,0.001004291914768,-0.0010042827706133,0.0010042938731529,-0.0010042822504479,0.0010042933528018,-0.00084003195447314,0.00084004127502556,-0.00084003257771656,0.00084004189794494,7.5448298688618e-10,-3.2930478389431e-09,1.7357927488407e-09,-4.2122609076736e-09,-0.0018515204663448,0.0018515179864569,-0.0020814479219147,0.0020814488133769,-0.0020814489484595,0.0020814458649973,-0.0020814483286707,0.0020814465090834,-0.0020814493552498,0.002081443560724,-0.0015948698670263,0.0015948719097719,-0.0015948769613705,0.0015948672881867,-0.0015948711380201,0.0015948706083931,-0.0015948763857004,0.0015948678853509,4.0169839756304e-09,4.016907648043e-09,-0.00086739407152679,0.0008674033422105,7.5153964156806e-10,6.7865606776921e-09,-0.0010042844071267,0.001004292241295,-0.0010042823746369,0.0010042942615447,-0.0010042838661477,0.001004291700131,-0.0010042818543231,0.0010042937410456,-0.00084003217626895,0.00084004229738387,-0.00084003154682521,0.00084004166826262,0.38210045494667,122718,2924,0.0036099678891303,0.0076840319689508,0.0036099678891318,32.643066224212,0.0001763445297937,0.0001763445297937,0.0001763445297937,3689172.1778163,0.015016165820896
14919200,0.99816072386343,0.015753107961884,0.0043858054721252,0.0069814970176325,0.0043858054721263,-0.00086287749767902,0.00086288853619803,4.6723150386298e-09,4.6722395317397e-09,2.1384689033054e-09,6.695065667016e-09,-0.00099952567453547,0.00099953553737524,-0.00099952499819252,0.00099953486084858,-0.0009995241424563,0.0009995370799544,-0.00099952348311812,0.00099953642043048,-0.00083549865291436,0.00083550968140972,-0.00083549929800126,0.00083551032617239,8.5642034041706e-10,-3.5234007357026e-09,1.8915558045627e-09,-4.4918476860189e-09,-0.001848176786053,0.0018481741820271,-0.002078677736771,0.0020786787763172,-0.0020786787321034,0.0020786754916486,-0.0020786780790491,0.0020786761707392,-0.0020786790744158,0.0020786728860909,-0.0015909501005268,0.0015909523302134,-0.0015909575397763,0.0015909472056445,-0.001590951439148,0.0015909509592056,-0.001590956933845,0.0015909478344729,4.7731767247643e-09,4.7731003813318e-09,-0.00086287739701145,0.00086288863686621,1.294382826052e-09,7.7806558610525e-09,-0.00099952590952548,0.00099953531823572,-0.00099952372285088,0.00099953749000981,-0.00099952522686549,0.00099953463539085,-0.00099952306352988,0.00099953683050368,-0.00083549887382078,0.00083551074809709,-0.00083549822188864,0.00083551009648732,0.39678962402156,122718,2924,0.0035912233730046,0.0076702136070628,0.0035912233730059,30.579953067639,0.00015983962454111,0.00015983962454111,0.00015983962454111,3700005.3882087,0.014964088532279
15419200,0.99845765920097,0.01575652349811,0.0043867629339446,0.0069829976302202,0.0043867629339457,-0.00085440278017086,0.00085441697681774,5.8809691104783e-09,5.8808936309885e-09,3.0447002537491e-09,8.2553557865768e-09,-0.00099252926340888,0.00099254163574006,-0.00099252836732615,0.00099254073947357,-0.00099252751425851,0.00099254339903551,-0.0009925266380046,0.00099254252259584,-0.00082709832514104,0.00082711213634545,-0.00082709900452233,0.00082711281540263,1.0689934607483e-09,-3.9340707706031e-09,2.1870492421469e-09,-4.9772532092133e-09,-0.0018433857409724,0.0018433829463766,-0.0020734702556427,0.0020734715962203,-0.0020734712291204,0.0020734677476073,-0.0020734705245406,0.0020734684802472,-0.0020734714980527,0.0020734646316545,-0.0015863278977952,0.0015863304874912,-0.0015863359521251,0.0015863244556811,-0.0015863293400568,0.0015863290104749,-0.001586335300515,0.0015863251318341,5.9873281381047e-09,5.9872518369384e-09,-0.00085440267394642,0.00085441708304278,2.1320098526801e-09,9.4231706886562e-09,-0.00099252952166514,0.00099254139733311,-0.00099252706118424,0.00099254383894593,-0.00099252861853985,0.00099254049402272,-0.00099252618528802,0.00099254296286443,-0.00082709854900476,0.00082711326820096,-0.0008270978617708,0.00082711258128902,0.48651353790675,122718,2924,0.0035560673268991,0.007650366255735,0.0035560673269004,27.071780739263,0.0001317742459141,0.0001317742459141,0.0001317742459141,3671734.6936104,0.014872594182542
15919200,0.99868583066056,0.015759742222445,0.0043876716763791,0.0069843988696861,0.0043876716763802,-0.00084726883895164,0.00084727915544871,4.393783287716e-09,4.3937079097462e-09,1.600049290962e-09,6.7083744966169e-09,-0.00098991610875969,0.00098992508535255,-0.00098991550662213,0.00098992448303098,-0.00098991440323345,0.00098992680977557,-0.00098991381499,0.00098992622134609,-0.00082028957135121,0.00082030019754053,-0.00082029021515985,0.00082030084102571,1.0942283400753e-09,-3.8507630491851e-09,2.2983355766022e-09,-4.9813929917458e-09,-0.0018444425322276,0.0018444398446457,-0.002072384560085,0.0020723859832736,-0.0020723859096317,0.0020723824773569,-0.0020723851489505,0.002072383267779,-0.0020723864985316,0.0020723797618824,-0.0015887527409101,0.0015887555855622,-0.0015887610378306,0.001588749552845,-0.0015887542952452,0.0015887539943491,-0.0015887603301932,0.0015887502865191,4.5005878498125e-09,4.5005116608395e-09,-0.00084726873210694,0.00084727926229395,6.0186395044004e-10,7.9648203916418e-09,-0.00098991639531583,0.00098992481829409,-0.00098991392102827,0.00098992727946218,-0.0009899157860061,0.00098992420879906,-0.00098991333297828,0.00098992669122684,-0.000820289730174,0.00082030132345096,-0.00082028907895638,0.00082030067255548,0.59571470761932,122718,2924,0.0035264993716742,0.0076546197160236,0.0035264993716754,25.354509885667,0.00011803607908533,0.00011803607908533,0.00011803607908533,3538338.3226292,0.014816924176505
16419200,0.99887097093085,0.015761942332472,0.0043882866052986,0.0069853691218741,0.0043882866052997,-0.00084061159308268,0.00084062017666239,3.7194943449678e-09,3.7194189863928e-09,1.0732500312277e-09,5.876347509382e-09,-0.00098768053708591,0.00098768807551983,-0.00098768006187294,0.00098768760012274,-0.0009876789336377,0.00098768969635546,-0.00098767847033524,0.00098768923286683,-0.0008140377839876,0.00081404688739004,-0.00081403841521549,0.00081404751829447,1.026536016794e-09,-3.6286264654817e-09,2.285651173455e-09,-4.8183798142159e-09,-0.0018470254031882,0.0018470228661895,-0.0020733260901348,0.0020733274930898,-0.0020733275274614,0.0020733242075061,-0.0020733267304214,0.0020733250354765,-0.0020733281677826,0.0020733217499131,-0.0015920774664695,0.0015920803913036,-0.0015920856448946,0.0015920745781193,-0.0015920790939078,0.0015920787254699,-0.0015920848983142,0.0015920753517887,3.8250398555477e-09,3.8249637558652e-09,-0.00084061148734483,0.00084062028240088,1.5832763202305e-11,7.1911514511564e-09,-0.00098768084284904,0.00098768778738041,-0.00098767843466353,0.00098769018484415,-0.00098768036059722,0.00098768730494331,-0.00098767797126235,0.00098768972125751,-0.00081403791216713,0.00081404801894797,-0.00081403727431413,0.00081404738141652,0.50210013400473,122718,2924,0.0034989219320587,0.0076651852908991,0.0034989219320601,24.412379036776,0.00011049903229421,0.00011049903229421,0.00011049903229421,3389427.3417916,0.014771699453504
16919200,0.99902483626839,0.015764327624683,0.0043889698386527,0.0069863879473767,0.0043889698386538,-0.00083954700804316,0.00083955495459903,3.477602693066e-09,3.4775271257204e-09,9.4781658939241e-10,5.487517587281e-09,-0.00098219426475786,0.00098220140423613,-0.00098219382203772,0.00098220096133246,-0.00098219274791645,0.00098220293775877,-0.00098219231657046,0.00098220250622699,-0.00081276889650849,0.00081277739906195,-0.00081276952486897,0.00081277802709787,8.9026979398655e-10,-3.5034475594937e-09,2.1681943925614e-09,-4.7136649221252e-09,-0.0018433340328076,0.0018433314833877,-0.002073536574957,0.0020735378022041,-0.0020735379882598,0.0020735346442831,-0.0020735371811225,0.0020735354857069,-0.0020735385944595,0.002073532327806,-0.0015848862505677,0.0015848890328625,-0.0015848942744703,0.0015848834992189,-0.0015848879029125,0.0015848873385153,-0.0015848935148433,0.0015848842884305,3.5962805134574e-09,3.5962041921056e-09,-0.00083954688928705,0.00083955507335567,-1.1361803704696e-10,6.8363637530558e-09,-0.00098219456376411,0.0009822011224847,-0.00098219223176511,0.00098220344438327,-0.00098219411361036,0.00098220067214631,-0.00098219180012561,0.00098220301255927,-0.00081276900274875,0.00081277854697415,-0.00081276836759688,0.0008127779121445,0.65164127745866,122718,2924,0.0034944679735509,0.0076500427766779,0.0034944679735521,23.779996484774,0.00010543997187819,0.00010543997187819,0.00010543997187819,3479426.9637375,0.014747262533952
17419200,0.99914553930772,0.015766009423192,0.0043894439982062,0.006987121426778,0.0043894439982073,-0.00083098337506241,0.00083099376025276,4.3900542526391e-09,4.389978839496e-09,1.8350365508287e-09,6.483863589271e-09,-0.00097984122349087,0.00097985033850602,-0.00097984061841455,0.00097984973324563,-0.00097983966512251,0.00097985190992983,-0.00097983907426525,0.00097985131888632,-0.00080434349737484,0.00080435398931307,-0.00080434416097264,0.00080435465258757,9.6969333224021e-10,-3.5132159333707e-09,2.264988172872e-09,-4.7414793705893e-09,-0.0018457046203423,0.0018457021398881,-0.0020728361408946,0.0020728375296122,-0.0020728373787081,0.0020728340908116,-0.0020728365583656,0.0020728349434497,-0.0020728377962135,0.0020728315046693,-0.0015895343846173,0.0015895373199802,-0.001589542376933,0.0015895315200227,-0.0015895360599794,0.0015895356047081,-0.0015895416049114,0.0015895323202215,4.4972354361253e-09,4.4971593716517e-09,-0.00083098326765696,0.00083099386765915,7.4199550225262e-10,7.839189182816e-09,-0.00097984153944803,0.00097985003907893,-0.0009798391532209,0.00097985241264385,-0.00097984092733244,0.00097984942677831,-0.00097983856206138,0.0009798518212988,-0.00080434364387525,0.00080435516735549,-0.00080434297403337,0.00080435449783486,0.58772740813402,122718,2924,0.0034589917075583,0.0076596840214009,0.0034589917075603,21.983523812008,9.1068190496066e-05,9.1068190496066e-05,9.1068190496066e-05,3293811.1711022,0.014685091484347
17919200,0.99923775629334,0.015767085146379,0.0043897465735634,0.0069875919992511,0.0043897465735645,-0.00082504784250975,0.00082505979251896,4.9849357935414e-09,4.9848602429264e-09,2.291277150736e-09,7.2251316280412e-09,-0.00097095233518933,0.00097096276791241,-0.00097095160787418,0.00097096204041352,-0.00097095068208357,0.00097096443639274,-0.0009709499706725,0.00097096372479618,-0.00079835350175426,0.00079836535538455,-0.0007983541910913,0.00079836604439764,1.0238119608356e-09,-3.7259124983425e-09,2.3460921900823e-09,-4.9759512344584e-09,-0.0018396654952799,0.001839662861191,-0.0020698932325819,0.0020698946770834,-0.0020698944244706,0.0020698909688988,-0.0020698935897002,0.002069891838756,-0.0020698947816236,0.0020698881305914,-0.0015805622022805,0.0015805652003227,-0.0015805704580913,0.0015805590495354,-0.0015805639098999,0.0015805634497751,-0.0015805696739265,0.0015805598639294,5.1027572423811e-09,5.1026810288242e-09,-0.00082504772455831,0.00082505991047117,1.1894038718517e-09,8.6137920524654e-09,-0.00097095265016607,0.00097096247203033,-0.00097095015179653,0.0009709649553982,-0.00097095191517121,0.00097096173685006,-0.00097094944025441,0.00097096424367072,-0.00079835365605838,0.00079836657687556,-0.00079835295951292,0.0007983658806516,0.4915601615792,122718,2924,0.003434335090526,0.0076347938778066,0.0034343350905277,19.503571277509,7.1228570220076e-05,7.1228570220076e-05,7.1228570220076e-05,3350143.9974099,0.014609778816796
18419200,0.99931106035303,0.015767979960178,0.0043899995652299,0.0069879808297172,0.004389999565231,-0.00082234814610705,0.00082235923794008,4.6740988701828e-09,4.6740231855599e-09,1.9034234039017e-09,6.9623379179734e-09,-0.000963963966346,0.00096397371061177,-0.0009639632914923,0.00096397303557476,-0.00096396227529146,0.00096397542063181,-0.00096396161505079,0.00096397476020569,-0.00079530715587563,0.00079531837492457,-0.00079530784182765,0.00079531906055216,1.0252236810615e-09,-3.8538558603489e-09,2.3784281922984e-09,-5.1322288855187e-09,-0.0018333394821125,0.0018333367240123,-0.0020666591953482,0.0020666606132356,-0.0020666605218035,0.002066656924069,-0.0020666596689718,0.0020666578144654,-0.0020666609954613,0.0020666541253191,-0.0015717648549661,0.0015717678748652,-0.0015717733731698,0.0015717616119431,-0.0015717666015797,0.0015717660826769,-0.0015717725720115,0.001571762445226,4.8042288019387e-09,4.804152459395e-09,-0.00082234801601388,0.0008223593680338,7.8760918805053e-10,8.3923750740497e-09,-0.0009639642800508,0.00096397341764562,-0.00096396172376557,0.00096397595975507,-0.00096396359694403,0.00096397273435427,-0.00096396106344257,0.00096397529924733,-0.0007953072852926,0.00079531961461664,-0.00079530659138083,0.00079531892102719,0.51421839069127,122718,2924,0.0034230801380386,0.0076087506698675,0.0034230801380398,17.48015023383,5.5041201870641e-05,5.5041201870641e-05,5.5041201870641e-05,3461850.2687458,0.014560494291242
18919200,0.99937503311242,0.015768872150045,0.0043902523181785,0.006988367513687,0.0043902523181796,-0.00082031137292756,0.0008203193824404,3.5050056586742e-09,3.504930103773e-09,8.9771523386987e-10,5.6003491945587e-09,-0.00096352472933455,0.00096353189001913,-0.00096352428569442,0.00096353144619527,-0.00096352315995434,0.0009635334778662,-0.00096352272708741,0.00096353304481357,-0.00079312860498832,0.00079313721596662,-0.00079312925306251,0.00079313786371692,9.3997403337968e-10,-3.6173257083591e-09,2.3050412616305e-09,-4.9131488945561e-09,-0.001833764703499,0.0018337620913994,-0.0020660973163002,0.0020660986449669,-0.0020660988285976,0.0020660953656435,-0.002066097965932,0.0020660962651341,-0.0020660994782636,0.0020660929858308,-0.0015731737381892,0.0015731767343571,-0.0015731820919495,0.0015731708693296,-0.0015731755029393,0.0015731749246689,-0.0015731812781203,0.0015731717149347,3.6313526221112e-09,3.6312764053771e-09,-0.00082031124655993,0.00082031950880857,-2.3952691823471e-10,7.0434302279191e-09,-0.00096352505025408,0.00096353158739782,-0.0009635226081212,0.00096353401969496,-0.00096352459869956,0.00096353113565841,-0.00096352217487529,0.00096353358626417,-0.00079312869497984,0.00079313841970632,-0.00079312803981849,0.00079313776486678,0.5877987766322,122718,2924,0.0034146294316977,0.0076104680618045,0.0034146294316989,16.875243232314,5.0201945858513e-05,5.0201945858513e-05,5.0201945858513e-05,3415562.515407,0.014545103197677
19419200,0.99943536859614,0.015769813369925,0.0043905202169547,0.0069887729360142,0.0043905202169558,-0.00081917728523064,0.00081918247121419,2.4236424707979e-09,2.4235669908738e-09,1.0928123612884e-10,4.1912611327023e-09,-0.00096568724468282,0.00096569214013013,-0.0009656870046163,0.00096569189987976,-0.00096568588029719,0.00096569351833736,-0.00096568564855685,0.00096569328641102,-0.00079223693767213,0.00079224304662644,-0.00079223755185197,0.00079224366048251,7.6549603450396e-10,-3.1994980486485e-09,2.1045863836836e-09,-4.4781207660727e-09,-0.0018378723654785,0.0018378699885625,-0.0020683756516155,0.0020683767844392,-0.0020683772076772,0.0020683739921005,-0.0020683763588734,0.0020683748759556,-0.0020683779149695,0.0020683720836372,-0.0015786027468237,0.0015786055591807,-0.0015786105909379,0.0015786004224268,-0.00157860448208,0.0015786037807598,-0.0015786097855506,0.0015786012583888,2.5411677985644e-09,2.5410917069947e-09,-0.00081917716758861,0.00081918258885709,-1.0201712722032e-09,5.6069222870153e-09,-0.00096568756453253,0.00096569183431799,-0.00096568534580507,0.00096569404676794,-0.00096568731729171,0.00096569158689231,-0.00096568511326389,0.00096569381404169,-0.00079223700909243,0.00079224420154533,-0.00079223638921382,0.00079224358198785,0.65664642788028,122718,2924,0.0034099550148529,0.0076273653402098,0.0034099550148548,17.545562996991,5.5564503975929e-05,5.5564503975929e-05,5.5564503975929e-05,3306979.5348965,0.014552781336717
19919200,0.99949354834162,0.015770698069746,0.0043907722066519,0.0069891536564411,0.004390772206653,-0.00081862266076611,0.00081862677570313,2.0094366668796e-09,2.009361198069e-09,-4.0753563786013e-11,3.4927227642465e-09,-0.00096762537316985,0.0009676295173343,-0.00096762520579022,0.00096762934977078,-0.00096762418631303,0.0009676307120365,-0.00096762402718803,0.00096763055272548,-0.00079193027115052,0.0007919353209807,-0.0007919308747144,0.00079193592422113,5.9100681179464e-10,-2.8348682254275e-09,1.8695941617699e-09,-4.0604603494294e-09,-0.0018424349618763,0.0018424327682484,-0.0020719847599181,0.0020719856754871,-0.0020719861968583,0.0020719832005057,-0.0020719853849494,0.0020719840454185,-0.002071986821924,0.0020719815704573,-0.0015835966754396,0.0015835992108688,-0.0015836039288502,0.0015835947625329,-0.001583598335775,0.0015835975096242,-0.0015836031551416,0.001583595565235,2.1184289772908e-09,2.1183529223491e-09,-0.00081862255162913,0.00081862688484071,-1.1266109210156e-09,4.8452763343922e-09,-0.00096762568021855,0.00096762922051648,-0.00096762368047598,0.00096763121519357,-0.0009676255064114,0.00096762904652425,-0.0009676235202279,0.00096763105476027,-0.00079193035885326,0.0007919364386774,-0.00079192975070097,0.00079193583084664,0.63949909152815,122718,2924,0.00340768851436,0.007646165456109,0.0034076885143613,18.681467894993,6.4651743159941e-05,6.4651743159941e-05,6.4651743159941e-05,3207767.8522281,0.014567269031527
20419200,0.99954549986161,0.01577155224073,0.0043910175951009,0.0069895170505267,0.004391017595102,-0.00081726092138326,0.00081726763835595,2.9916275799817e-09,2.991552068655e-09,9.6547225880691e-10,4.4804567196227e-09,-0.00096526499779458,0.00096527138412041,-0.00096526464186834,0.00096527102801045,-0.00096526381019403,0.00096527257555455,-0.00096526346605292,0.00096527223122764,-0.000790531009199,0.0007905381513338,-0.00079053164629664,0.0007905387881078,5.6252702753838e-10,-2.8088266883316e-09,1.780483977319e-09,-3.9742946797315e-09,-0.0018422090127982,0.0018422068163862,-0.0020732262038629,0.0020732270679392,-0.0020732273520188,0.0020732243928088,-0.0020732265794977,0.0020732251973088,-0.0020732277276878,0.0020732225221986,-0.0015818905866747,0.0015818929549927,-0.0015818975560817,0.0015818885781121,-0.0015818921683342,0.0015818913337234,-0.0015818968206414,0.001581889341602,3.0986645903245e-09,3.0985884733943e-09,-0.00081726081429223,0.0008172677454475,-6.3673202739128e-11,5.7710344075937e-09,-0.00096526528664024,0.00096527110497383,-0.00096526332635669,0.00096527305702298,-0.00096526492448925,0.00096527074263808,-0.00096526298111048,0.00096527271159178,-0.00079053115226698,0.00079053928073681,-0.00079053051053659,0.00079053863932799,0.69004788769245,122718,2924,0.0034020405547647,0.0076452605402409,0.0034020405547658,18.601923800999,6.4015390407991e-05,6.4015390407991e-05,6.4015390407991e-05,3206729.2625281,0.014554881974345
20919200,0.99958870976366,0.015772215305727,0.0043912070415628,0.0069898012226007,0.0043912070415639,-0.00081212578259356,0.0008121352347509,4.0262066742638e-09,4.0261311465265e-09,1.8590934380801e-09,5.7039207074024e-09,-0.00096195293356907,0.00096196154918271,-0.00096195238603933,0.00096196100146918,-0.00096195163361192,0.00096196285271269,-0.00096195110100082,0.00096196231991571,-0.00078539998662045,0.00078540944513869,-0.00078540066525211,0.00078541012344666,6.7510949839765e-10,-3.0116484618538e-09,1.8560966939318e-09,-4.1361545117306e-09,-0.0018417674911935,0.0018417652082555,-0.0020723680139908,0.0020723690003611,-0.0020723689948005,0.0020723659749075,-0.0020723682462093,0.0020723667535984,-0.0020723692270533,0.0020723637281651,-0.001581596936321,0.0015815993372237,-0.0015816040033402,0.0015815946026729,-0.001581598468318,0.0015815977678284,-0.0015816032948696,0.0015815953376356,4.1267548941876e-09,4.1266788416415e-09,-0.00081212568201335,0.00081213533533178,8.632145154185e-10,6.9459690862147e-09,-0.00096195321639447,0.0009619612773933,-0.00096195116781516,0.00096196331440741,-0.00096195266277359,0.00096196072358754,-0.00096195063436181,0.00096196278076899,-0.00078540019093792,0.00078541059609269,-0.00078539950728578,0.0007854099127619,0.64466974006305,122718,2924,0.0033807512093721,0.0076433885718195,0.0033807512093736,17.277906547797,5.3423252382375e-05,5.3423252382375e-05,5.3423252382375e-05,3141183.7660657,0.014509797893606
21419200,0.99962338815074,0.015772744919353,0.0043913588865324,0.0069900271462875,0.0043913588865335,-0.00080742733816633,0.00080743846500624,4.6661100790897e-09,4.6660344830977e-09,2.2758245138145e-09,6.5865822144346e-09,-0.00095531133750155,0.00095532128614545,-0.00095531066666135,0.00095532061512167,-0.00095530988427373,0.00095532274658301,-0.00095530922991546,0.00095532209203898,-0.00078061171519054,0.00078062268816571,-0.00078061242207005,0.00078062339472142,8.09386234512e-10,-3.3245472471284e-09,1.9890722965596e-09,-4.4410661335957e-09,-0.0018371602104753,0.0018371577551396,-0.0020697552441807,0.0020697563666942,-0.0020697562139552,0.0020697530261341,-0.0020697554682091,0.0020697538025945,-0.0020697564380178,0.0020697504620547,-0.0015751477279685,0.0015751502333704,-0.0015751551637915,0.0015751450132889,-0.0015751492550899,0.00157514866829,-0.0015751544624129,0.0015751457415099,4.7704250899241e-09,4.7703489379384e-09,-0.00080742723391057,0.00080743856926256,1.2916550253844e-09,7.8251365456641e-09,-0.00095531161691316,0.00095532102076686,-0.0009553094150894,0.00095532320876272,-0.00095531093956196,0.00095532034323093,-0.00095530876021412,0.00095532255370251,-0.00078061194602564,0.00078062386883168,-0.00078061123308331,0.00078062315621115,0.64095610021346,122718,2924,0.0033612334413922,0.0076243914079909,0.0033612334413934,15.232198771818,3.7057590174542e-05,3.7057590174542e-05,3.7057590174542e-05,3179916.0561821,0.0144509121323
21919200,0.99965287728507,0.015773182393727,0.0043914839197324,0.0069902145542611,0.0043914839197335,-0.00080413262743106,0.00080414204726928,4.0248402922815e-09,4.0247646989533e-09,1.5846297939876e-09,5.9768984604724e-09,-0.0009519551612022,0.00095196362008411,-0.00095195461623978,0.000951963074938,-0.00095195368648512,0.00095196510574923,-0.00095195315542706,0.00095196457450548,-0.00077720000242593,0.00077720963138182,-0.00077720068956998,0.00077721031820201,8.4219610760467e-10,-3.390034690826e-09,2.03615257476e-09,-4.5195283918629e-09,-0.0018353056265722,0.0018353031397013,-0.0020683281915343,0.0020683293374719,-0.0020683293560706,0.0020683261278664,-0.0020683286013026,0.0020683269136593,-0.0020683297658731,0.002068323704074,-0.0015729227508172,0.0015729253223853,-0.0015729303880394,0.0015729200496018,-0.0015729242959987,0.0015729237388941,-0.0015729296788889,0.0015729207858556,4.1303551244016e-09,4.1302789882509e-09,-0.00080413252199399,0.000804142152707,5.8868281720285e-10,7.2300087444641e-09,-0.00095195544452577,0.00095196335152541,-0.00095195321122465,0.00095196557335342,-0.00095195489292047,0.0009519627997354,-0.00095195267970139,0.00095196504164531,-0.00077720020784745,0.00077721079804463,-0.00077719951441381,0.00077721010493257,0.62311101531201,122718,2924,0.0033475506424932,0.0076167259658884,0.0033475506424946,13.996536235242,2.7172289881938e-05,2.7172289881938e-05,2.7172289881938e-05,3173063.5195989,0.014415377320008
22419200,0.99968148674933,0.015773626041179,0.0043916111100884,0.0069904038210015,0.0043916111100895,-0.00080571387458169,0.00080571869824284,2.2802594632967e-09,2.2801838630915e-09,1.040083314551e-10,3.9019152667552e-09,-0.00095283971512616,0.00095284439570576,-0.00095283949920714,0.00095284417960308,-0.00095283844236888,0.00095284567886283,-0.00095283823514004,0.00095284547144829,-0.00077871366570274,0.00077871938271032,-0.0007787142867197,0.00077872000340345,6.5745257598098e-10,-3.0253582880281e-09,1.8356571048178e-09,-4.1465516448112e-09,-0.0018367611286482,0.0018367588147811,-0.0020703636470558,0.0020703645500943,-0.0020703650376771,0.0020703619892077,-0.0020703642915573,0.0020703627663002,-0.0020703656822128,0.0020703602054337,-0.0015739063413437,0.0015739087205725,-0.0015739136248136,0.0015739042024171,-0.0015739078695919,0.0015739071540096,-0.00157391291927,0.0015739049351134,2.3859496500111e-09,2.3858734955908e-09,-0.00080571376899376,0.00080571880383136,-8.8278417116719e-10,5.1460978161862e-09,-0.0009528399924103,0.00095284412995397,-0.00095283797290792,0.00095284614393616,-0.00095283977020233,0.00095284390756133,-0.00095283776482379,0.00095284593566717,-0.00077871380850463,0.00077872048025217,-0.00077871318208466,0.00077871985415383,0.65096373206224,122718,2924,0.0033541013623416,0.007622763404777,0.0033541013623428,14.849662906847,3.3997303254778e-05,3.3997303254778e-05,3.3997303254778e-05,3173886.6148324,0.014434788469213
22919200,0.99970854453444,0.015774004312831,0.0043917188826273,0.0069905665475754,0.0043917188826284,-0.00080558496444452,0.00080559047286373,2.533502968205e-09,2.5334274359187e-09,5.0639162274162e-10,4.0112611090501e-09,-0.00095396555321612,0.00095397091044191,-0.00095396528538621,0.00095397064242829,-0.00095396437172298,0.00095397209688064,-0.00095396411432713,0.00095397183929904,-0.00077860512484711,0.00077861128757146,-0.00077860575648594,0.00077861191888652,5.6313924536496e-10,-2.8209518504456e-09,1.6976612450849e-09,-3.9029726186891e-09,-0.0018389223640222,0.0018389201561326,-0.0020719131291262,0.0020719139232087,-0.0020719143333483,0.002071911417112,-0.0020719136138418,0.0020719121658389,-0.0020719148180981,0.0020719096597624,-0.0015765338589922,0.0015765360646013,-0.0015765407357531,0.0015765318931834,-0.0015765353327242,0.0015765345544831,-0.0015765400537624,0.0015765326010092,2.633125533804e-09,2.6330494213842e-09,-0.00080558486492087,0.00080559057238798,-4.4809875342008e-10,5.2088937861176e-09,-0.00095396582116635,0.00095397065165643,-0.00095396392279036,0.00095397254347825,-0.00095396554754763,0.00095397037785295,-0.00095396366435411,0.00095397228485703,-0.00077860529782555,0.00077861237633275,-0.00077860466147663,0.00077861174030516,0.58748017292924,122718,2924,0.0033535828698314,0.0076316670050418,0.0033535828698327,15.357233356803,3.8057866854422e-05,3.8057866854422e-05,3.8057866854422e-05,3126101.0056305,0.014442777182175
23419200,0.99973382055721,0.015774368441287,0.0043918232523491,0.0069907219365876,0.0043918232523502,-0.00080710306697066,0.00080710892086563,2.6643878699854e-09,2.6643122246292e-09,7.0693751886575e-10,4.0673121046424e-09,-0.00095298271448945,0.00095298843096042,-0.00095298241752039,0.00095298813380781,-0.00095298157810304,0.00095298956984001,-0.00095298129245315,0.00095298928400452,-0.00078004282116856,0.00078004921607539,-0.00078004345689771,0.00078004985148049,5.0226278351085e-10,-2.7337798990771e-09,1.5827109426789e-09,-3.7635249576018e-09,-0.0018380504655892,0.0018380482824091,-0.0020727798834661,0.0020727805745994,-0.002072780974935,0.0020727781182702,-0.0020727802901515,0.0020727788313378,-0.0020727813816546,0.0020727763750286,-0.0015741938366923,0.0015741958641591,-0.0015742004627844,0.0015741919438066,-0.0015741952409877,0.0015741944246224,-0.0015741998138275,0.0015741926177957,2.763323414759e-09,2.7632472309678e-09,-0.00080710296823672,0.00080710901960018,-1.9630461426408e-10,5.2110803503481e-09,-0.00095298296476449,0.00095298818881327,-0.00095298114822162,0.00095298999826245,-0.00095298266222631,0.00095298788609053,-0.00095298086147241,0.00095298971132847,-0.0007800430166432,0.00078005029064867,-0.00078004237630833,0.00078004965063554,0.60459639632209,122718,2924,0.0033598638365549,0.0076281283578897,0.0033598638365562,15.705604697486,4.0844837579892e-05,4.0844837579892e-05,4.0844837579892e-05,3180975.5752074,0.014451914682368
23919200,0.99975873076584,0.015774791429293,0.0043919451545476,0.0069909011201963,0.0043919451545487,-0.00080926628241345,0.0008092700309108,1.8615222369279e-09,1.8614466424861e-09,7.8556848564994e-11,3.0626907547821e-09,-0.00095619417017133,0.0009561981755258,-0.00095619402406674,0.00095619802923756,-0.00095619315934249,0.00095619918688016,-0.00095619302258404,0.00095619904993596,-0.0007821348900926,0.00078213945220091,-0.00078213549689903,0.00078214005868358,3.9219733099369e-10,-2.4894451442773e-09,1.4138234056654e-09,-3.4654476292478e-09,-0.0018413828578714,0.0018413808042296,-0.0020753789318632,0.0020753794616073,-0.0020753800600168,0.0020753773686141,-0.0020753794112288,0.0020753780433889,-0.0020753805394167,0.0020753759504158,-0.00157823068411,0.001578232506725,-0.0015782369414063,0.0015782291270779,-0.0015782320147225,0.0015782311434628,-0.0015782363253475,0.0015782297663797,1.9528447390881e-09,1.9527686213845e-09,-0.00080926619129594,0.00080927012202889,-7.7997560780999e-10,4.1436957903433e-09,-0.00095619440770267,0.00095619794357024,-0.00095619275621708,0.00095619959068053,-0.00095619425662451,0.00095619779230737,-0.00095619261818195,0.00095619945246051,-0.00078213508254016,0.00078214047222578,-0.00078213447185362,0.00078213986186069,0.71228945632067,122718,2924,0.0033688504533581,0.007641880490379,0.0033688504533593,17.004012356531,5.1232098852249e-05,5.1232098852249e-05,5.1232098852249e-05,3141773.3182613,0.014484107217958
24419200,0.99978248514547,0.015775175798585,0.0043920555318456,0.0069910647348925,0.0043920555318467,-0.00080812053289681,0.00080812517332051,2.196012246984e-09,2.1959367522086e-09,4.8248587250911e-10,3.3430174428472e-09,-0.00095922520202864,0.00095923000781674,-0.00095922499227547,0.00095922979787974,-0.00095922422789415,0.00095923097893765,-0.00095922402931473,0.00095923078017218,-0.00078126468355879,0.0007812699176644,-0.00078126530684522,0.00078127054062734,3.5624099508213e-10,-2.3923469925592e-09,1.3185087669328e-09,-3.3111615374056e-09,-0.001846322509913,0.0018463205154298,-0.0020779213454358,0.0020779218189255,-0.0020779223114728,0.0020779197166627,-0.0020779216993939,0.0020779203519509,-0.0020779226654652,0.0020779182497082,-0.0015849431549778,0.0015849448316377,-0.0015849491192937,0.0015849416538947,-0.0015849444098973,0.0015849435471765,-0.001584948538793,0.0015849422554526,2.2769251211733e-09,2.2768491330494e-09,-0.00080812045215067,0.00080812525406715,-3.3145870525231e-10,4.3553291180821e-09,-0.00095922542955738,0.00095922978443297,-0.00095922385392067,0.00095923135445825,-0.00095922521539711,0.00095922957008764,-0.00095922365405674,0.00095923115440933,-0.00078126492186358,0.00078127092477835,-0.00078126429516924,0.00078127029840484,0.6789410524186,122718,2924,0.0033641449994454,0.007662192588887,0.0033641449994465,17.881465442214,5.8251723537709e-05,5.8251723537709e-05,5.8251723537709e-05,3012497.2903093,0.014495191740854
24919200,0.99980448617887,0.015775494856504,0.0043921472123972,0.0069912004317088,0.0043921472123983,-0.00080850815451181,0.00080851369040028,2.5352938998885e-09,2.5352183072853e-09,8.0820788816041e-10,3.703335888866e-09,-0.00095814417110863,0.00095814974391377,-0.00095814389565182,0.0009581494682732,-0.00095814318355406,0.00095815072744621,-0.00095814292052261,0.00095815046422895,-0.0007816764732072,0.00078168244441177,-0.00078167710904617,0.00078168307992707,3.5944014929135e-10,-2.4151230345315e-09,1.2705289370366e-09,-3.2822077247482e-09,-0.0018465629271984,0.0018465609136952,-0.0020797051278074,0.0020797055749794,-0.0020797059899427,0.0020797034101275,-0.0020797054111513,0.0020797040111251,-0.002079706273321,0.0020797018462933,-0.0015836505180839,0.001583652088062,-0.0015836563763347,0.0015836489592268,-0.0015836517061934,0.0015836508716693,-0.001583655829141,0.0015836495265568,2.6141395092148e-09,2.6140634167792e-09,-0.0008085080759024,0.00080851376901036,4.3181458659608e-11,4.6612769647711e-09,-0.00095814438351527,0.00095814953560828,-0.00095814282862072,0.0009581510837481,-0.00095814410380037,0.00095814925570863,-0.00095814256437798,0.00095815081932049,-0.00078167674330608,0.00078168344481578,-0.00078167610392382,0.00078168280575498,0.60789483588396,122718,2924,0.0033657513809615,0.0076632272177212,0.0033657513809629,18.351784719288,6.2014277754306e-05,6.2014277754306e-05,6.2014277754306e-05,3027373.3278239,0.014499487939199
25419200,0.99982609465928,0.015775875560185,0.0043922578426257,0.0069913598749326,0.0043922578426268,-0.00081282744539534,0.00081283055490652,1.6141178367033e-09,1.6140421868378e-09,2.4854956598872e-11,2.6057895154778e-09,-0.00095959691581222,0.00095960049495586,-0.00095959681217378,0.0009596003911338,-0.00095959603509827,0.00095960137130672,-0.00095959594119784,0.00095960127722076,-0.00078575362122202,0.00078575752816613,-0.00078575422022432,0.00078575812684449,2.6092122268281e-10,-2.2243104880767e-09,1.1156674943003e-09,-3.0388431981909e-09,-0.0018477736671875,0.0018477717424577,-0.0020828423254925,0.0020828426105807,-0.0020828432774938,0.0020828408215924,-0.0020828427341814,0.002082841385892,-0.0020828436862168,0.0020828395969238,-0.0015833468343298,0.0015833482061207,-0.001583352420153,0.0015833455776374,-0.0015833479511291,0.0015833470625308,-0.0015833519057692,0.001583346111117,1.6906667223326e-09,1.6905905349597e-09,-0.00081282736916455,0.00081283063113791,-6.9047251959731e-10,3.5078040166523e-09,-0.00095959711129105,0.00095960030170725,-0.00095959570141906,0.00095960170800615,-0.00095959700375585,0.0009596001939876,-0.00095959560616555,0.00095960161256797,-0.0007857538747187,0.0007857584717973,-0.00078575327254996,0.00078575786995024,0.7372586897946,122718,2924,0.0033836511792139,0.0076683120350162,0.0033836511792152,19.919548364771,7.4556386918168e-05,7.4556386918168e-05,7.4556386918168e-05,3084629.7284057,0.014540948880164
25919200,0.99984620598341,0.015776225468437,0.0043923588922763,0.0069915076838838,0.0043923588922774,-0.00081148157219771,0.00081148631885092,2.2322631793462e-09,2.2321877455669e-09,6.4731748375918e-10,3.2485187058952e-09,-0.00096329935174607,0.00096330433028749,-0.00096329913207552,0.00096330411043307,-0.00096329845984344,0.00096330521512428,-0.00096329825247069,0.0009633050075656,-0.00078454135496646,0.0007845465832703,-0.00078454198260952,0.00078454721059036,2.6744313938391e-10,-2.221152489022e-09,1.0728623827318e-09,-2.9866904005408e-09,-0.0018531866241234,0.0018531847087949,-0.0020851783728149,0.0020851786551466,-0.0020851791448095,0.0020851767300285,-0.0020851786320672,0.0020851772611266,-0.0020851794040962,0.0020851753360287,-0.0015912741084849,0.0015912753888016,-0.0015912795144712,0.0015912727744953,-0.0015912751618273,0.0015912743116139,-0.0015912790308502,0.0015912732751588,2.2993274383383e-09,2.2992513789638e-09,-0.00081148150542009,0.00081148638562911,-3.0765597573289e-11,4.0912032685604e-09,-0.00096329953989779,0.0009633041438504,-0.00096329815089267,0.00096330552709847,-0.00096329931676244,0.00096330392053012,-0.00096329794224766,0.00096330531826832,-0.00078454166263131,0.0007845475299149,-0.00078454103203928,0.00078454689964441,0.72914636768882,122718,2924,0.0033781199603514,0.0076905584493537,0.0033781199603526,20.734154408655,8.1073235269238e-05,8.1073235269238e-05,8.1073235269238e-05,2936788.5155726,0.014552329186222
26419200,0.99986366448627,0.015776556313693,0.0043924553947571,0.0069916455241781,0.0043924553947582,-0.00080961630297221,0.00080962360906717,3.2032698909139e-09,3.2031943892068e-09,1.4604180166806e-09,4.414839454744e-09,-0.00096092966086348,0.00096093673174944,-0.00096092925989669,0.00096093633059893,-0.00096092864946262,0.00096093773662021,-0.00096092826360604,0.00096093735057793,-0.00078279018559693,0.00078279760251067,-0.00078279085128623,0.00078279826787648,3.7481492589659e-10,-2.4421398352456e-09,1.157103367404e-09,-3.1800289841209e-09,-0.0018526439613905,0.0018526419366626,-0.0020856146061737,0.0020856150039585,-0.0020856152403778,0.0020856127336229,-0.0020856147435386,0.0020856132482074,-0.0020856153777769,0.002085610977892,-0.0015896176746361,0.0015896190005975,-0.0015896232398207,0.0015896160102523,-0.0015896186957561,0.0015896179564122,-0.0015896227750421,0.0015896164914786,3.2690918642339e-09,3.2690157454554e-09,-0.00080961623747808,0.00080962367456184,8.0783632765471e-10,5.2287922226596e-09,-0.00096092984286023,0.00096093655324315,-0.0009609283490046,0.00096093803817689,-0.00096092943832027,0.00096093614851844,-0.00096092796213252,0.00096093765111982,-0.00078279054119523,0.00078279857705914,-0.00078278987196065,0.00078279790814594,0.7920419595447,122718,2924,0.0033703864720627,0.0076883282337485,0.0033703864720638,20.398997997877,7.8391983983017e-05,7.8391983983017e-05,7.8391983983017e-05,2929610.5910535,0.014534367920079
26919200,0.99987991874838,0.015776846602066,0.0043925397308452,0.0069917671403741,0.0043925397308463,-0.00080931945403421,0.00080932409892251,2.1962626717491e-09,2.19618722364e-09,4.9659608863919e-10,3.3315936940701e-09,-0.00096253430266049,0.0009625391220274,-0.00096253409308353,0.00096253891226656,-0.00096253333631931,0.00096254008427628,-0.00096253313858649,0.0009625398863576,-0.0007825343199998,0.00078253954868628,-0.00078253495059172,0.0007825401789552,3.4846515827567e-10,-2.3747204033335e-09,1.1167242339e-09,-3.0998329230555e-09,-0.0018561575038382,0.0018561555189513,-0.0020883793061813,0.0020883796459791,-0.002088380138627,0.00208837768009,-0.002088379650251,0.0020883781856101,-0.0020883804827311,0.0020883762197411,-0.0015935948998214,0.0015935961882124,-0.0015936004650979,0.0015935934238565,-0.0015935959034866,0.0015935951621705,-0.0015936000083055,0.001593593896612,2.259677700651e-09,2.25960161703e-09,-0.00080931939094296,0.00080932416201435,-1.4608188353403e-10,4.1300858592203e-09,-0.00096253448233507,0.00096253894529114,-0.00096253304264002,0.00096254037948007,-0.000962534269346,0.00096253873211731,-0.00096253284385681,0.00096254018051179,-0.00078253464721692,0.0007825404815723,-0.0007825340132454,0.00078253984792213,0.74688297492095,122718,2924,0.0033691751480704,0.0077028057317709,0.0033691751480716,21.286792676017,8.5494341408138e-05,8.5494341408138e-05,8.5494341408138e-05,2854539.6247225,0.014546610042266
27419200,0.99989500731342,0.015777108746718,0.0043926161053541,0.0069918765360087,0.0043926161053552,-0.0008110984370373,0.00081110287263407,2.1151291137409e-09,2.115053587752e-09,4.6070693884242e-10,3.1965907381119e-09,-0.00096235381133539,0.00096235848541706,-0.00096235361444454,0.00096235828834265,-0.00096235287719448,0.00096235941450289,-0.00096235269205548,0.00096235922917813,-0.00078420589642517,0.00078421092248771,-0.00078420652227327,0.00078421154801214,3.1128459493989e-10,-2.3149007938404e-09,1.0609605820884e-09,-3.0225965299861e-09,-0.0018570616624415,0.0018570596991467,-0.002091052592919,0.0020910528768895,-0.0020910534012638,0.0020910509761045,-0.0020910529248125,0.0020910514695164,-0.0020910537331916,0.0020910495687518,-0.00159290362503,0.0015929048369831,-0.0015929090771292,0.0015929022199848,-0.0015929046050918,0.0015929038348052,-0.0015929086312188,0.0015929026816686,2.1785512748367e-09,2.1784750895354e-09,-0.00081109837397642,0.00081110293569567,-1.6451317647068e-10,3.9773519800206e-09,-0.00096235398461657,0.00096235831444148,-0.00096235258997194,0.00096235970384389,-0.00096235378440864,0.00096235811404876,-0.00096235240372723,0.00096235951741439,-0.00078420622487855,0.00078421184472464,-0.0007842055957441,0.00078421121591192,0.72588280929977,122718,2924,0.0033765479030884,0.0077065989325475,0.0033765479030899,22.250723889962,9.3205791119697e-05,9.3205791119697e-05,9.3205791119697e-05,2878294.2765694,0.014565404589668
27919200,0.99990868300311,0.015777359281349,0.0043926892413988,0.0069919807985499,0.0043926892413999,-0.0008123566345917,0.00081236172347864,2.3620501899421e-09,2.3619746688735e-09,7.0406809311481e-10,3.454419362242e-09,-0.00096278800615506,0.0009627932417617,-0.00096278776153741,0.00096279299696049,-0.00096278706555256,0.00096279417635806,-0.00096278683361298,0.00096279394423287,-0.00078529518448397,0.00078530074193908,-0.0007852958209806,0.00078530137811214,3.1223330248693e-10,-2.3220193256094e-09,1.0431061961747e-09,-3.010849054981e-09,-0.0018581019773994,0.0018581000080197,-0.0020928281162994,0.0020928283941713,-0.0020928288562761,0.0020928264373897,-0.0020928283918401,0.0020928269181903,-0.002092829131851,0.0020928249614288,-0.0015933854856496,0.0015933866572043,-0.0015933908821583,0.0015933840455925,-0.0015933864413224,0.0015933856801252,-0.0015933904482645,0.0015933844947671,2.4240939519504e-09,2.4240177562386e-09,-0.00081235657293667,0.00081236178513427,9.5874132934579e-11,4.214647361429e-09,-0.00096278817445524,0.00096279307566205,-0.00096278678587512,0.00096279445815058,-0.00096278792660617,0.00096279282762832,-0.00096278655285185,0.00096279422494244,-0.00078529553122054,0.00078530166717962,-0.00078529489141776,0.00078530102769844,0.76533978020323,122718,2924,0.0033817652293142,0.0077109243753704,0.0033817652293154,22.918379728061,9.8547037824485e-05,9.8547037824485e-05,9.8547037824485e-05,2883767.6712852,0.014580376168805
28419200,0.99992091415047,0.015777601051082,0.0043927599577841,0.0069920811355128,0.0043927599577852,-0.00081219386653456,0.00081219928922943,2.4885965622965e-09,2.4885210870353e-09,8.0852945504081e-10,3.6120479979719e-09,-0.00096405577613863,0.00096406127799442,-0.00096405550951801,0.00096406101119015,-0.00096405481765307,0.00096406223056699,-0.00096405456409155,0.00096406197681982,-0.00078514599077207,0.00078515183468538,-0.0007851466346123,0.00078515247820236,3.3123777791326e-10,-2.3530606880818e-09,1.0502809333443e-09,-3.0295034696897e-09,-0.0018603827072191,0.0018603807263126,-0.0020943581962298,0.0020943584907678,-0.0020943589143073,0.00209435649178,-0.0020943584573302,0.0020943569644918,-0.002094359175442,0.0020943549655241,-0.0015962719624405,0.0015962731301001,-0.0015962773639331,0.0015962704741863,-0.0015962729025712,0.0015962721692672,-0.001596276938045,0.0015962709148632,2.5485572231167e-09,2.5484810826523e-09,-0.00081219380696336,0.00081219934880137,2.1003146385942e-10,4.3576705979495e-09,-0.0009640559425925,0.00096406111391198,-0.00096405454364923,0.00096406250639573,-0.00096405567280956,0.00096406084394428,-0.00096405428905456,0.00096406225161615,-0.00078514635092039,0.0007851527611725,-0.00078514570373499,0.00078515211430844,0.82558911402084,122718,2924,0.0033811065879918,0.0077203159710136,0.0033811065879934,23.441309015939,0.00010273047212751,0.00010273047212751,0.00010273047212751,2832288.9450099,0.014588578162085
28919200,0.99993181568356,0.015777800467291,0.0043928181352317,0.0069921641968267,0.0043928181352328,-0.00081138870820735,0.00081139409376999,2.4737902326749e-09,2.4737148057116e-09,7.8145571286218e-10,3.6136038543239e-09,-0.00096511710361839,0.00096512255781618,-0.00096511684170134,0.00096512229571544,-0.00096511613610724,0.00096512351979644,-0.00096511588714294,0.00096512327064638,-0.00078448200452093,0.00078448782683443,-0.00078448264992903,0.00078448847191917,3.4391878928177e-10,-2.369461471402e-09,1.0568163182222e-09,-3.0394374883887e-09,-0.0018630817664839,0.0018630797821434,-0.0020962127703009,0.0020962130757407,-0.0020962134964559,0.0020962110745736,-0.0020962130433324,0.002096211543072,-0.0020962137695218,0.002096209541925,-0.0015994936766247,0.0015994948476397,-0.0015994990900177,0.0015994921711218,-0.0015994946086559,0.0015994938953005,-0.0015994986683373,0.0015994926073111,2.5323090893095e-09,2.5322329787702e-09,-0.00081138865007231,0.00081139415190564,1.8762963998447e-10,4.3512602230063e-09,-0.00096511726948304,0.00096512239441616,-0.00096511586535186,0.00096512379220631,-0.00096511700445228,0.00096512212920053,-0.00096511561538273,0.00096512354205212,-0.00078448236974328,0.00078448875137677,-0.00078448172098133,0.00078448810293601,0.76400561131051,122718,2924,0.0033777897775464,0.007731424337872,0.0033777897775476,23.983578564494,0.00010706862851595,0.00010706862851595,0.00010706862851595,2763756.8276331,0.014593129029095
29419200,0.99994161434416,0.01577794684537,0.0043928605989072,0.0069922256475545,0.0043928605989083,-0.00081323965776053,0.00081324447022269,2.2569401037901e-09,2.2568645519295e-09,5.8541262404434e-10,3.3617712954298e-09,-0.00096459586536654,0.00096460085327164,-0.00096459564194661,0.00096460062966815,-0.00096459491714833,0.00096460179611147,-0.00096459470603618,0.00096460158481373,-0.00078623560675331,0.00078624094981674,-0.00078623624216547,0.0007862415849051,3.2206559270545e-10,-2.3408679278563e-09,1.0273223815947e-09,-3.0036777918229e-09,-0.0018632986128315,0.0018632966348076,-0.0020983642276997,0.0020983644958381,-0.002098364984735,0.0020983625741096,-0.002098364536658,0.0020983630376744,-0.0020983652937275,0.0020983611159659,-0.0015979877285139,0.001597988860515,-0.0015979931143506,0.0015979862821441,-0.0015979886508554,0.0015979879177841,-0.0015979926972146,0.0015979867138364,2.3163248367265e-09,2.3162486459273e-09,-0.00081323959878943,0.00081324452919442,-1.9060223605605e-13,4.0930275507747e-09,-0.00096459602774568,0.00096460069309491,-0.00096459464834669,0.00096460206684816,-0.00096459580122358,0.00096460046638825,-0.00096459443619988,0.00096460185451655,-0.00078623596361373,0.00078624186277761,-0.0007862353248432,0.00078624122432848,0.62417410960896,122718,2924,0.0033854554653806,0.0077323863720957,0.003385455465382,24.778310385005,0.00011342648308004,0.00011342648308004,0.00011342648308004,2802818.8164034,0.01460964376489
29919200,0.99995030882676,0.015778089895005,0.0043929024069162,0.0069922850811719,0.0043929024069173,-0.00081738789331789,0.00081739293577265,2.3453350709856e-09,2.3452593948707e-09,6.7157063525014e-10,3.4449263430708e-09,-0.00096360222850315,0.00096360743296801,-0.00096360198402712,0.00096360718830877,-0.0009636012804763,0.00096360837512424,-0.00096360104867922,0.00096360814314192,-0.00079008071388154,0.00079008624500239,-0.00079008134949044,0.00079008688028707,3.1104325401857e-10,-2.34633559147e-09,1.006256677608e-09,-2.999004761522e-09,-0.0018612291933063,0.0018612271989281,-0.0020994028874051,0.0020994031318119,-0.0020994036170232,0.0020994011969048,-0.0020994031756977,0.002099401653804,-0.0020994039053499,0.002099399718917,-0.0015935284285023,0.0015935295197592,-0.0015935337959244,0.0015935269743203,-0.0015935293377868,0.0015935285900633,-0.001593533385337,0.0015935273994795,2.4064714776504e-09,2.4063951755793e-09,-0.00081738783265638,0.00081739299643468,9.8029137600666e-11,4.1676742710166e-09,-0.00096360238573558,0.00096360727789853,-0.00096360101366056,0.00096360864394814,-0.00096360213812403,0.00096360703010261,-0.00096360078082829,0.00096360841093129,-0.00079008107264658,0.00079008715646453,-0.00079008043355338,0.00079008651769321,0.68688558505508,122718,2924,0.0034026224486547,0.0077239686634278,0.0034026224486558,25.464962986054,0.00011891970388843,0.00011891970388843,0.00011891970388843,2932689.3301477,0.014635909391514
30419200,0.99995796538098,0.015778192731509,0.0043929319955471,0.0069923287404138,0.0043929319955481,-0.00081787031890527,0.00081787541827974,2.3671001654096e-09,2.3670246636694e-09,6.961539553385e-10,3.4735492547487e-09,-0.00096733650014786,0.00096734173979734,-0.00096733625530155,0.00096734149476724,-0.00096733555066685,0.00096734268330808,-0.00096733531859746,0.00096734245105297,-0.00079045042297546,0.00079045599823022,-0.00079045106226137,0.00079045663719259,3.1956741372899e-10,-2.3416828753132e-09,1.0082921491905e-09,-2.9881373471022e-09,-0.0018645725627683,0.0018645705812758,-0.0021003534774544,0.0021003537334365,-0.0021003541983038,0.0021003517948832,-0.0021003537606042,0.0021003522474146,-0.002100354481488,0.0021003503088815,-0.0015991401961347,0.0015991412900453,-0.0015991455374298,0.0015991387364342,-0.0015991410971982,0.0015991403693452,-0.0015991451306456,0.0015991391572665,2.4252090803931e-09,2.4251329344615e-09,-0.00081787026123898,0.00081787547594688,1.2510285725241e-10,4.1868832164006e-09,-0.00096733665823365,0.00096734158377328,-0.00096733528849886,0.00096734294745836,-0.00096733641036556,0.00096734133572055,-0.00096733505540812,0.00096734271418276,-0.00079045079041288,0.00079045690837656,-0.0007904501477664,0.00079045626605177,0.56251928746541,122718,2924,0.0034046497382867,0.0077377062551384,0.0034046497382885,26.13027965055,0.0001242422372044,0.0001242422372044,0.0001242422372044,2850634.7883795,0.014653985965672
30919200,0.99996477458117,0.015778302975192,0.0043929642148893,0.0069923745454126,0.0043929642148904,-0.00082257210247747,0.00082257644189184,2.0781887901487e-09,2.0781131609674e-09,4.5167521756781e-10,3.1213614125514e-09,-0.00096756203734388,0.00096756665874482,-0.00096756184364404,0.00096756646486166,-0.00096756112437738,0.00096756756556505,-0.00096756094257216,0.00096756738357444,-0.00079513975511096,0.00079514468296982,-0.00079514037760685,0.00079514530514163,2.8034210338824e-10,-2.2811421240269e-09,9.5753772093873e-10,-2.9171843117864e-09,-0.0018632227200316,0.0018632207588367,-0.002101484299523,0.0021014844952183,-0.0021014850512897,0.0021014826753788,-0.0021014846210558,0.0021014831205355,-0.0021014853728566,0.0021014813007159,-0.0015957911478127,0.0015957921781831,-0.0015957964165406,0.0015957897878138,-0.0015957920344215,0.001595791271878,-0.0015957960162196,0.0015957902022179,2.13778789856e-09,2.1377115614284e-09,-0.0008225720433669,0.00082257650100294,-1.071923252304e-10,3.8255667448671e-09,-0.00096756218994116,0.00096756650764702,-0.00096756086499989,0.00096756782751859,-0.00096756199324856,0.00096756631076997,-0.00096756068211235,0.00096756764444637,-0.00079514010793982,0.00079514557422657,-0.00079513948212942,0.00079514494873821,0.67617106509292,122718,2924,0.0034241232132206,0.0077322411001418,0.0034241232132217,27.11934505632,0.00013215476045056,0.00013215476045056,0.00013215476045056,2968654.280509,0.014687929872039
31419200,0.99997086638622,0.015778404828085,0.0043929938163805,0.0069924171953225,0.0043929938163816,-0.00082327636461522,0.00082327994811841,1.7877941950098e-09,1.7877187488004e-09,2.4440844512948e-10,2.745976773618e-09,-0.00097339623422157,0.00097340024368554,-0.00097339609636837,0.00097340010564859,-0.00097339537683734,0.00097340109382482,-0.00097339525033297,0.00097340096713457,-0.00079590660251236,0.00079591085414785,-0.00079590721784189,0.00079591146915415,2.361779192208e-10,-2.1644552274962e-09,8.9542393647221e-10,-2.7849868334463e-09,-0.0018690338447064,0.0018690319537387,-0.0021037567946296,0.0021037569367258,-0.002103757547005,0.0021037552515741,-0.0021037571272544,0.0021037556851706,-0.0021037578796642,0.0021037540000388,-0.0016046645322332,0.0016046654975563,-0.0016046696257204,0.0016046633112581,-0.0016046653967761,0.0016046646144645,-0.0016046692345607,0.0016046637157189,1.8427780636341e-09,1.842701962151e-09,-0.00082327631007345,0.00082328000266085,-3.042697887374e-10,3.4294700671842e-09,-0.00097339638516414,0.00097340009314088,-0.00097339512754489,0.00097340134658879,-0.00097339624460554,0.00097339995239766,-0.00097339499987698,0.0009734012187357,-0.0007959069580977,0.00079591172842202,-0.00079590633988765,0.00079591111053314,0.69952705654839,122718,2924,0.0034270929153914,0.0077561310229672,0.0034270929153928,28.436462386502,0.00014269169909202,0.00014269169909202,0.00014269169909202,2832084.6275136,0.014718231702709
31919200,0.9999761134068,0.015778495220546,0.0043930202563131,0.0069924547079189,0.0043930202563142,-0.00082389524255968,0.00082389991087293,2.1997795998241e-09,2.1997041108393e-09,6.4647378992867e-10,3.1819182159944e-09,-0.00097493766415631,0.00097494260049915,-0.00097493744920917,0.00097494238536833,-0.0009749367930096,0.0009749434630698,-0.00097493659087407,0.00097494326074856,-0.00079676785555178,0.00079677299666052,-0.00079676848795192,0.0007967736287372,2.4328399837026e-10,-2.1804796280206e-09,8.8575704102452e-10,-2.7839681520957e-09,-0.0018713085821722,0.0018713066825693,-0.0021056490039949,0.0021056491528186,-0.0021056496568845,0.0021056473639594,-0.0021056492479343,0.0021056477862328,-0.0021056499008582,0.0021056459973937,-0.0016070126452279,0.0016070135795967,-0.0016070176820066,0.0016070113622613,-0.001607013487852,0.0016070127190342,-0.0016070173017251,0.0016070117554026,2.253112859616e-09,2.2530367311581e-09,-0.00082389518967329,0.00082389996375996,1.1275173465896e-10,3.8465247023153e-09,-0.00097493781106005,0.00097494245396736,-0.00097493655080141,0.00097494370866073,-0.00097493759348856,0.00097494223621106,-0.00097493634753622,0.00097494350521055,-0.00079676823546574,0.00079677388069276,-0.00079676760018011,0.00079677324572834,0.71926751588325,122718,2924,0.003429682377532,0.0077655090958246,0.0034296823775334,29.268890172075,0.0001493511213766,0.0001493511213766,0.0001493511213766,2794822.0274843,0.014733005058912
32419200,0.99998042174346,0.015778576732859,0.0043930442213656,0.0069924882901271,0.0043930442213667,-0.00082287263640119,0.00082287915281732,2.9030962917981e-09,2.9030207981562e-09,1.2297476632093e-09,4.0340214191206e-09,-0.00097462112073702,0.00097462756530018,-0.00097462077645219,0.00097462722083165,-0.00097462015885798,0.00097462851918451,-0.00097461982936589,0.0009746281895067,-0.00079580209425841,0.00079580882229357,-0.00079580275534021,0.0007958094830519,3.2562477303376e-10,-2.3479644424745e-09,9.6783738723217e-10,-2.947860516473e-09,-0.0018720742942067,0.0018720723125634,-0.0021063280951492,0.00210632834332,-0.0021063286638924,0.0021063262907047,-0.0021063282557698,0.0021063267120073,-0.0021063288245473,0.002106324659412,-0.001607681731566,0.0016076827364231,-0.0016076869254384,0.001607680200248,-0.001607682572286,0.0016076818779643,-0.0016076865482596,0.001607680590125,2.9560803470392e-09,2.9560042203511e-09,-0.00082287258387056,0.00082287920534855,6.9870279346221e-10,4.6951046855091e-09,-0.00097462126823085,0.00097462741958594,-0.00097461991670236,0.00097462876327075,-0.00097462092118873,0.0009746270723591,-0.00097461958625786,0.00097462843264134,-0.00079580250394723,0.0007958097337196,-0.0007958018395643,0.000795809069658,0.78912843059547,122718,2924,0.0034254537515374,0.0077686567547075,0.0034254537515386,29.299099321278,0.00014959279457022,0.00014959279457022,0.00014959279457022,2765908.3196085,0.014727620383001
32919200,0.99998393178951,0.015778634841235,0.0043930612028317,0.0069925124355703,0.0043930612028328,-0.00082052436137514,0.00082053126125217,3.0487072845925e-09,3.0486318298008e-09,1.2699516817817e-09,4.300663734175e-09,-0.00097447649631458,0.00097448318612278,-0.00097447612947113,0.00097448281909553,-0.00097447546135201,0.00097448421554446,-0.00097447510922046,0.00097448386322715,-0.00079357356931527,0.00079358068301802,-0.00079357423946229,0.0007935813528418,4.0514482475077e-10,-2.4924794649338e-09,1.0651109128869e-09,-3.1071605857887e-09,-0.0018737211053494,0.0018737190614229,-0.0021070039045732,0.0021070042510494,-0.0021070045216432,0.0021070020758628,-0.0021070041026676,0.0021070025083623,-0.0021070047197719,0.0021070003331959,-0.001609936976284,0.0016099380959869,-0.0016099423936995,0.001609935280422,-0.0016099378386185,0.0016099372155195,-0.0016099420079124,0.0016099356791713,3.1023436316713e-09,3.1022675461312e-09,-0.00082052430817781,0.00082053131445014,7.2476622206589e-10,4.9776507165909e-09,-0.00097447664945618,0.00097448303615025,-0.00097447521234237,0.00097448446514375,-0.00097447627966835,0.00097448266617764,-0.00097447485939702,0.00097448411201339,-0.00079357398214622,0.00079358160931371,-0.00079357330834409,0.00079358093583278,0.69092321609739,122718,2924,0.003415734455404,0.0077754063613101,0.0034157344554053,29.174656043129,0.00014859724834503,0.00014859724834503,0.00014859724834503,2694741.5943679,0.014714757791511
33419200,0.99998683234256,0.015778688858344,0.0043930771494336,0.0069925345594756,0.0043930771494347,-0.00082176848183393,0.00082177480557115,2.8328634101604e-09,2.8327878063025e-09,1.0007914009012e-09,4.1212227985313e-09,-0.00097215581259502,0.00097216200551229,-0.00097215548214325,0.00097216167487706,-0.00097215475039235,0.00097216306431806,-0.00097215443376919,0.00097216274750946,-0.00079466557755789,0.00079467226048645,-0.00079466623849555,0.00079467292110022,4.2545320857887e-10,-2.5659368900952e-09,1.1097966525329e-09,-3.2032576944409e-09,-0.0018718238483852,0.0018718217529351,-0.0021078103713487,0.0021078107380745,-0.0021078110845212,0.0021078085723692,-0.0021078106506648,0.0021078090208818,-0.0021078113638714,0.0021078068551966,-0.0016056958958377,0.0016056970738334,-0.001605701494717,0.0016056941600545,-0.0016056967890878,0.0016056961612121,-0.0016057010950283,0.0016056945735558,2.8904770668454e-09,2.8904008746224e-09,-0.00082176842467755,0.00082177486272811,4.377363204853e-10,4.8253951087206e-09,-0.00097215597013867,0.00097216185201245,-0.00097215448971248,0.00097216332492129,-0.00097215563648831,0.00097216151817751,-0.00097215417232149,0.00097216300734548,-0.0007946659695935,0.00079467318909561,-0.00079466530467069,0.0007946725244942,0.77567308772676,122718,2924,0.0034208672977108,0.0077676602566773,0.003420867297712,29.316053480024,0.00014972842784019,0.00014972842784019,0.00014972842784019,2772406.2548109,0.014717290230619
33919200,0.99998929694116,0.015778733942596,0.004393090384034,0.0069925531745274,0.0043930903840351,-0.00082155005309294,0.00082155497219658,2.2986435307717e-09,2.2985680140569e-09,5.2844049642653e-10,3.5134634830729e-09,-0.00097492552266272,0.00097493053046822,-0.00097492529593631,0.00097493030355804,-0.00097492450746512,0.0009749315426532,-0.00097492429280759,0.00097493132780995,-0.00079442200349576,0.00079442750228557,-0.0007944226454141,0.00079442814388027,3.9566961474134e-10,-2.4746877098715e-09,1.0952999019281e-09,-3.129262387535e-09,-0.0018755235356742,0.0018755214998118,-0.0021096696998077,0.0021096700422543,-0.0021096705091054,0.0021096680453488,-0.0021096700648187,0.0021096685045279,-0.0021096708741509,0.0021096665076425,-0.0016109857029887,0.001610986898823,-0.0016109912640877,0.00161098411557,-0.0016109866169133,0.0016109859651832,-0.0016109908529292,0.0016109845408093,2.3560271848562e-09,2.355951120566e-09,-0.00082154999612945,0.00082155502916064,-5.1798543884158e-11,4.2346694350157e-09,-0.00097492568548911,0.00097493037096035,-0.00097492424191006,0.00097493180891072,-0.00097492545562422,0.00097493014091057,-0.00097492402637039,0.00097493159318599,-0.00079442237119109,0.00079442841734717,-0.00079442172560449,0.00079442777208162,0.76303060755973,122718,2924,0.0034199870027121,0.0077828771394297,0.0034199870027133,30.069487947974,0.00015575590358379,0.00015575590358379,0.00015575590358379,2683580.0368991,0.014730965907358
34419200,0.99999143787092,0.015778771340341,0.0043931013825437,0.006992568575253,0.0043931013825447,-0.00082400638794024,0.00082400976504841,1.7117560684058e-09,1.7116805180274e-09,7.5069778576045e-11,2.7660058033625e-09,-0.00097672114886054,0.00097672492213486,-0.0009767210298357,0.00097672480292642,-0.0009767202316571,0.00097672583494537,-0.000976720123163,0.0009767257262656,-0.00079691247198777,0.00079691662504826,-0.0007969130890762,0.00079691724181313,3.0082800991079e-10,-2.2905745615783e-09,9.9569429069348e-10,-2.9440426358713e-09,-0.0018779633373161,0.0018779613873498,-0.0021127889516896,0.002112789179487,-0.0021127898065664,0.0021127874301685,-0.0021127893647434,0.0021127878870352,-0.0021127902196544,0.0021127861377369,-0.001612739988504,0.0016127410879326,-0.0016127453444395,0.0016127386530786,-0.0016127408979404,0.0016127401585897,-0.0016127449330794,0.0016127390786655,1.769476801498e-09,1.7694006864855e-09,-0.00082400633064109,0.00082400982234825,-5.0317794499447e-10,3.4860464905237e-09,-0.00097672130937208,0.00097672476331354,-0.00097671996784046,0.00097672610112657,-0.000976721187373,0.0009767246411298,-0.00097671985826653,0.00097672599136775,-0.00079691281537108,0.00079691751496263,-0.00079691219506334,0.00079691689497616,0.72790058071019,122718,2924,0.0034301814978511,0.0077929817057252,0.0034301814978525,31.478841925936,0.00016703073540749,0.00016703073540749,0.00016703073540749,2678328.8921088,0.014761902727567
34919200,0.99999332231017,0.015778805637877,0.004393111498467,0.0069925826409419,0.0043931114984681,-0.00082866328950442,0.00082866501375585,1.0810087564852e-09,1.0809331822209e-09,-3.5705015258168e-10,1.9071336630816e-09,-0.00098004210975298,0.00098004458482819,-0.00098004210644201,0.00098004458133365,-0.00098004133321207,0.00098004535394513,-0.00098004133900089,0.00098004535954832,-0.00080143841104042,0.0008014410823797,-0.00080143899971117,0.00080144167072698,1.6526848210249e-10,-2.0166850011281e-09,8.2850523302796e-10,-2.6441098174954e-09,-0.0018811506297931,0.0018811488130003,-0.0021168817188791,0.0021168817754232,-0.0021168825716117,0.002116880346449,-0.0021168821489577,0.0021168807834502,-0.0021168830017246,0.0021168793544959,-0.0016152190552701,0.0016152199696784,-0.0016152240307267,0.0016152180660054,-0.0016152199262515,0.0016152190795841,-0.0016152236345572,0.0016152184758681,1.1367368761084e-09,1.1366607202534e-09,-0.00082866323421617,0.00082866506904472,-9.111675350749e-10,2.5981351264539e-09,-0.00098004226102135,0.00098004443263592,-0.00098004108235112,0.0009800456096656,-0.00098004225511823,0.00098004442654818,-0.00098004108679698,0.00098004561392669,-0.00080143873733545,0.00080144193283847,-0.000801438146154,0.00080144134197848,0.75808686568768,122718,2924,0.0034494999637961,0.0078061962044181,0.0034494999637974,33.571944065446,0.00018377555252357,0.00018377555252357,0.00018377555252357,2692427.9471153,0.014814512475779
35419200,0.99999495157323,0.015778831968531,0.0043931192187923,0.0069925935309453,0.0043931192187934,-0.0008328742526677,0.00083287529367554,8.1747385746641e-10,8.1739832910635e-10,-4.4355797241724e-10,1.4511877936796e-09,-0.00098523035394168,0.00098523235975934,-0.00098523039540804,0.00098523240104199,-0.00098522969685005,0.00098523300542271,-0.00098522974748262,0.00098523305586952,-0.00080561245084381,0.00080561443939701,-0.00080561302939523,0.00080561501762498,4.4698430493631e-11,-1.7741579491631e-09,6.5539603233639e-10,-2.3540581359045e-09,-0.0018863591979529,0.0018863574985103,-0.0021213943986011,0.0021213942958035,-0.0021213951605572,0.0021213930846709,-0.0021213947703116,0.0021213934875997,-0.002121395532302,0.0021213922764872,-0.0016210732538657,0.0016210739522366,-0.0016210778071077,0.0016210725344815,-0.0016210740591104,0.0016210731297643,-0.0016210774398507,0.0016210729141315,8.6808016002824e-10,8.680040452965e-10,-0.00083287420251575,0.00083287534382817,-9.5603905739834e-10,2.0882317783405e-09,-0.0009852304920563,0.00098523221823622,-0.00098522946857608,0.00098523324073193,-0.00098523053143363,0.00098523225742888,-0.00098522951767142,0.00098523328964237,-0.00080561278847742,0.00080561525849629,-0.00080561220809984,0.00080561467844004,0.67379056419234,122718,2924,0.0034669911154229,0.0078277037005145,0.0034669911154243,35.927792425434,0.00020262233940348,0.00020262233940348,0.00020262233940348,2647605.2763602,0.014871847397747
35919200,0.99999626943098,0.01577885481515,0.0043931259639663,0.0069926028872166,0.0043931259639674,-0.00083752817772309,0.0008375308951506,1.4499745314149e-09,1.4498989222748e-09,2.1687321184136e-10,2.0733179322368e-09,-0.00098697609659606,0.00098697955487637,-0.00098697601629827,0.00098697947439516,-0.00098697544710351,0.00098698018943385,-0.00098697537842527,0.0009869801205702,-0.00081015101927912,0.00081015434771442,-0.00081015162215122,0.00081015495026271,3.0878373745701e-11,-1.7344531927044e-09,5.8634677956719e-10,-2.2600569962807e-09,-0.0018874552942497,0.001887453619873,-0.0021243072461861,0.0021243071149157,-0.0021243078073989,0.0021243057922868,-0.0021243074522757,0.0021243061584087,-0.0021243080135227,0.0021243048357997,-0.0016207042419446,0.0016207048162145,-0.0016207085689603,0.0016207034999107,-0.0016207049758858,0.0016207040670408,-0.00162070823602,0.0016207038438316,1.496108205039e-09,1.4960319949365e-09,-0.00083752813208767,0.00083753094078674,-2.4699391044676e-10,2.6506964466433e-09,-0.00098697622033592,0.00098697942689092,-0.00098697524145973,0.00098698040262521,-0.00098697613826058,0.00098697934463108,-0.00098697517125775,0.00098698033223841,-0.00081015140379217,0.00081015516856167,-0.00081015079923663,0.00081015456432768,0.72183945217264,122718,2924,0.0034862870181357,0.0078323131758882,0.0034862870181372,37.535203806731,0.00021548163045385,0.00021548163045385,0.00021548163045385,2709613.8279942,0.014915673140295
36419200,0.99999724139256,0.015778871242058,0.0043931307938465,0.0069926096543643,0.0043931307938476,-0.00083651203283274,0.00083651867622824,2.9444681042118e-09,2.9443925898421e-09,1.4879042943374e-09,3.8513711284322e-09,-0.0009880248473192,0.00098803154886196,-0.00098802448854548,0.00098803118990459,-0.00098802402534949,0.00098803235634733,-0.00098802368274729,0.00098803201355945,-0.000809111842512,0.00080911851666364,-0.00080911251167494,0.00080911918550311,1.804107773393e-10,-2.0575377079295e-09,7.1485262186074e-10,-2.5557190089504e-09,-0.0018888132411478,0.0018888113992034,-0.0021242975511806,0.0021242975874657,-0.0021242978971093,0.0021242957312453,-0.0021242975565118,0.0021242960817363,-0.0021242979024747,0.0021242942255359,-0.0016232826618094,0.0016232833147324,-0.0016232872276074,0.0016232814199751,-0.0016232833656502,0.0016232825969745,-0.0016232869136212,0.001623281743994,2.9876274617892e-09,2.9875513409143e-09,-0.00083651199019358,0.00083651871886802,1.0474663707684e-09,4.3980515877332e-09,-0.00098802496729552,0.00098803142726179,-0.00098802382890243,0.00098803255748105,-0.00098802460660693,0.00098803106638852,-0.00098802348515285,0.00098803221354658,-0.00080911230474994,0.00080911939195678,-0.00080911163312538,0.00080911872065352,0.70447270805609,122718,2924,0.0034820945234938,0.0078378722179088,0.0034820945234951,37.488420115976,0.0002151073609278,0.0002151073609278,0.0002151073609278,2656451.7195181,0.014912820004452
36919200,0.99999794161227,0.015778882119676,0.0043931339889826,0.0069926141417098,0.0043931339889837,-0.00083508128901871,0.00083508936487402,3.4945385367887e-09,3.4944629843765e-09,1.7994901196025e-09,4.664410466462e-09,-0.0009861946834529,0.00098620247404927,-0.00098619422524319,0.00098620201565597,-0.00098619369748051,0.0009862034497527,-0.00098619325648313,0.00098620300856962,-0.00080774404780434,0.00080775205598615,-0.00080774474042171,0.00080775274827986,3.3700866491074e-10,-2.3822605595752e-09,8.8887413362301e-10,-2.8912649416642e-09,-0.0018874605068526,0.0018874585028737,-0.0021233529991331,0.0021233532128849,-0.0021233533834991,0.0021233510473478,-0.0021233530330466,0.0021233514080023,-0.0021233534174468,0.0021233492424853,-0.0016214961912303,0.0016214970192872,-0.0016215011955589,0.0016214945668084,-0.0016214969147016,0.0016214962815977,-0.0016215008764274,0.0016214948961412,3.5390724211419e-09,3.5389962737723e-09,-0.00083508124501431,0.00083508940887901,1.3485752450402e-09,5.2247660911165e-09,-0.00098619480882192,0.0009862023500607,-0.00098619349308929,0.00098620365587325,-0.00098619434831559,0.00098620188936975,-0.00098619305127933,0.00098620321387839,-0.0008077445275376,0.00080775296037809,-0.00080774383156542,0.00080775226472739,0.64727478642577,122718,2924,0.003476156503616,0.0078322894836395,0.0034761565036173,36.86207427004,0.00021009659416032,0.00021009659416032,0.00021009659416032,2665359.9115094,0.014895097535078
37419200,0.99999848201691,0.015778890611027,0.0043931364879474,0.006992617635131,0.0043931364879485,-0.000837761403266,0.00083776614228815,2.2299393613244e-09,2.2298637568544e-09,5.5112524705348e-10,3.3401297249179e-09,-0.00098708453131239,0.000987089458551,-0.00098708431295609,0.0009870892400112,-0.0009870835788656,0.00098709040525592,-0.00098708337311346,0.00098709019931832,-0.00081032510685877,0.00081033039645878,-0.00081032574481635,0.00081033103409265,3.218937244265e-10,-2.3545789244066e-09,8.9915303696251e-10,-2.8892684670081e-09,-0.0018877623548114,0.0018877603630435,-0.0021246980199019,0.0021246981988878,-0.0021246987067332,0.0021246963660069,-0.0021246983400373,0.0021246967438489,-0.0021246990269028,0.002124694910988,-0.0016209973262782,0.0016209982018052,-0.0016210024862577,0.0016209958742341,-0.0016209980829627,0.0016209974298247,-0.0016210021509143,0.0016209962205295,2.2773143488176e-09,2.2772381490526e-09,-0.00083776135641331,0.00083776618914149,7.8004205848585e-11,3.9295176576066e-09,-0.00098708466255937,0.00098708932881158,-0.00098708336338066,0.00098709062252885,-0.00098708444176354,0.00098708910783125,-0.00098708315677313,0.00098709041573661,-0.00081032552059096,0.00081033125765628,-0.00081032487923618,0.00081033061662313,0.65462458225499,122718,2924,0.0034872570545192,0.0078335854288762,0.0034872570545205,37.673431405167,0.00021658745124134,0.00021658745124134,0.00021658745124134,2707666.0550725,0.014918933899428
37919200,0.99999888059556,0.015778896448509,0.0043931381985657,0.0069926200513764,0.0043931381985668,-0.0008376782816163,0.00083768489328921,2.9418899795213e-09,2.9418144206233e-09,1.177971612842e-09,4.163786252894e-09,-0.00098772805652259,0.00098773454418568,-0.0009877277047018,0.00098773419218132,-0.00098772703606423,0.00098773555848156,-0.00098772669902356,0.00098773522125525,-0.00081020254579029,0.00081020941450472,-0.00081020321342292,0.0008102100818137,3.802652552163e-10,-2.474400252359e-09,9.8284980496606e-10,-3.0321660259975e-09,-0.0018882084989156,0.0018882064478059,-0.0021245617741352,0.0021245620461528,-0.0021245623660649,0.002124559950532,-0.0021245619836664,0.0021245603447751,-0.0021245625756303,0.0021245582491743,-0.0016220174038516,0.0016220183768967,-0.0016220227011145,0.0016220157490901,-0.0016220181922266,0.0016220175724024,-0.0016220223515438,0.001622016110196,2.9913370152627e-09,2.9912608571288e-09,-0.00083767823267904,0.00083768494222706,6.8426638851388e-10,4.778793087884e-09,-0.00098772819440142,0.00098773440890551,-0.0009877268101174,0.00098773578526182,-0.00098772783992155,0.00098773405424087,-0.0009877264723042,0.00098773544726372,-0.0008102029792492,0.00081021031517914,-0.00081020230795129,0.00081020964420281,0.61069305856341,122718,2924,0.003486920032709,0.0078354106577354,0.0034869200327102,37.676464450256,0.00021661171560205,0.00021661171560205,0.00021661171560205,2692044.692824,0.014920108129402
38419200,0.99999916875474,0.015778901271688,0.0043931396222864,0.0069926220271142,0.0043931396222875,-0.0008374569365356,0.00083746471585697,3.3908378131258e-09,3.3907622128084e-09,1.4891332136404e-09,4.7643348739576e-09,-0.00098635382160355,0.00098636124551656,-0.00098635338593021,0.00098636080965973,-0.00098635270547362,0.00098636235743801,-0.00098635228564029,0.00098636193741907,-0.00080997190492109,0.00080997982147324,-0.00080997258987997,0.00080998050610825,4.6447666849778e-10,-2.6666082485955e-09,1.1044001484512e-09,-3.2578604783046e-09,-0.0018864581515188,0.001886455995996,-0.0021234672456141,0.0021234676301298,-0.0021234678466114,0.0021234653041986,-0.0021234674412471,0.0021234657225711,-0.0021234680422785,0.0021234633966599,-0.001619742673699,0.0016197437882476,-0.0016197482668131,0.0016197407782523,-0.0016197435087467,0.0016197429357562,-0.001619747896854,0.0016197411606648,3.4441477723997e-09,3.4440715840489e-09,-0.00083745688373215,0.00083746476866106,9.6634859700781e-10,5.4176136870894e-09,-0.00098635396857816,0.00098636110301646,-0.00098635246330983,0.00098636259878342,-0.00098635352986935,0.00098636066412312,-0.0009863520428564,0.00098636217814528,-0.00080997234032326,0.00080998075465209,-0.00080997165115913,0.00080998006580949,0.69725492786578,122718,2924,0.0034859908446853,0.0078282043435792,0.0034859908446866,37.198315017061,0.00021278652013649,0.00021278652013649,0.00021278652013649,2728250.0445696,0.014910900961086
38880000,0.99999936998149,0.015778904767883,0.0043931406525939,0.0069926234626943,0.004393140652595,-0.00083573150604486,0.00083573819210394,2.974244658143e-09,2.9741691603733e-09,1.0468745412455e-09,4.3739602369289e-09,-0.00098796525275953,0.00098797168120539,-0.00098796490313274,0.00098797133139487,-0.00098796412346608,0.00098797280893369,-0.00098796378769127,0.00098797247297308,-0.00080839328533882,0.00080840033323913,-0.00080839395505149,0.00080840100262842,4.988592224873e-10,-2.6944286296431e-09,1.1808533611522e-09,-3.3271874597658e-09,-0.0018887333656565,0.0018887312171229,-0.00212359470425,0.0021235951507095,-0.0021235954504089,0.0021235928874772,-0.0021235950181182,0.0021235933338899,-0.0021235957643113,0.0021235910706777,-0.0016237556020081,0.0016237568507816,-0.0016237613640419,0.0016237537184551,-0.0016237564911725,0.0016237559428188,-0.0016237609678882,0.0016237541280252,3.0301070270382e-09,3.0300309485393e-09,-0.00083573145064227,0.00083573824750717,4.8563625635161e-10,5.0722188742218e-09,-0.00098796541166681,0.00098797152733517,-0.00098796386463966,0.00098797306660141,-0.00098796505879998,0.00098797117428357,-0.00098796352822711,0.00098797273000387,-0.00080839368897845,0.00080840126773975,-0.00080839301503323,0.00080840059411575,0.72416034322605,122718,2924,0.0034788596013209,0.0078375204277133,0.0034788596013223,37.193685301299,0.00021274948241039,0.00021274948241039,0.00021274948241039,2640698.9548118,0.014905902282273
