time,ASR_ext,ASR_strain,ASR_strain_xx,ASR_strain_yy,ASR_strain_zz,disp_x_101,disp_x_102,disp_x_103,disp_x_104,disp_x_105,disp_x_106,disp_x_p1_neg,disp_x_p1_pos,disp_x_p2_neg,disp_x_p2_pos,disp_x_p3_neg,disp_x_p3_pos,disp_x_p4_neg,disp_x_p4_pos,disp_x_p5_neg,disp_x_p5_pos,disp_x_p6_neg,disp_x_p6_pos,disp_y_101,disp_y_102,disp_y_103,disp_y_104,disp_y_105,disp_y_106,disp_y_p1_neg,disp_y_p1_pos,disp_y_p2_neg,disp_y_p2_pos,disp_y_p3_neg,disp_y_p3_pos,disp_y_p4_neg,disp_y_p4_pos,disp_y_p5_neg,disp_y_p5_pos,disp_y_p6_neg,disp_y_p6_pos,disp_y_p7_neg,disp_y_p7_pos,disp_y_p8_neg,disp_y_p8_pos,disp_z_101,disp_z_102,disp_z_103,disp_z_104,disp_z_105,disp_z_106,disp_z_p1_neg,disp_z_p1_pos,disp_z_p2_neg,disp_z_p2_pos,disp_z_p3_neg,disp_z_p3_pos,disp_z_p4_neg,disp_z_p4_pos,disp_z_p5_neg,disp_z_p5_pos,disp_z_p6_neg,disp_z_p6_pos,humidity,ndof,nelem,strain_xx,strain_yy,strain_zz,temp,thermal_strain_xx,thermal_strain_yy,thermal_strain_zz,vonmises,vstrain
2419200,0,0,0,0,0,0,0,0,0,0,0,0,0,0,0,0,0,0,0,0,0,0,0,0,0,0,0,0,0,0,0,0,0,0,0,0,0,0,0,0,0,0,0,0,0,0,0,0,0,0,0,0,0,0,0,0,0,0,0,0,0,0,0,0,0,0,0,0,0,0,0,0,0,0,0
2619200,0.021294969045691,0.00043655512646096,0.00014551837548699,0.00014551837548699,0.00014551837548699,-3.8853649619171e-05,3.88531814525e-05,-2.3561908507371e-10,-2.3504568945824e-10,7.3762870665953e-10,-1.2356329038696e-09,-3.9098868264889e-05,3.9099049412753e-05,-3.909886656525e-05,3.9099046833557e-05,-3.9099472008564e-05,3.9098368470023e-05,-3.9099489282236e-05,3.9098388521326e-05,-3.9489115481767e-05,3.9487969947264e-05,-3.9489147269422e-05,3.9488001189421e-05,1.0969929926281e-09,-2.2493695388708e-09,-4.7326802284669e-09,3.6242587295729e-09,-4.1702339228699e-05,4.1701227517506e-05,-4.1573695856921e-05,4.1570941953315e-05,-4.1571036670105e-05,4.1573754333763e-05,-4.1574749298368e-05,4.1569817890548e-05,-4.1572088182044e-05,4.1572631972526e-05,-4.1606280582648e-05,4.1595839938724e-05,-4.1598214270485e-05,4.1604170852059e-05,-4.1598683470981e-05,4.1603626372932e-05,-4.1601929955989e-05,4.1600256087249e-05,-4.8337327657088e-10,-4.8543534726159e-10,-3.8853905749268e-05,3.8852925378009e-05,1.783310946049e-09,-2.8433388313271e-09,-3.9098667503355e-05,3.9099249436825e-05,-3.9100187574875e-05,3.9097698672577e-05,-3.9098660183733e-05,3.9099239530363e-05,-3.9100164041683e-05,3.9097676218115e-05,-3.9489783020726e-05,3.94872738262e-05,-3.9489848095598e-05,3.9487344435148e-05,0.81993057597523,128566,2924,0.0001618761348709,0.00017374228372283,0.0001618761349868,32.693040759624,2.3944326076992e-05,2.3944326076992e-05,2.3944326076992e-05,545587.82117882,0.00049761842395492
2819200,0.043224468220242,0.00087823381950673,0.00029048528818621,0.00029726324283582,0.0002904852884847,-7.2466226606141e-05,7.2465764626711e-05,-2.1915659552145e-10,-2.3005216432561e-10,1.0386285383593e-09,-1.532845455436e-09,-7.340788584339e-05,7.3408247081327e-05,-7.3407911504241e-05,7.3408245337514e-05,-7.3408659521196e-05,7.340736929932e-05,-7.3408707323711e-05,7.3407430686331e-05,-7.3798603012324e-05,7.3797311988126e-05,-7.3798700727627e-05,7.3797354839547e-05,4.1043029349288e-10,-3.9479381472069e-10,-4.0582818941966e-09,4.0798826400624e-09,-7.9538962708971e-05,7.9538986444972e-05,-7.9461486601548e-05,7.945911515927e-05,-7.9458870548447e-05,7.9461844377513e-05,-7.9461770120495e-05,7.9458835093633e-05,-7.9459136094649e-05,7.9461584176626e-05,-7.9124019343771e-05,7.9115831687428e-05,-7.9116195093944e-05,7.9123888301089e-05,-7.9118235381778e-05,7.9121729150685e-05,-7.91190064545e-05,7.9120907144576e-05,-3.0195212022418e-11,-4.4427108865098e-11,-7.246602679508e-05,7.246596438208e-05,9.3041110090673e-10,-1.0290739532162e-09,-7.3407740886824e-05,7.3408394793394e-05,-7.3408424001266e-05,7.3407720842441e-05,-7.3407757495802e-05,7.3408382468614e-05,-7.340837290526e-05,7.3407681297924e-05,-7.3798347296189e-05,7.3797574964029e-05,-7.3798384769417e-05,7.3797675096622e-05,0.82138593612277,128566,2924,0.00030189619209139,0.00033135722531745,0.00030189619197519,32.940950188136,2.5927601505086e-05,2.5927601505086e-05,2.5927601505086e-05,919735.17079567,0.00093558745763092
3019200,0.065252281331822,0.0013147286276751,0.0004314126751837,0.00045190327742135,0.00043141267507002,-0.00010447568251609,0.00010447504582216,-3.1333277068478e-10,-3.1064166948316e-10,1.5553519295892e-09,-2.2463743775952e-09,-0.0001063786857803,0.00010637929882705,-0.00010637870754314,0.00010637928794576,-0.00010637987150209,0.00010637798263689,-0.00010637992079141,0.00010637806934541,-0.00010654194132214,0.00010654002852923,-0.00010654202472052,0.00010654010626634,6.7335925860157e-11,1.5736791845194e-10,-2.3050156338656e-09,2.5207397331278e-09,-0.00011743986835736,0.00011744008676364,-0.00011760720022216,0.00011760576657939,-0.00011760555847213,0.00011760743508085,-0.0001176072143724,0.000117605761062,-0.00011760555619168,0.00011760745005229,-0.00011642731894189,0.00011642284738678,-0.00011642267144685,0.00011642760772753,-0.0001164242429365,0.00011642596404775,-0.00011642413901344,0.00011642603293054,1.6853464011864e-11,1.5546499438161e-11,-0.00010447533537745,0.00010447539268984,6.2265668620682e-10,-5.8739322655317e-10,-0.00010637872339741,0.00010637924680297,-0.00010637916421731,0.00010637883640267,-0.00010637874513054,0.00010637923259896,-0.00010637909451935,0.00010637880149177,-0.00010654118199642,0.00010654079204648,-0.00010654125622314,0.00010654088088086,0.82013449163361,128566,2924,0.00043521976312784,0.0004892127995819,0.00043521976256321,32.856826141496,2.5254609131967e-05,2.5254609131967e-05,2.5254609131967e-05,1256603.6334649,0.0013605783070721
3219200,0.086606537253914,0.0017256048495201,0.00056194648491655,0.00060171188050967,0.00056194648409392,-0.00013314367111393,0.00013314303446073,-3.0688346889081e-10,-3.1704855152397e-10,1.8307180508498e-09,-2.5322407006451e-09,-0.00013633636274338,0.00013633716925544,-0.00013633639067287,0.00013633715926955,-0.000136337737415,0.00013633566878458,-0.00013633779427651,0.00013633575168034,-0.00013572593798262,0.00013572387152407,-0.00013572606116047,0.0001357239106033,-2.5880138444977e-10,7.9625818562371e-10,-9.4839620584545e-10,1.4611684388439e-09,-0.00015321945968924,0.00015321997751342,-0.00015400278877773,0.00015400214987996,-0.00015400193206748,0.00015400300987897,-0.00015400250473027,0.00015400245605342,-0.00015400164076812,0.00015400332574028,-0.00015115987512286,0.00015115841675345,-0.00015115760292837,0.00015116074320121,-0.00015115899010774,0.00015115929110251,-0.00015115797476269,0.00015116029308775,2.7400467485951e-10,2.5932868261127e-10,-0.00013314307245572,0.00013314363245588,-3.4891275410928e-10,9.2716603429612e-10,-0.0001363366651986,0.00013633684959468,-0.00013633627746029,0.00013633728497045,-0.00013633669213459,0.00013633683493839,-0.00013633621328218,0.00013633724382981,-0.00013572445484878,0.00013572535874564,-0.00013572448790389,0.00013572548628051,0.80676032536341,128566,2924,0.00055461136386699,0.00063821024243285,0.00055461136248554,32.290991004367,2.0727928034937e-05,2.0727928034937e-05,2.0727928034937e-05,1515747.6718416,0.0017489628850644
3419200,0.10538944781287,0.0020736675307644,0.00067070223511445,0.00073226306151076,0.00067070223413916,-0.00015428219101749,0.00015428149541986,-3.2208909969505e-10,-3.613852329868e-10,2.1398891770487e-09,-2.9134939579139e-09,-0.0001589175696405,0.00015891853334049,-0.00015891759460717,0.00015891854545481,-0.00015891914675908,0.0001589168302131,-0.00015891923125435,0.00015891687579908,-0.00015702570688729,0.000157023422742,-0.00015702590342593,0.00015702339168977,-5.7581244119282e-10,1.5167659593852e-09,9.8315583544056e-10,-8.3613238900887e-11,-0.00018166728653222,0.00018166818920303,-0.00018349893990513,0.00018349945261799,-0.00018349918390236,0.00018349916797464,-0.00018349829527481,0.00018350013318241,-0.00018349858198907,0.00018349980347898,-0.0001781223324922,0.0001781250590045,-0.00017812345552683,0.00017812389327042,-0.00017812435687687,0.00017812294877082,-0.00017812238350286,0.00017812494711456,7.07344047456e-10,6.6359810615986e-10,-0.00015428114285202,0.00015428254286001,-2.0684618087792e-09,3.5610791836783e-09,-0.00015891827018296,0.00015891781815781,-0.00015891641706672,0.00015891971529991,-0.00015891828478215,0.00015891781724854,-0.00015891638711477,0.00015891964360002,-0.00015702300915069,0.0001570261426399,-0.00015702295723475,0.00015702632879365,0.78590062797931,128566,2924,0.00064263687506909,0.00075666002551685,0.00064263687355787,30.390856491878,5.5268519350231e-06,5.5268519350231e-06,5.5268519350231e-06,1686306.0252257,0.0020440231426319
3619200,0.12336002917894,0.0023967711816878,0.00077052100795884,0.00085572916670133,0.00077052100702759,-0.00017551067797796,0.00017551015758532,-2.1462340896744e-10,-2.9929578181129e-10,1.9757668474635e-09,-2.571951291955e-09,-0.0001816505939005,0.00018165154613072,-0.00018165056086509,0.00018165154210224,-0.00018165190883721,0.00018164998989447,-0.00018165208221173,0.00018165002514425,-0.00017822975620077,0.00017822796335095,-0.00017823016636275,0.0001782278605696,-4.8760445387158e-10,1.4202786322789e-09,8.6730970064429e-10,2.6726053640348e-11,-0.00021073518463066,0.00021073608402828,-0.0002139905909408,0.00021399101866611,-0.00021399070210362,0.00021399088346843,-0.00021398994146093,0.00021399165724683,-0.0002139901677381,0.00021399141887574,-0.00020529168684082,0.00020529422809855,-0.0002052926954006,0.00020529323095594,-0.00020529344817945,0.00020529241085882,-0.00020529172916264,0.00020529411679475,7.1489229565977e-10,6.2599149884575e-10,-0.00017550973724518,0.00017551109782335,-2.4618300272017e-09,3.9386246589519e-09,-0.00018165145418197,0.00018165064474854,-0.00018164925857031,0.00018165284042306,-0.0001816514359147,0.00018165065369217,-0.00018164926104681,0.00018165270628497,-0.00017822727566214,0.00017823049786519,-0.00017822708584326,0.00017823083915624,0.77012035031085,128566,2924,0.00073103025451408,0.00087767597984213,0.00073103025348667,29.682928420351,-1.3657263719377e-07,-1.3657263719377e-07,-1.3657263719377e-07,1882382.2516053,0.0023424800165551
3819200,0.14085853847014,0.0027085997381669,0.00086600328309713,0.00097659317640438,0.00086600327866533,-0.00019618039241237,0.00019617999225554,-1.758548331733e-10,-2.1778690364565e-10,1.8538672931171e-09,-2.326883371722e-09,-0.0002037754656991,0.00020377643253405,-0.00020377544835989,0.00020377639714434,-0.00020377668047662,0.00020377496534249,-0.00020377681219501,0.00020377505377827,-0.0001989286028064,0.00019892690027961,-0.00019892887152005,0.00019892695414934,-2.5964576072818e-10,1.0733151551205e-09,7.3088674753656e-10,5.0933994155853e-11,-0.00023968436327253,0.00023968515353558,-0.00024459920663169,0.00024459967100133,-0.00024459929212601,0.00024459957322209,-0.00024459876197218,0.00024460010884328,-0.00024459890325182,0.00024459995796402,-0.00023211477904444,0.00023211671473848,-0.00023211547518505,0.00023211600232763,-0.00023211604007713,0.0002321153893739,-0.00023211478277368,0.0002321166538138,4.964377449434e-10,4.5049468135825e-10,-0.00019617971057551,0.00019618067256072,-2.1621627376184e-09,3.2303852868123e-09,-0.00020377635629313,0.00020377548640376,-0.0002037745140651,0.00020377732913795,-0.00020377635577581,0.00020377547840514,-0.00020377446735894,0.00020377723859018,-0.00019892646467851,0.00019892910618779,-0.00019892641979897,0.00019892929837002,0.77140879782247,128566,2924,0.00081709002922971,0.00099818231673385,0.00081709002604627,29.233848001579,-3.7292159873664e-06,-3.7292159873664e-06,-3.7292159873664e-06,2077755.8082861,0.0026358355851328
4019200,0.16016315183834,0.0030505897019432,0.00096985271800665,0.0011108842722426,0.00096985271169391,-0.00022194219213612,0.00022194195464111,-1.6130637203562e-10,-7.2041559499992e-11,1.6104342408109e-09,-1.9106923870782e-09,-0.00023120118261344,0.00023120217517446,-0.00023120123539107,0.0002312020427596,-0.00023120230951915,0.00023120080360234,-0.00023120226991208,0.00023120106132533,-0.00022480839449888,0.00022480658351608,-0.00022480815463158,0.00022480709616396,1.9005615792219e-10,3.566920255314e-10,-7.3038065335034e-10,1.25787880646e-09,-0.0002754119458664,0.00027541248438337,-0.00028229676336094,0.00028229661916348,-0.0002822961268151,0.00028229728835968,-0.00028229681751593,0.00028229654473802,-0.00028229598192852,0.0002822974179466,-0.00026530944238676,0.00026530774407495,-0.00026530720685564,0.00026531005068635,-0.0002653082347757,0.00026530896471212,-0.00026530774632448,0.00026530941299318,-1.1569410302714e-10,-2.9668161808757e-11,-0.00022194214222196,0.00022194200246819,-5.1228578110927e-10,4.0609636687092e-10,-0.00023120183566918,0.00023120145204411,-0.00023120161099113,0.00023120169097866,-0.0002312019198244,0.00023120136558266,-0.0002312013959048,0.00023120177057524,-0.00022480724080769,0.00022480776954373,-0.00022480768982615,0.00022480748430272,0.77300335558587,128566,2924,0.00092434135328972,0.0011468841831165,0.00092434134895243,30.536696110357,6.693568882855e-06,6.693568882855e-06,6.693568882855e-06,2321775.7292484,0.0030000655682299
4219200,0.1812844590048,0.0034225291589643,0.0010814921801791,0.0012595448053401,0.0010814921734451,-0.00024930270301359,0.00024930258604337,-7.5993943390319e-11,-3.8684339727501e-11,1.3793764579786e-09,-1.5486541778764e-09,-0.00026057151195356,0.00026057240516767,-0.00026057152831845,0.00026057229813012,-0.00026057240994246,0.00026057127110443,-0.00026057243383538,0.0002605714644693,-0.00025231265847248,0.00025231134559328,-0.00025231258129244,0.00025231164942521,3.1315639963989e-10,6.159549091768e-11,-2.1911578494994e-09,2.5538017949023e-09,-0.00031463828260046,0.00031463865375331,-0.00032381243509268,0.00032381135715908,-0.00032381091310984,0.00032381295509324,-0.0003238125924915,0.00032381117746615,-0.0003238109497626,0.00032381289745163,-0.0003015831921908,0.00030157868542061,-0.000301578487422,0.00030158355330923,-0.00030157992770504,0.00030158201500767,-0.00030158002862613,0.00030158186745114,-2.8739337090746e-10,-2.5277049586597e-10,-0.00024930291283292,0.00024930237414359,3.4464343986478e-10,-8.9407472986487e-10,-0.00026057194738414,0.00026057189741314,-0.00026057242763397,0.00026057143468901,-0.00026057200138653,0.00026057184494165,-0.00026057227897883,0.00026057145320079,-0.00025231239370473,0.0002523116263622,-0.00025231265379855,0.00025231152170673,0.77489565207573,128566,2924,0.0010382372265148,0.0013101219768669,0.0010382372221918,31.779837831299,1.663870265039e-05,1.663870265039e-05,1.663870265039e-05,2562558.7038027,0.0033923477660944
4419200,0.2027373494783,0.0037978764325643,0.0011927065240273,0.0014124633909639,0.0011927065175731,-0.00027456707644378,0.00027456689499246,-1.1486850789097e-10,-6.5034789968481e-11,1.4257074590629e-09,-1.6610073219841e-09,-0.00028809160828589,0.00028809249666434,-0.00028809163228545,0.00028809238423948,-0.00028809257502048,0.00028809130256816,-0.00028809258037178,0.0002880915092197,-0.00027773421053865,0.0002777327307674,-0.00027773407831146,0.00027773307691233,2.0677431696596e-10,1.1259207172773e-10,-1.9990266378878e-09,2.3077549446264e-09,-0.00035295873048004,0.00035295904678593,-0.00036457407383218,0.0003645730481188,-0.0003645727008862,0.00036457448052075,-0.00036457419213434,0.00036457291073276,-0.00036457267959288,0.00036457448418329,-0.00033678309479007,0.0003367790140479,-0.0003367788098125,0.00033678344743256,-0.00033678021810842,0.00033678193657326,-0.00033678015303414,0.00033678195964129,-1.8264012183362e-10,-1.3464832759751e-10,-0.00027456714200308,0.0002745668276895,2.8161298975471e-10,-6.0509267967337e-10,-0.00028809198586089,0.00028809205112789,-0.00028809236082185,0.00028809169277081,-0.00028809204595471,0.00028809199163485,-0.00028809219777716,0.00028809172926192,-0.00027773366797567,0.00027773329397046,-0.00027773397265225,0.00027773313362249,0.77613010094988,128566,2924,0.001143397650231,0.0014695630531608,0.0011433976466093,31.980787557869,1.8246300462954e-05,1.8246300462954e-05,1.8246300462954e-05,2761358.2615568,0.0037634362961487
4619200,0.22573233883268,0.0041979985630637,0.0013099119582574,0.0015781746526379,0.0013099119521684,-0.00030265983149186,0.00030265966685585,-6.7832860812407e-11,-9.5678050779419e-11,1.359303766288e-09,-1.5780272027786e-09,-0.00031875249352292,0.00031875330793909,-0.00031875247538124,0.00031875324031194,-0.00031875334808382,0.00031875223444389,-0.00031875344900962,0.00031875234845378,-0.00030604815421998,0.00030604702643283,-0.00030604830280569,0.00030604708214097,1.7434799709719e-10,1.0886435862151e-10,-2.6762578069258e-09,2.9508036682529e-09,-0.00039610206504475,0.00039610234663806,-0.00041040311848378,0.00041040155417822,-0.00041040126058868,0.00041040349483414,-0.00041040315956539,0.00041040149504889,-0.00041040129929778,0.0004104034393909,-0.00037648447247642,0.0003764792959213,-0.00037647913111817,0.00037648481364103,-0.00037648076662822,0.00037648307860075,-0.000376480904687,0.00037648291672586,-1.8504512367772e-10,-2.139228543905e-10,-0.00030265994663021,0.0003026595502222,6.563356974832e-10,-1.0767489575529e-09,-0.00031875275261437,0.00031875298131866,-0.0003187533438664,0.00031875240968898,-0.00031875276956993,0.00031875296511253,-0.00031875327660698,0.0003187523541283,-0.00030604810939614,0.00030604708683889,-0.00030604812588601,0.0003060472060774,0.77694609380994,128566,2924,0.0012603200361551,0.0016490390488961,0.0012603200330545,33.01197667538,2.6495813403041e-05,2.6495813403041e-05,2.6495813403041e-05,2978473.2033327,0.0041784032464154
4819200,0.25102262861286,0.0046354577617229,0.0014364112339369,0.001762635299307,0.001436411228479,-0.00033365303978275,0.00033365289174983,-5.8300535165471e-11,-8.8853068318045e-11,1.2943435164054e-09,-1.4941341739913e-09,-0.00035272599729972,0.00035272677237892,-0.00035272597413103,0.00035272670623204,-0.00035272679813729,0.00035272575628087,-0.00035272689974223,0.00035272586030457,-0.00033733907857684,0.00033733801638098,-0.00033733922589758,0.00033733807357986,2.1183561384682e-10,2.8644298686337e-11,-3.4952571828805e-09,3.72922845366e-09,-0.00044477012306064,0.00044477036189306,-0.00046214032420131,0.00046213820406023,-0.00046213793207994,0.00046214069914879,-0.00046214038663588,0.00046213812215503,-0.00046213801649213,0.00046214059378201,-0.000421227975337,0.00042122114100263,-0.000421221070658,0.00042122826011358,-0.00042122315883946,0.00042122607003466,-0.00042122340732011,0.00042122580536794,-2.9505547830409e-10,-3.2587046759483e-10,-0.00033365327479412,0.00033365265520398,1.2951361578765e-09,-1.966240563606e-09,-0.00035272609591349,0.00035272660414772,-0.00035272717953487,0.00035272553674131,-0.00035272611015747,0.00035272659157151,-0.0003527271187103,0.00035272547737332,-0.00033733942856743,0.00033733768524294,-0.00033733944049949,0.00033733779489172,0.77793123168408,128566,2924,0.0013893012032978,0.0018514569024706,0.0013893012001174,34.499680976435,3.8397447811481e-05,3.8397447811481e-05,3.8397447811481e-05,3209197.5026724,0.0046408202352612
5019200,0.27837208870597,0.0051040958230484,0.0015700409462625,0.0019640139354841,0.0015700409413019,-0.00036587935746535,0.00036587921123243,-1.8236239063613e-11,-1.29881048442e-10,1.2457244004618e-09,-1.4410358188302e-09,-0.00038836652472049,0.00038836723572892,-0.00038836646928721,0.00038836720558523,-0.00038836723876903,0.00038836632065073,-0.00038836743573663,0.00038836634437664,-0.00036990795878039,0.0003699072242979,-0.00036990840205907,0.00036990698187807,1.8361129496274e-10,2.7161212140672e-11,-3.959126721264e-09,4.1644053217907e-09,-0.00049728065561138,0.00049728086963832,-0.0005181749190038,0.00051817240951129,-0.00051817216672479,0.00051817527960746,-0.0005181749098469,0.00051817239666816,-0.00051817230283775,0.00051817512648887,-0.00046924913896734,0.00046924159725446,-0.00046924159086612,0.00046924941494615,-0.00046924377231795,0.00046924709035579,-0.00046924417752008,0.0004692466423044,-2.3903763723522e-10,-3.5016290384844e-10,-0.00036587957776804,0.00036587898945784,1.5902038451582e-09,-2.2465525629468e-09,-0.00038836649834242,0.0003883671962343,-0.00038836771209818,0.00038836601452761,-0.00038836648066873,0.00038836721852733,-0.00038836774172134,0.00038836586999187,-0.00036990870984823,0.00036990649220811,-0.00036990842628488,0.0003699069000358,0.77678229387424,128566,2924,0.0015234010301052,0.0020698065818422,0.0015234010270528,35.809517839745,4.887614271796e-05,4.887614271796e-05,4.887614271796e-05,3432272.8943879,0.0051297553354852
5219200,0.30714935178096,0.0055946075307706,0.001708113378803,0.002178380778054,0.0017081133739136,-0.00039837855811503,0.00039837836573459,-1.5444053714429e-10,-3.9769455324618e-11,1.2879469180681e-09,-1.5287019282201e-09,-0.00042459455850255,0.00042459538078846,-0.00042459461741257,0.00042459522610946,-0.00042459550522466,0.0004245942288219,-0.00042459542039752,0.00042459450940751,-0.00040283289843125,0.00040283123369033,-0.00040283250419125,0.00040283183746474,1.9088699356279e-10,-7.5068993311431e-12,-3.7229193149146e-09,3.9014435597097e-09,-0.00055228266428972,0.00055228284706653,-0.00057711348241847,0.00057711127017892,-0.00057711105004341,0.00057711379215629,-0.00057711366455902,0.00057711106788931,-0.00057711101200486,0.000577113808281,-0.00051925060152309,0.00051924287553393,-0.00051924286936145,0.00051925083429003,-0.00051924550097902,0.00051924807450713,-0.00051924531787749,0.00051924821502706,-3.0395410240714e-10,-1.878965940599e-10,-0.00039837870631709,0.00039837821645496,1.6986802472198e-09,-2.2567571594279e-09,-0.00042459446195468,0.00042459540880767,-0.00042459589899416,0.0004245939910722,-0.00042459456391763,0.00042459531207172,-0.00042459565898486,0.00042459411580479,-0.00040283273355804,0.00040283143874579,-0.00040283328250845,0.00040283099401773,0.77856400243353,128566,2924,0.0016586243691472,0.002298459684402,0.0016586243669154,36.762323067709,5.6498584541675e-05,5.6498584541675e-05,5.6498584541675e-05,3641967.74592,0.0056315520747266
5419200,0.3370324936164,0.0060943345653833,0.0018469395581035,0.0024004554537686,0.0018469395535112,-0.00043073631146155,0.00043073609679476,-1.8855488800278e-10,-2.9686321246244e-11,1.3103785773781e-09,-1.5717726132491e-09,-0.00046114360176776,0.00046114446319056,-0.00046114369876603,0.00046114427329364,-0.00046114462879035,0.00046114323926282,-0.00046114448075687,0.00046114358879378,-0.00043559316067444,0.00043559129505875,-0.00043559259881585,0.00043559203814645,1.7505400227922e-10,1.1037200879913e-11,-3.4539773597743e-09,3.635010615215e-09,-0.0006090051001319,0.0006090052888611,-0.00063824711347073,0.00063824519842821,-0.00063824496497949,0.00063824742867185,-0.00063824738556854,0.00063824490121936,-0.00063824482385582,0.0006382475533199,-0.00057037475086002,0.00057036742022568,-0.00057036742553,0.00057037500138902,-0.00057037003004379,0.00057037222506151,-0.00057036965334788,0.00057037254158384,-2.4855929866474e-10,-8.736236006473e-11,-0.00043073636998682,0.00043073603768951,1.5860386916361e-09,-1.9896341259467e-09,-0.00046114348688478,0.00046114451473757,-0.00046114486232043,0.000461143167987,-0.00046114362684411,0.00046114438231174,-0.00046114455743438,0.00046114336003754,-0.00043559267697616,0.00043559180502156,-0.00043559338435439,0.00043559121080659,0.76958753832089,128566,2924,0.0017932488503241,0.0025342024664818,0.0017932488491254,37.573661679393,6.2989293435146e-05,6.2989293435146e-05,6.2989293435146e-05,3824958.8791112,0.0061395298871661
5619200,0.36676039978132,0.0065654009186715,0.0019758161456917,0.0026137686311991,0.0019758161417808,-0.00045963060384546,0.00045963037609741,-1.5616943354828e-10,-7.7219511015614e-11,1.3320359625181e-09,-1.6033262087937e-09,-0.000495001179792,0.00049500199643175,-0.00049500123107293,0.00049500185851408,-0.00049500215559923,0.00049500083172911,-0.00049500210658097,0.00049500108236043,-0.00046451747514606,0.00046451587014841,-0.00046451720429643,0.00046451631043664,1.3173809290346e-10,6.020518809636e-11,-2.696402400434e-09,2.8827899557751e-09,-0.00066278934730325,0.00066278954199251,-0.00069703232778592,0.00069703082769257,-0.00069703060473186,0.00069703260883915,-0.00069703250778073,0.00069703062475891,-0.00069703050184486,0.00069703269755195,-0.00061791454896992,0.00061790901119364,-0.00061790896533878,0.00061791482000569,-0.00061791085519114,0.00061791273434416,-0.00061791064964613,0.00061791286666282,-3.3972300766958e-11,4.8574964979468e-11,-0.00045963048022624,0.00045963050065627,1.0347457101259e-09,-1.0638908760037e-09,-0.00049500114067443,0.0004950019805709,-0.00049500195922007,0.00049500119470031,-0.00049500123267935,0.00049500189877413,-0.00049500175477035,0.00049500128998078,-0.00046451685761603,0.00046451653087635,-0.00046451726315398,0.0004645162274748,0.73637637926164,128566,2924,0.0019134590520447,0.0027576717330856,0.0019134590540031,37.741436316904,6.433149053523e-05,6.433149053523e-05,6.433149053523e-05,3957874.6156709,0.0066063906034691
5819200,0.39395622639922,0.0069780973274134,0.0020875015586108,0.0028030942123876,0.002087501556415,-0.00048207866617794,0.00048207842027232,-1.4696172596703e-10,-1.0505111861714e-10,1.3611085804118e-09,-1.6504954732168e-09,-0.00052268802398272,0.00052268880756632,-0.00052268804178379,0.00052268871671223,-0.00052268897666651,0.0005226876738869,-0.00052268899178098,0.00052268785989066,-0.00048678572734964,0.0004867842587684,-0.00048678563859188,0.00048678451771186,8.3735071921619e-11,1.1389630628132e-10,-1.1563859382328e-09,1.3479980669667e-09,-0.00070853343889458,0.00070853363859456,-0.00074784379450604,0.00074784319801611,-0.00074784297578077,0.00074784401740426,-0.00074784386790401,0.00074784310525631,-0.00074784291464155,0.00074784406467161,-0.00065747719837406,0.00065747491447269,-0.00065747476167968,0.00065747744381854,-0.00065747554464125,0.00065747650974671,-0.00065747543202796,0.00065747654708644,3.0272044269202e-10,3.4986867201188e-10,-0.00048207821222451,0.00048207887695147,-9.075877107302e-11,7.6814443760441e-10,-0.00052268816925199,0.00052268861645811,-0.00052268796080875,0.00052268885766804,-0.00052268822116109,0.00052268857553692,-0.00052268782141198,0.00052268888976335,-0.00048678446851914,0.00048678557559416,-0.00048678469019326,0.00048678544958665,0.71318193407613,128566,2924,0.0020068535178218,0.0029476833663649,0.0020068535234989,36.555603732916,5.4844829863329e-05,5.4844829863329e-05,5.4844829863329e-05,4039366.2520614,0.006985767411297
6019200,0.4196046813172,0.0073584536012387,0.0021898674300015,0.0029787187418148,0.0021898674294224,-0.00050330795555855,0.00050330769302248,-1.5708291374687e-10,-1.088802672552e-10,1.3792839398665e-09,-1.6940321832149e-09,-0.00054925322147578,0.00054925401761132,-0.0005492532515734,0.00054925392659392,-0.00054925420434219,0.00054925285862228,-0.00054925421257516,0.00054925305615104,-0.00050789162605621,0.00050789009362306,-0.0005078915110569,0.00050789039630209,4.989503006461e-11,1.5552709151882e-10,-6.9298216984098e-10,8.925029271188e-10,-0.00075232913061966,0.00075232933769612,-0.00079651517750741,0.00079651485884337,-0.00079651464485919,0.00079651537213932,-0.00079651521730002,0.00079651480329584,-0.00079651456964789,0.00079651543508947,-0.00069539811711319,0.00069539675470339,-0.00069539650442899,0.00069539833232385,-0.00069539709993049,0.00069539768236741,-0.00069539691861807,0.00069539782612806,3.9721734478645e-10,4.5227833677528e-10,-0.00050330739131627,0.00050330825974221,-4.0433217210616e-10,1.3324798812076e-09,-0.00054925341985544,0.0005492537755017,-0.00054925293502381,0.00054925429389698,-0.00054925347703629,0.00054925372764272,-0.00054925278544856,0.00054925433496445,-0.00050789006831812,0.00050789168784687,-0.00050789033363237,0.00050789153038178,0.70262235399207,128566,2924,0.0020951750782126,0.0031295611838375,0.0020951750833933,35.891256592716,4.9530052741728e-05,4.9530052741728e-05,4.9530052741728e-05,4110864.5599892,0.0073468751810164
6219200,0.44456853919188,0.0077301203690139,0.0022897141771439,0.0031506920152031,0.0022897141766669,-0.00052482105900064,0.00052482078527874,-1.6025664890725e-10,-1.1477275186608e-10,1.3916158480837e-09,-1.7262395196264e-09,-0.00057602273819445,0.00057602353747166,-0.00057602276613877,0.00057602344964002,-0.00057602373162448,0.00057602236844911,-0.00057602374583586,0.00057602256160895,-0.00052929417163493,0.00052929263488899,-0.00052929407606519,0.00052929293170197,2.5996473972624e-11,1.8732429316555e-10,-9.8270041055936e-10,1.1901976451025e-09,-0.00079639524983513,0.00079639546457,-0.00084535331770356,0.00084535279489762,-0.00084535259641513,0.00084535350558202,-0.00084535333593584,0.00084535276347134,-0.00084535250849357,0.00084535358367413,-0.00073376023374979,0.00073375832110953,-0.00073375801818558,0.00073376045018646,-0.000733758869887,0.00073375960021219,-0.00073375865268033,0.0007337598167379,3.2046276447131e-10,3.7441714847213e-10,-0.00052482056518206,0.0005248212804387,-1.7025968330119e-10,9.5952078652196e-10,-0.00057602291647526,0.00057602331279232,-0.0005760226316905,0.00057602363168694,-0.00057602296987302,0.0005760232669698,-0.00057602248617065,0.00057602366745356,-0.00052929278772038,0.00052929403153642,-0.00052929304831454,0.00052929388965962,0.70746296739485,128566,2924,0.0021846732288908,0.0033125258710521,0.0021846732317192,35.771153585525,4.8569228684202e-05,4.8569228684202e-05,4.8569228684202e-05,4177984.3794832,0.0077115818155815
6419200,0.46926856242494,0.0080944431233909,0.0023870930374259,0.0033202570499347,0.0023870930360303,-0.00054627305881824,0.00054627277743372,-1.8928552018523e-10,-9.2739136886933e-11,1.4036210452753e-09,-1.7492320052512e-09,-0.00060283778837244,0.00060283863327725,-0.00060283785334199,0.00060283850076777,-0.00060283884929527,0.00060283739451131,-0.00060283878678039,0.00060283765825275,-0.00055058576617139,0.00055058398377698,-0.00055058544483878,0.00055058450977211,1.5053750765306e-11,2.0679412843427e-10,-1.5883587633771e-09,1.8042414071341e-09,-0.00084056677995202,0.00084056700237397,-0.00089435311905969,0.00089435225077939,-0.00089435206759683,0.00089435331218539,-0.00089435318403457,0.00089435217371866,-0.00089435191384282,0.00089435345608949,-0.00077219919182058,0.00077219590581481,-0.00077219558989109,0.00077219944328092,-0.0007721970518444,0.00077219798715352,-0.00077219662386858,0.00077219842857996,1.8186684802186e-10,2.8848873679681e-10,-0.00054627267540689,0.00054627316124224,2.2127385338273e-10,3.3281406077222e-10,-0.00060283791214904,0.0006028384577987,-0.00060283802327406,0.00060283837903763,-0.00060283800557647,0.00060283837087072,-0.00060283780333225,0.00060283848867094,-0.00055058441905953,0.0005505853327558,-0.00055058491234884,0.00055058496480188,0.70211760927186,128566,2924,0.0022739148921516,0.0034958894652159,0.0022739148930159,35.957444062935,5.005955250348e-05,5.005955250348e-05,5.005955250348e-05,4247058.9360511,0.0080763082969225
6619200,0.49449689600555,0.0084892673538882,0.0024934959644501,0.0035022754271445,0.0024934959622936,-0.00057034830061161,0.00057034800380494,-1.8520751507615e-10,-1.107885486079e-10,1.4240056651807e-09,-1.7952086201383e-09,-0.00063186849306387,0.00063186932984823,-0.00063186853599458,0.00063186921126613,-0.00063186954859498,0.00063186809202586,-0.00063186951785381,0.00063186832453649,-0.00057486018345515,0.00057485847564234,-0.00057485996892697,0.00057485890409413,-1.9961439515254e-11,2.5176668855343e-10,-2.4629811674101e-09,2.6886666138452e-09,-0.00088815475903755,0.0008881549911937,-0.00094689661298098,0.00094689513909444,-0.00094689498653869,0.00094689680396498,-0.00094689664329119,0.00094689509798365,-0.00094689481784559,0.0009468969666952,-0.00081399288523178,0.00081398796064275,-0.00081398761549442,0.00081399317494507,-0.00081398966758638,0.00081399116825221,-0.00081398923953832,0.00081399165217515,3.4637413536454e-11,1.2080541567463e-10,-0.00057034806758766,0.00057034823577395,9.6108267934857e-10,-7.4084486816427e-10,-0.00063186847562246,0.00063186928650223,-0.00063186915900163,0.00063186863492521,-0.00063186854976212,0.0006318692167295,-0.00063186896939644,0.00063186871322999,-0.00057485936955064,0.00057485926118091,-0.00057485976848356,0.00057485899706419,0.74071517971172,128566,2924,0.002374062299671,0.0036933958720982,0.0023740622975395,36.72957012884,5.6236561030717e-05,5.6236561030717e-05,5.6236561030717e-05,4330300.6679232,0.0084774287458146
6819200,0.52114522693525,0.0089393031715634,0.0026156496428497,0.003708003887844,0.0026156496408697,-0.00059866254022292,0.00059866222296447,-1.7565304522887e-10,-1.3892848501426e-10,1.4698033187078e-09,-1.8720599466478e-09,-0.00066455175408159,0.00066455259326445,-0.00066455177172173,0.00066455249171177,-0.0006645528148983,0.00066455134734477,-0.00066455282953644,0.00066455153342217,-0.00060390531298015,0.00060390369061789,-0.00060390523791926,0.00060390398524072,-8.3308566892232e-11,3.2797983002956e-10,-3.5749897616932e-09,3.8130801227844e-09,-0.00094153628303108,0.00094153652801454,-0.0010054880312775,0.0010054857545542,-0.0010054856532573,0.0010054882076936,-0.0010054879802649,0.0010054857982603,-0.001005485476833,0.0010054883811214,-0.00086110498821208,0.00086109804430862,-0.00086109765810394,0.00086110535121396,-0.0008611004261601,0.00086110265846469,-0.00086109999785318,0.00086110317922438,-1.2481574103924e-10,-7.4739807359104e-11,-0.00059866247508572,0.00059866228525758,1.9416110878787e-09,-2.1079769326005e-09,-0.00066455153143333,0.00066455274517097,-0.00066455295662969,0.0006645513524578,-0.00066455158292798,0.00066455269572302,-0.00066455281170873,0.00066455138509945,-0.00060390516024053,0.00060390378184265,-0.00060390543108716,0.00060390365648501,0.79222279161648,128566,2924,0.0024918326944488,0.0039148978633662,0.0024918326886188,38.161197069065,6.7689576552518e-05,6.7689576552518e-05,6.7689576552518e-05,4458514.4203636,0.008938482232565
7019200,0.54955448512625,0.0093795078900413,0.0027325395860605,0.0039144287196226,0.0027325395843582,-0.00062689142006614,0.00062689109020564,-2.0749835098509e-10,-1.196460310793e-10,1.5135582836165e-09,-1.9324643338352e-09,-0.00069847253592781,0.00069847341974527,-0.00069847256965442,0.00069847329162122,-0.00069847366578804,0.0006984720988496,-0.00069847362396532,0.00069847233784966,-0.00063239812652827,0.00063239628436225,-0.0006323978750505,0.00063239675081574,-1.3376208824826e-10,3.9440903525118e-10,-4.5592198292579e-09,4.8124473783595e-09,-0.00099738212214432,0.00099738238204555,-0.001066824630953,0.0010668217097035,-0.0010668216518753,0.0010668247982395,-0.0010668245692725,0.0010668217666746,-0.0010668214090511,0.0010668250371045,-0.0009101978488,0.00091018891057301,-0.00091018850389593,0.00091019830636689,-0.00091019208707668,0.00091019477766767,-0.00091019144233797,0.00091019552064365,-3.0756466628704e-10,-2.052343136632e-10,-0.00062689150747254,0.00062689099928355,2.6808743475995e-09,-3.2045199744463e-09,-0.00069847217040477,0.00069847370545726,-0.00069847424008724,0.00069847166625187,-0.00069847224246155,0.0006984736343288,-0.00069847403984346,0.00069847175389849,-0.00063239823204452,0.00063239611439996,-0.00063239867834717,0.00063239581313626,0.73336568039836,128566,2924,0.0026092486799122,0.0041465542108687,0.0026092486726842,39.888350987395,8.1506807899162e-05,8.1506807899162e-05,8.1506807899162e-05,4523567.4342063,0.0094092863188823
7219200,0.5781630266215,0.0098043632365837,0.0028443811023651,0.004115601033963,0.0028443811002555,-0.00065263600836275,0.00065263570599949,-1.6991430807092e-10,-1.3281191807413e-10,1.4739277882366e-09,-1.855765414611e-09,-0.00073037300561784,0.00073037384639928,-0.00073037300562807,0.00073037374491245,-0.00073037404994537,0.00073037260942079,-0.00073037406795085,0.00073037278305271,-0.00065807833619236,0.00065807673964109,-0.00065807825926716,0.00065807700569415,-7.049064741205e-11,3.3910635379837e-10,-4.3662443994366e-09,4.6271804341669e-09,-0.0010506377421792,0.0010506380105418,-0.0011260771367649,0.0011260743471328,-0.0011260742398305,0.0011260773497301,-0.0011260770756072,0.0011260743978288,-0.0011260740688981,0.0011260775138466,-0.0009564718290769,0.00095646334756445,-0.00095646301796135,0.00095647229651247,-0.00095646623064556,0.00095646903705091,-0.00095646579880773,0.0009564695224296,-2.6012180197405e-10,-2.0708622747132e-10,-0.00065263609005071,0.00065263562125153,2.5659314922307e-09,-3.0740085709378e-09,-0.00073037265241162,0.00073037411837263,-0.00073037458879346,0.00073037221151145,-0.00073037269506246,0.00073037407897282,-0.00073037445227972,0.00073037223835237,-0.00065807860657505,0.00065807643457365,-0.00065807885819694,0.00065807631446379,0.70719547581182,128566,2924,0.0027163376644759,0.0043673987583937,0.0027163376581532,40.740631015006,8.8325048120051e-05,8.8325048120051e-05,8.8325048120051e-05,4568400.7167565,0.009848537782454
7419200,0.60631183116995,0.010206965562082,0.0029499042621975,0.0043071570395492,0.0029499042603348,-0.0006763641644538,0.00067636389577192,-1.4753313332618e-10,-1.2465820152944e-10,1.42378837552e-09,-1.7609699703997e-09,-0.00076072595944202,0.00076072677143391,-0.00076072595029611,0.0007607266824736,-0.00076072694110823,0.00076072560084174,-0.00076072697876265,0.00076072575077721,-0.00068146109007299,0.00068145962742743,-0.00068146106306844,0.00068145982350219,2.6346459839619e-12,2.6636735318961e-10,-3.8824886646069e-09,4.1439259649651e-09,-0.0011013362224174,0.0011013364922895,-0.0011830255528938,0.0011830231000938,-0.0011830229360834,0.0011830258089213,-0.0011830255069086,0.0011830231321135,-0.0011830228397776,0.0011830258911879,-0.00100018973275,0.0010001822370565,-0.0010001819698867,0.0010001901645377,-0.0010001846679112,0.0010001873756598,-0.0010001844342761,0.0010001876140302,-1.6850504372408e-10,-1.2806896105496e-10,-0.00067636417817693,0.00067636388034519,2.2051436556397e-09,-2.5462323554155e-09,-0.00076072565745979,0.00076072699704001,-0.00076072728742704,0.00076072539703595,-0.00076072569046162,0.00076072697125996,-0.00076072717399676,0.00076072540439096,-0.00068146123344217,0.00068145946788378,-0.00068146141838924,0.00068145940093317,0.68502083753023,128566,2924,0.0028150444260141,0.0045775791150713,0.002815044422494,41.272242186019,9.2577937488156e-05,9.2577937488156e-05,9.2577937488156e-05,4599810.2370342,0.010260275199517
7619200,0.63281256344097,0.010577197580764,0.0030467444902365,0.0044837086008982,0.0030467444896291,-0.00069671559431775,0.00069671536780847,-1.2181280301866e-10,-1.101871794267e-10,1.3388917429583e-09,-1.6276689098027e-09,-0.00078748906392641,0.00078748983092821,-0.00078748904609073,0.00078748975835266,-0.00078748995784245,0.00078748875202364,-0.00078749001712761,0.00078748888116881,-0.00070124113566711,0.0007012398404865,-0.00070124116425662,0.00070123997746626,1.0814227985699e-10,1.5380117718549e-10,-3.022066952929e-09,3.2773848977881e-09,-0.001147159576154,0.0011471598394184,-0.0012349287804712,0.0012349269339341,-0.0012349266896401,0.0012349290851209,-0.0012349287775097,0.0012349269187638,-0.0012349266868895,0.0012349290669112,-0.0010394094719349,0.0010394036544166,-0.0010394034311441,0.0010394097921727,-0.0010394053798542,0.0010394077805071,-0.0010394054064676,0.0010394077426321,-2.0991273844045e-11,9.9638516980267e-12,-0.00069671548478664,0.00069671547768015,1.5396536026981e-09,-1.5634843832558e-09,-0.00078748887651751,0.00078748994633934,-0.00078748995231701,0.00078748890143105,-0.0007874888976341,0.00078748993572797,-0.00078748986038592,0.00078748888898127,-0.0007012409876321,0.00070123999090979,-0.00070124111037758,0.00070123997387461,0.67223853602474,128566,2924,0.0028997123393683,0.0047674988789649,0.0028997123401081,41.070856182551,9.0966849460405e-05,9.0966849460405e-05,9.0966849460405e-05,4609253.5123321,0.010623328424319
7819200,0.65784632002777,0.010922958505766,0.003137177430521,0.0046486036441889,0.0031371774310559,-0.00071574023629756,0.00071574002773366,-1.2044755791714e-10,-9.3699203445714e-11,1.3015193393912e-09,-1.5737357110719e-09,-0.00081256292673496,0.00081256369336181,-0.00081256292707713,0.0008125636177439,-0.00081256380952161,0.00081256263221485,-0.00081256385141583,0.00081256278256036,-0.00071951832000984,0.00071951700971845,-0.00071951829179328,0.00071951722022247,1.4722964370604e-10,1.0625124621501e-10,-2.5520681679516e-09,2.7997296550044e-09,-0.0011903875838299,0.0011903878395448,-0.0012839997369237,0.0012839982339597,-0.001283997956786,0.001284000050668,-0.0012839997704222,0.0012839981816101,-0.0012839979722018,0.0012840000117211,-0.0010763425060308,0.0010763375335819,-0.0010763372979531,0.0010763427408637,-0.0010763389707404,0.0010763410825179,-0.0010763390346477,0.0010763410193557,6.1239195456674e-11,1.0927226548055e-10,-0.00071574004064483,0.00071574022359278,1.1505053372929e-09,-9.5196563537627e-10,-0.00081256281090639,0.0008125637417945,-0.00081256357358288,0.00081256301109559,-0.0008125628426911,0.0008125637213335,-0.00081256346185995,0.0008125630186534,-0.00071951787479627,0.00071951745083803,-0.00071951806680151,0.00071951736686533,0.66655684117741,128566,2924,0.0029788585303547,0.0049466249297665,0.0029788585308396,40.972019655964,9.0176157247714e-05,9.0176157247714e-05,9.0176157247714e-05,4608824.3690064,0.010964434132627
8019200,0.68157256511379,0.011247157507062,0.0032218368621739,0.0048034837819688,0.0032218368629192,-0.00073369423759904,0.0007336940306422,-1.161131059052e-10,-9.578349827547e-11,1.2976185487194e-09,-1.5714889726788e-09,-0.00083611216197137,0.0008361129264811,-0.00083611216281423,0.00083611285716571,-0.00083611303838569,0.00083611187251701,-0.00083611308993401,0.00083611201840813,-0.00073672929643982,0.00073672801623619,-0.00073672929896931,0.00073672821089799,1.4557439150815e-10,1.0261382098291e-10,-2.3458764713782e-09,2.58866887159e-09,-0.0012312385086471,0.0012312387587595,-0.0013305184892829,0.0013305171131271,-0.0013305168347404,0.0013305187907685,-0.0013305185190318,0.0013305170650699,-0.0013305168551249,0.0013305187473843,-0.0011111753910175,0.0011111708280852,-0.0011111705624008,0.0011111755848381,-0.0011111721192602,0.0011111740938865,-0.0011111721997384,0.0011111740345091,9.7218020953252e-11,1.4077858543861e-10,-0.00073369400632813,0.00073369426205383,1.0074558922964e-09,-7.1554317542381e-10,-0.00083611207737835,0.0008361129453046,-0.00083611270980179,0.00083611234486528,-0.0008361121054856,0.00083611292825458,-0.00083611260421506,0.00083611234601874,-0.00073672878018534,0.00073672852679112,-0.00073672895261485,0.00073672846402485,0.66097842467282,128566,2924,0.0030535495198027,0.0051158661394341,0.0030535495201613,40.977140913542,9.0217127308337e-05,9.0217127308337e-05,9.0217127308337e-05,4612067.9406353,0.011286646389498
8219200,0.70411071116864,0.01155199036882,0.0033013259827709,0.0049493384028154,0.0033013259832338,-0.00075068559023211,0.00075068537705094,-1.2101998562288e-10,-9.6612987528089e-11,1.3161741443348e-09,-1.5970589980321e-09,-0.00085837291810296,0.00085837369598796,-0.00085837292525934,0.00085837362372652,-0.00085837381608779,0.00085837262234266,-0.00085837386093391,0.00085837277538939,-0.00075304430125471,0.00075304297943609,-0.00075304428476855,0.00075304319812945,1.1970745501942e-10,1.26410309193e-10,-2.3562351325753e-09,2.5968917413869e-09,-0.0012699368376504,0.0012699370853494,-0.001374718228051,0.0013747168321814,-0.0013747165711331,0.0013747185093004,-0.0013747182459669,0.0013747167972328,-0.0013747165713137,0.0013747184866749,-0.001144137077516,0.0011441324895752,-0.0011441322003037,0.0011441372759213,-0.0011441338224278,0.0011441357316964,-0.0011441338349418,0.0011441357438954,9.3948139459858e-11,1.4355781944254e-10,-0.00075068535510898,0.00075068561198562,1.0095626017614e-09,-7.0989835345519e-10,-0.00085837283964772,0.00085837371022839,-0.00085837347793033,0.00085837310430699,-0.00085837287163909,0.00085837368911596,-0.00085837336486535,0.00085837311305385,-0.0007530437511475,0.0007530435224856,-0.00075304394767294,0.00075304343711206,0.65549730781925,128566,2924,0.0031242349257125,0.0052761590301323,0.0031242349253853,41.071203596372,9.0969628770977e-05,9.0969628770977e-05,9.0969628770977e-05,4617992.1596714,0.011591804764293
8419200,0.72554105731898,0.011840884527862,0.0033766562172366,0.0050875720931493,0.003376656217476,-0.00076687237129782,0.00076687214901125,-1.2092539496109e-10,-1.0524220905407e-10,1.3427255169476e-09,-1.6344917448109e-09,-0.00087947911465753,0.0008794798982649,-0.00087947911473947,0.00087947983242188,-0.00087948002385619,0.00087947881238271,-0.00087948008127889,0.00087947895359056,-0.00076867840437846,0.00076867709239326,-0.00076867842434658,0.00076867727135814,8.6239524794656e-11,1.6102805052712e-10,-2.4584857760648e-09,2.7000479794464e-09,-0.0013067030298989,0.0013067032781246,-0.0014167916655421,0.0014167901710262,-0.0014167899332476,0.0014167919255081,-0.0014167916523948,0.001416790168427,-0.0014167899201975,0.0014167919174148,-0.0011754392029292,0.0011754344628439,-0.0011754341478884,0.0011754394210979,-0.001175435858596,0.001175437792748,-0.0011754358327007,0.001175437850036,7.818975136412e-11,1.2099833690234e-10,-0.00076687215118998,0.00076687236886733,1.1214979942414e-09,-8.6063240480251e-10,-0.00087947901912768,0.0008794799287647,-0.00087947973421909,0.00087947924587402,-0.00087947904348102,0.00087947991486442,-0.00087947963262197,0.00087947924300263,-0.00076867793831715,0.00076867754938153,-0.00076867809849757,0.00076867749978256,0.65381527770167,128566,2924,0.003191571664433,0.0054284227762756,0.0031915716639789,41.233974633128,9.2271797065022e-05,9.2271797065022e-05,9.2271797065022e-05,4621785.6156921,0.011882152879536
8619200,0.74635387966654,0.012120891551597,0.0034496858221975,0.0052215199071667,0.0034496858222329,-0.00078337609426151,0.00078337585427822,-1.358793019806e-10,-1.0745544302172e-10,1.4012913369196e-09,-1.714352458121e-09,-0.00090071562411946,0.00090071645095265,-0.00090071563709715,0.00090071637034124,-0.00090071659682958,0.00090071530161748,-0.00090071663218085,0.00090071546335057,-0.00078474248268345,0.00078474104365553,-0.00078474243458422,0.00078474128497552,1.7918423722102e-11,2.3512228064631e-10,-2.8636634499297e-09,3.1103234746352e-09,-0.0013431582713898,0.0013431585248947,-0.0014584419847335,0.0014584401993446,-0.0014584400089092,0.0014584422090162,-0.0014584419418373,0.0014584402296135,-0.0014584399341031,0.0014584422650205,-0.0012065976788789,0.0012065921334291,-0.0012065917699044,0.0012065979540822,-0.0012065939017802,0.0012065959147033,-0.0012065936845912,0.0012065961752441,2.4923249450073e-11,8.2378759419454e-11,-0.00078337591202823,0.00078337603585802,1.4330772927665e-09,-1.2715339502156e-09,-0.00090071546880629,0.00090071653925726,-0.0009007164424429,0.00090071559839658,-0.00090071550585071,0.00090071651189045,-0.0009007163185651,0.00090071561729581,-0.00078474207775409,0.00078474142643973,-0.00078474230777237,0.00078474131120792,0.65261451210555,128566,2924,0.0032602213233856,0.0055793737395013,0.0032602213221098,41.855684033289,9.7245472266309e-05,9.7245472266309e-05,9.7245472266309e-05,4632842.0890882,0.012173913770889
8819200,0.76597735439137,0.012374168988145,0.003515134595429,0.0053438997975084,0.0035151345952072,-0.00079747915472139,0.00079747891715418,-1.2494765750285e-10,-1.1743780249456e-10,1.4059214626269e-09,-1.7029588303355e-09,-0.00091949175049547,0.00091949255610218,-0.00091949173862052,0.00091949248624411,-0.00091949269454218,0.00091949143009307,-0.00091949275870017,0.00091949155973186,-0.00079830815463856,0.00079830681163046,-0.0007983082029983,0.00079830695043614,2.082045112598e-11,2.3547416348477e-10,-2.8729484059277e-09,3.121980774748e-09,-0.0013760905906481,0.0013760908474853,-0.0014963895631197,0.0014963877507302,-0.0014963875586739,0.0014963897968301,-0.0014963894969448,0.0014963878004304,-0.0014963875053749,0.0014963898288678,-0.0012344998011706,0.0012344943131217,-0.0012344940225505,0.0012345001551158,-0.0012344960009722,0.0012344980995584,-0.0012344958262139,0.0012344982462556,1.6350936936792e-11,5.4245071075498e-11,-0.00079747899572066,0.00079747907609859,1.4794764850383e-09,-1.394305858698e-09,-0.00091949158531539,0.00091949265509867,-0.00091949258658952,0.00091949168668064,-0.00091949160486658,0.00091949264662802,-0.00091949249404911,0.00091949167547554,-0.00079830790933727,0.00079830707018448,-0.00079830803189669,0.00079830705303545,0.62942561047547,128566,2924,0.0033188920453124,0.0057157103394947,0.0033188920451953,41.996897013321,9.8375176106569e-05,9.8375176106569e-05,9.8375176106569e-05,4641297.8042048,0.012430756340024
9019200,0.78434367464169,0.012611269449607,0.003576496458548,0.0054582765318898,0.0035764964591688,-0.00081042157860322,0.00081042134449179,-1.2479890226045e-10,-1.1504757199396e-10,1.3874380536739e-09,-1.6842707706547e-09,-0.00093670711860557,0.00093670791558794,-0.00093670710783977,0.00093670784849655,-0.00093670805140513,0.00093670680515599,-0.00093670811471163,0.00093670693257446,-0.00081079427558472,0.00081079294295167,-0.00081079430308104,0.00081079307353406,3.8941061965523e-11,2.1877607795276e-10,-2.8506492952679e-09,3.1013709204237e-09,-0.0014066595878323,0.0014066598458438,-0.0015317127277218,0.0015317109403903,-0.0015317107382367,0.0015317129744485,-0.001531712668895,0.0015317109842148,-0.0015317106998572,0.001531712990933,-0.0012602823068016,0.0012602768579544,-0.0012602765627437,0.0012602826346613,-0.0012602785179748,0.0012602806440673,-0.0012602783901556,0.0012602807588503,1.2662902171737e-11,5.4759377905138e-11,-0.00081042142470776,0.00081042149905337,1.4509717526619e-09,-1.3651930987291e-09,-0.00093670696158914,0.00093670800361528,-0.00093670794630988,0.00093670705324687,-0.0009367069795153,0.00093670799821911,-0.00093670785390673,0.0009367070426549,-0.00081079401604093,0.00081079320551631,-0.00081079414429936,0.00081079317498352,0.62978086051367,128566,2924,0.0033727348569827,0.0058422454049735,0.0033727348584134,42.046732929277,9.8773863434219e-05,9.8773863434219e-05,9.8773863434219e-05,4645546.0396631,0.012667957487797
9219200,0.80132122789244,0.012827767771198,0.0036324183766408,0.0055629310168685,0.0036324183776889,-0.00082181737629292,0.00082181714934209,-1.2135991412984e-10,-1.1112808054641e-10,1.3552814878456e-09,-1.6439191225463e-09,-0.0009521031532933,0.0009521039350876,-0.00095210314480985,0.00095210386663299,-0.00095210406465309,0.00095210284700141,-0.00095210412539052,0.00095210297573624,-0.00082180488976065,0.00082180358190677,-0.00082180491069798,0.00082180371950187,7.3339155597962e-11,1.8338391980595e-10,-2.7276277847259e-09,2.9776073147287e-09,-0.0014343343163127,0.0014343345734275,-0.0015638295895044,0.0015638279071906,-0.0015638276825438,0.0015638298569848,-0.0015638295530662,0.0015638279289161,-0.001563827666902,0.0015638298503354,-0.001283503501392,0.0012834982669989,-0.0012834979943786,0.0012835038030782,-0.0012834998288633,0.0012835019343878,-0.0012834997626198,0.001283501985937,1.9306249170575e-11,6.3570564534122e-11,-0.00082181721799837,0.00082181730838265,1.3352000330261e-09,-1.2318946042357e-09,-0.00095210302182891,0.00095210399924485,-0.00095210392608985,0.00095210312891581,-0.00095210304126078,0.00095210399237855,-0.00095210383151969,0.00095210312096788,-0.00082180459074185,0.00082180388503856,-0.00082180472672447,0.00082180384629802,0.62301125101364,128566,2924,0.0034201472438454,0.0059567826606758,0.0034201472454318,41.896777208067,9.7574217664533e-05,9.7574217664533e-05,9.7574217664533e-05,4646788.496954,0.012880033425405
9419200,0.81673021452719,0.013021890514598,0.003682487571012,0.0056569153712233,0.0036824875723629,-0.00083132725325363,0.00083132704012762,-1.1651789761814e-10,-1.0341873818776e-10,1.3114337142032e-09,-1.5780786777502e-09,-0.00096523773737912,0.0009652384988986,-0.00096523773333196,0.00096523842579545,-0.00096523861853564,0.0009652374425818,-0.00096523867191546,0.00096523757597393,-0.0008309348375906,0.00083093355376407,-0.00083093483442261,0.00083093370952767,1.2425870951113e-10,1.2757956359073e-10,-2.4904331668586e-09,2.7355127897855e-09,-0.0014585692424256,0.0014585694951396,-0.0015921486439365,0.0015921471561002,-0.0015921468984962,0.0015921489405745,-0.0015921486461188,0.001592147136862,-0.0015921469115374,0.0015921489026116,-0.001303672920123,0.0013036680974528,-0.0013036678891148,0.0013036732064352,-0.0013036694873514,0.0013036715135648,-0.0013036694896504,0.0013036714608943,3.8117322733132e-11,8.6611561247672e-11,-0.00083132708165746,0.00083132721261446,1.1028520783319e-09,-9.6590968236028e-10,-0.000965237656234,0.00096523851553964,-0.00096523840086007,0.00096523780487353,-0.00096523768040591,0.00096523850542096,-0.00096523830092087,0.0009652378038793,-0.00083093444178115,0.00083093396692755,-0.00083093459492812,0.00083093390486855,0.61621359454975,128566,2924,0.0034597188479813,0.0060570693986723,0.0034597188498306,41.41428852684,9.3714308214722e-05,9.3714308214722e-05,9.3714308214722e-05,4644080.4742249,0.013061827301241
9619200,0.83037173581328,0.013191676994715,0.0037262318933592,0.005739213206111,0.0037262318952451,-0.00083858498277878,0.00083858478750419,-1.0884168877913e-10,-9.5315421538042e-11,1.2524902344614e-09,-1.4932832589862e-09,-0.00097565522352034,0.0009756559547666,-0.00097565522168649,0.00097565588049084,-0.00097565605973513,0.00097565494531617,-0.00097565611048544,0.00097565507957732,-0.00083781779720535,0.00083781656806365,-0.00083781778362179,0.00083781672362348,1.9087736959209e-10,5.3159555659124e-11,-2.1244387583248e-09,2.3619564927916e-09,-0.0014787800617393,0.001478780307202,-0.0016160254461602,0.001616024242736,-0.0016160239420386,0.0016160257780357,-0.0016160254947877,0.0016160241737347,-0.001616023997612,0.001616025694168,-0.001320251731744,0.001320247573841,-0.0013202474366156,0.0013202519808034,-0.0013202486854809,0.0013202505891316,-0.001320248801906,0.0013202503878351,7.2220097326704e-11,1.22368259815e-10,-0.00083858478619024,0.0008385849855312,7.6620621739659e-10,-5.6231915449079e-10,-0.00097565521625253,0.00097565589973803,-0.00097565571743963,0.00097565543277955,-0.00097565524241887,0.00097565588978344,-0.00097565561646647,0.00097565543472111,-0.00083781727412271,0.00083781712293675,-0.000837817427451,0.0008378170518569,0.60938555681377,128566,2924,0.0034899278856346,0.0061406925162963,0.0034899278885972,40.44711651107,8.5976932088562e-05,8.5976932088562e-05,8.5976932088562e-05,4635103.7947162,0.013207792974148
9819200,0.84272416991026,0.013346367973378,0.0037662401075149,0.0058138877558311,0.0037662401100321,-0.00084571809210751,0.00084571789530471,-1.123316268312e-10,-9.2664419276869e-11,1.2424469997386e-09,-1.4975051339226e-09,-0.00098558244893195,0.00098558318986826,-0.00098558245984536,0.00098558310969272,-0.00098558329429613,0.00098558217127345,-0.00098558333552842,0.0009855823221835,-0.00084467757400061,0.00084467631389878,-0.00084467753457046,0.000844676521416,1.8881226520902e-10,5.1127227215951e-11,-2.0878060958981e-09,2.3225891912004e-09,-0.001497597124968,0.0014975973670318,-0.0016381737044081,0.0016381725352151,-0.0016381722342898,0.0016381740289495,-0.0016381737654657,0.0016381724544966,-0.0016381722777133,0.0016381739580259,-0.0013357626574036,0.0013357585338094,-0.0013357583316133,0.0013357628367948,-0.0013357596690589,0.0013357615063665,-0.0013357597736213,0.0013357613782184,7.6636449667524e-11,1.3497338508726e-10,-0.00084571788323351,0.00084571810550901,7.3985949815313e-10,-4.8207524696061e-10,-0.00098558245133586,0.00098558312292569,-0.00098558292947432,0.0009855826795532,-0.00098558248534755,0.0009855831035693,-0.00098558281306299,0.00098558269488383,-0.0008446769792852,0.0008446769166161,-0.00084467718458983,0.00084467680623617,0.61214217097826,128566,2924,0.0035196132440959,0.0062185435068035,0.0035196132469296,39.873299616335,8.1386396930683e-05,8.1386396930683e-05,8.1386396930683e-05,4629897.2019078,0.013346866418783
10019200,0.85379275539156,0.01348606861352,0.0038024947822137,0.0058810790466094,0.0038024947846974,-0.00085162338099096,0.00085162318852541,-9.8683121375587e-11,-1.0031983566955e-10,1.2491147865974e-09,-1.4931251781684e-09,-0.00099395972198364,0.00099396045572555,-0.00099395972462114,0.00099396038484297,-0.00099396055292517,0.00099395945262872,-0.00099396061605915,0.00099395958221083,-0.00085038651951827,0.0008503853417437,-0.00085038655050646,0.00085038546176019,1.884179105504e-10,4.9299967331604e-11,-2.0208990063931e-09,2.252703903148e-09,-0.0015139088570299,0.0015139090961769,-0.0016574539409537,0.0016574527986562,-0.0016574524990532,0.0016574542634499,-0.0016574539862216,0.0016574527325767,-0.0016574525569232,0.001657454178627,-0.0013491649218654,0.0013491609872595,-0.0013491608286225,0.001349165123382,-0.0013491620277996,0.0013491638464536,-0.0013491621633258,0.0013491636493425,8.8707952244348e-11,1.273969163396e-10,-0.00085162317179357,0.00085162339879287,7.2219400223367e-10,-4.7419214817541e-10,-0.00099395972740093,0.00099396039076102,-0.00099396018067788,0.00099395997249795,-0.00099395975280422,0.0009939603811971,-0.00099396008682259,0.00099395996721234,-0.00085038600512694,0.00085038587690335,-0.00085038612301452,0.00085038584007154,0.61575181214315,128566,2924,0.0035441937611127,0.0062860213310521,0.0035441937633454,39.083211859387,7.5065694875098e-05,7.5065694875098e-05,7.5065694875098e-05,4620733.9504006,0.013465095798358
10219200,0.86359687496287,0.01361096985503,0.0038350334440326,0.0059409029644094,0.0038350334465879,-0.00085626451820339,0.00085626432890795,-8.8070563195925e-11,-1.0796387310878e-10,1.2527831745729e-09,-1.4908308397e-09,-0.0010007575882592,0.0010007582996545,-0.0010007575672782,0.0010007582538467,-0.0010007583895696,0.001000757328449,-0.0010007584886617,0.0010007574195803,-0.0008548786949037,0.00085487762877861,-0.00085487882481964,0.00085487762955956,1.9226583635185e-10,4.2339031865757e-11,-1.9589903901883e-09,2.1875555282684e-09,-0.0015276780880741,0.0015276783239013,-0.0016738275095087,0.0016738263775866,-0.0016738260792222,0.0016738278298897,-0.0016738275277944,0.0016738263389521,-0.001673826169884,0.0016738277111574,-0.0013604328941736,0.001360429177606,-0.0013604290256957,0.0013604330962364,-0.0013604300676165,0.001360431955232,-0.0013604303152302,0.0013604316445048,1.0265924289494e-10,1.2405921629025e-10,-0.00085626430678119,0.00085626454207539,6.8467612611433e-10,-4.3126782218999e-10,-0.0010007576046875,0.0010007582233793,-0.00100075800157,0.0010007578623047,-0.0010007576049405,0.0010007582404239,-0.0010007579444059,0.0010007578208538,-0.00085487827201173,0.00085487807801027,-0.00085487827527615,0.00085487814319347,0.62007541816374,128566,2924,0.0035635184519842,0.0063429744685,0.0035635184556265,38.043553852613,6.6748430820905e-05,6.6748430820905e-05,6.6748430820905e-05,4606243.5394771,0.01356201378535
10419200,0.87263890376786,0.013727387864475,0.0038654950352596,0.0059963977912063,0.0038654950380088,-0.00086173874286899,0.00086173853826849,-1.0592068245873e-10,-1.0533870275194e-10,1.3009629400928e-09,-1.5645244151472e-09,-0.0010082395125559,0.0010082402730444,-0.0010082395105496,0.0010082402078678,-0.0010082403794899,0.0010082392346525,-0.0010082404496091,0.0010082393597765,-0.00086030511758699,0.00086030389235247,-0.00086030515687868,0.0008603040148523,1.2600006384336e-10,1.1156347163605e-10,-2.2824130184961e-09,2.5144380811132e-09,-0.0015416275071637,0.0015416277477365,-0.0016901597779586,0.001690158420897,-0.0016901581612285,0.0016901600632861,-0.0016901597788943,0.0016901584014938,-0.0016901581834817,0.0016901600150137,-0.0013720733527574,0.0013720689734501,-0.0013720687397264,0.0013720735688725,-0.0013720702031583,0.0013720721074413,-0.0013720702552304,0.001372072024143,6.6853889575005e-11,1.1063751176081e-10,-0.00086173854662531,0.00086173873584704,9.5698284862499e-10,-7.3412121735533e-10,-0.0010082394724299,0.0010082402503474,-0.001008240086533,0.0010082396738034,-0.0010082394905207,0.0010082402472902,-0.0010082399955857,0.0010082396634326,-0.00086030467229802,0.00086030434128602,-0.00086030479913901,0.00086030430787588,0.62506671135087,128566,2924,0.0035863004274463,0.006400671053099,0.0035863004303027,37.717306238471,6.4138449907768e-05,6.4138449907768e-05,6.4138449907768e-05,4601718.868053,0.013666702928234
10619200,0.88109513152773,0.013834162290002,0.0038933431967294,0.0060474758938274,0.0038933431994454,-0.00086717666430319,0.00086717644692691,-1.5288299840618e-10,-7.3644257244113e-11,1.35417322441e-09,-1.6290106761656e-09,-0.0010156223258752,0.0010156231865767,-0.001015622389973,0.0010156230408285,-0.0010156233272641,0.001015622005445,-0.0010156232673711,0.0010156222464832,-0.0008657011519459,0.00086569945800161,-0.00086570079752713,0.00086570000225693,5.0763643029081e-11,2.0054981204679e-10,-2.7022134489399e-09,2.9476470849931e-09,-0.001555035173015,0.0015550354221343,-0.0017058024875463,0.0017058008918762,-0.0017058006908348,0.0017058027130349,-0.00170580253608,0.0017058008301012,-0.0017058005628777,0.0017058028116154,-0.0013832899757113,0.0013832844649944,-0.0013832840965213,0.0013832902668891,-0.0013832863261811,0.0013832881184455,-0.0013832859154906,0.0013832885529398,-8.2946241508817e-12,1.1478430163483e-10,-0.00086717649708052,0.00086717661613034,1.24803146926e-09,-1.0934366941971e-09,-0.001015622225028,0.0010156232174816,-0.0010156231531799,0.0010156223199181,-0.0010156223146109,0.0010156231411862,-0.0010156229374091,0.0010156224314611,-0.00086570040124125,0.00086570021540297,-0.00086570094820182,0.00086569978377615,0.61395642878693,128566,2924,0.0036089296702332,0.0064561222809938,0.0036089296743968,37.647232283455,6.3577858267643e-05,6.3577858267643e-05,6.3577858267643e-05,4599355.9850517,0.013768817164747
10819200,0.88903010699242,0.013932563197611,0.0039189353962836,0.00609469240212,0.0039189353992074,-0.00087230753208859,0.00087230730345113,-1.0231729393867e-10,-1.3131173095736e-10,1.4110122562629e-09,-1.702132302056e-09,-0.001022570891171,0.0010225716406685,-0.0010225708180142,0.0010225716403487,-0.0010225717601046,0.0010225705918926,-0.0010225719072677,0.0010225706298272,-0.00087076103316883,0.00087075997142526,-0.00087076134458722,0.0008707598324761,1.519602224254e-11,2.3620063635034e-10,-2.9633547598992e-09,3.2078729625065e-09,-0.0015676248298558,0.0015676250816096,-0.001720513291021,0.0017205113322144,-0.0017205111508651,0.0017205135081768,-0.0017205131358969,0.0017205114719347,-0.0017205111765287,0.0017205134594746,-0.0013938169286294,0.0013938114886007,-0.0013938111624558,0.0013938172502113,-0.0013938130293101,0.0013938153901074,-0.0013938130668949,0.001393815349684,7.1545787119432e-12,2.6096407841128e-11,-0.00087230739469569,0.00087230744108985,1.5737893066993e-09,-1.5104287627313e-09,-0.00102257071449,0.0010225717542785,-0.0010225717121343,0.0010225707824065,-0.0010225706633155,0.0010225718167243,-0.0010225717035502,0.0010225706903829,-0.00087076110464769,0.00087075990862236,-0.00087076096686897,0.00087076013900711,0.60387279415334,128566,2924,0.0036302803734887,0.0065081874146999,0.0036302803740169,37.649662274745,6.3597298197957e-05,6.3597298197957e-05,6.3597298197957e-05,4599397.7152117,0.013864914857059
11019200,0.89653954838508,0.014023868532666,0.0039426076932993,0.0061386531432813,0.0039426076960851,-0.00087738404967617,0.00087738381199767,-8.713898529102e-11,-1.5581839921274e-10,1.4402710256812e-09,-1.7422804163528e-09,-0.0010293655682553,0.0010293661616414,-0.001029365319863,0.0010293663293461,-0.0010293662756196,0.0010293652745938,-0.0010293666200702,0.0010293651126853,-0.00087574517782955,0.00087574462931247,-0.00087574603026773,0.00087574393909176,-1.4172568920101e-11,2.7210483220769e-10,-3.1950344900071e-09,3.4460883739539e-09,-0.0015797488548893,0.0015797491124122,-0.0017346677354111,0.0017346654255789,-0.0017346652652541,0.0017346679401557,-0.0017346673828344,0.0017346657656429,-0.0017346654471793,0.0017346677347949,-0.0014039801596043,0.0014039748992799,-0.0014039745356632,0.0014039805114214,-0.0014039759917996,0.0014039790835064,-0.0014039765858903,0.0014039784952383,-1.2987591840925e-12,-2.1550647381946e-11,-0.00087738393828381,0.00087738392449448,1.8133606094899e-09,-1.8142886359003e-09,-0.0010293653397471,0.0010293663220096,-0.0010293663323647,0.0010293653592209,-0.0010293651155589,0.0010293665574553,-0.0010293665200849,0.001029365068457,-0.00087574588732709,0.00087574391782379,-0.00087574521030583,0.00087574469685136,0.59321240816043,128566,2924,0.0036514021984772,0.0065583251047968,0.0036514022008179,37.826221714035,6.5009773712284e-05,6.5009773712284e-05,6.5009773712284e-05,4603047.8513888,0.01395860229729
11219200,0.90361207994304,0.014109819397892,0.0039649157580551,0.006179987879019,0.0039649157608184,-0.00088205267518428,0.00088205243840519,-9.007144725779e-11,-1.5165656048532e-10,1.4441673147515e-09,-1.7408332581213e-09,-0.0010356076424402,0.0010356081379544,-0.0010356072965474,0.0010356084046676,-0.0010356082551561,0.0010356073488506,-0.0010356086940237,0.0010356070902507,-0.00088032497333117,0.0008803246447633,-0.00088032603669328,0.00088032372380556,-1.9024034181756e-11,2.7713737005534e-10,-3.3082767220641e-09,3.5584311631941e-09,-0.00159100375089,0.0015910040096743,-0.0017478454343806,0.0017478429565211,-0.0017478427993585,0.0017478456467365,-0.0017478449824772,0.0017478433969397,-0.0017478430739221,0.0017478453495655,-0.0014134051990176,0.0014134000834241,-0.0014133997722764,0.0014134055844991,-0.0014134009091831,0.0014134043948629,-0.0014134018286205,0.0014134034348076,-2.0106043902837e-11,-3.1068001959583e-11,-0.0008820525798196,0.0008820525342057,1.8888610710614e-09,-1.9394760579324e-09,-0.0010356073938158,0.0010356083216365,-0.0010356083572107,0.0010356073889893,-0.0010356070719979,0.0010356086559965,-0.0010356086416767,0.0010356070037277,-0.00088032595130447,0.00088032366586093,-0.00088032505004883,0.00088032466354223,0.59263757214691,128566,2924,0.0036708268274516,0.0066048667088887,0.0036708268283684,37.936224620281,6.5889796962245e-05,6.5889796962245e-05,6.5889796962245e-05,4606707.7099445,0.014045207888255
11419200,0.91020271319026,0.014190526996962,0.0039859209872749,0.0062186850196476,0.003985920990039,-0.0008861044052766,0.00088610417527202,-1.1188740446623e-10,-1.2428015979765e-10,1.4166007006978e-09,-1.7022411015852e-09,-0.0010410968501135,0.0010410976075251,-0.0010410967796691,0.0010410975939002,-0.001041097732745,0.0010410965474432,-0.0010410978650083,0.0010410965944195,-0.00088430902640654,0.00088430777695645,-0.00088430913974611,0.00088430779758916,5.5692698626286e-12,2.5361871900458e-10,-3.2511588020362e-09,3.5022403086685e-09,-0.0016011517984325,0.0016011520573008,-0.0017597739092825,0.001759771775754,-0.00175977160466,0.0017597741383273,-0.0017597737627535,0.0017597719098663,-0.0017597716051799,0.0017597741127923,-0.0014218752320419,0.0014218693070853,-0.0014218690212816,0.001421875620802,-0.001421870976532,0.0014218735795976,-0.0014218710415878,0.0014218734676205,-4.0468910838582e-11,-1.5854258967499e-12,-0.00088610431110929,0.00088610427070781,1.8004950910226e-09,-1.8524289876597e-09,-0.0010410966191193,0.001041097771349,-0.0010410978177118,0.0010410966048358,-0.0010410965742337,0.0010410978295728,-0.0010410977952511,0.0010410965262946,-0.00088430903816259,0.00088430777179081,-0.0008843090808681,0.00088430782086991,0.59626754257328,128566,2924,0.0036876871813133,0.0066468284219396,0.0036876871839598,37.863819291418,6.5310554331347e-05,6.5310554331347e-05,6.5310554331347e-05,4606873.5059353,0.014121973716497
11619200,0.9162756317949,0.014265304132939,0.0040054270122607,0.0062544501055478,0.0040054270151301,-0.00088945940472233,0.00088945918443769,-1.0093672140649e-10,-1.2605567587487e-10,1.3698808221897e-09,-1.6459873560985e-09,-0.0010457669910835,0.0010457675387519,-0.0010457667368846,0.0010457677125672,-0.0010457676516312,0.0010457667039849,-0.0010457679760124,0.0010457665561431,-0.00088761372979898,0.00088761313581164,-0.00088761445433419,0.00088761254129571,5.2681835900193e-11,2.036770940987e-10,-3.0279483951374e-09,3.2767885343596e-09,-0.0016100892954373,0.0016100895518478,-0.0017703381087502,0.0017703359344211,-0.0017703357319925,0.001770338364768,-0.0017703377751289,0.0017703362564877,-0.0017703359842669,0.0017703380873583,-0.0014292789649057,0.0014292739982088,-0.0014292737368096,0.0014292793054404,-0.0014292749391991,0.0014292780384069,-0.0014292756528062,0.0014292772811799,-1.8358439934321e-11,9.7188214142322e-12,-0.00088945929867532,0.0008894592919424,1.6189113296054e-09,-1.6298561279562e-09,-0.0010457667992754,0.0010457676639269,-0.0010457676749299,0.0010457668198988,-0.001045766568643,0.0010457679089054,-0.0010457678463171,0.0010457665493677,-0.00088761429162137,0.00088761258178584,-0.0008876137211381,0.00088761324018652,0.59873866771819,128566,2924,0.0037016520224148,0.0066837813647309,0.0037016520254614,37.583827427208,6.3070619417668e-05,6.3070619417668e-05,6.3070619417668e-05,4602811.1381243,0.014187790873276
11819200,0.92179448098265,0.014333770319824,0.0040233366290647,0.0062870970587421,0.0040233366320167,-0.00089199176431644,0.00089199155504488,-9.2703800164745e-11,-1.2294191281712e-10,1.3227462452216e-09,-1.5845695438117e-09,-0.0010494744273158,0.001049474850239,-0.0010494740758912,0.0010494751228061,-0.0010494749500628,0.001049474150576,-0.0010494753795964,0.0010494739039421,-0.00089010587428512,0.00089010560856959,-0.00089010688037917,0.00089010473770975,1.1655478250787e-10,1.3529067984495e-10,-2.7528615787331e-09,2.99755259312e-09,-0.0016176345436487,0.0016176347955449,-0.001779350231387,0.0017793481909236,-0.0017793479465717,0.0017793505256363,-0.0017793498505521,0.0017793485562635,-0.0017793483290453,0.0017793501149928,-0.0014354428002949,0.0014354386586663,-0.001435438453844,0.001435443100425,-0.0014354390511268,0.0014354424070067,-0.0014354402124567,0.0014354411883464,1.3030094553526e-11,3.7422947103e-11,-0.00089199163382386,0.00089199168708962,1.3178969599466e-09,-1.2688600868065e-09,-0.001049474302832,0.001049474910671,-0.0010494748591573,0.0010494743862197,-0.0010494739735262,0.0010494752545747,-0.0010494751311637,0.0010494740131621,-0.00089010660669176,0.00089010489035058,-0.00089010575564198,0.00089010582589367,0.60218599376602,128566,2924,0.0037121981777644,0.0067149748474329,0.0037121981809992,37.032827597065,5.8662620776524e-05,5.8662620776524e-05,5.8662620776524e-05,4593771.7623801,0.014240834205563
12019200,0.92685673577893,0.014398682435876,0.0040404582307041,0.006317765971464,0.0040404582337084,-0.00089460570222883,0.00089460549718946,-9.6541188802804e-11,-1.1502598496417e-10,1.2853688351806e-09,-1.5512279484922e-09,-0.0010531409943539,0.0010531416093779,-0.0010531408527212,0.0010531416756253,-0.0010531417062602,0.0010531407219319,-0.0010531419223728,0.0010531406920434,-0.00089273901130228,0.00089273810164677,-0.00089273935227346,0.00089273791254477,1.4165260425723e-10,1.0626099862296e-10,-2.5430157624376e-09,2.7852293625666e-09,-0.0016248353297349,0.0016248355787786,-0.0017878711638702,0.0017878694926824,-0.00178786922908,0.001787871467564,-0.0017878710162896,0.0017878696259467,-0.0017878694150159,0.0017878712540688,-0.0014413907171404,0.0014413863151201,-0.0014413860761547,0.0014413909454966,-0.0014413872059668,0.0014413898241591,-0.0014413877827211,0.0014413892324569,2.5093138283982e-11,6.2860378454543e-11,-0.0008946055530342,0.00089460564798457,1.1681547323218e-09,-1.0511441152854e-09,-0.0010531409055838,0.0010531416311928,-0.0010531415522023,0.0010531410181324,-0.0010531407835654,0.0010531417679762,-0.0010531416077248,0.0010531408613029,-0.00089273899997801,0.00089273811761508,-0.00089273883231315,0.00089273837765446,0.61930375997253,128566,2924,0.003723081515905,0.0067447436071258,0.0037230815193006,36.63070329963,5.5445626397042e-05,5.5445626397042e-05,5.5445626397042e-05,4585343.3703845,0.014293117863389
12219200,0.93159507207643,0.014461578853732,0.0040571770201096,0.0063472248105224,0.0040571770230996,-0.00089775893810605,0.00089775873051069,-9.6581761776562e-11,-1.1625304181816e-10,1.2920028964502e-09,-1.5648818352871e-09,-0.0010573201461655,0.0010573207402345,-0.0010573199802502,0.0010573208340801,-0.0010573208388135,0.0010573198724497,-0.0010573210822965,0.0010573198172549,-0.0008959908909595,0.00089599007584821,-0.00089599134032404,0.00089598979536898,1.3227187724377e-10,1.1553740270577e-10,-2.539838973251e-09,2.7823979149477e-09,-0.0016323706058139,0.0016323708550125,-0.0017965913561914,0.0017965896372603,-0.0017965893775838,0.0017965916518588,-0.0017965911596576,0.0017965898203475,-0.0017965896013896,0.0017965914017872,-0.0014477555458474,0.0014477512089288,-0.0014477509416448,0.0014477557583416,-0.0014477520510161,0.0014477547014005,-0.0014477526708133,0.0014477540872593,2.5993596016426e-11,6.4483406855596e-11,-0.00089775878390548,0.00089775888540939,1.1645582004581e-09,-1.0312359412587e-09,-0.0010573200618564,0.0010573207586273,-0.0010573206747347,0.0010573201789714,-0.001057319913224,0.0010573209209419,-0.0010573207556007,0.0010573199960874,-0.00089599096905018,0.00089598999513002,-0.00089599070779537,0.00089599035503248,0.63790519854649,128566,2924,0.0037362051017336,0.00677589382059,0.0037362051032703,36.59092182871,5.5127374629682e-05,5.5127374629682e-05,5.5127374629682e-05,4578327.1790515,0.014351350704672
12419200,0.93606841521782,0.014518934714149,0.0040723215414253,0.0063742916283741,0.0040723215443491,-0.00090090883353443,0.00090090862379955,-9.8882350101786e-11,-1.1644215818152e-10,1.3151617692751e-09,-1.5852172375251e-09,-0.0010615560854073,0.0010615566472333,-0.0010615558737601,0.0010615567804183,-0.0010615567496437,0.0010615558043104,-0.0010615570298796,0.0010615557054936,-0.00089923428085274,0.00089923355577566,-0.00089923483966439,0.00089923316397845,1.0281901506731e-10,1.5172966305706e-10,-2.5768621653944e-09,2.8255353629518e-09,-0.0016397872917072,0.001639787544291,-0.0018050971667163,0.0018050953558101,-0.0018050951202498,0.0018050974357911,-0.0018050969107962,0.0018050956001278,-0.0018050953605671,0.0018050971665768,-0.0014540458138039,0.0014540415352413,-0.0014540412294445,0.0014540460701976,-0.0014540422964652,0.0014540450522796,-0.0014540429618968,0.0014540443884065,1.1181567627696e-11,5.2940322227418e-11,-0.00090090869167341,0.00090090876639146,1.2714153625158e-09,-1.1711683677371e-09,-0.0010615559790169,0.0010615566857392,-0.0010615566295202,0.0010615560649037,-0.0010615557868906,0.0010615568908526,-0.0010615567498722,0.0010615558416712,-0.00089923451015433,0.00089923332811456,-0.00089923413866032,0.00089923379873217,0.61827140448984,128566,2924,0.0037493156931585,0.0068065496666401,0.0037493156947301,36.717421112729,5.6139368901833e-05,5.6139368901833e-05,5.6139368901833e-05,4570946.1890213,0.014409060726448
12619200,0.94023466598693,0.014569362367841,0.0040854859723328,0.0063983904202624,0.0040854859752461,-0.0009032778486842,0.00090327763872326,-9.8669910297558e-11,-1.1749961791367e-10,1.3327575236651e-09,-1.5970582412611e-09,-0.001064924243538,0.0010649248396197,-0.0010649240598148,0.0010649249488389,-0.0010649249442853,0.0010649239633224,-0.0010649251990745,0.0010649238888583,-0.00090160849909955,0.00090160769331541,-0.00090160897915613,0.00090160735857631,9.4298092963871e-11,1.5649806297395e-10,-2.6266993466086e-09,2.870419757882e-09,-0.0016460671417087,0.0016460673929061,-0.0018124289699231,0.0018124271538873,-0.0018124269206291,0.0018124292418205,-0.0018124287351119,0.0018124273744131,-0.0018124271300119,0.0018124290052732,-0.0014592642944768,0.0014592598558346,-0.001459259611649,0.0014592645887934,-0.0014592607312683,0.0014592634122365,-0.001459261300248,0.0014592628017071,1.2564760535705e-11,5.4677816288793e-11,-0.00090327770669187,0.00090327778148839,1.2423624665618e-09,-1.161454425848e-09,-0.001064924145562,0.001064924874964,-0.0010649248097974,0.0010649242401622,-0.0010649239797743,0.0010649250547453,-0.0010649249066035,0.0010649240429756,-0.0009016086514319,0.00090160755195157,-0.00090160834039945,0.00090160795090749,0.58731727229019,128566,2924,0.0037591798959493,0.0068325045735191,0.0037591798975559,36.603516158466,5.5228129267727e-05,5.5228129267727e-05,5.5228129267727e-05,4564799.5670323,0.014455416728326
12819200,0.94410998669941,0.014616684538424,0.0040978815890167,0.0064209213574433,0.0040978815919644,-0.00090546627710097,0.00090546606652057,-9.8813307944432e-11,-1.1726618923559e-10,1.3421864179167e-09,-1.6090026953074e-09,-0.0010679198851772,0.0010679205091014,-0.0010679197238487,0.0010679205963735,-0.0010679206146104,0.0010679196041887,-0.0010679208457506,0.0010679195500346,-0.00090377590695409,0.00090377503378121,-0.00090377632301948,0.00090377475865117,8.9821448957567e-11,1.623770351401e-10,-2.6639094211017e-09,2.9091614152922e-09,-0.0016517610631288,0.0016517613134817,-0.0018191390540351,0.0018191372275706,-0.0018191370034753,0.0018191393171413,-0.0018191388350179,0.0018191374346387,-0.0018191371904102,0.0018191391031501,-0.0014639824212284,0.0014639778370689,-0.0014639775674538,0.0014639827073963,-0.0014639788102822,0.0014639814412604,-0.001463979307988,0.0014639809252498,1.1689021733777e-11,5.5631256591074e-11,-0.00090546613499681,0.00090546620970672,1.2388159450821e-09,-1.1530670776107e-09,-0.0010679197918152,0.0010679205379109,-0.0010679204761098,0.0010679198815666,-0.0010679196474571,0.0010679206971113,-0.0010679205503641,0.0010679197075712,-0.00090377599019996,0.00090377496063987,-0.00090377574049098,0.00090377529251181,0.59135073632456,128566,2924,0.0037682891322117,0.0068560406888192,0.0037682891344855,36.464561003227,5.4116488025813e-05,5.4116488025813e-05,5.4116488025813e-05,4563904.0858452,0.014497785779827
13019200,0.9476355311438,0.014659903051419,0.0041092224586176,0.0064414581311895,0.0041092224616119,-0.00090669640935256,0.00090669620422828,-9.5647060617806e-11,-1.1679764093763e-10,1.3209355771668e-09,-1.5751863979015e-09,-0.0010698596263777,0.0010698602443539,-0.0010698594695994,0.0010698603227741,-0.0010698603446001,0.0010698593502902,-0.0010698605699332,0.0010698593016525,-0.00090497500693871,0.00090497413256282,-0.00090497540342179,0.00090497387370898,9.888682872232e-11,1.5169151963408e-10,-2.5089439253676e-09,2.7520824514761e-09,-0.0016560844742577,0.0016560847251883,-0.0018243774069561,0.0018243756956078,-0.0018243754594958,0.0018243776801226,-0.0018243771985379,0.0018243758901361,-0.0018243756481962,0.0018243774630957,-0.0014674450842388,0.0014674407824397,-0.0014674405534094,0.0014674453896477,-0.0014674416694214,0.0014674441938032,-0.0014674421440763,0.0014674436564877,1.7087595287164e-11,5.9718975873982e-11,-0.00090669626650096,0.00090669634844853,1.1914610756526e-09,-1.1089502885183e-09,-0.0010698595393821,0.001069860267944,-0.0010698601958615,0.0010698596406131,-0.0010698594017416,0.0010698604201915,-0.0010698602645573,0.0010698594722578,-0.00090497506232483,0.00090497409356074,-0.00090497483134509,0.00090497441138639,0.59303210410597,128566,2924,0.0037734168280923,0.0068739092335172,0.0037734168309194,35.905158638372,4.9641269106974e-05,4.9641269106974e-05,4.9641269106974e-05,4555524.0269122,0.014526326548282
13219200,0.95081989431364,0.014699130444755,0.0041195408014235,0.0064600488388512,0.0041195408044802,-0.0009074332158519,0.00090743301366537,-9.5000257686015e-11,-1.1409331104685e-10,1.3041373034951e-09,-1.5591011629414e-09,-0.0010712167720664,0.0010712173925969,-0.0010712166279859,0.0010712174632705,-0.0010712174901193,0.0010712164999217,-0.0010712177058619,0.0010712164636904,-0.00090568245192415,0.00090568157032637,-0.00090568282393734,0.00090568133713684,1.2410275409899e-10,1.238764805409e-10,-2.4346479478823e-09,2.6758213377302e-09,-0.0016595535863663,0.0016595538343683,-0.0018286622194307,0.0018286605822822,-0.0018286603304643,0.0018286625064344,-0.0018286620387664,0.0018286607472472,-0.0018286605250665,0.0018286622829043,-0.001470152372767,0.001470148161162,-0.0014701479361849,0.0014701526413033,-0.0014701490200875,0.001470151502061,-0.0014701495195854,0.0014701509594133,2.835531111765e-11,7.4695008799361e-11,-0.00090743306083163,0.00090743317013934,1.072869868209e-09,-9.538005618766e-10,-0.00107121671391,0.0010712173881132,-0.0010712172919746,0.0010712168393769,-0.0010712165857661,0.001071217530823,-0.0010712173487173,0.0010712166827878,-0.00090568243248927,0.00090568160407515,-0.00090568222822341,0.00090568189131513,0.59512912967636,128566,2924,0.0037764940270042,0.0068882454414966,0.0037764940300402,35.183014428729,4.3864115429829e-05,4.3864115429829e-05,4.3864115429829e-05,4543583.9115781,0.014547122558964
13419200,0.95370047357646,0.014734034485243,0.0041287039777482,0.006476626526664,0.0041287039808312,-0.00090793661831037,0.00090793641776691,-9.4401179064662e-11,-1.1273639110748e-10,1.2929843670938e-09,-1.5482288548771e-09,-0.0010722901139405,0.0010722907358884,-0.0010722899769764,0.0010722908003396,-0.0010722908317148,0.0010722898437606,-0.0010722910415301,0.0010722898161246,-0.00090615167070202,0.00090615078054201,-0.00090615202846498,0.00090615057005816,1.3759351302439e-10,1.0852500122394e-10,-2.3865724070865e-09,2.626409112828e-09,-0.0016625041338762,0.0016625043808794,-0.0018323440316982,0.0018323424443316,-0.001832342182188,0.0018323443264884,-0.0018323438668541,0.0018323425933862,-0.0018323423793716,0.0018323441005502,-0.0014724175037331,0.0014724133565268,-0.0014724131320675,0.0014724177475879,-0.0014724141999312,0.0014724166516451,-0.0014724147059764,0.001472416107674,3.4279046390575e-11,8.3087829556102e-11,-0.00090793645591357,0.00090793658137043,1.0106637390342e-09,-8.6792276613339e-10,-0.0010722900704405,0.0010722907165166,-0.0010722906076134,0.0010722902099857,-0.0010722899484023,0.0010722908531465,-0.0010722906562524,0.0010722900611242,-0.00090615160443346,0.00090615085701459,-0.00090615142363865,0.00090615112544302,0.58608787535136,128566,2924,0.0037786004335884,0.0069004375027963,0.0037786004361268,34.452430199661,3.8019441597288e-05,3.8019441597288e-05,3.8019441597288e-05,4530998.0188233,0.014563773293195
13619200,0.95633786925693,0.014765576791601,0.0041369759060365,0.0064916249764376,0.0041369759091274,-0.00090860848448479,0.00090860828217447,-9.1914948506269e-11,-1.1708784965244e-10,1.2913716824944e-09,-1.5520174980484e-09,-0.0010734701506225,0.001073470772971,-0.0010734700128465,0.0010734708368886,-0.001073470867208,0.0010734698812289,-0.0010734710806075,0.0010734698492444,-0.00090678711791606,0.00090678623201037,-0.00090678748894349,0.00090678602118915,1.2201110587976e-10,1.2758432779813e-10,-2.386742885702e-09,2.6305720145954e-09,-0.0016653982401306,0.0016653984896804,-0.001835917821225,0.0018359162180291,-0.001835915965383,0.0018359181029971,-0.0018359176446828,0.0018359163806818,-0.0018359161534132,0.0018359178859414,-0.0014746821277192,0.001474677996201,-0.0014746777224148,0.0014746823644264,-0.0014746788378757,0.0014746812793573,-0.0014746793248635,0.0014746807784965,2.8041938433618e-11,7.1640291907927e-11,-0.00090860832900595,0.00090860843881871,1.1072757555151e-09,-9.7088913914111e-10,-0.0010734700842481,0.0010734707743862,-0.0010734706834653,0.0010734702055649,-0.0010734699612767,0.0010734709113096,-0.0010734707348666,0.00107347005299,-0.00090678709432861,0.00090678626098474,-0.00090678691416116,0.00090678653720347,0.57890325776716,128566,2924,0.0037814042622926,0.0069123978026574,0.0037814042647638,33.907715774532,3.3661726196259e-05,3.3661726196259e-05,3.3661726196259e-05,4523147.3389969,0.014581603496972
13819200,0.95877520036109,0.01479472353643,0.0041446307757135,0.0065054619819206,0.0041446307787964,-0.00090942427297676,0.00090942406634809,-9.0928310016883e-11,-1.226046015608e-10,1.3054275507535e-09,-1.5718328959075e-09,-0.0010747399874844,0.0010747406185,-0.0010747398506945,0.001074740683649,-0.0010747407148632,0.0010747397188502,-0.0010747409333205,0.0010747396839541,-0.00090756991090726,0.00090756902732822,-0.00090757029891799,0.00090756879688131,9.4171342600714e-11,1.5239039287222e-10,-2.4836818863409e-09,2.7240804470358e-09,-0.0016682496601689,0.0016682499104871,-0.0018394033445264,0.0018394016645649,-0.0018394014222986,0.0018394036195315,-0.0018394031493814,0.0018394018446566,-0.0018394015956125,0.0018394034199593,-0.0014769527724772,0.0014769484844179,-0.0014769482277808,0.0014769530314503,-0.0014769494122448,0.0014769518502717,-0.0014769498410069,0.0014769513808515,1.7234163357404e-11,5.6349780889731e-11,-0.00090942412835847,0.00090942421173302,1.2406462999895e-09,-1.1368051808315e-09,-0.0010747398889996,0.0010747406543455,-0.0010747405847443,0.0010747399912181,-0.0010747397660277,0.0010747407909649,-0.001074740640332,0.0010747398353065,-0.00090756995866544,0.00090756897993432,-0.00090756976409322,0.00090756927595967,0.57842618313463,128566,2924,0.0037848040090041,0.0069241830000902,0.0037848040106472,33.507456333587,3.0459650668697e-05,3.0459650668697e-05,3.0459650668697e-05,4518827.8156267,0.01460046485801
14019200,0.96106518144247,0.014822114466409,0.004151833591885,0.0065184472795829,0.0041518335949413,-0.00091065718757091,0.00091065697506067,-9.8212418970296e-11,-1.2044418963751e-10,1.3439239398642e-09,-1.6163771797279e-09,-0.0010764184734253,0.0010764191317929,-0.0010764183441063,0.0010764191894054,-0.0010764192379724,0.001076418195721,-0.001076419443021,0.0010764181723779,-0.00090879305919728,0.0009087921086505,-0.00090879340751682,0.00090879191015262,7.2792701232944e-11,1.7982631213548e-10,-2.7271960666792e-09,2.9732889134176e-09,-0.0016714369131142,0.0016714371661246,-0.0018431835490096,0.0018431817024058,-0.0018431814808459,0.0018431838096646,-0.0018431833491812,0.0018431818886518,-0.0018431816271417,0.001843183637296,-0.0014795892311427,0.0014795844416426,-0.0014795841619775,0.0014795895196206,-0.0014795855724922,0.0014795881046769,-0.0014795859320015,0.0014795877212572,-2.0803653157529e-12,4.774899530097e-11,-0.00091065705454041,0.00091065710892151,1.3586548672323e-09,-1.2891543890216e-09,-0.0010764183527421,0.001076419188969,-0.0010764191516267,0.001076418422958,-0.0010764182363146,0.0010764193196407,-0.0010764191941267,0.0010764182803915,-0.00090879311290833,0.00090879205621785,-0.00090879295220189,0.00090879231088092,0.5782146389555,128566,2924,0.0037899353814718,0.006937357271616,0.0037899353832466,33.390984760451,2.9527878083605e-05,2.9527878083605e-05,2.9527878083605e-05,4518937.7540231,0.014624250036338
14219200,0.96321237745751,0.014846814760501,0.0041582804507038,0.0065302538560449,0.0041582804537521,-0.00091167793240784,0.0009116777174923,-9.8552108885281e-11,-1.2237368923479e-10,1.3647526733548e-09,-1.6360478526847e-09,-0.0010778765596654,0.0010778772291568,-0.0010778764297158,0.0010778772830447,-0.0010778773373881,0.0010778762772555,-0.0010778775410313,0.0010778762539685,-0.0009097907614421,0.00090978979365599,-0.00090979110643845,0.00090978959300828,5.2533291849877e-11,2.0303120577132e-10,-2.8604083306654e-09,3.1086588699583e-09,-0.0016742883346407,0.001674288589808,-0.0018465933554304,0.0018465914108315,-0.001846591205515,0.0018465936053119,-0.0018465931415344,0.0018465916117082,-0.0018465913364414,0.0018465934482422,-0.001481920731014,0.0014819156906391,-0.0014819154142523,0.0014819210589872,-0.0014819169265079,0.0014819195031243,-0.0014819172339063,0.0014819191593449,-1.637050981128e-11,3.3397248228719e-11,-0.00091167781357153,0.00091167783716934,1.4782919501074e-09,-1.4517095532338e-09,-0.0010778764104236,0.0010778773142782,-0.001077877303792,0.0010778764527678,-0.0010778762950731,0.0010778774440088,-0.0010778773452995,0.0010778763111708,-0.00090979086766222,0.00090978969191042,-0.00090979070625788,0.0009097899455465,0.55856767390344,128566,2924,0.0037941850154394,0.0069491425828992,0.0037941850172103,33.233863149087,2.8270905192697e-05,2.8270905192697e-05,2.8270905192697e-05,4518140.2234149,0.014644837211633
14419200,0.9652130603734,0.014870095618236,0.0041643794086877,0.0065413367977977,0.0041643794117504,-0.00091242365141216,0.00091242343607908,-9.9568196009958e-11,-1.2207776575132e-10,1.3681229706978e-09,-1.639114123571e-09,-0.0010789524660704,0.0010789531412002,-0.0010789523396938,0.0010789531905964,-0.0010789532499655,0.001078952182756,-0.0010789534486358,0.001078952163984,-0.00091049275976252,0.00091049177648443,-0.00091049308936958,0.00091049158490146,5.2563657039888e-11,2.0296415205506e-10,-2.9145587342901e-09,3.1626145980008e-09,-0.001676636620958,0.0016766368762957,-0.0018494846148971,0.0018494826410411,-0.0018494824369935,0.0018494848667672,-0.0018494844054451,0.0018494828372031,-0.001849482563001,0.0018494847145782,-0.0014837918739304,0.0014837867151309,-0.0014837864477045,0.0014837922096542,-0.0014837880006823,0.0014837905983255,-0.0014837882931973,0.0014837902649575,-2.1220219369217e-11,3.152257119275e-11,-0.00091242353670171,0.00091242355185915,1.5036672800556e-09,-1.4891513086473e-09,-0.0010789523108079,0.0010789532319293,-0.0010789532298524,0.0010789523446203,-0.0010789521988655,0.0010789533583058,-0.0010789532660825,0.0010789522084335,-0.00091049286608939,0.00091049167687109,-0.00091049271664542,0.00091049191522516,0.56383594047888,128566,2924,0.0037972897927236,0.0069588500973248,0.0037972897949655,32.95570268144,2.604562145152e-05,2.604562145152e-05,2.604562145152e-05,4518587.2192155,0.014660991175472
14619200,0.96699263674278,0.014890926640495,0.0041698481623398,0.0065512303127386,0.0041698481654166,-0.00091152722636961,0.00091152701657012,-1.0478315044668e-10,-1.1418713116819e-10,1.3297963500203e-09,-1.5923117576159e-09,-0.0010782923202025,0.0010782929882166,-0.001078292205176,0.0010782930233531,-0.0010782930930598,0.0010782920388481,-0.0010782932746438,0.0010782920466146,-0.0009095213307203,0.00090952032035523,-0.00090952160727485,0.00090952018242895,1.1136027019666e-10,1.3973109089932e-10,-2.7312563448758e-09,2.9754019650418e-09,-0.0016769723569484,0.0016769726117649,-0.0018502889983044,0.0018502872110773,-0.001850286961274,0.0018502892947104,-0.0018502888452683,0.0018502873453266,-0.0018502871087387,0.0018502891200118,-0.0014837437138798,0.0014837388384298,-0.0014837386415452,0.0014837440269259,-0.0014837400201651,0.0014837425562705,-0.001483740353585,0.0014837421391228,2.2980137108615e-12,6.9638876778646e-11,-0.00091152708530213,0.00091152715966036,1.2290803614092e-09,-1.153979052074e-09,-0.0010782922267228,0.0010782930168398,-0.0010782929630498,0.0010782923169361,-0.0010782921280125,0.0010782931304173,-0.0010782929767032,0.0010782922021182,-0.00090952127052561,0.00090952039193365,-0.00090952118204458,0.00090952058280012,0.56645706844631,128566,2924,0.0037935739574026,0.0069602354491151,0.0037935739616031,31.822475485617,1.6979803884933e-05,1.6979803884933e-05,1.6979803884933e-05,4503116.4580554,0.01465485838078
14819200,0.96859585191,0.014909831849852,0.0041748286583541,0.0065601745300564,0.004174828661442,-0.00091085907502387,0.00091085887011956,-9.3945380003716e-11,-1.1820693165131e-10,1.287740497954e-09,-1.5572429860016e-09,-0.0010778324836864,0.0010778331187707,-0.0010778323573984,0.0010778331703441,-0.0010778332116121,0.0010778322147083,-0.0010778334192978,0.0010778321996455,-0.00090879679630617,0.00090879590108229,-0.00090879715809432,0.00090879570191494,1.3086718527379e-10,1.1634479198176e-10,-2.5184042978303e-09,2.760555389516e-09,-0.0016773994507335,0.0016773996999102,-0.0018511264700054,0.0018511248092264,-0.0018511245502747,0.0018511267667939,-0.0018511263127641,0.0018511249504908,-0.0018511247310328,0.0018511265583461,-0.0014838294392286,0.0014838250175289,-0.0014838247552442,0.0014838296647203,-0.0014838259801168,0.0014838284729585,-0.0014838264504809,0.0014838279996127,1.8731965817479e-11,7.3216654631643e-11,-0.00091085892333405,0.00091085902324236,1.1535997154088e-09,-1.0232317472096e-09,-0.0010778324058048,0.0010778331285505,-0.0010778330542543,0.0010778325174627,-0.0010778322924277,0.0010778332578954,-0.0010778330898819,0.0010778323790421,-0.0009087967817278,0.00090879592001968,-0.00090879662650977,0.00090879617383036,0.56962156308655,128566,2924,0.0037908053979524,0.0069619990323588,0.0037908054010075,30.87038839865,9.3631071892031e-06,9.3631071892031e-06,9.3631071892031e-06,4489637.4363016,0.014651031629725
15019200,0.97001152706113,0.014926467304936,0.0041792146410625,0.0065680380197527,0.0041792146441205,-0.00090938239014607,0.00090938220369644,-8.2169573570049e-11,-1.1032972422549e-10,1.2665934383241e-09,-1.4968522344564e-09,-0.0010765103449076,0.0010765109709257,-0.0010765102293789,0.0010765110144815,-0.0010765110573336,0.0010765100908326,-0.0010765112475232,0.0010765100720264,-0.00090724349565416,0.00090724259948089,-0.00090724379466497,0.00090724241676777,1.6340416240912e-10,8.3817221500241e-11,-2.2809521612419e-09,2.5207787586451e-09,-0.0016767701731218,0.0016767704177085,-0.0018508478721385,0.0018508463864335,-0.0018508461141553,0.0018508481747934,-0.001850847744553,0.0018508464998637,-0.0018508463061701,0.0018508479531209,-0.001482923138741,0.0014829191085271,-0.0014829189276368,0.0014829233946961,-0.0014829199276363,0.0014829222992803,-0.0014829204151608,0.001482921750643,3.1540246803507e-11,8.3012332683252e-11,-0.00090938223718163,0.00090938235775039,9.6215812831787e-10,-8.4227733578956e-10,-0.0010765103083469,0.0010765109467858,-0.001076510839451,0.0010765104464501,-0.0010765102036184,0.001076511069096,-0.0010765108722637,0.0010765103174101,-0.00090724338600711,0.00090724272782734,-0.00090724324441093,0.00090724293411283,0.56738228278094,128566,2924,0.0037846783071392,0.0069593944591881,0.0037846783093711,29.524834978855,-1.4013201691573e-06,-1.4013201691573e-06,-1.4013201691573e-06,4468913.433455,0.014635956590958
15219200,0.97117470096988,0.014939511686498,0.004182626688504,0.0065742583063892,0.0041826266916046,-0.00090542917854601,0.00090542900858746,-5.538375399448e-11,-1.2516575091687e-10,1.1736468140664e-09,-1.382671960056e-09,-0.0010725615332681,0.0010725620805477,-0.0010725613867197,0.001072562155895,-0.0010725621370176,0.0010725613143282,-0.0010725623853368,0.0010725612401282,-0.00090312326177505,0.00090312260778096,-0.00090312372116356,0.00090312224612231,2.0403713786432e-10,2.0329343305458e-11,-1.6618680537188e-09,1.8785373213861e-09,-0.0016731474156584,0.0016731476495173,-0.0018475046516504,0.0018475035702985,-0.0018475032477119,0.0018475049945704,-0.0018475045118886,0.0018475036899094,-0.0018475035189988,0.0018475046943697,-0.0014791336712501,0.0014791309843874,-0.0014791309286428,0.0014791338854167,-0.0014791312462165,0.0014791333909439,-0.0014791319329418,0.0014791325424703,8.2613670624512e-11,9.4509617354887e-11,-0.00090542900575439,0.00090542918325845,7.0608606923173e-10,-5.3371371238303e-10,-0.0010725615433042,0.0010725620130186,-0.0010725618350198,0.0010725617560055,-0.0010725614077753,0.0010725621655024,-0.0010725619255554,0.0010725615715672,-0.00090312323523628,0.00090312265894395,-0.00090312292558469,0.00090312303977462,0.54391446094803,128566,2924,0.0037682639396205,0.0069444122220069,0.0037682639434784,26.882136600167,-2.2542907198661e-05,-2.2542907198661e-05,-2.2542907198661e-05,4427222.0881333,0.014587445460108
15419200,0.97223336886273,0.014953180621639,0.0041863171609763,0.0065805462965702,0.0041863171640927,-0.0009045364857524,0.00090453629145586,-8.7771865510272e-11,-1.1171782228219e-10,1.2288949802214e-09,-1.4968123551747e-09,-0.0010716570526657,0.0010716576760337,-0.0010716569481968,0.0010716577146899,-0.0010716577583688,0.0010716567965371,-0.0010716579501656,0.0010716567997229,-0.00090216411365162,0.00090216321716759,-0.00090216443451916,0.00090216309703744,1.8463103664857e-10,5.3721981124471e-11,-2.064903955778e-09,2.3007250937218e-09,-0.001672720257691,0.0016727204983468,-0.0018473436225575,0.0018473423081043,-0.0018473420088555,0.0018473439389657,-0.0018473435197885,0.0018473423908904,-0.0018473422072443,0.0018473437102432,-0.0014785183531797,0.0014785147114621,-0.0014785144263281,0.0014785184538602,-0.0014785154034824,0.0014785176442519,-0.0014785159564595,0.0014785171327949,5.7279191373257e-11,1.1802567806199e-10,-0.00090453629310145,0.00090453648422038,7.6952945799152e-10,-5.0985144346834e-10,-0.0010716570700351,0.0010716575924924,-0.001071657436765,0.0010716572594752,-0.0010716569692697,0.0010716577040478,-0.0010716574520635,0.0010716571408596,-0.00090216386992339,0.00090216345082717,-0.00090216378694817,0.00090216363913979,0.61488004396095,128566,2924,0.003764557452603,0.0069426482629784,0.0037645574530107,25.930775917084,-3.0153792663331e-05,-3.0153792663331e-05,-3.0153792663331e-05,4417414.6483438,0.01457813321597
15619200,0.97323160745947,0.014966355805315,0.0041898890958018,0.0065865776106206,0.0041898890988924,-0.00090458849294247,0.00090458828638029,-9.3106632189386e-11,-1.1996069892919e-10,1.3147627830337e-09,-1.5862484989325e-09,-0.0010719632588846,0.0010719639162108,-0.001071963143673,0.0010719639661238,-0.0010719640147002,0.0010719629929554,-0.0010719642147784,0.0010719629792508,-0.00090228678852668,0.00090228584757506,-0.00090228712489589,0.00090228567254268,1.0094719725006e-10,1.4859848606531e-10,-2.4909564389318e-09,2.7352482023979e-09,-0.0016735744860467,0.0016735747366991,-0.0018483466454182,0.0018483449882564,-0.0018483447463174,0.0018483469206727,-0.0018483464755194,0.0018483451444465,-0.0018483449007025,0.0018483467401837,-0.0014792005867737,0.0014791962038854,-0.0014791959191073,0.0014792008197959,-0.0014791972003243,0.0014791995908052,-0.001479197586807,0.0014791991973141,1.8550968074777e-11,7.8218888123369e-11,-0.00090458833626606,0.00090458844350773,1.1276587645635e-09,-9.8543860290487e-10,-0.0010719631989167,0.0010719639114889,-0.0010719638320053,0.0010719633147375,-0.0010719630888278,0.0010719640365905,-0.0010719638623572,0.0010719631851119,-0.0009022867190228,0.00090228591693782,-0.0009022865928908,0.00090228613844507,0.62695262874606,128566,2924,0.0037647817621296,0.0069461740012903,0.0037647817631464,25.553846663479,-3.3169226692169e-05,-3.3169226692169e-05,-3.3169226692169e-05,4403268.5328275,0.01458217035677
15819200,0.97415240962773,0.014979435191562,0.0041934785782662,0.0065924780319402,0.0041934785813554,-0.00090393781040714,0.00090393759717427,-1.0029982442576e-10,-1.2048857563087e-10,1.3666653428836e-09,-1.6360533324584e-09,-0.00107154317016,0.001071543859908,-0.0010715430604023,0.0010715439006569,-0.0010715439692845,0.0010715428938587,-0.0010715441559505,0.0010715428900486,-0.00090171871676652,0.00090171769068286,-0.00090171900290035,0.00090171754202822,5.7994570011578e-11,1.9640894595917e-10,-2.7776009821378e-09,3.0246822766209e-09,-0.001673618372013,0.0016736186266632,-0.001848503078673,0.001848501217765,-0.0018485010061701,0.0018485033331831,-0.0018485028887246,0.0018485013945394,-0.0018485011210927,0.0018485031930828,-0.0014791181718205,0.0014791132246073,-0.0014791129656909,0.0014791184945617,-0.0014791144699932,0.0014791169322861,-0.0014791147166694,0.0014791166338659,-7.4326560091521e-12,5.9921758265057e-11,-0.00090393767526359,0.00090393773302258,1.3219821807342e-09,-1.2574029665977e-09,-0.0010715430670173,0.0010715438988681,-0.0010715438651415,0.0010715431376248,-0.001071542963919,0.0010715440178846,-0.0010715438846885,0.0010715430201022,-0.00090171868818962,0.00090171773137383,-0.00090171859217741,0.00090171791422025,0.66920158555135,128566,2924,0.0037620883211656,0.0069463477224521,0.0037620883226401,24.791794196657,-3.9265646426743e-05,-3.9265646426743e-05,-3.9265646426743e-05,4381571.7926744,0.014576885393418
16019200,0.9750317172001,0.01499189560239,0.0041968972770252,0.0065981010452475,0.004196897280117,-0.00090420807304254,0.00090420783958664,-9.9599194711866e-11,-1.3976114227183e-10,1.3889528392218e-09,-1.7070554811268e-09,-0.0010721882318002,0.0010721889332163,-0.0010721881149341,0.0010721889825999,-0.0010721890459071,0.0010721879492705,-0.0010721892560137,0.0010721879288413,-0.00090215803033861,0.00090215702946528,-0.00090215839514924,0.00090215683190202,-8.6172886301004e-12,2.6801598541327e-10,-3.0014831924547e-09,3.25653703997e-09,-0.0016748133480566,0.0016748136087878,-0.0018497441222655,0.0018497420591345,-0.0018497418871843,0.0018497443362441,-0.001849743876677,0.001849742296551,-0.0018497419712566,0.0018497442301617,-0.0014801923777765,0.0014801870844229,-0.0014801866479474,0.0014801926348604,-0.0014801884657317,0.0014801909910819,-0.0014801886658799,0.0014801908605976,-3.5944216302027e-11,1.4193296350771e-11,-0.00090420796264247,0.00090420795157621,1.7725312029473e-09,-1.7311424521724e-09,-0.0010721880237564,0.001072189070045,-0.001072189113962,0.0010721880173086,-0.0010721879099901,0.0010721891956569,-0.0010721891485231,0.0010721878803685,-0.00090215823128662,0.00090215682348845,-0.0009021580923583,0.00090215706236737,0.6674324836849,128566,2924,0.0037632234864831,0.0069512764867539,0.0037632234899545,24.593243440613,-4.0854052475097e-05,-4.0854052475097e-05,-4.0854052475097e-05,4362790.9132916,0.014584196829671
16219200,0.97589942775842,0.01500413595462,0.0042002534224964,0.0066036291065425,0.004200253425581,-0.00090542775069827,0.00090542751252182,-1.1313903885282e-10,-1.2998008328425e-10,1.4574728675224e-09,-1.767616732728e-09,-0.0010738164136165,0.0010738171661994,-0.0010738163131503,0.0010738171962959,-0.001073817294516,0.0010738161132656,-0.0010738174719059,0.0010738161246091,-0.00090357246291038,0.00090357131523666,-0.00090357272977502,0.00090357121467857,-4.3591121556453e-11,3.0774146676826e-10,-3.4974273917586e-09,3.7550396510574e-09,-0.0016770802172797,0.0016770804805977,-0.0018520644924262,0.0018520621015274,-0.0018520619590328,0.0018520646908963,-0.0018520642472142,0.0018520623379041,-0.0018520619943494,0.0018520646347921,-0.001482320759836,0.0014823144349425,-0.0014823140498204,0.0014823211234383,-0.0014823162544449,0.0014823189647588,-0.0014823162869893,0.0014823189495141,-6.8318614650351e-11,6.3343459500977e-12,-0.00090542765824647,0.00090542760468873,1.9224033618675e-09,-1.9578409960138e-09,-0.0010738161766372,0.0010738173337847,-0.001073817416627,0.0010738161302627,-0.0010738160806796,0.001073817442452,-0.0010738174199365,0.0010738160253745,-0.00090357261923126,0.00090357115299159,-0.0009035725741128,0.00090357129999052,0.66426057960172,128566,2924,0.0037683017629552,0.006960637430118,0.0037683017624627,24.945045721782,-3.8039634225742e-05,-3.8039634225742e-05,-3.8039634225742e-05,4355257.0858715,0.014604006724034
16419200,0.97669536810912,0.015014151766518,0.0042029440205578,0.0066082637223249,0.0042029440236354,-0.00090435840423861,0.00090435817711339,-1.629231421444e-10,-6.8066664510168e-11,1.4788246243144e-09,-1.7567210624362e-09,-0.0010730587700265,0.0010730595996794,-0.0010730587450992,0.0010730595555809,-0.001073059759901,0.0010730584307896,-0.0010730597863069,0.0010730585829222,-0.00090259205437405,0.00090259046120167,-0.00090259186798163,0.00090259080515439,6.7688059588007e-11,1.9794700667835e-10,-3.9899361132494e-09,4.24732737777e-09,-0.0016767416735721,0.0016767419250274,-0.0018517723305371,0.0018517697776236,-0.0018517696046002,0.001851772573134,-0.0018517722648706,0.0018517698349633,-0.0018517696001255,0.0018517725510592,-0.0014818953649328,0.0014818876380089,-0.0014818873749918,0.0014818957424458,-0.0014818900253139,0.0014818929761735,-0.0014818899411416,0.0014818930853494,-4.8069475797275e-11,1.3878133227271e-10,-0.00090435824409204,0.00090435833827215,1.1439416138395e-09,-1.0502005395999e-09,-0.0010730587361621,0.0010730595691474,-0.0010730595324908,0.0010730587961628,-0.0010730587143089,0.0010730596063498,-0.0010730593917532,0.0010730588384572,-0.00090259142303207,0.00090259114082162,-0.00090259179610159,0.00090259082201054,0.59982143967015,128566,2924,0.0037638722986596,0.0069592246718829,0.0037638723007364,24.072900158234,-4.5016798734126e-05,-4.5016798734126e-05,-4.5016798734126e-05,4329803.9408804,0.014593590116292
16619200,0.97745152905344,0.015025519699457,0.004206095554548,0.0066133285872777,0.0042060955576312,-0.00090441915997148,0.00090441892641064,-1.191986513792e-10,-1.1916889071443e-10,1.380722086638e-09,-1.6928319139412e-09,-0.0010732227235001,0.001073223463227,-0.0010732226391602,0.0010732234439907,-0.0010732235695524,0.0010732224032552,-0.0010732237210394,0.0010732224753463,-0.00090271811512722,0.00090271693163403,-0.0009027183207447,0.0009027169785744,3.5170390274601e-11,2.088816246921e-10,-3.3495224585057e-09,3.5894234216372e-09,-0.0016773556795112,0.0016773559243426,-0.0018525016932624,0.0018524995111001,-0.0018524993231629,0.0018525019251445,-0.0018525015232717,0.0018524996509692,-0.0018524993727039,0.0018525018408415,-0.0014824050345357,0.0014823988306906,-0.0014823984590022,0.0014824052857041,-0.0014824005981287,0.0014824032421711,-0.0014824007057838,0.0014824032153707,-4.0605024434082e-11,5.1845263144876e-11,-0.00090441903477171,0.00090441905343883,1.6204926756493e-09,-1.5587752236027e-09,-0.0010732225444331,0.0010732235596515,-0.0010732235816311,0.0010732225506353,-0.0010732224734156,0.0010732236324172,-0.0010732235319129,0.0010732224855828,-0.0009027180721843,0.00090271699525897,-0.00090271814126308,0.00090271703717279,0.70236008402437,128566,2924,0.0037641296479128,0.0069617595984259,0.0037641296519138,23.766153448566,-4.7470772411472e-05,-4.7470772411472e-05,-4.7470772411472e-05,4325306.5278569,0.014596684575042
16819200,0.97817820602892,0.015036496315397,0.0042091377999582,0.0066182207124002,0.0042091378030386,-0.00090471361029362,0.0009047133748593,-1.818826315884e-10,-5.9580943912685e-11,1.4253611322638e-09,-1.7366491672953e-09,-0.0010738974376538,0.0010738982299116,-0.0010738973971555,0.0010738982074319,-0.0010738983944671,0.0010738970937481,-0.0010738984404314,0.0010738972661076,-0.00090320572000078,0.00090320418566759,-0.00090320560884868,0.00090320453216413,1.2412322453246e-10,1.1650692138176e-10,-4.0307880956023e-09,4.266713809469e-09,-0.0016785366514421,0.0016785368967299,-0.0018536572992255,0.001853654793416,-0.0018536545506727,0.0018536576153994,-0.0018536572614752,0.0018536548105536,-0.0018536546045563,0.0018536575416833,-0.0014835153637363,0.0014835075854455,-0.0014835073801905,0.0014835155981603,-0.0014835099475988,0.0014835130202764,-0.0014835100376414,0.001483512974688,-2.155018277068e-11,1.9730639702473e-10,-0.00090471340166139,0.00090471358455187,8.8857633919102e-10,-6.624356608109e-10,-0.0010738974644933,0.0010738981376558,-0.0010738980359836,0.0010738976062309,-0.0010738974229937,0.0010738981917114,-0.0010738978906709,0.0010738976493083,-0.00090320499429457,0.0009032049476203,-0.00090320536644213,0.00090320467408526,0.70571911278394,128566,2924,0.0037653660962994,0.0069666282531867,0.0037653660986157,23.643517495007,-4.8451860039945e-05,-4.8451860039945e-05,-4.8451860039945e-05,4307624.4071326,0.014604140556387
17019200,0.97887234714475,0.015046768466409,0.0042119756665587,0.0066228171302092,0.0042119756696415,-0.00090476046435527,0.00090476026750114,-1.3457830140909e-11,-1.9059873191236e-10,1.2883924229389e-09,-1.5416201887967e-09,-0.0010743227568664,0.0010743233807184,-0.001074322607267,0.0010743234338376,-0.0010743234152127,0.0010743225409812,-0.0010743237306227,0.0010743224097784,-0.00090344221344401,0.00090344167745046,-0.00090344290410952,0.0009034411131925,2.2398048284411e-11,2.3436571522945e-10,-2.2968240813656e-09,2.5461782182385e-09,-0.0016794507672397,0.0016794510240586,-0.0018545405554651,0.001854538947028,-0.0018545387524714,0.0018545407790646,-0.0018545402549827,0.0018545392339132,-0.0018545389219392,0.0018545405847079,-0.0014843633014462,0.0014843595648155,-0.0014843592560122,0.0014843636311424,-0.0014843602975626,0.0014843625631416,-0.0014843606709576,0.0014843621489189,-2.6483447277909e-11,-1.0543222932687e-10,-0.00090476043057955,0.00090476030172258,2.1797217200271e-09,-2.3217791563499e-09,-0.0010743224051426,0.0010743236534169,-0.0010743237538678,0.0010743223424398,-0.0010743222722663,0.0010743238022243,-0.0010743238963409,0.00107432209958,-0.00090344305147981,0.00090344083678154,-0.00090344255925618,0.00090344142024693,0.69246305742684,128566,2924,0.0037655748299296,0.0069703923193505,0.003765574830891,23.416260406905,-5.0269916744763e-05,-5.0269916744763e-05,-5.0269916744763e-05,4289254.4861934,0.014608389795582
17219200,0.97952793710083,0.015056200836477,0.0042145709011045,0.0066270590311833,0.0042145709041892,-0.00090442297520907,0.00090442275114152,-2.4366399357233e-10,9.8418996047031e-12,1.4010434506946e-09,-1.6811826305246e-09,-0.001074294781472,0.0010742955916657,-0.0010742947806138,0.0010742955362154,-0.0010742957995947,0.0010742944026497,-0.0010742957152857,0.0010742946991362,-0.00090325441566684,0.00090325250958836,-0.00090325389001167,0.00090325322531059,2.0292547482486e-10,3.4762139628731e-11,-4.0287738912525e-09,4.2604945764035e-09,-0.0016798572459372,0.0016798574895665,-0.0018549339266701,0.0018549315238141,-0.0018549312308028,0.0018549343026229,-0.0018549340345874,0.0018549313907167,-0.0018549312459366,0.0018549342571945,-0.0014847159656827,0.0014847078851104,-0.0014847078153845,0.0014847162324213,-0.0014847104543441,0.0014847134566955,-0.0014847104086767,0.0014847134016415,-3.517003015325e-11,3.1831492967856e-10,-0.000904422720676,0.00090442300641864,3.3149222399304e-10,-1.9743416722576e-11,-0.0010742949522361,0.0010742953654656,-0.0010742952040839,0.0010742951556514,-0.0010742949467567,0.0010742953841472,-0.0010742949315354,0.0010742953253464,-0.00090325303709144,0.00090325391584848,-0.00090325380082504,0.00090325325863814,0.67476321401201,128566,2924,0.0037641853350862,0.0069720590975004,0.0037641853366476,22.99307098584,-5.3655432113279e-05,-5.3655432113279e-05,-5.3655432113279e-05,4271197.1682965,0.01460726613791
17419200,0.98015377650264,0.015064805522505,0.0042169225060384,0.0066309605073428,0.0042169225091243,-0.00090436117218917,0.00090436095906509,-1.6844798526681e-10,-5.2149883705196e-11,1.3356759644794e-09,-1.6161791838647e-09,-0.0010744899282632,0.0010744906700403,-0.0010744898794059,0.0010744906401282,-0.0010744908128586,0.001074489599211,-0.0010744908553222,0.0010744897676472,-0.00090331175779005,0.00090331032026322,-0.00090331163899379,0.00090331064023718,1.6475064280448e-10,7.8860797445006e-11,-3.2961973914323e-09,3.5353538828951e-09,-0.0016804698187812,0.0016804700631886,-0.001855558437665,0.0018555564556726,-0.001855556191292,0.0018555587578251,-0.0018555584150507,0.0018555564598062,-0.0018555562734579,0.0018555586483423,-0.0014852627065863,0.0014852563496042,-0.0014852561363204,0.0014852629109343,-0.001485258205177,0.0014852608606708,-0.0014852583266437,0.0014852607442178,-1.8849716220285e-11,1.9994921004183e-10,-0.00090436097291973,0.0009043611596601,8.1665332950724e-10,-5.8692545543316e-10,-0.0010744899539306,0.001074490571564,-0.0010744904695079,0.0010744900937461,-0.0010744899107443,0.0010744906293414,-0.0010744903225669,0.0010744901384473,-0.00090331106085203,0.00090331104671886,-0.0009033114244907,0.00090331077472937,0.64748128284513,128566,2924,0.0037639385131235,0.0069745808067851,0.003763938515966,22.736603690057,-5.5707170479544e-05,-5.5707170479544e-05,-5.5707170479544e-05,4259977.114622,0.01460932738063
17619200,0.98066419392853,0.015071541700055,0.0042187512339032,0.0066340392291661,0.0042187512369854,-0.00089964108807233,0.00089964091162954,-1.0393742732706e-10,-8.3130492383411e-11,1.2254784685824e-09,-1.4350792396967e-09,-0.0010697235376638,0.0010697241821554,-0.0010697234563748,0.0010697241766279,-0.0010697242678057,0.0010697232691104,-0.0010697243937738,0.0010697233377169,-0.00089850044906676,0.00089849939853236,-0.00089850055515436,0.00089849940142453,2.6132218413959e-10,-2.662271263558e-11,-2.3073261805337e-09,2.5338473570555e-09,-0.0016756485896969,0.0016756488231047,-0.0018507552597577,0.0018507539117004,-0.0018507535792905,0.0018507556253735,-0.0018507552423965,0.0018507539006773,-0.001850753781761,0.0018507553883736,-0.0014804895993485,0.0014804852787943,-0.0014804852540813,0.0014804898367429,-0.0014804862387739,0.001480488605563,-0.0014804866890411,0.0014804880294399,5.7439168493419e-11,1.8004397911045e-10,-0.00089964088407208,0.00089964111834726,4.2067508078269e-10,-1.9801847024703e-10,-0.0010697236367912,0.0010697240165441,-0.0010697238226538,0.0010697238648717,-0.001069723564646,0.0010697241045185,-0.0010697237706725,0.0010697238183001,-0.0008984999248805,0.00089849997542078,-0.00089849998542455,0.00089849997173387,0.62390560099723,128566,2924,0.0037443401388435,0.0069546379063498,0.0037443401443936,19.883534635529,-7.8531722915769e-05,-7.8531722915769e-05,-7.8531722915769e-05,4211145.0959799,0.014549322321977
17819200,0.98114144277666,0.015077619047099,0.0042203969852711,0.0066368250734585,0.0042203969883698,-0.00089879112506721,0.00089879092962537,-9.4398079901986e-11,-1.06763655856e-10,1.2161481635672e-09,-1.4917948818963e-09,-0.0010688759543583,0.0010688765939228,-0.0010688758644195,0.0010688766094166,-0.0010688766742196,0.0010688756895584,-0.001068876845215,0.0010688757310353,-0.00089764226232761,0.0008976413203998,-0.00089764253653227,0.00089764125947066,2.0747967728534e-10,2.7645110578495e-11,-2.2700062490438e-09,2.5040192436368e-09,-0.0016749901040326,0.0016749903425848,-0.001850143398874,0.0018501420142398,-0.0018501417053998,0.001850143730921,-0.0018501433276493,0.0018501420663489,-0.0018501419016908,0.0018501435063389,-0.001479801743168,0.0014797976247442,-0.0014797973369702,0.0014798018068505,-0.0014797985169012,0.0014798008374266,-0.0014797990181135,0.0014798004057887,4.9772664368975e-11,1.4448075044571e-10,-0.0008987909224096,0.00089879113207385,7.2405974506004e-10,-4.30819480915e-10,-0.0010688759889625,0.001068876483912,-0.0010688763296153,0.0010688761817562,-0.0010688759002141,0.0010688765850254,-0.0010688763060603,0.0010688760995027,-0.00089764194062596,0.00089764163246565,-0.00089764193831852,0.00089764174466676,0.60341924925935,128566,2924,0.0037408119028576,0.0069519128876947,0.0037408119026192,19.210440122875,-8.3916479017001e-05,-8.3916479017001e-05,-8.3916479017001e-05,4202449.8465604,0.014539397081154
18019200,0.98160589271077,0.015083528485899,0.0042219991408595,0.0066395302011002,0.0042219991439397,-0.00089908172429365,0.00089908151140449,-9.7257307734685e-11,-1.228165039297e-10,1.2755093842109e-09,-1.5772160045161e-09,-0.0010691862703668,0.0010691869422305,-0.001069186178555,0.0010691869665242,-0.0010691870363732,0.0010691860054522,-0.0010691872226415,0.0010691860357935,-0.00089792986934815,0.00089792889287138,-0.00089793017599997,0.00089792878939805,1.2020358756879e-10,1.2112902676785e-10,-2.5668635881382e-09,2.8062999375809e-09,-0.0016755478488438,0.0016755481012407,-0.0018507848639815,0.0018507832425277,-0.001850782969508,0.0018507851718635,-0.0018507847257116,0.0018507833623757,-0.0018507831196051,0.0018507850033416,-0.0014802965523125,0.0014802919710123,-0.0014802916792958,0.0014802966854246,-0.0014802930984321,0.0014802954395493,-0.0014802934244743,0.0014802951342234,2.066468391765e-11,1.0537712048421e-10,-0.00089908154887911,0.00089908168659415,1.1187846297211e-09,-9.0259243574143e-10,-0.0010691862153533,0.0010691869237873,-0.0010691868384971,0.0010691863509816,-0.001069186122863,0.0010691870306237,-0.0010691868299851,0.0010691862575982,-0.00089792972539823,0.00089792901685067,-0.00089792969949987,0.0008979291773269,0.60266015264034,128566,2924,0.003742019094696,0.0069542194014547,0.0037420190944208,19.169429171975,-8.4244566624199e-05,-8.4244566624199e-05,-8.4244566624199e-05,4207770.67589,0.014544185490703
18219200,0.98201905323958,0.01508889144499,0.0042234585392179,0.0066419743634888,0.0042234585422831,-0.0008967924216836,0.00089679222713056,-8.1689881795994e-11,-1.2175080091807e-10,1.2975048259638e-09,-1.5361124337313e-09,-0.0010668041446628,0.0010668048168449,-0.0010668040500587,0.0010668048230167,-0.0010668048992786,0.0010668038813485,-0.0010668050759396,0.0010668038939376,-0.00089554840186073,0.00089554742861286,-0.00089554865673264,0.00089554729153953,1.0774653153507e-10,1.3135418792561e-10,-2.4731943673745e-09,2.7035689390012e-09,-0.001673166490256,0.0016731667287295,-0.0018484746265436,0.0018484730341773,-0.001848472795456,0.0018484749007708,-0.001848474477403,0.0018484731611,-0.0018484729292566,0.0018484747356632,-0.001477914113094,0.0014779096553439,-0.0014779094957475,0.0014779144167752,-0.0014779107317778,0.0014779129980266,-0.0014779110012234,0.0014779126448526,1.3059197550479e-11,8.1311691337505e-11,-0.00089679227929327,0.00089679237134332,1.1041679958962e-09,-1.0242715490961e-09,-0.0010668040844319,0.0010668048077179,-0.0010668047365069,0.0010668041897234,-0.0010668039962186,0.0010668049096392,-0.0010668047345896,0.0010668040925472,-0.00089554829539371,0.00089554757218617,-0.00089554822260195,0.00089554770317127,0.61339064149302,128566,2924,0.0037325105835822,0.0069443727192672,0.0037325105873413,17.68394028802,-9.6128477695838e-05,-9.6128477695838e-05,-9.6128477695838e-05,4189020.1261001,0.01451489894998
18419200,0.98239229197916,0.015093775220258,0.0042247916693788,0.0066441918784282,0.0042247916724507,-0.0008948757507038,0.00089487554298392,-1.07967175085e-10,-1.0724058327763e-10,1.322842807915e-09,-1.593335720158e-09,-0.0010648177211822,0.0010648184193112,-0.0010648176368024,0.0010648184251304,-0.0010648185229571,0.0010648174376777,-0.0010648186729618,0.0010648174883736,-0.00089356845955753,0.00089356737061562,-0.0008935686522728,0.00089356733655359,1.2346190820581e-10,1.2329406815673e-10,-2.7480974808613e-09,2.9895177052862e-09,-0.001671179727825,0.0016711799750538,-0.0018465309400461,0.0018465292041296,-0.0018465289557648,0.0018465312291492,-0.0018465308207943,0.0018465293058215,-0.0018465290814637,0.0018465310763639,-0.0014759320517633,0.001475927008387,-0.0014759267658648,0.0014759322897396,-0.001475928314301,0.0014759307428844,-0.0014759285641455,0.0014759304788604,4.9263801274687e-12,1.1822331642501e-10,-0.00089487558286444,0.00089487571159195,1.0177404968441e-09,-8.5852378087991e-10,-0.0010648176949808,0.0010648183736279,-0.0010648182924336,0.0010648178145996,-0.0010648176126062,0.0010648184705957,-0.0010648182553605,0.0010648177502768,-0.00089356819541302,0.00089356764675998,-0.00089356823263624,0.00089356769758773,0.61738717478729,128566,2924,0.0037245502605151,0.0069361569900551,0.0037245502621755,16.425304944873,-0.00010619756044102,-0.00010619756044102,-0.00010619756044102,4171594.4026224,0.014490410015702
18619200,0.98274741815817,0.015098378020988,0.004226047980728,0.0066462820564613,0.0042260479837992,-0.00089436353734519,0.00089436332238078,-9.8992186000051e-11,-1.217525227693e-10,1.3533123993638e-09,-1.6342002789797e-09,-0.0010643094408414,0.001064310149058,-0.0010643093475859,0.0010643101551958,-0.001064310248384,0.0010643091523263,-0.0010643104186864,0.0010643091818423,-0.00089304540744003,0.00089304435686881,-0.00089304566594422,0.00089304426711939,6.1792016413961e-11,1.8688575106271e-10,-2.9104417145917e-09,3.1533668173965e-09,-0.0016707653662153,0.0016707656119518,-0.0018461550684955,0.0018461531641899,-0.0018461529622531,0.001846155311981,-0.0018461548954077,0.0018461533203692,-0.0018461530577485,0.0018461551865782,-0.0014754952960136,0.0014754899998376,-0.0014754896815926,0.0014754955642377,-0.0014754914055426,0.001475493868251,-0.0014754915961437,0.0014754937108973,-2.3537767248029e-11,6.7926845549694e-11,-0.00089436340464328,0.00089436345577379,1.3753672716798e-09,-1.2981979329553e-09,-0.0010643093288664,0.00106431018547,-0.0010643101722979,0.0010643093751808,-0.0010643092386905,0.0010643102869823,-0.0010643101526803,0.0010643092898352,-0.00089304535870574,0.00089304441512915,-0.00089304533611237,0.0008930445200221,0.61178947646594,128566,2924,0.0037224236499706,0.0069344429504899,0.0037224236515028,15.966947843221,-0.00010986441725423,-0.00010986441725423,-0.00010986441725423,4166550.2040413,0.01448435559334
18819200,0.98309160579479,0.015103147327635,0.0042273649645114,0.0066484173955426,0.0042273649675806,-0.00089436753459767,0.00089436728971782,-1.5134899425609e-10,-1.031018487893e-10,1.4218107651773e-09,-1.7411691155964e-09,-0.0010643275201749,0.0010643282989523,-0.0010643274481577,0.0010643282549744,-0.0010643284259778,0.0010643271655867,-0.0010643285409009,0.0010643273026227,-0.00089305165635801,0.00089305032023412,-0.00089305175542929,0.00089305047455315,6.0507330366121e-11,1.8458846118451e-10,-3.5802073103595e-09,3.8205984933386e-09,-0.0016709073974123,0.0016709076451887,-0.0018463443447964,0.001846342073616,-0.0018463418662508,0.0018463446128474,-0.0018463442228515,0.0018463421568159,-0.0018463418971749,0.0018463445434944,-0.0014756042935799,0.0014755975412423,-0.0014755972468155,0.0014756046055474,-0.0014755995491871,0.0014756022898455,-0.0014755995641084,0.0014756022946717,-4.2560575926782e-11,1.2074203723166e-10,-0.00089436737274633,0.00089436745416537,1.2993487411702e-09,-1.1864301628683e-09,-0.0010643274396954,0.0010643282942782,-0.0010643282786939,0.001064327494573,-0.0010643273813722,0.001064328354951,-0.0010643281670234,0.00106432748294,-0.00089305133483642,0.00089305066658093,-0.00089305154276368,0.00089305058641452,0.6492326554853,128566,2924,0.0037224406382797,0.0069350303326019,0.0037224406438294,15.790975137101,-0.00011127219890319,-0.00011127219890319,-0.00011127219890319,4167006.6174896,0.014484985488686
19019200,0.98343728274329,0.015108248705506,0.0042287868880462,0.0066506749263502,0.0042287868911096,-0.00089534288652469,0.00089534265051691,-1.3571491915128e-10,-1.0677635169184e-10,1.4482654206804e-09,-1.7548432610371e-09,-0.0010654613531965,0.0010654621529352,-0.0010654613000873,0.0010654621232931,-0.0010654622902539,0.0010654610327792,-0.0010654623903588,0.0010654611371441,-0.00089411667376625,0.00089411531328212,-0.00089411671650252,0.00089411543437528,4.7716025837576e-12,2.5001622258778e-10,-3.6843184757761e-09,3.9328405418916e-09,-0.0016722697184212,0.0016722699740344,-0.0018477068798599,0.001847704502858,-0.0018477043352101,0.0018477071113804,-0.0018477067228149,0.0018477046448058,-0.0018477043391365,0.0018477070841161,-0.0014769243602218,0.0014769174271491,-0.0014769171162831,0.0014769246971216,-0.001476919564292,0.0014769222439192,-0.0014769194539654,0.0014769223604434,-8.3070899546188e-11,6.6395738858879e-11,-0.00089534277509193,0.00089534276233645,1.7148658183793e-09,-1.7116839992389e-09,-0.0010654611724076,0.0010654622589776,-0.0010654623269387,0.0010654611440693,-0.0010654611196349,0.0010654623248267,-0.0010654622345515,0.0010654611339593,-0.00089411651658323,0.00089411547564409,-0.00089411671718423,0.00089411536663812,0.68719398752462,128566,2924,0.0037264958122053,0.0069406595167478,0.003726495813095,16.172337643353,-0.00010822129885318,-0.00010822129885318,-0.00010822129885318,4170169.7934322,0.014498927098747
19219200,0.98380522671202,0.015113848806646,0.0042303534808033,0.0066531418419754,0.0042303534838676,-0.00089795500008636,0.00089795475179413,-1.2707164440143e-10,-1.2686333840566e-10,1.4928788405339e-09,-1.8185239382243e-09,-0.0010684072224339,0.0010684080114594,-0.0010684071283478,0.0010684080124212,-0.0010684081426111,0.0010684068917576,-0.0010684083019211,0.0010684069461358,-0.00089692701386918,0.00089692578447113,-0.0008969272460619,0.00089692574821454,-3.884301966653e-11,3.0112167123376e-10,-4.1562264248416e-09,4.4131833750419e-09,-0.0016756245189129,0.0016756247777674,-0.0018510264763796,0.0018510237030919,-0.0018510235759076,0.001851026674963,-0.0018510262427991,0.0018510239210829,-0.0018510235940527,0.0018510266311052,-0.0014802080796385,0.0014802003962196,-0.0014802000008827,0.0014802084428714,-0.0014802027222539,0.0014802057870132,-0.0014802026702639,0.0014802058984349,-8.8740541120103e-11,3.4870778270373e-11,-0.00089795490032879,0.00089795485219049,1.9384441807726e-09,-1.9595871369204e-09,-0.0010684069947341,0.0010684081576384,-0.0010684082548217,0.0010684069323227,-0.0010684069041809,0.0010684082585734,-0.0010684082126193,0.001068406866402,-0.00089692710293174,0.00089692570010592,-0.00089692714189784,0.00089692576176085,0.70678360508465,128566,2924,0.0037373528289556,0.0069545232885502,0.0037373528304171,17.486328341674,-9.7709373266611e-05,-9.7709373266611e-05,-9.7709373266611e-05,4183058.1808557,0.014535028299861
19419200,0.98418204267193,0.015119453589829,0.0042319137237646,0.0066556261392349,0.00423191372683,-0.00089951028049822,0.00089951004666314,-1.1192658459835e-10,-1.3032904005642e-10,1.4606841187903e-09,-1.7545338322252e-09,-0.0010703127295228,0.001070313516824,-0.0010703126526753,0.0010703134996352,-0.0010703136377134,0.0010703124248449,-0.0010703137841003,0.0010703124777156,-0.00089867070329109,0.00089866948554289,-0.00089867087734671,0.00089866943352186,-4.8639392217602e-11,3.0960216516049e-10,-3.7117686508979e-09,3.9640857811357e-09,-0.0016778939070758,0.0016778941692335,-0.0018532436323328,0.0018532411768995,-0.0018532410379651,0.001853243838322,-0.0018532434043698,0.0018532413872587,-0.0018532410380479,0.0018532438154647,-0.0014824277383874,0.0014824208975646,-0.0014824206081847,0.0014824281766552,-0.0014824229879572,0.0014824256768184,-0.0014824228431756,0.0014824257677853,-1.2177341839095e-10,-1.465754674085e-11,-0.00089951023323438,0.0008995100948483,2.2969864014069e-09,-2.4607517155955e-09,-0.0010703123907825,0.0010703137789719,-0.0010703139487515,0.0010703122629479,-0.0010703123190471,0.0010703138651182,-0.0010703139049488,0.0010703122053169,-0.00089867097252824,0.00089866922214505,-0.00089867101870293,0.00089866926390507,0.69265169555384,128566,2924,0.0037438224431493,0.0069638957714821,0.0037438224450751,18.222717541428,-9.1818259668572e-05,-9.1818259668572e-05,-9.1818259668572e-05,4184424.4405094,0.014557671500412
19619200,0.98455558349348,0.015124864981569,0.004233413296072,0.0066580383863608,0.0042334132991364,-0.00090015767343281,0.00090015745072868,-1.0547974849329e-10,-1.2539456690246e-10,1.4208357917727e-09,-1.7010497584211e-09,-0.0010712266505225,0.0010712273820791,-0.0010712265449825,0.0010712274046015,-0.0010712274960958,0.0010712263589198,-0.0010712276760036,0.0010712263756912,-0.00089946221646575,0.00089946113368294,-0.00089946249233566,0.00089946099350434,3.0917864245176e-11,2.2524215500678e-10,-3.7670962136789e-09,4.0153964071019e-09,-0.0016791063276646,0.0016791065839559,-0.0018544237567395,0.0018544212629843,-0.0018544210809584,0.0018544240105651,-0.001854423550767,0.0018544214540188,-0.0018544211696239,0.0018544238976731,-0.0014836026291574,0.001483595703543,-0.0014835954697653,0.0014836030058096,-0.0014835976872121,0.0014836006758989,-0.0014835978033178,0.0014836005037285,-6.201903124352e-11,4.6740836877551e-11,-0.00090015757094133,0.0009001575541147,1.7513541882435e-09,-1.7786834815784e-09,-0.001071226446371,0.0010712275141947,-0.0010712275665341,0.0010712264347836,-0.0010712263399994,0.0010712276366402,-0.0010712275579694,0.001071226344666,-0.0008994623374359,0.00089946103182531,-0.00089946228755713,0.00089946116213525,0.67639367947406,128566,2924,0.0037465201587261,0.0069688986722027,0.0037465201605914,18.456270351249,-8.9949837190011e-05,-8.9949837190011e-05,-8.9949837190011e-05,4180258.0812401,0.014568225896214
19819200,0.98492272143986,0.015130022892307,0.0042348358437353,0.0066603512017701,0.0042348358468016,-0.00090056830337647,0.00090056809251718,-1.0001562859304e-10,-1.1810976421352e-10,1.3657016957525e-09,-1.6333538446024e-09,-0.0010718382277774,0.0010718389182404,-0.001071838110759,0.0010718389503266,-0.0010718390182941,0.0010718379419978,-0.0010718392096584,0.001071837950198,-0.00089997995037898,0.00089997895123782,-0.00089998026120733,0.00089997879148696,1.0087794960083e-10,1.4906188673227e-10,-3.5225785877598e-09,3.7659218931418e-09,-0.0016799891837584,0.0016799894308262,-0.0018552978284545,0.0018552955284996,-0.0018552953106262,0.0018552981088644,-0.0018552976614455,0.0018552956786521,-0.0018552954530463,0.0018552979380684,-0.0014844458268133,0.0014844393727533,-0.0014844391521908,0.0014844461320763,-0.0014844411025583,0.001484444114309,-0.0014844414088805,0.0014844437835619,-2.3076148907138e-11,9.0135826848023e-11,-0.00090056816406987,0.00090056823269053,1.3462780939519e-09,-1.2712241440081e-09,-0.0010718381191901,0.0010718389533206,-0.0010718389249315,0.0010718381830384,-0.0010718380005944,0.0010718390870743,-0.001071838923803,0.0010718380830357,-0.00089997993370712,0.00089997898905146,-0.00089997985928274,0.00089997914094027,0.65787307166624,128566,2924,0.0037482327092276,0.0069725409212216,0.003748232711057,18.558211874488,-8.9134305004098e-05,-8.9134305004098e-05,-8.9134305004098e-05,4176952.0648292,0.014575399237891
20019200,0.98527774625755,0.015135203139463,0.0042362733364293,0.0066626564635377,0.0042362733394962,-0.00090054053358828,0.00090054033701947,-8.5995223149448e-11,-1.1866592045058e-10,1.2914198395655e-09,-1.5438167822511e-09,-0.001071926224488,0.0010719269171751,-0.0010719261492909,0.0010719269092703,-0.0010719270009198,0.0010719259623224,-0.0010719271587522,0.001071925999697,-0.00090001584376115,0.0009000148161844,-0.00090001604828513,0.00090001473968833,1.3877711598378e-10,1.0636092027631e-10,-2.7877210840345e-09,3.0266588590612e-09,-0.0016802956154269,0.0016802958608391,-0.0018556179871411,0.0018556162409826,-0.0018556159841082,0.0018556182879057,-0.0018556178828293,0.0018556163267007,-0.0018556161157922,0.0018556181282142,-0.0014847178523859,0.001484712724076,-0.0014847125264673,0.0014847181053461,-0.0014847140457945,0.001484716530267,-0.0014847143212685,0.0014847162130724,-1.7314258344381e-11,8.4281177553724e-11,-0.00090054040096648,0.00090054047045707,1.3311112064958e-09,-1.2534679412301e-09,-0.001071926104447,0.0010719269643994,-0.0010719269331369,0.0010719261748128,-0.0010719260265277,0.0010719270584293,-0.0010719269005138,0.0010719261076548,-0.00090001575591433,0.00090001491459024,-0.00090001577962006,0.00090001497016564,0.68048788403517,128566,2924,0.0037481222648035,0.0069738023756978,0.0037481222665226,18.401168597247,-9.0390651222021e-05,-9.0390651222021e-05,-9.0390651222021e-05,4172610.8694782,0.014576456053459
20219200,0.98562345065762,0.015140400560858,0.004237722087371,0.0066649563830499,0.0042377220904369,-0.00090069293119983,0.00090069273724013,-8.195575081726e-11,-1.2012218599553e-10,1.2539993645828e-09,-1.5105393333544e-09,-0.0010722435278209,0.0010722442123814,-0.0010722434646346,0.001072244196302,-0.0010722442900596,0.0010722432730184,-0.0010722444420322,0.0010722433178999,-0.00090026013203379,0.00090025911867117,-0.00090026032915266,0.00090025906365262,1.6482879888745e-10,7.7164079866798e-11,-2.4516746614338e-09,2.689006838981e-09,-0.0016808496922573,0.0016808499358469,-0.0018561575930247,0.0018561560779622,-0.0018561557980555,0.0018561579064182,-0.0018561575144154,0.0018561561370019,-0.0018561559417835,0.001856157733923,-0.0014852434785552,0.0014852389565849,-0.0014852387339328,0.0014852436703361,-0.0014852400691667,0.0014852423570579,-0.0014852403816047,0.0014852420283499,5.3306603137512e-13,9.9635162177423e-11,-0.0009006927817271,0.00090069288766218,1.1764248530871e-09,-1.041153074048e-09,-0.0010722434449293,0.001072244222483,-0.0010722441607111,0.0010722435462839,-0.001072243375833,0.0010722443064519,-0.0010722441189443,0.0010722434862876,-0.00090025996360141,0.0009002592910868,-0.00090026001272708,0.00090025933011153,0.6990904377663,128566,2924,0.0037487615429304,0.0069760861251243,0.0037487615449752,18.352385939667,-9.0780912482664e-05,-9.0780912482664e-05,-9.0780912482664e-05,4166861.4921865,0.014580072764811
20419200,0.98596670207041,0.015145568763289,0.004239162879953,0.0066672430003176,0.0042391628830188,-0.00090137812025374,0.0009013779213057,-9.3012180361589e-11,-1.1349433484258e-10,1.278959755082e-09,-1.5406827086714e-09,-0.0010731610845492,0.0010731617485094,-0.0010731609899778,0.0010731617668125,-0.001073161835857,0.0010731608164822,-0.0010731620123957,0.0010731608425472,-0.00090107698819224,0.00090107602165816,-0.00090107726351665,0.00090107590859483,1.7161235941904e-10,7.005246488646e-11,-2.7037279933775e-09,2.9408673448742e-09,-0.0016820598034598,0.0016820600451888,-0.0018573344555197,0.0018573327409284,-0.0018573324634217,0.0018573347722979,-0.0018573343537123,0.0018573328225222,-0.0018573326395631,0.0018573345666508,-0.0014864182730884,0.0014864133205232,-0.0014864131036433,0.0014864184677193,-0.0014864145175383,0.0014864170719748,-0.0014864149275207,0.001486416657156,2.5323348212624e-11,1.4467231532928e-10,-0.00090137793255224,0.00090137810969169,8.4192085766042e-10,-6.265164678823e-10,-0.0010731610984293,0.001073161663446,-0.0010731615386565,0.0010731612608635,-0.0010731609952363,0.00107316178086,-0.0010731615171194,0.0010731611795626,-0.00090107671748796,0.00090107630257856,-0.00090107670129369,0.00090107640658118,0.69998784057243,128566,2924,0.0037516153029111,0.0069810805212884,0.0037516153044079,18.616127160455,-8.8670982716361e-05,-8.8670982716361e-05,-8.8670982716361e-05,4163904.3271172,0.014590934767131
20619200,0.98629706922939,0.015149999767972,0.0042403754435659,0.0066692488777766,0.0042403754466295,-0.00090114287790426,0.0009011426814743,-9.2722157782242e-11,-1.1221381051066e-10,1.2857428897627e-09,-1.5360815194993e-09,-0.0010731293043155,0.0010731299695132,-0.0010731292095096,0.0010731299870425,-0.0010731300579939,0.0010731290369858,-0.0010731302317826,0.0010731290621908,-0.00090093326547483,0.00090093228729036,-0.0009009335225025,0.00090093217127173,1.7212247607062e-10,7.0511725915175e-11,-2.6346717172934e-09,2.8712897651274e-09,-0.0016822436264651,0.0016822438685257,-0.001857487293123,0.0018574856375069,-0.0018574853605444,0.0018574876099932,-0.0018574871928047,0.0018574857176863,-0.0018574855336936,0.0018574874068585,-0.0014865819748225,0.0014865771680396,-0.0014865769927854,0.0014865822078829,-0.0014865783125238,0.001486580821936,-0.0014865787070985,0.0014865803823342,3.17619980696e-11,1.541047006433e-10,-0.00090114268517298,0.00090114287521812,7.3173799508301e-10,-5.2003551207906e-10,-0.0010731293472202,0.001073129857372,-0.0010731297166499,0.0010731295257569,-0.0010731292442552,0.0010731299761414,-0.0010731296952056,0.0010731294465561,-0.00090093294456891,0.00090093262896891,-0.00090093292918563,0.00090093272286262,0.63099509052517,128566,2924,0.0037506461409322,0.0069818309799495,0.0037506461430488,18.385228203096,-9.0518174375228e-05,-9.0518174375228e-05,-9.0518174375228e-05,4153285.6268713,0.014589732679809
20819200,0.9866063195295,0.015154485867111,0.0042416200531446,0.006671245757759,0.0042416200562078,-0.00090017404814106,0.00090017385846431,-8.7115932147851e-11,-1.127638440828e-10,1.2823689919395e-09,-1.5118383669639e-09,-0.0010721285548601,0.0010721292249811,-0.0010721284677442,0.0010721292280772,-0.0010721293076304,0.0010721282911801,-0.0010721294742479,0.0010721283228429,-0.00089994522999436,0.00089994424545218,-0.00089994545966286,0.00089994413487784,1.7852560616528e-10,6.2343118107595e-11,-2.4209269816366e-09,2.6541724147958e-09,-0.0016813433168344,0.0016813435577748,-0.0018566397393979,0.0018566382421455,-0.0018566379578858,0.0018566400625102,-0.0018566396509474,0.0018566383055375,-0.0018566381246633,0.0018566398624236,-0.0014856614887727,0.0014856570763078,-0.0014856569680332,0.0014856617731942,-0.0014856581093446,0.0014856604601712,-0.0014856584645758,0.0014856599896026,3.2654978898104e-11,1.5040209121549e-10,-0.00090017386206857,0.00090017404557263,6.9153498469855e-10,-5.1377175833593e-10,-0.0010721286034686,0.0010721291084669,-0.0010721289650392,0.0010721287855466,-0.001072128511404,0.0010721292171653,-0.0010721289369238,0.0010721287129746,-0.00089994489185371,0.00089994460548436,-0.00089994488805728,0.00089994468428818,0.67643100649465,128566,2924,0.0037466235485142,0.0069781068148645,0.0037466235506221,17.704129750775,-9.5966961993798e-05,-9.5966961993798e-05,-9.5966961993798e-05,4146037.6538115,0.014577789221677
21019200,0.98689104434156,0.015158477631918,0.0042427219668434,0.006673033695166,0.0042427219699083,-0.00089867578004903,0.00089867559525083,-7.6497751033349e-11,-1.180086277602e-10,1.264180145293e-09,-1.4899785178555e-09,-0.0010706714797806,0.0010706721350382,-0.0010706713902144,0.0010706721492627,-0.0010706722137064,0.00107067123184,-0.0010706723906616,0.0010706712415813,-0.00089844883682872,0.00089844790446427,-0.0008984490956442,0.00089844775029054,1.8006361241554e-10,6.3385808195305e-11,-2.2214898906558e-09,2.4576405928845e-09,-0.0016799380245205,0.0016799382681966,-0.0018552253622982,0.0018552239841945,-0.0018552236962311,0.0018552256839432,-0.0018552252648101,0.0018552240624447,-0.0018552238765122,0.0018552254724818,-0.0014842677502707,0.0014842637562336,-0.0014842636286754,0.0014842680126353,-0.0014842646305817,0.001484266882277,-0.0014842650144365,0.00148426638269,3.5332518818009e-11,1.4040064375331e-10,-0.00089867559899598,0.0008986757767697,7.0452160726027e-10,-5.2577050216306e-10,-0.001070671524685,0.0010706720244693,-0.0010706718848927,0.0010706717035881,-0.0010706714259249,0.0010706721417774,-0.0010706718743446,0.0010706716176739,-0.0008984485434594,0.00089844821030576,-0.00089844850547614,0.00089844832239235,0.65602048087768,128566,2924,0.003740404674002,0.0069722911909539,0.0037404046749284,16.747999799923,-0.00010361600160061,-0.00010361600160061,-0.00010361600160061,4127468.9523815,0.014559269798821
21219200,0.98713945600204,0.015161984405933,0.0042436921016634,0.0066746001995399,0.0042436921047299,-0.00089566019243287,0.00089565998695098,-1.0225778972339e-10,-1.2000732935008e-10,1.2351486537844e-09,-1.4907667842745e-09,-0.0010675602962061,0.0010675609471657,-0.0010675601936378,0.001067560919385,-0.001067561011124,0.001067559993546,-0.0010675612000504,0.0010675600742423,-0.00089535117961361,0.00089535021777518,-0.0008953514843916,0.00089535015424204,2.2218054800736e-10,4.6065457437778e-13,-2.2596500351249e-09,2.4769284580653e-09,-0.001676712435218,0.0016767126685765,-0.0018520064871754,0.0018520051361697,-0.001852004802319,0.0018520068580756,-0.0018520064345127,0.0018520051297988,-0.0018520049832947,0.0018520066267326,-0.0014810892505991,0.0014810851456009,-0.0014810850713059,0.0014810895079531,-0.0014810860355562,0.0014810883671119,-0.0014810864676107,0.0014810877946795,7.1516781685675e-11,1.9927004587944e-10,-0.00089565995749169,0.00089566022586752,3.6525954165996e-10,-8.1271109570816e-11,-0.0010675604209566,0.0010675607388902,-0.0010675605245946,0.0010675606805307,-0.0010675603308441,0.0010675608317218,-0.0010675604665746,0.0010675606097174,-0.00089535070887444,0.00089535073049114,-0.00089535073555406,0.0008953508478158,0.65967491839149,128566,2924,0.0037278810574355,0.0069589514686497,0.0037278810657553,14.934512327799,-0.00011812390137761,-0.00011812390137761,-0.00011812390137761,4098375.4792539,0.014520321490068
21419200,0.98736605613957,0.015165208342373,0.0042445867040994,0.0066760349311119,0.0042445867071621,-0.00089383771517389,0.00089383751946839,-8.3901237202002e-11,-1.2135920913592e-10,1.2537506878947e-09,-1.5069541883193e-09,-0.0010656831019096,0.0010656837619824,-0.0010656830160472,0.0010656837646414,-0.0010656838384359,0.001065682839646,-0.001065684017572,0.0010656828702281,-0.00089348915360358,0.00089348820566821,-0.00089348942796366,0.00089348809142666,1.8343242479475e-10,5.4402633095726e-11,-2.2493861912665e-09,2.4822907569566e-09,-0.0016747918018128,0.001674792042083,-0.0018500842108887,0.0018500828214326,-0.0018500825271984,0.0018500845358885,-0.0018500841253018,0.0018500828810868,-0.0018500827010689,0.001850084328568,-0.0014791973996742,0.0014791933321555,-0.0014791931437592,0.001479197599083,-0.0014791942307052,0.0014791964938905,-0.0014791946377303,0.0014791960413504,3.8384248834237e-11,1.5232141476806e-10,-0.00089383751943974,0.00089383771617113,6.7295313162612e-10,-4.4350115302344e-10,-0.0010656831590515,0.0010656836329912,-0.0010656834867047,0.0010656833455839,-0.0010656830640658,0.0010656837415618,-0.0010656834591525,0.0010656832674894,-0.00089348882056251,0.00089348854884919,-0.0008934888178219,0.00089348864675618,0.66373849180914,128566,2924,0.0037203127656939,0.0069510080094245,0.0037203127677687,13.799434258481,-0.00012720452593215,-0.00012720452593215,-0.00012720452593215,4079998.1311446,0.014496904564661
21619200,0.98758118879296,0.015168299110841,0.0042454465542848,0.006677405999209,0.0042454465573467,-0.00089308219723271,0.00089308200204137,-6.3653736043381e-11,-1.3661219460754e-10,1.2991709510611e-09,-1.5559775308957e-09,-0.0010649329835247,0.0010649336610837,-0.0010649329017243,0.0010649336899732,-0.0010649337463545,0.001064932752164,-0.0010649339369203,0.0010649327251209,-0.00089273322629972,0.00089273231695925,-0.00089273353052192,0.00089273209672454,1.0028986838983e-10,1.5364515359897e-10,-2.3475505138844e-09,2.5957587286468e-09,-0.0016740713322453,0.0016740715835054,-0.0018493612356834,0.0018493597054296,-0.00184935947027,0.0018493615001752,-0.0018493610751388,0.0018493598636243,-0.0018493596147695,0.0018493613362974,-0.0014784850811157,0.0014784809151038,-0.0014784806274487,0.001478485299176,-0.0014784818869427,0.0014784840963462,-0.0014784821936028,0.0014784837919269,-1.2491061855164e-11,7.0874760138147e-11,-0.00089308206551729,0.00089308213304581,1.2555689896116e-09,-1.1594634130131e-09,-0.0010649329022365,0.0010649336782679,-0.0010649336483334,0.0010649329703535,-0.0010649327973695,0.0010649338044177,-0.0010649336630925,0.0010649328674766,-0.00089273320892907,0.00089273232111388,-0.00089273312353879,0.00089273246670521,0.66921248650142,128566,2924,0.0037171763350846,0.0069480269604999,0.0037171763336536,13.268899614942,-0.00013144880308047,-0.00013144880308047,-0.00013144880308047,4071268.7094658,0.014487515939129
21819200,0.98779718854152,0.015171355290257,0.0042462952567555,0.006678764773683,0.0042462952598185,-0.00089383478728245,0.00089383457891481,-3.6024612296352e-11,-1.7724221630199e-10,1.3476650475134e-09,-1.6272374691005e-09,-0.0010657793978137,0.0010657800855231,-0.0010657792974772,0.0010657801377294,-0.0010657801649823,0.0010657791885029,-0.0010657804154595,0.0010657790904321,-0.00089354267266154,0.00089354189891504,-0.0008935431504731,0.00089354147468034,-2.3540575380993e-11,2.8920606477677e-10,-2.4082477625663e-09,2.6676411863929e-09,-0.0016750712193357,0.0016750714865772,-0.0018503603996974,0.0018503587227055,-0.0018503585489117,0.0018503606044478,-0.0018503601136971,0.0018503590126789,-0.0018503586555162,0.0018503604875606,-0.0014794582366073,0.001479454173369,-0.0014794537934536,0.001479458520749,-0.0014794551531394,0.0014794572617225,-0.0014794553300339,0.0014794570826872,-7.4160667043631e-11,-5.4896942686543e-11,-0.00089383474270009,0.00089383462220819,2.1758759788648e-09,-2.2792980858601e-09,-0.0010657790853874,0.0010657803331664,-0.0010657804683381,0.0010657789957837,-0.0010657789595703,0.0010657804817308,-0.0010657805497167,0.0010657788308544,-0.00089354323708371,0.00089354129403382,-0.00089354297302582,0.00089354162831701,0.65989248959033,128566,2924,0.0037203045113767,0.0069521589694,0.003720304508775,13.593630075514,-0.00012885095939589,-0.00012885095939589,-0.00012885095939589,4075931.16673,0.014498056267663
22019200,0.9880158603746,0.015174396564857,0.004247137410656,0.0066801217404814,0.0042471374137198,-0.00089483039056187,0.00089483019064994,3.5216129630972e-11,-2.3828560845689e-10,1.377100378582e-09,-1.6355655475952e-09,-0.0010668687914988,0.0010668694329179,-0.0010668686312947,0.0010668695487872,-0.0010668694728816,0.0010668686352183,-0.0010668698498529,0.0010668683647143,-0.00089458950002574,0.00089458914272823,-0.00089459036098566,0.00089458824832052,-1.2601038399868e-10,4.0464025087103e-10,-2.1652786804579e-09,2.4346540553428e-09,-0.0016763338163272,0.0016763340875507,-0.0018516411473936,0.0018516394334571,-0.0018516393399632,0.0018516412641062,-0.0018516406933258,0.0018516399082088,-0.0018516394851022,0.0018516411150045,-0.001480680364483,0.0014806771477447,-0.0014806766935098,0.001480680759507,-0.0014806777186515,0.0014806797871806,-0.0014806779874608,0.0014806795211707,-1.1769483503299e-10,-2.2704005170497e-10,-0.00089483045900067,0.00089483012059266,3.1187679231337e-09,-3.4881845956629e-09,-0.0010668682342928,0.0010668699259439,-0.0010668702206117,0.0010668679737562,-0.001066868048658,0.0010668701418137,-0.0010668704564329,0.0010668676643708,-0.00089459093334867,0.00089458766465608,-0.0008945902232463,0.00089458840980661,0.64982772553829,128566,2924,0.0037244415130072,0.0069573779725463,0.0037244415096157,14.053276658746,-0.00012517378673003,-0.00012517378673003,-0.00012517378673003,4084345.2597526,0.014511746277157
22219200,0.98823808831729,0.015177461096569,0.0042479846531542,0.006681491787192,0.0042479846562223,-0.00089595320142769,0.00089595297063363,-6.6413241367388e-11,-1.702383745404e-10,1.4619280116046e-09,-1.7545265729176e-09,-0.0010680718318623,0.0010680725757151,-0.0010680717216264,0.0010680726128905,-0.0010680726764074,0.0010680715682018,-0.0010680729101928,0.0010680715041152,-0.00089575780827929,0.00089575686164349,-0.0008957582447164,0.000895756537971,-7.4531775811292e-11,3.4409309430981e-10,-3.4864572801821e-09,3.7476178231421e-09,-0.0016777216585366,0.0016777219229397,-0.0018530642881314,0.001853061851788,-0.0018530617365486,0.0018530644629624,-0.0018530639841774,0.0018530621504486,-0.0018530617864017,0.0018530643929128,-0.0014820188694181,0.0014820126630867,-0.0014820122943542,0.0014820192927536,-0.0014820144131291,0.0014820171407036,-0.00148201445732,0.0014820170890925,-1.0935385305015e-10,-4.8852645743754e-11,-0.0008959531639716,0.00089595300829326,2.3543634509597e-09,-2.5258629606305e-09,-0.0010680714868668,0.0010680728504353,-0.001068073023883,0.0010680713497332,-0.0010680713589396,0.0010680729956077,-0.0010680730725457,0.0010680712063991,-0.00089575834576751,0.00089575632779986,-0.00089575815448955,0.00089575658969351,0.64497827174878,128566,2924,0.0037291061829427,0.0069631156241872,0.0037291061834094,14.582802872917,-0.00012093757701666,-0.00012093757701666,-0.00012093757701666,4095122.2840534,0.014527032979129
22419200,0.9884603048036,0.01518066468563,0.0042488760732832,0.0066829125359952,0.0042488760763515,-0.00089665593967762,0.00089665569714541,-1.422073214838e-10,-1.0947187214327e-10,1.4808128912157e-09,-1.7845059220984e-09,-0.0010688272024085,0.001068828017286,-0.0010688271470495,0.0010688279818092,-0.0010688281575371,0.0010688268688691,-0.0010688282596714,0.0010688269804403,-0.00089648932483475,0.00089648792279988,-0.00089648936456736,0.00089648805596764,-2.6241840094504e-12,2.6000043257702e-10,-4.1735831116067e-09,4.4233845726965e-09,-0.0016786307670724,0.0016786310245102,-0.0018540137451621,0.0018540110349013,-0.0018540108779585,0.001854013983081,-0.0018540135919463,0.001854011165868,-0.0018540108658887,0.0018540139661258,-0.0014828831330692,0.0014828752325044,-0.001482874968596,0.0014828835537962,-0.0014828777043184,0.0014828807094419,-0.0014828775610927,0.0014828808068801,-9.8891149507603e-11,9.9753808812041e-11,-0.00089665581908494,0.00089665581917981,1.6750759685496e-09,-1.6804128058888e-09,-0.0010688270353242,0.0010688281101133,-0.0010688281766261,0.0010688270083344,-0.0010688269688788,0.0010688281883769,-0.0010688280646731,0.0010688270133812,-0.00089648910876376,0.0008964881612195,-0.00089648936167321,0.00089648800722532,0.67139743869388,128566,2924,0.0037320259150146,0.0069668740216818,0.0037320259180543,14.87143308547,-0.00011862853531624,-0.00011862853531624,-0.00011862853531624,4102198.9391079,0.014536770642996
22619200,0.98868027743926,0.01518387362862,0.0042497701337642,0.0066843333580253,0.0042497701368311,-0.00089706548345419,0.00089706528338942,9.8329359800407e-11,-3.0727525170175e-10,1.3099489474607e-09,-1.5665341670153e-09,-0.0010693445099072,0.0010693450354335,-0.0010693442510602,0.0010693452030922,-0.0010693450078556,0.0010693443798148,-0.001069345572877,0.0010693439713308,-0.0008969511155465,0.0008969513266285,-0.00089695252737463,0.00089694993624133,-8.5699919102769e-11,3.5437808187521e-10,-1.9008397438859e-09,2.1608930878465e-09,-0.0016792956524103,0.0016792959224513,-0.0018546820958593,0.0018546804900523,-0.0018546803469704,0.0018546822591578,-0.0018546815367232,0.001854681040753,-0.0018546806333094,0.0018546819523365,-0.001483514140691,0.001483511815946,-0.0014835114312116,0.0014835145460783,-0.0014835118167847,0.0014835141412888,-0.0014835125026209,0.0014835133852865,-6.4505933579184e-11,-2.997428532137e-10,-0.00089706556559539,0.00089706520177097,3.3071912265194e-09,-3.715795989019e-09,-0.0010693438741165,0.0010693455934024,-0.0010693458717129,0.0010693436392967,-0.0010693436066664,0.0010693458792508,-0.0010693462572367,0.0010693431596863,-0.00089695318545776,0.000896949215366,-0.00089695198352275,0.00089695049779846,0.67880652297151,128566,2924,0.0037337303224158,0.0069696197167405,0.0037337303235167,15.008287157519,-0.00011753370273985,-0.00011753370273985,-0.00011753370273985,4102283.4763181,0.014543016391968
22819200,0.9888972272328,0.015187028639206,0.0042506486136428,0.0066857314088542,0.0042506486167094,-0.00089736406002064,0.00089736384794967,2.1958472547707e-12,-2.2544557280652e-10,1.3124900137409e-09,-1.5858804899396e-09,-0.0010697625031674,0.0010697631114783,-0.001069762322033,0.0010697631878968,-0.0010697631351301,0.0010697622890215,-0.0010697635250576,0.001069762107941,-0.00089731045221392,0.00089731004711405,-0.00089731134414902,0.00089730933684498,2.9446547192902e-11,2.2282439316186e-10,-2.5738021378761e-09,2.8195993046473e-09,-0.0016798593852142,0.001679859643223,-0.0018552402579256,0.0018552383875165,-0.0018552381730002,0.0018552405137187,-0.0018552399369858,0.0018552386790837,-0.0018552383774818,0.0018552402781765,-0.0014840522025931,0.0014840480163225,-0.001484047745763,0.0014840525461107,-0.0014840488027369,0.0014840514374428,-0.0014840493504251,0.0014840508137688,-2.7511187644014e-11,-8.3380294416078e-11,-0.00089736401041303,0.00089736389917701,2.2176937150381e-09,-2.3407782048924e-09,-0.0010697621531207,0.0010697633811385,-0.0010697634760451,0.0010697621043975,-0.0010697619660445,0.0010697635787136,-0.0010697636510321,0.0010697618201938,-0.00089731140186085,0.00089730910970369,-0.00089731082294391,0.0008973098045766,0.67692183023283,128566,2924,0.0037349744323921,0.0069719461650354,0.0037349744358364,15.090284366855,-0.00011687772506516,-0.00011687772506516,-0.00011687772506516,4100412.1652691,0.014547903099495
23019200,0.9891102967426,0.015189902392875,0.0042514394284974,0.006687023532817,0.004251439431561,-0.0008975327779866,0.00089753257393309,-6.6278486895809e-11,-1.4723085465721e-10,1.30996899785e-09,-1.5720414078317e-09,-0.0010700410646326,0.0010700417407369,-0.001070040965049,0.0010700417590999,-0.001070041815291,0.0010700408133888,-0.0010700420320288,0.0010700407926872,-0.00089752950896954,0.00089752861239967,-0.00089752988527631,0.0008975283949457,1.1407092685854e-10,1.3353159040746e-10,-2.8785661487801e-09,3.1201429338339e-09,-0.0016802724758551,0.0016802727250226,-0.0018556524277982,0.0018556505346034,-0.0018556502879612,0.0018556527242928,-0.0018556522771289,0.0018556506658282,-0.001855650438192,0.0018556525445267,-0.0014844394084809,0.0014844342173838,-0.0014844340047385,0.0014844396882577,-0.0014844354953331,0.0014844381484953,-0.0014844358690609,0.0014844377212207,-1.771972881783e-11,7.6937253713921e-11,-0.00089753264575847,0.00089753270732088,1.4134659972899e-09,-1.3445358389578e-09,-0.0010700409267001,0.0010700418075388,-0.0010700417814934,0.0010700409931083,-0.0010700408099782,0.0010700419389354,-0.0010700417930154,0.0010700408803157,-0.00089752957496298,0.00089752856538201,-0.00089752949001788,0.00089752874040643,0.63260383563564,128566,2924,0.0037356789918879,0.0069736498949653,0.0037356789943382,15.108087207817,-0.00011673530233746,-0.00011673530233746,-0.00011673530233746,4097989.221329,0.014551062945288
23219200,0.98931932578207,0.015192854465855,0.0042522581952202,0.0066883380723514,0.0042522581982835,-0.00089771168599505,0.00089771149887407,3.5126504571162e-11,-2.3179685543786e-10,1.2346450422484e-09,-1.47772676205e-09,-0.0010702088537145,0.0010702093950416,-0.0010702086572733,0.00107020950971,-0.0010702093971174,0.0010702086862312,-0.0010702098241174,0.0010702084380978,-0.00089770302795942,0.00089770285329794,-0.00089770402697599,0.00089770195644072,9.7099107041873e-11,1.538228611113e-10,-1.8303578347069e-09,2.0751006918042e-09,-0.0016805487516459,0.0016805490048597,-0.0018559852325762,0.0018559838695613,-0.0018559836174797,0.001855985507517,-0.0018559849074454,0.0018559841793188,-0.001855983919221,0.0018559851783552,-0.001484673539135,0.0014846709161587,-0.0014846706626848,0.0014846737998803,-0.001484671039704,0.0014846734127556,-0.0014846718239917,0.0014846725622693,2.1041268181642e-11,-6.6552697533568e-11,-0.00089771161377703,0.00089771157179581,1.8823151951805e-09,-1.9272114733736e-09,-0.0010702085776601,0.0010702095982534,-0.0010702096146409,0.0010702086044295,-0.0010702083645628,0.0010702098290004,-0.0010702098455878,0.0010702082754255,-0.00089770399129958,0.00089770188179925,-0.00089770325696045,0.00089770270359916,0.65900391093718,128566,2924,0.0037364219027628,0.0069747929436152,0.0037364219042569,15.109153051346,-0.00011672677558923,-0.00011672677558923,-0.00011672677558923,4102167.3738292,0.014553728846697
23419200,0.98952366921938,0.015195708360737,0.0042530482587597,0.0066896118401552,0.0042530482618224,-0.00089777200676915,0.0008977718171826,-5.1644465683053e-11,-1.4620120141445e-10,1.2590510029407e-09,-1.503273823046e-09,-0.0010703205476821,0.0010703212033865,-0.0010703204610155,0.0010703212205999,-0.0010703212668434,0.0010703203208779,-0.0010703214787058,0.0010703202885918,-0.00089778175005934,0.00089778090418607,-0.00089778210447732,0.00089778067121693,1.4970727731015e-10,9.7213768891973e-11,-2.2758936230121e-09,2.516876803906e-09,-0.0016807683039937,0.0016807685501124,-0.001856226662985,0.0018562251945019,-0.0018562249243012,0.0018562269658074,-0.001856226539226,0.0018562253028265,-0.0018562250956637,0.0018562267662914,-0.0014848643416366,0.0014848602957454,-0.0014848600857721,0.0014848645733796,-0.0014848611634689,0.0014848634671504,-0.001484861593846,0.0014848629928653,7.4956062992992e-12,9.5157795138519e-11,-0.00089777185865993,0.0008977719659974,1.1619310319222e-09,-1.0414291044914e-09,-0.0010703204688722,0.0010703212154978,-0.0010703211425864,0.0010703205803943,-0.0010703203574012,0.0010703213442217,-0.0010703211575173,0.0010703204687375,-0.00089778171565273,0.00089778094810535,-0.0008977816312368,0.00089778110738259,0.65256752888831,128566,2924,0.0037366742698763,0.0069756989442068,0.0037366742713663,15.055141893938,-0.00011715886484849,-0.00011715886484849,-0.00011715886484849,4101025.584336,0.014555160623353
23619200,0.98973664806671,0.01519875517305,0.0042538951167739,0.0066909649364399,0.0042538951198365,-0.00089962312739645,0.00089962293132606,-7.6899119988714e-11,-1.2302488573428e-10,1.2941872864355e-09,-1.5613719570114e-09,-0.0010722872336345,0.0010722879634247,-0.0010722872098338,0.0010722879478664,-0.0010722880613024,0.0010722870032483,-0.0010722881811832,0.0010722870394278,-0.00089970941091809,0.00089970828014119,-0.00089970949948543,0.00089970828989733,9.9032945082095e-11,1.5834656779752e-10,-2.4518405266608e-09,2.7048638762065e-09,-0.0016829912836398,0.0016829915394385,-0.0018584856701088,0.0018584841287542,-0.0018584838917939,0.0018584859393469,-0.0018584855734925,0.0018584842296156,-0.0018584839748213,0.0018584858409505,-0.0014870140230755,0.0014870094645463,-0.0014870091416447,0.0014870142035603,-0.0014870106937898,0.0014870127926821,-0.0014870108389278,0.0014870126780533,-3.5576916318745e-11,1.0631816724323e-10,-0.00089962298734691,0.00089962307001673,1.329104385891e-09,-1.1999845866696e-09,-0.0010722871267426,0.0010722880087421,-0.0010722879863076,0.0010722871896907,-0.0010722870636398,0.0010722880943376,-0.0010722879252069,0.0010722871661756,-0.00089970916440718,0.00089970850579522,-0.00089970933906346,0.00089970839749856,0.66669416163209,128566,2924,0.0037443644576277,0.0069848893695884,0.0037443644548912,16.006714848645,-0.00010954628121084,-0.00010954628121084,-0.00010954628121084,4117216.8886478,0.014580091316248
23819200,0.98996220550695,0.015202163578656,0.0042548491964483,0.0066924651826952,0.0042548491995127,-0.00090196872077343,0.0009019684988939,-3.5030687196846e-11,-1.9276176793907e-10,1.3508295072439e-09,-1.6495402860883e-09,-0.0010748284488852,0.0010748290917186,-0.0010748282917512,0.0010748291715457,-0.0010748291508882,0.0010748282118941,-0.0010748294830398,0.0010748280805309,-0.00090217465714974,0.00090217406664238,-0.00090217538698942,0.0009021735036902,4.8647672317592e-11,2.0573750068411e-10,-2.7312685693847e-09,2.9810503630753e-09,-0.0016858565339084,0.0016858567880294,-0.0018613730750536,0.0018613711573884,-0.0018613709489243,0.0018613733213748,-0.0018613727842972,0.0018613714323454,-0.0018613711502282,0.0018613730960508,-0.0014897929312592,0.0014897883266468,-0.0014897879771423,0.0014897931794917,-0.001489789296464,0.0014897919439342,-0.0014897898048497,0.0014897914820177,4.3238419868012e-12,3.5175716568229e-11,-0.00090196858626034,0.0009019686340449,1.5325901851572e-09,-1.4464789146935e-09,-0.0010748282994761,0.001074829166348,-0.001074829142537,0.0010748283642747,-0.0010748281169316,0.0010748293620801,-0.0010748292597887,0.0010748281429256,-0.00090217509001016,0.00090217363453649,-0.00090217467563365,0.00090217414394932,0.70079571573095,128566,2924,0.0037541103275291,0.0069967329468347,0.0037541103289896,17.239792830364,-9.9681657357088e-05,-9.9681657357088e-05,-9.9681657357088e-05,4135499.641419,0.014611887674486
24019200,0.99018427557295,0.015205557750063,0.0042557993677122,0.0066939590115743,0.0042557993707768,-0.00090227252674801,0.00090227231829459,-1.0020226789317e-10,-1.1861625986761e-10,1.3243111568778e-09,-1.5891283582489e-09,-0.0010753353479537,0.001075336136166,-0.0010753353519239,0.0010753360509788,-0.0010753362394895,0.0010753350790628,-0.001075336306371,0.0010753352004334,-0.00090257807947538,0.00090257673556389,-0.00090257799944006,0.0009025769177368,3.8167004377156e-11,2.1624055252897e-10,-2.3227935133702e-09,2.5694212991783e-09,-0.0016865556754225,0.0016865559350591,-0.0018620445495128,0.0018620431276965,-0.0018620429091457,0.0018620448053193,-0.0018620444694257,0.0018620431902451,-0.0018620428846216,0.0018620448048155,-0.0014904612977698,0.0014904569076397,-0.0014904566631757,0.0014904616367492,-0.0014904582361012,0.0014904599729194,-0.0014904580597118,0.0014904600478803,-9.3740804935329e-11,7.8672880874147e-11,-0.0009022724306225,0.00090227241558405,1.7316067567787e-09,-1.7566495734189e-09,-0.0010753351329784,0.0010753362807003,-0.0010753363561546,0.0010753351048906,-0.0010753351156055,0.0010753363144411,-0.0010753362183234,0.0010753351439421,-0.0009025778571741,0.00090257695919636,-0.0009025782129582,0.00090257669652338,0.70866618014901,128566,2924,0.0037553791473101,0.0069996156885879,0.0037553791497348,17.342961731242,-9.8856306150067e-05,-9.8856306150067e-05,-9.8856306150067e-05,4129767.1455241,0.014617391055406
24219200,0.99040249422866,0.015208744994615,0.0042566856556478,0.0066953736802566,0.0042566856587107,-0.00090250209482447,0.00090250189585935,-1.3451387132224e-10,-7.2725025912281e-11,1.3039301185505e-09,-1.5586015732918e-09,-0.001075765936062,0.0010757667945922,-0.0010757660247131,0.0010757666304745,-0.0010757669192094,0.001075765647948,-0.0010757668427836,0.001075765894573,-0.00090291292485113,0.00090291122144263,-0.000902912447214,0.00090291178748458,4.8180862107735e-11,2.0454590943934e-10,-2.1612540315258e-09,2.406922375703e-09,-0.001687180259855,0.0016871805116659,-0.0018626333247833,0.0018626320787473,-0.0018626318676536,0.0018626335638611,-0.0018626333502097,0.0018626320399909,-0.0018626317560522,0.0018626336502419,-0.0014910605812475,0.001491056137027,-0.0014910558507227,0.0014910608846854,-0.001491057692725,0.0014910590207911,-0.0014910572226368,0.0014910594451397,-1.4181039783381e-10,1.1390815680165e-10,-0.00090250200829838,0.0009025019833814,1.7394868609881e-09,-1.76773814829e-09,-0.0010757657183076,0.0010757669430262,-0.0010757670542419,0.0010757656437647,-0.0010757657810835,0.0010757668969206,-0.0010757667816633,0.0010757658198092,-0.00090291232468617,0.0009029118150241,-0.00090291306763475,0.00090291114705324,0.6801047437317,128566,2924,0.0037563400312077,0.0070021894885725,0.0037563400333131,17.418150780363,-9.8254793757094e-05,-9.8254793757094e-05,-9.8254793757094e-05,4122901.2227941,0.014621956032361
24419200,0.99061688204652,0.015211873690853,0.0042575558283669,0.0066967620310552,0.0042575558314305,-0.00090274912025717,0.00090274891907115,-8.3850721289346e-11,-1.2517015860971e-10,1.3050283166999e-09,-1.5643182853855e-09,-0.0010761315249852,0.0010761322716559,-0.0010761315035253,0.001076132223083,-0.0010761323636958,0.0010761312706161,-0.0010761324733803,0.0010761313394125,-0.00090322484840722,0.00090322369049584,-0.00090322493186277,0.00090322371985657,8.2530287226965e-11,1.6893104203733e-10,-2.3665776415011e-09,2.6116946246396e-09,-0.0016877254947601,0.0016877257464111,-0.0018631819751218,0.0018631804523886,-0.0018631802194251,0.0018631822424247,-0.0018631818695398,0.0018631805426486,-0.0018631802853793,0.0018631821500675,-0.0014915713917044,0.0014915669122046,-0.0014915666498726,0.0014915716688775,-0.0014915681866669,0.0014915701183963,-0.0014915681856674,0.0014915700777908,-5.8803761357514e-11,9.7083136038507e-11,-0.00090274899844777,0.00090274904142382,1.4524697628105e-09,-1.4000410165471e-09,-0.0010761313863276,0.0010761323432424,-0.0010761323573474,0.0010761314118186,-0.0010761313349153,0.0010761324106304,-0.00107613226495,0.0010761314063335,-0.00090322465198521,0.0009032238828153,-0.00090322485381298,0.0009032237643155,0.67934994677931,128566,2924,0.0037573706429812,0.0070044385400392,0.0037573706441534,17.491764693493,-9.7665882452055e-05,-9.7665882452055e-05,-9.7665882452055e-05,4120960.3129609,0.014626330909359
24619200,0.9908265934142,0.015215084733445,0.0042584552023525,0.0066981743256764,0.0042584552054157,-0.00090288825471638,0.00090288805291063,-4.0433992026652e-11,-1.6971383200685e-10,1.3074898819125e-09,-1.5650213355548e-09,-0.0010763691467963,0.0010763698028877,-0.0010763690345103,0.0010763698440311,-0.0010763698645074,0.0010763689181822,-0.0010763701268945,0.0010763688418385,-0.00090341874030446,0.00090341802208607,-0.00090341927175462,0.00090341761585172,1.1009751318478e-10,1.3803009127546e-10,-2.5394930219961e-09,2.7811356677438e-09,-0.0016881279151296,0.0016881281635163,-0.0018635893493393,0.0018635876274624,-0.0018635873808339,0.0018635896355123,-0.0018635891486175,0.0018635878096632,-0.0018635875764406,0.0018635894120286,-0.0014919431233545,0.0014919386590274,-0.001491938439217,0.0014919433982811,-0.0014919396579757,0.0014919421256277,-0.0014919400792929,0.0014919416533402,1.0932717687612e-11,8.1422730329531e-11,-0.00090288810616629,0.00090288820217987,1.2055214060897e-09,-1.100369797219e-09,-0.0010763690725812,0.0010763698108918,-0.0010763697432142,0.0010763691796484,-0.0010763689296097,0.0010763699691957,-0.0010763697982339,0.0010763690253924,-0.00090341887135419,0.00090341789754601,-0.0009034186319896,0.00090341821849151,0.70944813826975,128566,2924,0.0037579525956818,0.0070060978031534,0.0037579525972074,17.497803673417,-9.7617570612662e-05,-9.7617570612662e-05,-9.7617570612662e-05,4118365.5712853,0.014629196596424
24819200,0.99103159865888,0.015217987193206,0.0042592585294949,0.0066994701311533,0.0042592585325577,-0.00090297100351597,0.0009029707988771,5.6031186818792e-11,-2.684849025251e-10,1.3250021077036e-09,-1.5867603151792e-09,-0.0010766213376345,0.0010766218055134,-0.0010766210324938,0.0010766220505982,-0.0010766218066705,0.0010766211737529,-0.0010766223996396,0.0010766207696291,-0.00090358305555578,0.00090358328016555,-0.00090358455188927,0.00090358192010305,1.4562719377743e-10,1.0024438313232e-10,-2.9440692601168e-09,3.1839655999777e-09,-0.0016885537470939,0.0016885539931886,-0.0018639839340759,0.0018639817245747,-0.0018639814645709,0.0018639842460014,-0.0018639835038345,0.0018639821394712,-0.0018639819388587,0.0018639837453311,-0.0014923489715566,0.0014923444851085,-0.0014923442988311,0.0014923492215248,-0.0014923449391244,0.0014923485309933,-0.0014923462176887,0.0014923472084418,1.5231494869169e-10,3.1103907730333e-11,-0.00090297080746181,0.00090297099537125,8.0484319712221e-10,-5.9407011140228e-10,-0.0010766213762823,0.0010766217045663,-0.0010766214835291,0.0010766216367891,-0.001076621034724,0.0010766220633818,-0.0010766218680658,0.0010766211557183,-0.00090358394217198,0.00090358240659632,-0.0009035827458664,0.00090358368193884,0.66112596250412,128566,2924,0.0037583026232527,0.007007850939492,0.0037583026241947,17.493839549939,-9.7649283600491e-05,-9.7649283600491e-05,-9.7649283600491e-05,4111465.333948,0.014631688673401
25019200,0.99124360770458,0.015220952571755,0.0042600782895574,0.0067007959895777,0.0042600782926204,-0.0009046883992786,0.00090468818735577,-7.5000071990459e-11,-1.4344601156563e-10,1.3249806594544e-09,-1.6086068839286e-09,-0.0010784585567667,0.0010784592978116,-0.0010784585148028,0.001078459268976,-0.0010784593843915,0.0010784583017679,-0.001078459538695,0.0010784583386973,-0.00090538179871405,0.00090538070537273,-0.00090538198787494,0.00090538066197552,7.2595801365747e-11,1.8099446897851e-10,-2.6706275164567e-09,2.9197510916084e-09,-0.0016906762025503,0.0016906764571814,-0.0018661447698377,0.0018661430899024,-0.0018661428667159,0.0018661450316511,-0.0018661446603273,0.0018661431864728,-0.001866142919015,0.0018661449559209,-0.0014943960207998,0.001494391170845,-0.0014943908516428,0.0014943962606249,-0.0014943924576316,0.001494394743958,-0.0014943926273672,0.0014943945877844,-4.9257437169474e-11,8.9278377520453e-11,-0.00090468826903098,0.00090468831744601,1.4823618947146e-09,-1.3980767299104e-09,-0.001078458419349,0.0010784593632235,-0.001078459372684,0.0010784584512808,-0.0010784583447137,0.0010784594534948,-0.0010784593138476,0.0010784584104516,-0.00090538168209222,0.00090538080823062,-0.00090538181570422,0.00090538077099921,0.65362909124976,128566,2924,0.0037654381217131,0.0070166240708626,0.0037654381215006,18.392613170107,-9.0459094639144e-05,-9.0459094639144e-05,-9.0459094639144e-05,4126889.3858826,0.014655071745899
25219200,0.99147365848983,0.015224284057995,0.0042610037713772,0.0067022765121785,0.0042610037744394,-0.00090786260258029,0.00090786237608356,-3.127659888902e-11,-2.0033499798737e-10,1.4023531931185e-09,-1.7012834789281e-09,-0.0010818146894593,0.0010818153429516,-0.0010818145188702,0.001081815440764,-0.001081815409337,0.0010818144488847,-0.0010818157567737,0.0010818142908918,-0.00090867896209045,0.00090867838039348,-0.0009086797318662,0.00090867776059038,1.8243832310505e-11,2.4180086126731e-10,-3.2605027787017e-09,3.5153023316915e-09,-0.0016944468412201,0.0016944470976872,-0.0018699733154039,0.0018699710044866,-0.0018699708297966,0.0018699735421847,-0.0018699729908082,0.001869971319507,-0.0018699710249574,0.0018699733221005,-0.0014980476099923,0.00149804204728,-0.0014980416783238,0.001498047909595,-0.0014980433248199,0.001498046344817,-0.0014980438297745,0.0014980458830075,-1.9248099803616e-11,2.0762992542146e-11,-0.00090786248427829,0.00090786249421666,1.6411042417154e-09,-1.6018391277405e-09,-0.0010818145312103,0.001081815428544,-0.0010818154415593,0.0010818145542573,-0.0010818143268216,0.0010818156467535,-0.0010818155749228,0.0010818143195572,-0.00090867946684668,0.00090867786665499,-0.00090867902068882,0.0009086784019736,0.67455042109754,128566,2924,0.0037786240355276,0.0070322122000891,0.003778624035282,20.102216669333,-7.6782266645335e-05,-7.6782266645335e-05,-7.6782266645335e-05,4156450.2626506,0.014697650413479
25419200,0.99171070452989,0.015228014270273,0.0042620507167351,0.0067039128337397,0.0042620507197979,-0.00090963968898127,0.00090963947174728,-7.629297135908e-11,-1.4915870466586e-10,1.3951588555274e-09,-1.6656297826241e-09,-0.0010837852520439,0.0010837860351968,-0.00108378521584,0.0010837859922583,-0.0010837861313127,0.0010837849895853,-0.001083786272421,0.0010837850273485,-0.00091056683784392,0.00091056566325228,-0.00091056697790886,0.00091056561607231,-8.4864136870637e-13,2.6090412291108e-10,-3.0065628181579e-09,3.2579809393304e-09,-0.0016967507516227,0.0016967510108045,-0.0018723041877914,0.001872302223948,-0.001872302051401,0.0018723044124059,-0.0018723040262102,0.0018723023729695,-0.0018723020563038,0.0018723043838315,-0.0015002641594317,0.0015002586275138,-0.0015002583601625,0.0015002645561236,-0.001500260245167,0.0015002625548,-0.001500260180621,0.0015002625500052,-1.0259634200034e-10,3.518889224982e-11,-0.00090963961482244,0.00090963954653414,1.9353172976791e-09,-2.0259173612154e-09,-0.0010837850058445,0.0010837862114048,-0.0010837863223327,0.0010837849355327,-0.0010837849399786,0.00108378629421,-0.0010837862578876,0.0010837849033749,-0.00091056690212698,0.00091056560446047,-0.00091056704241877,0.0009105655399604,0.72789748630094,128566,2924,0.0037860096797546,0.0070417327214326,0.0037860096810375,21.027205546049,-6.9382355631604e-05,-6.9382355631604e-05,-6.9382355631604e-05,4169164.361151,0.014722302686845
25619200,0.9919400337437,0.015231644436717,0.0042630690375175,0.0067055063586232,0.0042630690405763,-0.00090957352281834,0.00090957332096304,-7.4531612794213e-11,-1.3597488794068e-10,1.3404051835509e-09,-1.5877669512801e-09,-0.0010839577482177,0.0010839585128517,-0.0010839577254349,0.0010839584575202,-0.0010839585996747,0.0010839574931864,-0.0010839587188567,0.001083957549926,-0.00091061702038644,0.00091061585058943,-0.0009106171055284,0.00091061585209894,6.4813437288098e-11,1.9062325664918e-10,-2.8438849329145e-09,3.0906435793131e-09,-0.0016971432710462,0.0016971435230634,-0.0018726478494569,0.0018726460169423,-0.0018726458096792,0.0018726481067957,-0.0018726477381831,0.001872646113332,-0.0018726458533489,0.001872648035778,-0.0015006305165129,0.0015006251779655,-0.0015006249676742,0.0015006308848138,-0.0015006267139337,0.0015006289878308,-0.0015006267121617,0.0015006289109019,-7.2889752358173e-11,7.8421881110951e-11,-0.00090957342074477,0.00090957342428128,1.5674363542188e-09,-1.5871282090129e-09,-0.001083957586272,0.0010839586073513,-0.0010839586495962,0.0010839575806293,-0.0010839575327283,0.0010839586783931,-0.0010839585641402,0.0010839575694583,-0.00091061689023598,0.00091061599525334,-0.00091061707852614,0.00091061587389642,0.73244076907187,128566,2924,0.0037857442436103,0.007043344553942,0.0037857442461588,20.943790376177,-7.004967699058e-05,-7.004967699058e-05,-7.004967699058e-05,4157074.0194563,0.014723403942826
25819200,0.99215199163884,0.01523490659779,0.0042639805498967,0.0067069454949399,0.0042639805529537,-0.00090815507682069,0.00090815488673597,-4.5248047762024e-11,-1.5385129538219e-10,1.2641468956764e-09,-1.5035082647663e-09,-0.0010827021763394,0.0010827028322392,-0.0010827020870014,0.0010827028484846,-0.0010827028917014,0.0010827019520774,-0.0010827031131287,0.0010827019104277,-0.00090926793822129,0.00090926713525607,-0.00090926832973064,0.0009092668414313,1.5621607988246e-10,8.9291847665935e-11,-2.3806024404649e-09,2.6192217579261e-09,-0.001695992194973,0.0016959924401673,-0.0018714380638838,0.0018714365159406,-0.0018714362427597,0.0018714383752853,-0.0018714379293021,0.0018714366329469,-0.0018714364344855,0.001871438153745,-0.0014994914312175,0.0014994871755157,-0.0014994870037945,0.0014994916883771,-0.0014994881130022,0.001499490487705,-0.0014994885372514,0.0014994899918081,-1.2813438199803e-11,9.4385229468731e-11,-0.00090815494118164,0.00090815502363428,1.2150639755708e-09,-1.1339323158106e-09,-0.0010827020921051,0.0010827028501401,-0.0010827028058097,0.0010827021756603,-0.0010827019684335,0.001082702991073,-0.0010827028190069,0.001082702065244,-0.00090926796999245,0.00090926711432027,-0.00090926786570931,0.0009092672915741,0.71386865719157,128566,2924,0.003779862005361,0.0070385743957799,0.0037798620079721,20.109750560353,-7.6721995517175e-05,-7.6721995517175e-05,-7.6721995517175e-05,4132961.2867804,0.014706628525271
26019200,0.99235348869712,0.015237880960951,0.0042648074433272,0.0067082660712399,0.0042648074463841,-0.00090752886673537,0.00090752867794075,-2.4236655505929e-11,-1.7245973493551e-10,1.2365735456704e-09,-1.4842617916152e-09,-0.0010821967922517,0.0010821973840142,-0.0010821966548804,0.0010821974565377,-0.0010821974296442,0.0010821965884891,-0.0010821977293567,0.0010821964678993,-0.00090870363379629,0.00090870308325136,-0.00090870425950742,0.00090870256357114,1.860207605464e-10,5.5797542246915e-11,-2.0644835189162e-09,2.3013665785955e-09,-0.0016956271777328,0.0016956274213434,-0.0018710424080733,0.0018710410293111,-0.0018710407292409,0.0018710427349528,-0.0018710422341588,0.0018710411866823,-0.0018710410021934,0.0018710424339726,-0.0014991202470628,0.0014991167895959,-0.0014991165904027,0.0014991204210152,-0.001499117304629,0.0014991197211043,-0.001499118007074,0.0014991189826259,1.0247351248248e-11,8.1400916089691e-11,-0.00090752872360801,0.00090752882142755,1.1660260978208e-09,-1.0454953340457e-09,-0.0010821967201705,0.001082197390415,-0.0010821973254524,0.0010821968263348,-0.0010821965431066,0.0010821975843728,-0.0010821974156787,0.0010821966391281,-0.00090870387012086,0.00090870283780958,-0.0009087035474607,0.00090870324138141,0.68688840088788,128566,2924,0.0037772676024706,0.0070370573752334,0.0037772676032757,19.716537473456,-7.986770021235e-05,-7.986770021235e-05,-7.986770021235e-05,4120036.4297346,0.014699825655548
26219200,0.99254879008123,0.015240944072567,0.0042656671385071,0.0067096097924959,0.004265667141564,-0.00090748207043884,0.00090748187486081,-6.9215913409445e-11,-1.327413718873e-10,1.2343438549826e-09,-1.501148334537e-09,-0.0010822159888468,0.0010822167022495,-0.001082215973108,0.0010822166548951,-0.0010822167737884,0.0010822157482984,-0.0010822169053923,0.0010822158116335,-0.00090869922137959,0.00090869815784167,-0.00090869935754298,0.00090869817159789,1.7071010168828e-10,6.9950907930132e-11,-2.3970800170274e-09,2.6342142395044e-09,-0.0016958064877492,0.0016958067287214,-0.001871229492665,0.0018712280247214,-0.0018712277411432,0.0018712298066569,-0.001871229460973,0.0018712280376527,-0.0018712278511748,0.0018712296691034,-0.0014992738942728,0.0014992693726937,-0.0014992691137141,0.0014992740407259,-0.0014992705183943,0.0014992727174667,-0.0014992708092808,0.0014992724691625,5.1342669678449e-12,1.638263674945e-10,-0.00090748188371813,0.00090748206241643,8.5036442721517e-10,-6.1771984731063e-10,-0.001082216005382,0.0010822166185261,-0.0010822165100051,0.0010822161522578,-0.0010822159463342,0.0010822166912147,-0.0010822164195294,0.0010822161406036,-0.00090869878649624,0.00090869859217524,-0.00090869898600135,0.00090869847871747,0.72525110739728,128566,2924,0.0037770768651538,0.0070377944864056,0.003777076867014,19.62925401879,-8.0565967849682e-05,-8.0565967849682e-05,-8.0565967849682e-05,4116894.0573025,0.014700186752945
26419200,0.99274254051575,0.015244073607865,0.0042665487688952,0.0067109760670152,0.0042665487719545,-0.00090807832972904,0.00090807812841516,-7.8530327049841e-11,-1.3000110173251e-10,1.2769064550516e-09,-1.5438055802992e-09,-0.0010829986090725,0.0010829993489394,-0.0010829985973552,0.0010829992951519,-0.0010829994338612,0.0010829983578625,-0.0010829995480196,0.0010829984337859,-0.00090940456979854,0.00090940342396188,-0.0009094046557356,0.00090940347397678,1.2891313061588e-10,1.1705386420244e-10,-2.5030698609927e-09,2.7443979498794e-09,-0.0016968199536175,0.0016968202003541,-0.0018722053821464,0.001872203835782,-0.0018722035766238,0.0018722056757977,-0.0018722053241631,0.0018722038777405,-0.0018722036562013,0.0018722055687232,-0.0015002608687457,0.0015002561414004,-0.0015002558790908,0.0015002610762231,-0.0015002574272183,0.0015002595730641,-0.0015002575689556,0.0015002594299007,-2.2081201324163e-11,1.5172184513597e-10,-0.0009080781603392,0.00090807829812325,1.0129708029373e-09,-8.3661062747622e-10,-0.0010829985920795,0.0010829992989215,-0.0010829992327531,0.0010829986975961,-0.0010829985380476,0.0010829993675083,-0.0010829991280504,0.0010829987023932,-0.0009094041507293,0.00090940383834871,-0.00090940439443053,0.00090940368194828,0.74503106497163,128566,2924,0.0037795600511687,0.0070419767238647,0.0037795600519162,19.918600557354,-7.8251195541166e-05,-7.8251195541166e-05,-7.8251195541166e-05,4114641.542961,0.014709473171055
26619200,0.9929412066282,0.015247251308927,0.0042674424189821,0.0067123664679034,0.0042674424220415,-0.00090961977473977,0.00090961955543361,-5.6263645485722e-11,-1.691404541898e-10,1.3308390640577e-09,-1.6302032294692e-09,-0.0010848254300392,0.0010848261392823,-0.0010848253541133,0.0010848261484997,-0.0010848262151707,0.001084825184538,-0.001084826435807,0.0010848251565525,-0.00091111598905919,0.00091111509645935,-0.0009111163944233,0.00091111484190384,6.4026007225899e-11,1.8825481288587e-10,-2.7169649548209e-09,2.9655764887327e-09,-0.0016989806448654,0.0016989808972719,-0.0018743106056088,0.0018743087929982,-0.0018743085756888,0.0018743108585533,-0.0018743104198679,0.0018743089665165,-0.0018743086983415,0.0018743107124021,-0.0015023762104463,0.0015023713449886,-0.0015023709759502,0.0015023764200855,-0.0015023725720209,0.0015023749685532,-0.0015023728366089,0.0015023747679927,-2.7960910157138e-11,8.8056428590503e-11,-0.0009096196302694,0.00090961970066354,1.3770042662296e-09,-1.2513853119862e-09,-0.0010848253346435,0.001084826163192,-0.0010848261498062,0.001084825386987,-0.001084825215377,0.0010848262957029,-0.0010848261472854,0.0010848252875369,-0.0009111160152625,0.00091111506059792,-0.00091111595911256,0.00091111521054999,0.73848802887021,128566,2924,0.0037859711210404,0.0070508993453085,0.0037859711227717,20.757751979173,-7.1537984166615e-05,-7.1537984166615e-05,-7.1537984166615e-05,4119015.3113011,0.014731543394904
26819200,0.99314331343146,0.015250400116617,0.0042683241462732,0.0067137518210096,0.0042683241493343,-0.00091097310573269,0.00091097288854592,-4.1225704502144e-11,-1.8217807759954e-10,1.3867382590098e-09,-1.6630947781255e-09,-0.0010864503050129,0.0010864510161331,-0.00108645020507,0.0010864510456974,-0.0010864510901092,0.0010864500660813,-0.001086451344275,0.0010864499894352,-0.00091262623954057,0.00091262542180979,-0.00091262673265734,0.00091262503445902,2.3002939981856e-11,2.3647788776285e-10,-2.9066787396656e-09,3.158893266979e-09,-0.0017009361688765,0.0017009364244277,-0.0018762237749794,0.001876221776519,-0.0018762215930437,0.0018762240027835,-0.0018762235328562,0.0018762220082929,-0.0018762217132775,0.0018762238585294,-0.0015042826393908,0.0015042775153435,-0.001504277207757,0.0015042829791585,-0.0015042788058803,0.0015042813462983,-0.0015042790510109,0.0015042810883954,-4.4328572829293e-11,4.5609816576503e-11,-0.00091097299422094,0.00091097300016594,1.5756919153995e-09,-1.5652025721064e-09,-0.001086450163832,0.0010864510894998,-0.0010864511171918,0.0010864501730094,-0.0010864500222565,0.0010864512467123,-0.0010864511586317,0.0010864500339632,-0.00091262646855539,0.00091262518990814,-0.0009126262852086,0.00091262544799771,0.7212227626049,128566,2924,0.0037916007532463,0.0070589736700808,0.0037916007534954,21.495838536207,-6.5633291710347e-05,-6.5633291710347e-05,-6.5633291710347e-05,4123101.1714305,0.014751166629376
27019200,0.99334227787264,0.0152534095782,0.0042691629051625,0.0067150837648152,0.0042691629082223,-0.00091141400874006,0.00091141379304172,-6.7420188488197e-11,-1.5578735152968e-10,1.382925015636e-09,-1.6536900216697e-09,-0.0010870732749495,0.0010870740234727,-0.0010870732145241,0.0010870740119629,-0.0010870741140607,0.0010870730199095,-0.001087074292614,0.0010870730192663,-0.000913165927462,0.00091316488819557,-0.00091316618993342,0.00091316471605754,3.0865623958728e-11,2.2630162481717e-10,-2.9173674579561e-09,3.1665663990995e-09,-0.0017018068792484,0.001701807134042,-0.0018770760329467,0.0018770740932917,-0.0018770739037783,0.001877076270877,-0.0018770758560896,0.0018770742579791,-0.0018770739692301,0.001877076180324,-0.0015051157874738,0.0015051104785582,-0.0015051102084123,0.0015051161416477,-0.001505111931704,0.0015051143340318,-0.0015051120269907,0.0015051141959623,-7.1749394369959e-11,7.3399004954348e-11,-0.00091141389995658,0.0009114139027647,1.5837337619325e-09,-1.5870611471057e-09,-0.0010870731287812,0.0010870741026335,-0.0010870741497517,0.0010870731200241,-0.0010870730268274,0.0010870742209558,-0.0010870741149478,0.0010870730576685,-0.00091316593934022,0.00091316487929285,-0.00091316597790576,0.00091316491259321,0.70228869254459,128566,2924,0.0037934389812429,0.0070625649393944,0.0037934389831988,21.714908532277,-6.3880731741782e-05,-6.3880731741782e-05,-6.3880731741782e-05,4121467.9100172,0.014758543983014
27219200,0.99353578715343,0.015256242769434,0.0042699487800456,0.0067163452062829,0.0042699487831053,-0.00091152782842732,0.00091152761939597,-3.7690398926096e-11,-1.7982640559334e-10,1.359773254195e-09,-1.6197281456523e-09,-0.001087289868659,0.0010872905700664,-0.0010872897740372,0.0010872905936116,-0.0010872906383969,0.0010872896383503,-0.0010872908866011,0.0010872895677395,-0.00091333428808516,0.00091333347400193,-0.00091333475267591,0.00091333309652946,5.6031490217612e-11,2.0032719720046e-10,-2.8437252584395e-09,3.0922081458108e-09,-0.0017022214976837,0.0017022217532828,-0.0018774985419798,0.0018774966130724,-0.0018774964047968,0.0018774987998621,-0.0018774983266347,0.0018774968153506,-0.0018774965421375,0.0018774986365754,-0.0015054935349084,0.0015054885008223,-0.0015054882667352,0.0015054938850098,-0.0015054897564904,0.0015054922999205,-0.0015054900281273,0.0015054919500808,-3.9139093224627e-11,5.5475114778838e-11,-0.00091152771580652,0.00091152773257243,1.5109772473293e-09,-1.5034956743403e-09,-0.0010872897354276,0.0010872906372376,-0.0010872906524421,0.0010872897604553,-0.0010872895988986,0.001087290791405,-0.0010872906874118,0.0010872896293643,-0.00091333447736168,0.00091333328285582,-0.00091333431677398,0.00091333352044834,0.68192143786498,128566,2924,0.0037939163901328,0.0070642734477939,0.0037939163912805,21.739898177128,-6.3680814582977e-05,-6.3680814582977e-05,-6.3680814582977e-05,4119668.1689438,0.014761247261038
27419200,0.99372542689164,0.015259111327247,0.0042707486971497,0.0067176139298882,0.0042707487002087,-0.0009118963199581,0.00091189611062579,-4.3263998200582e-11,-1.734166146229e-10,1.3343336144045e-09,-1.6054025399368e-09,-0.0010877071398132,0.001087707840402,-0.001087707056072,0.0010877078544582,-0.0010877079082675,0.0010877069065741,-0.0010877081419281,0.0010877068566615,-0.00091373438394699,0.00091373354170445,-0.0009137348112097,0.00091373322372951,7.552638572076e-11,1.7732121537035e-10,-2.7970783838812e-09,3.0437969464456e-09,-0.0017028327249238,0.0017028329772827,-0.0018781463583552,0.00187814448793,-0.0018781442668962,0.0018781466243941,-0.0018781461735893,0.0018781446584146,-0.001878144401016,0.0018781464644519,-0.0015060555434533,0.0015060505565591,-0.0015060502852668,0.0015060558273633,-0.0015060517916472,0.001506054312695,-0.0015060520992848,0.0015060539843677,-3.8457775042106e-11,7.1326149894456e-11,-0.00091189619729012,0.00091189623393903,1.4658214932184e-09,-1.4147587131384e-09,-0.0010877070163687,0.0010877078959518,-0.0010877079024033,0.0010877070493939,-0.0010877068877962,0.0010877080400939,-0.0010877079164412,0.001087706936575,-0.00091373450245824,0.00091373341660432,-0.00091373440089417,0.00091373360073062,0.70215249711041,128566,2924,0.0037954492146363,0.0070667978258364,0.0037954492160368,21.891834979383,-6.2465320164933e-05,-6.2465320164933e-05,-6.2465320164933e-05,4123051.2692921,0.014766919363118
27619200,0.99391389631915,0.015262008193192,0.0042715582706534,0.0067188916488262,0.0042715582737125,-0.00091267642408107,0.0009126762137404,-5.1866587522383e-11,-1.6650461346068e-10,1.3275805682716e-09,-1.6016445703284e-09,-0.0010886044678125,0.0010886051767786,-0.0010886043946641,0.0010886051793056,-0.0010886052494598,0.0010886042297111,-0.0010886054638964,0.001088604204089,-0.0009145830303955,0.00091458212970853,-0.00091458340104244,0.00091458187548119,7.9949890938653e-11,1.7161953790563e-10,-2.7572300875723e-09,3.0029877670203e-09,-0.0017039622584461,0.0017039625122117,-0.001879288282747,0.0018792864630391,-0.0018792862324633,0.0018792885582214,-0.0018792881166035,0.0018792866128675,-0.0018792863539529,0.0018792884109941,-0.0015071331049977,0.0015071281531574,-0.0015071278911957,0.0015071333817922,-0.0015071294092004,0.0015071318603466,-0.0015071296752873,0.0015071315608491,-4.9610200843153e-11,7.8788961435962e-11,-0.00091267630258099,0.00091267633570707,1.4979869142633e-09,-1.4484600433239e-09,-0.001088604334611,0.001088605241686,-0.0010886052589971,0.0010886043599236,-0.001088604216328,0.0010886053750212,-0.0010886052498084,0.0010886042692795,-0.00091458310087175,0.0009145820484403,-0.00091458306789,0.00091458217351765,0.71253170731388,128566,2924,0.0037986932168421,0.0070714632032971,0.0037986932178784,22.281650484671,-5.9346796122628e-05,-5.9346796122628e-05,-5.9346796122628e-05,4127200.7269565,0.014778238937873
27819200,0.99409851437555,0.01526489488226,0.0042723666880174,0.0067201615031664,0.0042723666910762,-0.00091304210481619,0.00091304190055296,-4.8145180865052e-11,-1.6447478331038e-10,1.3199308070769e-09,-1.5802750170653e-09,-0.0010890994245899,0.0010891001276208,-0.0010890993520334,0.0010891001298338,-0.0010891001969976,0.0010890991906909,-0.0010891004092614,0.0010890991614562,-0.00091501763097988,0.0009150167424236,-0.00091501799268264,0.00091501647971613,9.7256834517524e-11,1.5374320207424e-10,-2.7370877284958e-09,2.9813994743514e-09,-0.0017046604291974,0.0017046606803246,-0.001879984959998,0.0018799831569327,-0.0018799829204769,0.0018799852418952,-0.0018799848042768,0.0018799832965596,-0.0018799830540715,0.0018799850812354,-0.0015077905309322,0.0015077855967426,-0.0015077853709291,0.0015077908236309,-0.0015077868313416,0.001507789303637,-0.0015077871201409,0.0015077889613572,-4.03844745357e-11,8.8813255852762e-11,-0.00091304197776528,0.00091304202835145,1.3815186690824e-09,-1.3263114000438e-09,-0.0010890993192721,0.0010891001667082,-0.0010891001632962,0.0010890993626694,-0.0010890992007385,0.0010891003011017,-0.0010891001550365,0.0010890992725764,-0.00091501765734052,0.00091501671286194,-0.00091501761888464,0.00091501683250137,0.72383699582064,128566,2924,0.0038002170545589,0.00707434379894,0.0038002170561357,22.443600069963,-5.8051199440294e-05,-5.8051199440294e-05,-5.8051199440294e-05,4126027.0037423,0.014784256560945
28019200,0.99428000547016,0.015267785628646,0.0042731782189518,0.0067214291876848,0.0042731782220094,-0.00091351188098628,0.00091351167440169,-4.9554992472746e-11,-1.6542693727903e-10,1.3095767800948e-09,-1.5787919600188e-09,-0.0010897257215474,0.0010897264231555,-0.0010897256513998,0.0010897264230887,-0.001089726491362,0.0010897254862319,-0.0010897267038458,0.0010897254626719,-0.00091557538189827,0.00091557449299317,-0.00091557574728137,0.00091557424288721,1.0448828219e-10,1.4438283338002e-10,-2.7127845507647e-09,2.9560542351016e-09,-0.0017055032345362,0.0017055034849648,-0.0018808127562217,0.001880810979367,-0.0018808107361699,0.0018808130427881,-0.0018808126084401,0.0018808111102184,-0.0018808108725134,0.0018808128793241,-0.0015085943367507,0.0015085894433895,-0.001508589195388,0.001508594594881,-0.0015085906610973,0.0015085931249353,-0.0015085909675003,0.001508592787559,-3.4681105911241e-11,9.8264181849913e-11,-0.00091351174443326,0.00091351181185089,1.336162044402e-09,-1.2487514609228e-09,-0.0010897256283902,0.0010897264484726,-0.0010897264340716,0.0010897256835579,-0.0010897255108541,0.0010897265809545,-0.0010897264206529,0.0010897255968004,-0.00091557537703662,0.00091557449211656,-0.00091557535294124,0.00091557460481853,0.73612815214655,128566,2924,0.0038021741639745,0.0070778212034889,0.0038021741659018,22.670487008941,-5.6236103928471e-05,-5.6236103928471e-05,-5.6236103928471e-05,4124379.2394635,0.014791759907278
28219200,0.99446119587726,0.015270729102828,0.0042740065875207,0.0067227159247288,0.0042740065905785,-0.0009144411582411,0.00091444094645568,-4.8910460802452e-11,-1.6955299150388e-10,1.3102395430464e-09,-1.5954493923809e-09,-0.0010908603763593,0.0010908610797889,-0.0010908603060158,0.0010908610800595,-0.0010908611460404,0.0010908601379386,-0.0010908613656751,0.0010908601118017,-0.0009166253459504,0.0009166244741274,-0.00091662574022268,0.00091662421519572,8.8840730447256e-11,1.5943577458182e-10,-2.7633891343e-09,3.0073343425296e-09,-0.0017069023244564,0.001706902572592,-0.0018821840525427,0.0018821822271121,-0.0018821819961094,0.0018821843220089,-0.0018821838914213,0.0018821823705543,-0.0018821821249052,0.0018821841675073,-0.0015099477207337,0.0015099427446924,-0.001509942431439,0.0015099479416257,-0.0015099439828394,0.0015099464633778,-0.0015099443023238,0.0015099461897221,-3.4628969450665e-11,9.6560512956949e-11,-0.00091444101840412,0.00091444108751983,1.3705291062766e-09,-1.2611584182904e-09,-0.0010908602781522,0.0010908611079905,-0.0010908610960387,0.0010908603279265,-0.0010908601574684,0.0010908612406507,-0.001090861083974,0.0010908602371682,-0.00091662536593022,0.0009166244475149,-0.00091662533024585,0.00091662457035123,0.74949208451934,128566,2924,0.0038060408628611,0.007083597031471,0.0038060408655396,23.163596098824,-5.2291231209407e-05,-5.2291231209407e-05,-5.2291231209407e-05,4125614.6823741,0.014805472577237
28419200,0.99463680225712,0.015273641735691,0.0042748280703245,0.006723985591981,0.004274828073385,-0.00091450381359354,0.00091450361166448,-4.4429392580201e-11,-1.6574456893141e-10,1.3099781564526e-09,-1.5673922091263e-09,-0.001091120333518,0.0010911210337088,-0.0010911202634989,0.0010911210335296,-0.0010911210987623,0.0010911201032962,-0.0010911213118594,0.001091120072798,-0.00091679398569366,0.00091679311263858,-0.00091679435267667,0.0009167928440586,1.0452271613806e-10,1.4515799652285e-10,-2.6774230262115e-09,2.9203908021245e-09,-0.0017073681847158,0.0017073684338934,-0.0018826045136633,0.0018826027572225,-0.001882602516888,0.0018826047959952,-0.0018826043639064,0.0018826028911221,-0.001882602655222,0.0018826046307011,-0.001510392179723,0.0015103873574593,-0.0015103871340245,0.0015103924653454,-0.0015103885431511,0.0015103909911828,-0.001510388848729,0.0015103906401583,-3.0764197513119e-11,1.0255872184952e-10,-0.00091450367589497,0.00091450375029004,1.27435868207e-09,-1.1930031745857e-09,-0.0010911202558275,0.001091121045304,-0.0010911210205672,0.0010911203194789,-0.0010911201366448,0.0010911211800905,-0.0010911210102275,0.001091120231425,-0.00091679396829288,0.000916793131542,-0.00091679393163527,0.00091679324590149,0.76402647363391,128566,2924,0.0038063093105205,0.0070855130890272,0.0038063093124587,23.176384587463,-5.2188923300297e-05,-5.2188923300297e-05,-5.2188923300297e-05,4117486.552473,0.014807965067174
28619200,0.99480733187491,0.015276490297329,0.0042756321233313,0.0067252260476087,0.0042756321263895,-0.00091460870154867,0.00091460850110041,-4.5947201013666e-11,-1.6138926582709e-10,1.3030737893027e-09,-1.5623902019342e-09,-0.0010914423221503,0.0010914430189276,-0.0010914422543323,0.0010914430198742,-0.0010914430862207,0.0010914420926254,-0.0010914432928021,0.0010914420633889,-0.000917020721948,0.00091701984107471,-0.00091702107049971,0.00091701958986726,1.1475650432639e-10,1.3782696912776e-10,-2.5969950212318e-09,2.843826222708e-09,-0.0017079078329207,0.0017079080821475,-0.0018830828245063,0.0018830811257133,-0.0018830808818727,0.001883083105433,-0.001883082683054,0.0018830812536411,-0.0018830810234058,0.0018830829365793,-0.0015109167284767,0.0015109120416119,-0.0015109117812987,0.0015109169774927,-0.0015109131701476,0.0015109155811124,-0.0015109135022805,0.0015109152466965,-3.3113454502283e-11,1.0937572465037e-10,-0.00091460856150625,0.00091460864224874,1.2527769290248e-09,-1.1523656633307e-09,-0.0010914422509472,0.0010914430239725,-0.0010914429991067,0.0010914423126342,-0.0010914421300072,0.0010914431597984,-0.0010914429835068,0.0010914422306456,-0.00091702067525737,0.00091701988618552,-0.00091702065720998,0.00091701997240672,0.76896223133213,128566,2924,0.0038067540032952,0.0070877330587182,0.0038067540056494,23.222774800994,-5.1817801592049e-05,-5.1817801592049e-05,-5.1817801592049e-05,4108547.5344268,0.014811124144226
28819200,0.99497934394123,0.015279285620653,0.0042764182484873,0.0067264491206197,0.0042764182515457,-0.0009158364900157,0.00091583627902908,-4.2547841894842e-11,-1.7508913634325e-10,1.3221642063572e-09,-1.6027463550814e-09,-0.001092943170211,0.0010929438808052,-0.0010929431015656,0.0010929438817082,-0.0010929439459645,0.0010929429375771,-0.0010929441703395,0.0010929429030201,-0.00091841241083366,0.00091841154616973,-0.00091841281910261,0.00091841126983598,7.7274452259703e-11,1.7475806449638e-10,-2.7724046113539e-09,3.0197297191534e-09,-0.0017097261195922,0.0017097263719755,-0.0018848417083052,0.0018848398669601,-0.0018848396423941,0.0018848419736051,-0.0018848415371465,0.0018848400238167,-0.0018848397665308,0.0018848418243202,-0.0015126954981688,0.0015126905216336,-0.0015126902117232,0.0015126957444268,-0.0015126917768194,0.0015126942457429,-0.0015126920602282,0.0015126939776403,-3.2339926938166e-11,9.7025113566109e-11,-0.0009158363485633,0.00091583642075984,1.3451595026535e-09,-1.2366183512272e-09,-0.0010929430829327,0.0010929438987773,-0.0010929438825174,0.0010929431392226,-0.0010929429610823,0.0010929440351304,-0.0010929438754613,0.0010929430454584,-0.00091841242472559,0.00091841151834459,-0.00091841238397156,0.00091841165174896,0.74978589255332,128566,2924,0.0038118628325425,0.0070952387399458,0.0038118628332286,23.910676701197,-4.6314586390423e-05,-4.6314586390423e-05,-4.6314586390423e-05,4110220.692601,0.014829115011962
29019200,0.99514232779519,0.015281784099724,0.0042771147473628,0.0067275546019405,0.0042771147504212,-0.00091524145457146,0.00091524124956442,-6.5161007758294e-11,-1.4913745181966e-10,1.3157071074554e-09,-1.5759223753297e-09,-0.0010924954581584,0.0010924961741199,-0.0010924954010079,0.0010924961622481,-0.0010924962553244,0.001092495216278,-0.0010924964337077,0.001092495225534,-0.00091788447013548,0.00091788348276283,-0.00091788472972961,0.00091788331353648,1.2174922676234e-10,1.2726367018223e-10,-2.5096818718239e-09,2.7517529221312e-09,-0.0017094351928563,0.0017094354452045,-0.0018845164620343,0.0018845148653011,-0.001884514601216,0.0018845167674672,-0.0018845163471381,0.0018845149608154,-0.0018845147273787,0.0018845166158168,-0.0015123962778583,0.0015123917099416,-0.0015123915295017,0.0015123965586437,-0.0015123928491396,0.0015123951347119,-0.0015123931111659,0.0015123947949646,-5.7600435693655e-11,1.22427872305e-10,-0.00091524131992164,0.00091524138526496,1.317401231179e-09,-1.2521582144665e-09,-0.0010924953704425,0.0010924961970908,-0.0010924961968638,0.0010924954160668,-0.0010924952606404,0.0010924963229751,-0.0010924961465062,0.0010924953682044,-0.00091788436345431,0.00091788359002217,-0.00091788444038333,0.00091788359645218,0.71130446151956,128566,2924,0.0038093990198785,0.0070940265236296,0.003809399022062,23.567603101237,-4.9059175190104e-05,-4.9059175190104e-05,-4.9059175190104e-05,4098271.0307621,0.014822885743987
29219200,0.99530388827394,0.015284199996184,0.004277786341315,0.0067286273104966,0.0042777863443723,-0.00091601301005171,0.00091601278410244,-8.0791814733165e-11,-1.5425799424579e-10,1.3057461323115e-09,-1.6255556071273e-09,-0.00109335397635,0.0010933547054297,-0.0010933539266049,0.0010933546889606,-0.0010933547948327,0.0010933537206881,-0.0010933549727644,0.0010933537581513,-0.00091871612577698,0.0009187150920013,-0.00091871640092111,0.00091871498893646,1.0192062098323e-10,1.4502234425517e-10,-2.5381913998186e-09,2.7837569159606e-09,-0.001710523412999,0.0017105236738767,-0.0018856267410459,0.0018856251303825,-0.0018856248569862,0.0018856270534239,-0.0018856266231272,0.0018856252253962,-0.0018856249623297,0.0018856269262912,-0.0015134324618394,0.0015134278542961,-0.001513427531879,0.0015134326112481,-0.0015134290590926,0.0015134312837657,-0.001513429281092,0.0015134310688048,-6.8344774996391e-11,1.2714578989553e-10,-0.0009160128636012,0.00091601293117752,1.5012851407989e-09,-1.3592403895536e-09,-0.0010933538509056,0.0010933547586166,-0.0010933547824283,0.0010933538818274,-0.0010933537456312,0.0010933548754765,-0.0010933547103172,0.0010933538473881,-0.00091871602343259,0.00091871515405241,-0.00091871617904236,0.00091871514687162,0.69517198077408,128566,2924,0.0038126069492646,0.0070985213174573,0.0038126069507969,23.97452948439,-4.5803764124881e-05,-4.5803764124881e-05,-4.5803764124881e-05,4104497.334929,0.01483395845902
29419200,0.99546460996888,0.015286433105055,0.0042783998874992,0.0067296333270038,0.0042783998905515,-0.00091693198603116,0.00091693177525467,-3.2199404981016e-11,-1.851062477632e-10,1.3337230572239e-09,-1.6134270124711e-09,-0.0010943353248918,0.0010943360341705,-0.0010943352516258,0.0010943360454941,-0.0010943360960377,0.0010943351003025,-0.0010943363360716,0.0010943350399735,-0.00091967017441345,0.00091966936315939,-0.00091967063008643,0.0009196690116717,7.0945943650121e-11,1.8169244124417e-10,-2.9004350194658e-09,3.1477142423141e-09,-0.0017117289070041,0.0017117291579159,-0.0018868804836624,0.0018868785260406,-0.0018868783107132,0.0018868807431153,-0.0018868802920989,0.0018868787056219,-0.0018868784469625,0.001886880584115,-0.0015145719553921,0.0015145667542917,-0.0015145664517258,0.0015145722162639,-0.0015145680642742,0.0015145706388382,-0.001514568372469,0.0015145703479434,-2.3474734881345e-11,9.3443620550873e-11,-0.00091693184294106,0.00091693191896758,1.3152233033897e-09,-1.2086037915647e-09,-0.0010943352508172,0.0010943360429319,-0.001094336015762,0.001094335313484,-0.0010943351182793,0.0010943361895007,-0.0010943360276365,0.0010943352028444,-0.00091967022469675,0.00091966929827526,-0.0009196701242144,0.00091966948003064,0.65090116998613,128566,2924,0.0038164255805779,0.0071035029853833,0.0038164255819559,24.457385454643,-4.1940916362856e-05,-4.1940916362856e-05,-4.1940916362856e-05,4114254.1445771,0.01484676443153
29619200,0.99562486147149,0.015288625289246,0.0042790007767011,0.0067306237327927,0.0042790007797525,-0.00091799405605488,0.00091799384029519,-6.1598713032482e-11,-1.6143639026241e-10,1.3546925056584e-09,-1.6378257273424e-09,-0.0010953568480746,0.0010953575899095,-0.0010953567924569,0.0010953575755416,-0.0010953576723172,0.0010953565999115,-0.0010953578578879,0.0010953565989283,-0.00092071289798207,0.00092071190070347,-0.00092071319371146,0.00092071171714614,6.1802355568696e-11,1.9265854223731e-10,-2.8224981963822e-09,3.07126977864e-09,-0.0017129535983494,0.0017129538527582,-0.00188821465968,0.0018882128033697,-0.0018882125882479,0.0018882149180965,-0.0018882145029831,0.0018882129459927,-0.0018882126761925,0.0018882148060558,-0.00151570724427,0.0015157021056061,-0.0015157018069969,0.0015157075242729,-0.0015157034767788,0.001515705871727,-0.0015157036471218,0.0015157056992142,-7.4214816927992e-11,9.8980580702931e-11,-0.00091799393399666,0.00091799396314855,1.5399050981916e-09,-1.4896119406608e-09,-0.0010953567172234,0.0010953576520507,-0.0010953576896973,0.001095356719498,-0.0010953566055528,0.0010953577780324,-0.0010953576431804,0.0010953566658448,-0.00092071288227301,0.00092071190584108,-0.00092071295136866,0.00092071192504844,0.64191650767743,128566,2924,0.0038208344323071,0.0071085692549951,0.0038208344340324,24.998174218101,-3.761460625519e-05,-3.761460625519e-05,-3.761460625519e-05,4131030.7379347,0.014860851972435
29819200,0.99578533313152,0.015290959173827,0.0042796467796892,0.0067316656113976,0.0042796467827401,-0.00091924601067611,0.00091924579182173,-4.6027547599574e-11,-1.7998503501915e-10,1.3616295901121e-09,-1.6502631846513e-09,-0.0010965596243495,0.0010965603548445,-0.0010965595531983,0.0010965603561961,-0.0010965604274549,0.0010965593842682,-0.0010965606526781,0.0010965593473032,-0.00092194319966002,0.00092194230828779,-0.00092194361164499,0.00092194201326198,4.6664343730448e-11,2.0878131387417e-10,-2.9909547214452e-09,3.2408271151915e-09,-0.0017143622303619,0.0017143624860463,-0.0018897462490274,0.0018897442419666,-0.0018897440375308,0.0018897465016657,-0.0018897460532682,0.0018897444232663,-0.0018897441435521,0.0018897463711886,-0.0015170186469201,0.0015170132667155,-0.0015170129535643,0.0015170189365295,-0.0015170146791966,0.0015170172360289,-0.0015170149021496,0.0015170170186088,-5.6502902207843e-11,8.5357496234968e-11,-0.00091924588499151,0.00091924591833911,1.5308639534806e-09,-1.4728242858761e-09,-0.0010965594986842,0.0010965604116723,-0.0010965604359027,0.0010965595146711,-0.0010965593701554,0.0010965605536847,-0.0010965604254873,0.0010965594236688,-0.00092194328583526,0.00092194220933454,-0.00092194324663348,0.00092194234040996,0.67837952951347,128566,2924,0.0038260311996854,0.0071143971001733,0.0038260312015027,25.635069579834,-3.2519443361327e-05,-3.2519443361327e-05,-3.2519443361327e-05,4149759.7162625,0.014877311956082
30019200,0.99594247206198,0.015293281619563,0.0042802907188849,0.0067327001787429,0.0042802907219353,-0.00091983389579292,0.00091983368418035,-5.0831026066163e-11,-1.6896942328232e-10,1.3526319595938e-09,-1.6233716690216e-09,-0.0010971796482737,0.0010971803823207,-0.0010971795867243,0.001097180370756,-0.0010971804563218,0.0010971794074514,-0.0010971806574474,0.0010971793895539,-0.00092254052709933,0.00092253958227118,-0.00092254086252668,0.00092253934407679,6.4742680037919e-11,1.8914213307296e-10,-2.878250037143e-09,3.1253313977417e-09,-0.0017151501576333,0.0017151504111636,-0.0018906014284694,0.0018905995251762,-0.0018905993100048,0.0018906016908817,-0.0018906012618248,0.0018905996755904,-0.0018905994098499,0.001890601564929,-0.0015177376853205,0.0015177324625803,-0.0015177322055867,0.0015177380004212,-0.0015177338413785,0.0015177363096177,-0.001517734034566,0.0015177360779641,-6.5764234966147e-11,9.4068610692228e-11,-0.00091983377571199,0.00091983380538475,1.5092737172239e-09,-1.4750238819226e-09,-0.0010971795225973,0.0010971804404055,-0.001097180468711,0.0010971795336796,-0.0010971794048557,0.0010971805725422,-0.0010971804373445,0.0010971794652396,-0.00092254055027703,0.00092253955466892,-0.00092254057111144,0.00092253961640775,0.688733295392,128566,2924,0.0038284736812727,0.0071176542241788,0.0038284736836373,25.914562073957,-3.0283503408344e-05,-3.0283503408344e-05,-3.0283503408344e-05,4155785.8281266,0.014885574939463
30219200,0.99609444031498,0.015295423618789,0.0042808801318788,0.0067336633519804,0.0042808801349293,-0.00092004463514861,0.00092004443357577,-3.9886948470074e-11,-1.7058309971844e-10,1.3299557252067e-09,-1.5827445468876e-09,-0.001097435219193,0.0010974359321577,-0.0010974351525518,0.0010974359326469,-0.0010974359990801,0.001097434995029,-0.0010974362131229,0.0010974349575144,-0.0009227618067049,0.00092276093010837,-0.0009227621761152,0.00092276063920441,9.4436716670189e-11,1.5956409554406e-10,-2.7657804761873e-09,3.0124986951739e-09,-0.0017155429903731,0.0017155432451568,-0.0018910423783264,0.0018910405568136,-0.0018910403205929,0.0018910426631228,-0.0018910422184051,0.0018910407023232,-0.0018910404544405,0.001891042504043,-0.0015180720122788,0.0015180670268147,-0.0015180668257549,0.0015180723310963,-0.0015180682918381,0.0015180707717421,-0.0015180685545002,0.0015180704216356,-4.9318302265969e-11,1.0109814361164e-10,-0.00092004450852722,0.00092004456068422,1.3785570690278e-09,-1.3306705934911e-09,-0.0010974351216164,0.0010974359659452,-0.0010974359662087,0.0010974351630864,-0.0010974349962687,0.0010974361091227,-0.0010974359530533,0.0010974350806212,-0.00092276182426058,0.00092276090365863,-0.0009227618010423,0.00092276100818326,0.66008544715824,128566,2924,0.0038293508157841,0.0071192766954937,0.0038293508167883,25.990864458459,-2.9673084332326e-05,-2.9673084332326e-05,-2.9673084332326e-05,4156411.7533433,0.014889002172366
30419200,0.9962390049051,0.015297342066931,0.0042814029832545,0.0067345360973695,0.0042814029863067,-0.0009197781395148,0.00091977794408645,-3.8188042098439e-11,-1.6597691909942e-10,1.2981808803604e-09,-1.5418022600581e-09,-0.0010971140139809,0.0010971147089586,-0.0010971139447602,0.0010971147023,-0.0010971147660234,0.0010971137869627,-0.0010971149785623,0.0010971137549331,-0.00092244656893889,0.00092244571997664,-0.00092244693748523,0.00092244544012801,1.332473005629e-10,1.1538356699358e-10,-2.6171348565619e-09,2.8586907501363e-09,-0.001715292720846,0.0017152929668529,-0.0018908765937134,0.0018908748870924,-0.0018908746343079,0.0018908768881934,-0.0018908764624359,0.0018908749992241,-0.00189087478818,0.0018908767027656,-0.0015177651012181,0.0015177603625305,-0.0015177601686025,0.0015177653908698,-0.0015177614967414,0.0015177639628077,-0.0015177618483708,0.0015177635497152,-3.3981531946348e-11,1.209213999857e-10,-0.00091977799872746,0.00091977808631869,1.192791020906e-09,-1.108492074385e-09,-0.0010971139575047,0.0010971146989658,-0.0010971146658863,0.0010971140267342,-0.0010971138314252,0.0010971148398258,-0.0010971146455551,0.001097113946767,-0.00092244651481781,0.00092244577799792,-0.00092244649495288,0.00092244586950212,0.62526766966405,128566,2924,0.0038282429631044,0.007118244080869,0.0038282429661063,25.786792506808,-3.1305659945533e-05,-3.1305659945533e-05,-3.1305659945533e-05,4156807.050434,0.014885703367684
30619200,0.99637555356755,0.01529927797318,0.0042819368004212,0.0067354043692844,0.0042819368034743,-0.00091932567502403,0.00091932548666403,-3.4815794651372e-11,-1.6248058541398e-10,1.2653254310847e-09,-1.5044236979181e-09,-0.0010964965446177,0.0010964972307487,-0.0010964964866729,0.0010964972249766,-0.0010964972858594,0.001096496332932,-0.0010964974905451,0.0010964963045197,-0.00092189106770402,0.00092189022411189,-0.00092189141102231,0.00092188996249597,1.5980906347222e-10,8.6987589588849e-11,-2.4124088642122e-09,2.6528859585079e-09,-0.0017146941604253,0.0017146944080728,-0.0018904079219507,0.0018904063809062,-0.0018904061025583,0.0018904082383111,-0.0018904078154908,0.001890406471202,-0.001890406271842,0.0018904080420902,-0.0015171040137846,0.0015170996527091,-0.0015170994822085,0.0015171042607291,-0.0015171006627596,0.0015171030139872,-0.0015171010401157,0.0015171025589213,-2.4162712967028e-11,1.3489302042056e-10,-0.00091932552471497,0.00091932563765723,1.0979643640306e-09,-9.771373047088e-10,-0.001096496507863,0.0010964972043075,-0.0010964971502612,0.0010964966027003,-0.0010964963880339,0.0010964973421242,-0.0010964971257848,0.0010964965315358,-0.00092189095135164,0.00092189033369247,-0.00092189096073009,0.00092189040299927,0.66318501425139,128566,2924,0.003826359140222,0.0071157762185799,0.0038263591416478,25.453718346357,-3.3970253229144e-05,-3.3970253229144e-05,-3.3970253229144e-05,4160276.0793116,0.014879370445207
30819200,0.9965121027727,0.015301308342229,0.0042825008924235,0.0067363065543286,0.0042825008954765,-0.00092055183548658,0.00092055163028182,-4.3421415011092e-11,-1.681891410553e-10,1.2954710755953e-09,-1.5728341899951e-09,-0.0010977517737708,0.0010977524797449,-0.0010977517149323,0.0010977524753314,-0.0010977525433058,0.001097751546289,-0.001097752753339,0.0010977515245966,-0.00092313719442121,0.00092313632268024,-0.0009231375693575,0.0009231360790815,1.2266716219063e-10,1.2652379043211e-10,-2.6391680774033e-09,2.8846386095059e-09,-0.001716121679501,0.0017161219297266,-0.0018919087130507,0.0018919069987368,-0.0018919067440238,0.0018919090053747,-0.0018919085821582,0.0018919071140745,-0.0018919068882794,0.0018919088355613,-0.0015184467082481,0.0015184419325702,-0.0015184416402896,0.0015184469040782,-0.0015184431037924,0.0015184455398199,-0.0015184434499867,0.0015184452146365,-3.4006001060966e-11,1.312124355543e-10,-0.00092055167991818,0.00092055178590441,1.2117829385101e-09,-1.0592723115701e-09,-0.0010977517214999,0.0010977524643294,-0.001097752429101,0.0010977517969787,-0.0010977515977146,0.001097752602041,-0.0010977523988906,0.0010977517262964,-0.00092313710243969,0.00092313639163406,-0.00092313712642675,0.00092313646545504,0.69236590525654,128566,2924,0.0038314514085415,0.0071216791965534,0.0038314514087829,26.087434401957,-2.8900524784345e-05,-2.8900524784345e-05,-2.8900524784345e-05,4172299.6904751,0.014895697796862
31019200,0.99665302996558,0.015303469288698,0.0042831035552238,0.0067372621751965,0.0042831035582774,-0.00092277128483515,0.00092277106838339,-4.7869195044391e-11,-1.7542794729284e-10,1.3594750397281e-09,-1.643750727573e-09,-0.0011001467608793,0.0011001474997612,-0.0011001466989987,0.0011001474898045,-0.0011001475725522,0.0011001465190773,-0.0011001477826777,0.0011001464959998,-0.00092545901254645,0.00092545808530016,-0.00092545938419965,0.00092545783467194,5.1795900200215e-11,2.0209453215077e-10,-2.8838206900222e-09,3.1322458393338e-09,-0.0017187983433739,0.0017187985969244,-0.0018946186845478,0.0018946167629184,-0.0018946165560101,0.0018946189358302,-0.001894618505242,0.0018946169262353,-0.0018946166512425,0.0018946188142831,-0.0015210261222857,0.0015210209099582,-0.0015210205969021,0.0015210264055625,-0.0015210222874319,0.001521024748088,-0.0015210224847316,0.00152102455506,-6.7059641497146e-11,9.7155477295903e-11,-0.00092277115908434,0.00092277119462608,1.5148872328231e-09,-1.4552648535088e-09,-0.0011001466414427,0.0011001475499624,-0.0011001475787808,0.0011001466514813,-0.0011001465173617,0.0011001476868026,-0.0011001475481874,0.0011001465800763,-0.00092545904208315,0.00092545803875825,-0.00092545906102772,0.00092545811203541,0.71216092943712,128566,2924,0.0038406724711506,0.0071327419308182,0.0038406724722685,27.2974253093,-1.9220597525598e-05,-1.9220597525598e-05,-1.9220597525598e-05,4188679.8242856,0.014925646420819
31219200,0.996798745204,0.015305817642868,0.0042837622599432,0.0067382931199275,0.0042837622629973,-0.00092513717391015,0.0009251369477067,-5.215503516455e-11,-1.8065387914116e-10,1.411064053118e-09,-1.7066755038525e-09,-0.0011027629989836,0.0011027637687887,-0.0011027629411073,0.0011027637583253,-0.0011027638517092,0.001102762750189,-0.001102764059573,0.0011027627271946,-0.00092796773402499,0.00092796675531965,-0.00092796809681534,0.00092796650210598,2.4135041514578e-12,2.5681417344446e-10,-3.2237677385791e-09,3.4766674843713e-09,-0.0017217430914163,0.0017217433494497,-0.0018975654472371,0.0018975632724486,-0.0018975630997473,0.0018975656733113,-0.0018975652359423,0.0018975634700313,-0.00189756316132,0.0018975655891112,-0.0015238771347516,0.0015238712832149,-0.0015238709491064,0.0015238774683848,-0.0015238729200593,0.0015238755020272,-0.0015238730142113,0.0015238754200337,-8.1095458780577e-11,8.4796717112249e-11,-0.00092513705750665,0.00092513706489407,1.6660902039997e-09,-1.6414591669031e-09,-0.0011027628520256,0.0011027638480083,-0.0011027639033618,0.0011027628356405,-0.0011027627295605,0.0011027639837278,-0.0011027638717152,0.001102762766948,-0.00092796780470742,0.00092796667192989,-0.00092796782571226,0.00092796673748748,0.74546454639467,128566,2924,0.0038505041579381,0.00714490964985,0.0038505041596471,28.603525495784,-8.7717960337313e-06,-8.7717960337313e-06,-8.7717960337313e-06,4203399.3311533,0.014957958589138
31419200,0.9969430962891,0.015308029073918,0.0042843773124633,0.0067392744459373,0.0042843773155172,-0.00092623240848127,0.00092623219040562,-5.2913961979857e-11,-1.7346908106259e-10,1.4072575033118e-09,-1.6795403559597e-09,-0.0011041464812696,0.0011041472446268,-0.0011041464193237,0.0011041472316707,-0.001104147327572,0.001104146234795,-0.0011041475255588,0.0011041462127821,-0.00092920839387422,0.00092920740260644,-0.00092920871727248,0.00092920715209662,1.6931142765211e-11,2.4254650790009e-10,-3.0200066305763e-09,3.2711328042559e-09,-0.0017233932604216,0.0017233935185932,-0.0018991667763105,0.0018991647521814,-0.001899164568651,0.0018991670124745,-0.0018991665759922,0.0018991649385154,-0.0018991646365483,0.0018991669193571,-0.0015254700318948,0.0015254645602766,-0.0015254642980469,0.001525470413768,-0.0015254660690143,0.0015254685314668,-0.0015254661502009,0.0015254683848467,-1.0182154222693e-10,7.4136828415726e-11,-0.00092623231463658,0.00092623228540265,1.7762256220853e-09,-1.8217479798405e-09,-0.001104146297445,0.0011041473614623,-0.001104147449001,0.0011041462495534,-0.001104146174266,0.0011041474999087,-0.0011041474133899,0.0011041461873174,-0.00092920851409381,0.0009292072782621,-0.00092920854661558,0.00092920732195783,0.71243068273166,128566,2924,0.0038550619031849,0.0071517209429705,0.0038550619055697,29.222315757765,-3.8214739378767e-06,-3.8214739378767e-06,-3.8214739378767e-06,4201927.7355886,0.014974129908089
31619200,0.9970793193048,0.015310013331104,0.004284924947072,0.0067401634339063,0.0042849249501255,-0.00092587269687955,0.00092587249330676,-4.0620993089633e-11,-1.7216707092083e-10,1.3434307649193e-09,-1.5949743350113e-09,-0.0011039081325929,0.0011039088612964,-0.001103908072173,0.0011039088458682,-0.0011039089263644,0.0011039079010639,-0.0011039091311792,0.0011039078741518,-0.00092889984709994,0.00092889893443346,-0.00092890018640154,0.00092889866554023,8.355651405291e-11,1.6782311853069e-10,-2.8344042931298e-09,3.0776401890283e-09,-0.001723282691237,0.0017232829411644,-0.0018990514005919,0.0018990495263762,-0.0018990493034164,0.0018990516728333,-0.0018990512426051,0.0018990496657325,-0.0018990494173089,0.0018990515296869,-0.0015253255358429,0.0015253203753331,-0.0015253201757461,0.0015253258777631,-0.0015253217173884,0.0015253241925497,-0.0015253219330267,0.0015253238979957,-6.0652759539168e-11,1.0634604949484e-10,-0.0009258725744924,0.00092587261753083,1.4234435293067e-09,-1.3956291670035e-09,-0.0011039080267045,0.001103908901788,-0.0011039089139922,0.0011039080523609,-0.0011039079043498,0.0011039090389792,-0.0011039088829374,0.0011039079845269,-0.00092889984842573,0.00092889893705329,-0.00092889986168025,0.00092889899393278,0.68058195823492,128566,2924,0.0038535736420043,0.0071512574134834,0.0038535736458042,29.011504973257,-5.5079602139471e-06,-5.5079602139471e-06,-5.5079602139471e-06,4192714.712084,0.014970640215893
31819200,0.99720669714502,0.015311801600665,0.0042854159863038,0.0067409696250032,0.0042854159893582,-0.00092524552586684,0.00092524533771643,-3.4893309448789e-11,-1.6231806757898e-10,1.2832517687011e-09,-1.5178669859114e-09,-0.0011032759433582,0.0011032766389571,-0.0011032758856424,0.0011032766313889,-0.0011032766964077,0.0011032757300876,-0.0011032768963943,0.0011032756996734,-0.00092825769864024,0.00092825683699333,-0.00092825802737525,0.00092825657308967,1.4907297080542e-10,9.8229898261683e-11,-2.4822212427861e-09,2.7225036310888e-09,-0.0017227177990981,0.0017227180459661,-0.0018985269935674,0.0018985253971005,-0.0018985251298989,0.0018985273012993,-0.0018985268806407,0.0018985254945658,-0.0018985252905227,0.0018985271125408,-0.0015247250728029,0.0015247205627613,-0.0015247203961771,0.0015247253438994,-0.001524721639838,0.0015247240071555,-0.0015247219806609,0.0015247235786586,-4.3980929644407e-11,1.3098790000424e-10,-0.0009252453884952,0.00092524547594558,1.2129143932685e-09,-1.1289284107748e-09,-0.0011032758803912,0.0011032766393018,-0.0011032766120951,0.0011032759462394,-0.0011032757564467,0.0011032767816685,-0.0011032765818285,0.0011032758820691,-0.00092825761621157,0.00092825691294535,-0.00092825764146215,0.00092825695821101,0.65806102518549,128566,2924,0.003850970535278,0.007148920745128,0.0038509705370457,28.629493082037,-8.564055343707e-06,-8.564055343707e-06,-8.564055343707e-06,4186229.6625014,0.014962983420636
32019200,0.99732804494361,0.015313677964354,0.0042859393291798,0.0067417993029407,0.0042859393322338,-0.00092521143215542,0.00092521124079229,-3.2560235439511e-11,-1.6491908880873e-10,1.2473089771239e-09,-1.5043873392053e-09,-0.0011031849043286,0.0011031855857934,-0.0011031848489042,0.0011031855757383,-0.0011031856359124,0.0011031846906313,-0.0011031858420267,0.0011031846630241,-0.0009281918868728,0.0009281910568826,-0.00092819224103326,0.00092819081073115,1.6927005450426e-10,7.3191653692279e-11,-2.366946131244e-09,2.6053126432518e-09,-0.0017227119202017,0.0017227121608775,-0.0018985929579269,0.0018985914437345,-0.0018985911640367,0.0018985932641703,-0.0018985928583106,0.001898591525108,-0.0018985913367066,0.0018985930622838,-0.0015246673414205,0.0015246630323126,-0.0015246627783094,0.0015246674973957,-0.001524664002209,0.0015246663364501,-0.0015246644408715,0.0015246659233618,-2.773006708975e-11,1.4523470761779e-10,-0.00092521127478179,0.00092521139917995,1.1110857237409e-09,-9.4624920214633e-10,-0.0011031848669905,0.0011031855567456,-0.0011031855034511,0.0011031849546,-0.0011031847405537,0.0011031856954996,-0.0011031854696975,0.0011031848894359,-0.00092819175790653,0.00092819117554393,-0.0009281917906646,0.00092819121631763,0.71766731752666,128566,2924,0.0038508277302238,0.0071488986663431,0.0038508277324406,28.55932164841,-9.1254268127197e-06,-9.1254268127197e-06,-9.1254268127197e-06,4188602.2425271,0.014962669096929
32219200,0.99744502101324,0.015315529775135,0.0042864573372848,0.0067426150975108,0.0042864573403397,-0.00092548709132138,0.00092548689951124,-3.1711582368956e-11,-1.654327499324e-10,1.2591445589686e-09,-1.517751160538e-09,-0.0011035854424492,0.0011035861317639,-0.0011035853936957,0.001103586127905,-0.0011035861854529,0.0011035852341183,-0.0011035863915782,0.0011035852010473,-0.00092852962030773,0.00092852879433159,-0.00092852997816033,0.00092852852917641,1.659515062954e-10,7.7196340940068e-11,-2.4959927342529e-09,2.734758710881e-09,-0.0017232526796586,0.0017232529192246,-0.001899121136954,0.0018991195346743,-0.0018991192623005,0.001899121440103,-0.0018991210357049,0.001899119622817,-0.0018991194377255,0.0018991212417945,-0.0015251755358134,0.0015251709769413,-0.0015251707266178,0.0015251756942722,-0.00152517202891,0.0015251744414408,-0.0015251724766672,0.0015251740492207,-1.6609066997787e-11,1.5830994139805e-10,-0.0009254869210656,0.00092548707073491,9.8838544638542e-10,-7.9705964037419e-10,-0.0011035854421643,0.0011035860698268,-0.0011035859910631,0.0011035855556463,-0.0011035853164958,0.0011035862117952,-0.0011035859609167,0.0011035854905362,-0.00092852944193468,0.00092852896546205,-0.00092852945999702,0.00092852900739388,0.73341165383291,128566,2924,0.0038519772387853,0.0071511290801765,0.0038519772408885,28.694150525631,-8.0467957949488e-06,-8.0467957949488e-06,-8.0467957949488e-06,4184658.3572103,0.014967268956047
32419200,0.99755865683276,0.015317376465956,0.004286975657088,0.0067434251487243,0.0042869756601438,-0.00092599429439974,0.00092599409441365,-3.4528371512834e-11,-1.7233904054181e-10,1.2755965370411e-09,-1.542500130121e-09,-0.0011042691916011,0.0011042698907367,-0.0011042691364463,0.0011042698769889,-0.0011042699442022,0.0011042689717305,-0.0011042701563841,0.0011042689452471,-0.00092913234889927,0.00092913150543177,-0.00092913272300292,0.00092913124353368,1.3213962393108e-10,1.1293133014303e-10,-2.3937064696752e-09,2.6341803473633e-09,-0.0017241102147409,0.0017241104596227,-0.0018999430281105,0.0018999414843978,-0.001899941223313,0.0018999433186022,-0.0018999429040362,0.0018999415908035,-0.0018999413725225,0.0018999431424001,-0.0015260022350231,0.0015259979151084,-0.001525997648136,0.0015260024318882,-0.0015259989223344,0.0015260011996196,-0.0015259992827033,0.0015260008589285,-4.1176592794752e-11,1.3214735581987e-10,-0.00092599414616435,0.00092599424373008,1.224550506852e-09,-1.0926842585364e-09,-0.0011042691310092,0.0011042698829119,-0.0011042698563608,0.001104269196521,-0.0011042690057973,0.0011042700219913,-0.0011042698223032,0.0011042691295397,-0.00092913228105389,0.00092913156395809,-0.00092913230643059,0.00092913162083579,0.75109667487163,128566,2924,0.003854089974417,0.00715466693182,0.0038540899767577,28.971860235466,-5.8251181162751e-06,-5.8251181162751e-06,-5.8251181162751e-06,4181213.6868975,0.014975152258072
32619200,0.99767193240162,0.015319070372365,0.0042874453232311,0.0067441797228478,0.0042874453262866,-0.00092729784149641,0.00092729763359918,-4.1342986393527e-11,-1.7298982109686e-10,1.3317659104821e-09,-1.6045238138989e-09,-0.0011058371158422,0.0011058378453296,-0.0011058370626845,0.0011058378322192,-0.0011058379131355,0.0011058368863691,-0.0011058381149583,0.0011058368609168,-0.00093058701973672,0.00093058610797364,-0.00093058736517599,0.00093058585862506,8.2164989915958e-11,1.6862377954164e-10,-2.5818324232623e-09,2.8271678477864e-09,-0.0017259391582797,0.0017259394074572,-0.0019017173726025,0.0019017156671176,-0.0019017154404574,0.0019017176337269,-0.0019017172190145,0.0019017158069835,-0.0019017155530938,0.0019017174953847,-0.0015277872643031,0.0015277825899034,-0.0015277822944537,0.001527787513803,-0.0015277837732023,0.0015277860680986,-0.0015277840133463,0.0015277858371634,-7.2056630807626e-11,1.1030814116338e-10,-0.00092729771542213,0.00092729776012086,1.44371007306e-09,-1.3757326364198e-09,-0.0011058370128946,0.0011058378814201,-0.0011058379069129,0.0011058370246145,-0.001105836887897,0.0011058380207735,-0.0011058378676768,0.0011058369650089,-0.00093058700801891,0.00093058610114415,-0.0009305870546851,0.00093058613383875,0.69654115953873,128566,2924,0.0038595121255127,0.0071622177452784,0.0038595121265201,29.721661201953,1.7328961562085e-07,1.7328961562085e-07,1.7328961562085e-07,4183376.1422825,0.014993828600683
32819200,0.99777487242114,0.015320482492787,0.0042878314356739,0.0067448196183845,0.0042878314387288,-0.00092579762768918,0.00092579743560402,-3.2383676230332e-11,-1.6991050995809e-10,1.3024809407888e-09,-1.5318425360561e-09,-0.0011043333685166,0.0011043340753544,-0.0011043333118863,0.001104334056047,-0.0011043341304035,0.0011043331486088,-0.0011043343339292,0.0011043331192387,-0.00092905761345988,0.00092905674120606,-0.00092905794243887,0.00092905646184861,1.299518528248e-10,1.1568497866802e-10,-2.4423821401374e-09,2.6790842174632e-09,-0.0017244337655496,0.0017244340092604,-0.0019002280139089,0.0019002264229057,-0.0019002261684944,0.0019002283077337,-0.0019002278886271,0.0019002265272839,-0.0019002263122738,0.0019002281321354,-0.0015262802895569,0.0015262758513491,-0.0015262757196764,0.0015262806237256,-0.0015262769112461,0.0015262792094954,-0.0015262772032708,0.001526278803378,-4.3523710711396e-11,1.3348387468131e-10,-0.0009257974897805,0.00092579757584299,1.1486187856316e-09,-1.0902572722168e-09,-0.001104333328011,0.0011043340529651,-0.001104334023534,0.0011043333948252,-0.0011043332044144,0.001104334192608,-0.0011043339885918,0.0011043333317114,-0.00092905751229001,0.00092905685894727,-0.00092905753129968,0.00092905689889416,0.64446385705095,128566,2924,0.0038532844052279,0.0071559910997121,0.003853284409985,28.865969416295,-6.6722446696429e-06,-6.6722446696429e-06,-6.6722446696429e-06,4168063.280799,0.014974865246282
33019200,0.99787156574289,0.015321926986838,0.004288232477622,0.0067454620285392,0.0042882324806764,-0.00092534038215599,0.00092534018358708,-3.323842804656e-11,-1.7276170850695e-10,1.2865081348666e-09,-1.5475503155472e-09,-0.0011037349211358,0.0011037356261759,-0.0011037348690319,0.001103735614037,-0.0011037356823735,0.0011037347030264,-0.0011037358916824,0.0011037346747391,-0.00092852606268173,0.00092852520846543,-0.00092852642882559,0.00092852494615223,1.3158492922956e-10,1.1422674498076e-10,-2.4653574366697e-09,2.7062453411213e-09,-0.0017238594454878,0.0017238596913245,-0.0018997425385936,0.0018997409363693,-0.0018997406775173,0.0018997428321354,-0.001899742415117,0.0018997410427925,-0.0018997408257835,0.001899742655548,-0.0015256675233376,0.0015256630541877,-0.0015256628035228,0.0015256677400529,-0.0015256641232283,0.0015256664451829,-0.0015256644640849,0.0015256660958318,-3.8726704010334e-11,1.4101267469451e-10,-0.00092534022895749,0.00092534033726701,1.1485167484547e-09,-1.0109006011337e-09,-0.0011037348870073,0.0011037355953652,-0.0011037355576131,0.001103734963154,-0.0011037347606785,0.0011037357361867,-0.0011037355216234,0.0011037348995817,-0.00092852594583567,0.0009285253108518,-0.00092852598252748,0.00092852535722457,0.69524391746228,128566,2924,0.0038513818982007,0.0071536216478087,0.0038513818992651,28.558311745843,-9.1335060332534e-06,-9.1335060332534e-06,-9.1335060332534e-06,4170128.9868762,0.014968594104939
33219200,0.99796494835806,0.01532339708025,0.0042886437129239,0.0067461096513479,0.0042886437159783,-0.00092568536680833,0.000925685161642,-3.5872828863379e-11,-1.7620371251234e-10,1.3157434409337e-09,-1.5864066267783e-09,-0.0011041238044769,0.0011041245262033,-0.0011041237533193,0.0011041245151679,-0.0011041245887768,0.0011041235817672,-0.0011041247981279,0.0011041235523857,-0.00092889681391012,0.00092889593258827,-0.00092889718133264,0.00092889566943389,1.0131408810062e-10,1.4877589046926e-10,-2.6320475705181e-09,2.8771650665234e-09,-0.0017243576952689,0.0017243579449539,-0.0019002586159885,0.0019002568849882,-0.0019002566463327,0.0019002588933004,-0.0019002584719219,0.0019002570142356,-0.0019002567748191,0.0019002587386127,-0.0015261307668632,0.0015261259926818,-0.0015261257139331,0.0015261310040151,-0.0015261271922901,0.0015261295644444,-0.0015261274729172,0.0015261292852783,-5.1504438549021e-11,1.3031031125834e-10,-0.000925685221705,0.00092568530703016,1.2648749402329e-09,-1.1491636869393e-09,-0.0011041237480576,0.0011041245176649,-0.0011041245036783,0.0011041238007603,-0.0011041236209916,0.0011041246596163,-0.0011041244677599,0.0011041237378974,-0.00092889673579462,0.00092889599360123,-0.00092889677528308,0.00092889603840664,0.72923014349157,128566,2924,0.0038528163146955,0.0071556798919985,0.0038528163153562,28.726354659649,-7.7891627228047e-06,-7.7891627228047e-06,-7.7891627228047e-06,4171476.8713219,0.014973595561887
33419200,0.99805654248658,0.015324868208735,0.0042890562137184,0.0067467557782439,0.0042890562167729,-0.0009264961305225,0.00092649592118259,-3.2480235355885e-11,-1.8019190035276e-10,1.3514424947069e-09,-1.632205073873e-09,-0.0011050958610885,0.0011050966012079,-0.0011050958131164,0.0011050965963723,-0.0011050966684821,0.0011050956395941,-0.0011050968764571,0.0011050955919481,-0.00092979743469401,0.00092979654230631,-0.00092979780267022,0.00092979625564573,5.7063510278343e-11,1.9642751145083e-10,-2.8577174867512e-09,3.1060938100839e-09,-0.001725500094228,0.0017255003392047,-0.0019013736942325,0.0019013717681586,-0.0019013715764381,0.001901373921699,-0.0019013735178995,0.0019013719399238,-0.0019013716820232,0.0019013737952311,-0.0015272411903324,0.0015272359928693,-0.0015272356256254,0.0015272414206298,-0.0015272373409765,0.0015272397981998,-0.0015272375872483,0.0015272396540492,-6.8400315670985e-11,1.0896445822209e-10,-0.00092649600148359,0.0009264960510016,1.4346862662017e-09,-1.347523506921e-09,-0.0011050957716828,0.0011050966267543,-0.0011050966469387,0.0011050957804249,-0.0011050956408434,0.0011050967734229,-0.0011050966197264,0.0011050957133306,-0.00092979743252484,0.00092979653319009,-0.00092979744832616,0.000929796569279,0.7427885791045,128566,2924,0.0038561885689857,0.0071603967176777,0.0038561885706938,29.176734620343,-4.1861230372594e-06,-4.1861230372594e-06,-4.1861230372594e-06,4172384.3335005,0.014985232074632
33619200,0.99814528381354,0.015326293785389,0.0042894557579678,0.0067473822663981,0.004289455761023,-0.00092693794148444,0.00092693773123627,-4.2542085828039e-11,-1.747532001883e-10,1.3830283707911e-09,-1.644975109169e-09,-0.0011057189591268,0.0011057197145734,-0.0011057189058993,0.0011057196988522,-0.0011057197899054,0.0011057187249373,-0.0011057199875441,0.0011057186979841,-0.00093033613744031,0.00093033517262501,-0.00093033645888815,0.00093033492297646,4.7401363391474e-11,2.0896651368704e-10,-2.8813247518008e-09,3.1297971758447e-09,-0.0017262805728033,0.0017262808265641,-0.0019021062617045,0.0019021043392565,-0.0019021041407255,0.0019021065078321,-0.0019021060854331,0.001902104503892,-0.0019021042278501,0.0019021063943611,-0.0015280025322012,0.001527997285737,-0.0015279970337042,0.0015280028809955,-0.0015279987076511,0.0015280011223942,-0.0015279988348765,0.0015280009351876,-9.5100312721314e-11,9.9941133386739e-11,-0.00092693783309688,0.00092693783959741,1.5747769745268e-09,-1.5772374974247e-09,-0.0011057188308843,0.0011057197776274,-0.0011057198370544,0.001105718810477,-0.0011057187040859,0.0011057199219986,-0.0011057197946668,0.0011057187567639,-0.00093033616067185,0.00093033513986893,-0.00093033622214717,0.00093033515196146,0.74303226962176,128566,2924,0.0038580298936832,0.0071636155104339,0.0038580298936012,29.431385864482,-2.1489130841456e-06,-2.1489130841456e-06,-2.1489130841456e-06,4168576.5809522,0.014992240772528
33819200,0.99823163027413,0.015327685425675,0.0042898459230081,0.0067479935766049,0.0042898459260616,-0.00092752387324348,0.00092752365020523,-2.8517362042106e-11,-2.0189691004213e-10,1.3667380933982e-09,-1.6596209109263e-09,-0.0011064906117848,0.001106491360607,-0.001106490552047,0.0011064913351358,-0.0011064914137958,0.0011064903721403,-0.0011064916533987,0.0011064903322103,-0.00093102767665122,0.00093102680868527,-0.00093102812529003,0.00093102649127768,2.1910994634154e-11,2.2807097017665e-10,-3.1462584453759e-09,3.3905812176006e-09,-0.0017272283188616,0.001727228567133,-0.0019030090066185,0.0019030068743484,-0.0019030066908511,0.001903009234988,-0.0019030087958318,0.0019030070594429,-0.0019030067714409,0.0019030091243735,-0.0015289269129681,0.0015289212062912,-0.0015289208728201,0.001528927216826,-0.0015289227484668,0.0015289253423593,-0.0015289229239156,0.0015289252073546,-5.6661083638377e-11,9.7969363118831e-11,-0.00092752374121613,0.00092752378468536,1.5138447236711e-09,-1.4455513261529e-09,-0.001106490498483,0.001106491401458,-0.0011064914187211,0.0011064905140899,-0.0011064903665159,0.0011064915389609,-0.001106491395266,0.0011064904300577,-0.00093102775206704,0.00093102673693641,-0.00093102772874552,0.00093102684049118,0.74517939985618,128566,2924,0.0038604700212409,0.0071675252837079,0.0038604700264647,29.775183406322,6.0146725057521e-07,6.0146725057521e-07,6.0146725057521e-07,4166654.9051088,0.015001166281297
34019200,0.99831596235178,0.015329002666858,0.004290213535907,0.0067485755919903,0.0042902135389609,-0.0009282492826323,0.00092824906346202,-6.330139907174e-11,-1.6231941780002e-10,1.3920743787781e-09,-1.6774377437225e-09,-0.0011074107708586,0.0011074115358069,-0.0011074107179287,0.0011074115180641,-0.0011074116245201,0.0011074105181412,-0.0011074117999183,0.0011074105151074,-0.00093186455800741,0.00093186351884034,-0.00093186482712306,0.0009318633357595,3.8272074990851e-11,2.1549808532848e-10,-2.9173838436909e-09,3.1649800725019e-09,-0.0017283428140619,0.0017283430644773,-0.0019040786929348,0.0019040767608812,-0.0019040765679133,0.0019040789279343,-0.0019040785243644,0.0019040769169463,-0.0019040766376899,0.001904078833413,-0.001530015455535,0.00153001011639,-0.001530009794546,0.0015300157483256,-0.0015300115807809,0.0015300139783497,-0.0015300116991353,0.0015300138820705,-1.3182347793103e-10,1.0108636122113e-10,-0.00092824918695531,0.00092824916018258,1.8023861141061e-09,-1.817378131864e-09,-0.0011074105874466,0.0011074116511558,-0.0011074117606914,0.0011074105124419,-0.0011074104585611,0.0011074117929524,-0.0011074116911542,0.0011074104836522,-0.00093186460564013,0.00093186345839798,-0.00093186473853093,0.00093186339745005,0.72426718209449,128566,2924,0.0038634896454232,0.0071721240504971,0.0038634896476568,30.203982467231,4.0318597378461e-06,4.0318597378461e-06,4.0318597378461e-06,4166265.5375929,0.015011967635867
34219200,0.99839684551958,0.015330230861951,0.0042905548649467,0.0067491211290041,0.0042905548680004,-0.00092845444424332,0.00092845423541076,-5.7317622919788e-11,-1.5936905236359e-10,1.3792899619252e-09,-1.6360084905636e-09,-0.0011077282269184,0.0011077289791587,-0.0011077281700457,0.00110772895806,-0.0011077290592845,0.0011077279787175,-0.0011077292394505,0.0011077279745371,-0.00093213020671043,0.00093212920012103,-0.00093213047964097,0.00093212899852702,6.0066821117494e-11,1.916313292062e-10,-2.8805258133254e-09,3.1240441397724e-09,-0.0017287991438675,0.0017287993928739,-0.0019045202130419,0.0019045182997593,-0.0019045180937784,0.0019045204664243,-0.0019045200522562,0.001904518441539,-0.0019045181787088,0.0019045203525319,-0.0015304490720664,0.0015304437825211,-0.0015304435648421,0.001530449431169,-0.0015304452261942,0.0015304476353518,-0.0015304453516917,0.00153044744271,-1.2195008139108e-10,1.0952016385136e-10,-0.00092845434688714,0.00092845433352567,1.6706288074661e-09,-1.7064004373622e-09,-0.0011077280700385,0.0011077290695021,-0.0011077291561874,0.0011077280199508,-0.0011077279405331,0.0011077292133934,-0.0011077290895105,0.0011077279870837,-0.00093213022582192,0.00093212917362249,-0.00093213034192572,0.00093212913088438,0.70594539898668,128566,2924,0.0038643464448633,0.0071740046632091,0.003864346446419,30.330284292936,5.0422743434874e-06,5.0422743434874e-06,5.0422743434874e-06,4164450.6217531,0.015015617343852
34419200,0.99847528737046,0.015331427318001,0.0042908876901533,0.0067496519346411,0.0042908876932066,-0.00092904607321518,0.00092904586213776,-4.3155426350098e-11,-1.7560019992e-10,1.3502660925827e-09,-1.6249989601619e-09,-0.0011083889855117,0.0011083897282382,-0.0011083889342328,0.001108389711072,-0.0011083897977682,0.0011083887529151,-0.001108389999141,0.001108388731265,-0.0009327667058888,0.00093276577159775,-0.0009327670449326,0.00093276552266746,6.8424964840764e-11,1.8258825958342e-10,-2.9028492501245e-09,3.1478935551892e-09,-0.0017296112941402,0.0017296115449132,-0.0019053451299479,0.0019053432020431,-0.001905342986815,0.0019053453920209,-0.0019053449672587,0.0019053433481748,-0.0019053430877338,0.001905345264753,-0.0015312229347518,0.0015312176266369,-0.0015312173515626,0.0015312232194104,-0.0015312190498462,0.0015312215137199,-0.0015312192398233,0.0015312213126479,-9.0920035368933e-11,1.1365865402948e-10,-0.00092904595560622,0.00092904598092017,1.5782738196711e-09,-1.5392058817507e-09,-0.0011083888519465,0.0011083897955597,-0.0011083898444522,0.0011083888418201,-0.001108388722404,0.0011083899391551,-0.0011083897952278,0.0011083887915171,-0.0009327667263413,0.0009327657364462,-0.00093276679926846,0.0009327657446108,0.70868168222869,128566,2924,0.0038668061171243,0.00717735894163,0.0038668061196355,30.662632414535,7.7010593162791e-06,7.7010593162791e-06,7.7010593162791e-06,4168963.4734582,0.015024015815983
34619200,0.99855600442558,0.015332711207177,0.0042912469929918,0.0067502172181403,0.0042912469960453,-0.00093156727360194,0.00093156704923572,-4.2959744618482e-11,-1.8664001532585e-10,1.3838530709353e-09,-1.6883998737487e-09,-0.0011110784227872,0.0011110791889445,-0.0011110783732311,0.001111079172035,-0.0011110792626183,0.0011110781834381,-0.0011110794723519,0.0011110781572632,-0.00093540820422105,0.00093540725317207,-0.00093540857925514,0.00093540700387867,2.0014244107993e-11,2.3568160908862e-10,-3.106074119803e-09,3.3576432561268e-09,-0.0017326127427565,0.0017326129977412,-0.0019083607821907,0.0019083586901814,-0.00190835850624,0.0019083610123714,-0.0019083605867622,0.0019083588739382,-0.0019083585777711,0.0019083609174353,-0.0015341411856455,0.0015341355245527,-0.0015341351352551,0.001534141442216,-0.0015341370964611,0.0015341396164665,-0.0015341372264815,0.0015341395511675,-1.034662023881e-10,9.3539813030917e-11,-0.00093156716228578,0.00093156716067128,1.7735719969165e-09,-1.7325747090172e-09,-0.0011110782513505,0.0011110792901025,-0.0011110793708108,0.0011110782083541,-0.0011110781204083,0.0011110794330821,-0.0011110793247809,0.0011110781526552,-0.00093540829982343,0.00093540712746869,-0.00093540837164057,0.00093540715094959,0.73613946111748,128566,2924,0.0038772800744488,0.0071897627885082,0.0038772800748554,32.086663608751,1.9093308870008e-05,1.9093308870008e-05,1.9093308870008e-05,4190748.0857727,0.015057872282227
34819200,0.9986389135018,0.015334041110596,0.0042916191169045,0.0067508028737333,0.0042916191199587,-0.00093416110103203,0.00093416088189889,-2.5902198639435e-11,-1.9774262839583e-10,1.4233420902934e-09,-1.7048671453907e-09,-0.001113946621679,0.0011139474085239,-0.0011139465681097,0.0011139473803052,-0.0011139474697218,0.0011139463838349,-0.001113947676332,0.0011139463285282,-0.00093817051015148,0.00093816955463466,-0.00093817088076798,0.00093816926679912,-1.9535413383001e-11,2.7049011271273e-10,-3.1572486179867e-09,3.4010305709094e-09,-0.0017358341694032,0.0017358344098294,-0.0019115605176317,0.0019115583325132,-0.0019115582059046,0.0019115606829454,-0.0019115602975564,0.0019115585516973,-0.001911558256591,0.0019115606048922,-0.0015372824776432,0.0015372767310034,-0.0015372763280805,0.0015372828150515,-0.0015372783494472,0.0015372808733276,-0.0015372783936833,0.00153728085729,-1.2191104741074e-10,4.887410934449e-11,-0.0009341610251483,0.00093416095807025,1.9477176913556e-09,-2.006204255055e-09,-0.0011139464120158,0.0011139475425861,-0.0011139476690944,0.0011139463033473,-0.0011139462846123,0.001113947685282,-0.0011139476384336,0.0011139462368493,-0.00093817071128128,0.0009381693377922,-0.00093817074833415,0.00093816937087816,0.74236297447861,128566,2924,0.0038880592165876,0.0072030711910674,0.0038880592172136,33.575282204692,3.1002257637534e-05,3.1002257637534e-05,3.1002257637534e-05,4208871.9073068,0.015093270076419
35019200,0.99872142905556,0.015335322573147,0.0042919756156347,0.0067513713388238,0.0042919756186884,-0.00093588034628246,0.00093588012868728,-4.3168166289946e-11,-1.8140150625221e-10,1.4126988339891e-09,-1.6848283340627e-09,-0.00111592892814,0.0011159297027285,-0.001115928874411,0.0011159296829063,-0.0011159297787173,0.0011159286878986,-0.0011159299812634,0.0011159286609264,-0.00094004220599584,0.00094004122205231,-0.0009400425416415,0.00094004096748404,9.8299092324322e-12,2.4448307362169e-10,-3.180104529166e-09,3.4261817459701e-09,-0.0017381194678615,0.001738119720083,-0.0019138141348796,0.0019138119815946,-0.0019138118104394,0.0019138143573477,-0.0019138139335021,0.0019138121698856,-0.0019138118743051,0.001913814267941,-0.0015395063692953,0.0015395005551662,-0.0015395002756139,0.0015395067465487,-0.0015395021934442,0.0015395047417414,-0.0015395022565716,0.0015395046348565,-1.1480590286877e-10,9.2225103212322e-11,-0.0009358802488384,0.00093588022670098,1.77187967141e-09,-1.8057377805137e-09,-0.0011159287560846,0.001115929807387,-0.0011159298996421,0.0011159287024612,-0.0011159286239782,0.0011159299546638,-0.0011159298521189,0.0011159286512616,-0.00094004229977365,0.00094004112440509,-0.00094004237092147,0.00094004112800204,0.72136734163405,128566,2924,0.0038952073214561,0.0072125081705158,0.003895207322622,34.584222697223,3.9073781577787e-05,3.9073781577787e-05,3.9073781577787e-05,4217830.2115759,0.01511736669981
35219200,0.99880215975359,0.015336539156499,0.0042923124079416,0.0067519143375628,0.0042923124109947,-0.00093717345763842,0.00093717324527808,-4.7910830970972e-12,-2.1742231866895e-10,1.3616042293758e-09,-1.6286295864547e-09,-0.0011174038928094,0.0011174046625231,-0.0011174038527579,0.0011174046104567,-0.0011174047019674,0.0011174036761029,-0.0011174049326217,0.0011174036285126,-0.00094144364298921,0.00094144276960123,-0.00094144406210239,0.00094144244992069,4.3381254026585e-11,2.0946899627771e-10,-2.7465490060485e-09,2.9922376779576e-09,-0.0017398523216686,0.0017398525756178,-0.0019155447826841,0.0019155429410714,-0.0019155427381858,0.0019155450284778,-0.0019155446021058,0.0019155431029339,-0.0019155428206409,0.001915544911675,-0.0015411774565882,0.0015411724872636,-0.0015411722078208,0.0015411778022804,-0.0015411738137519,0.001541176154648,-0.0015411739251142,0.0015411759618358,-8.3609469229283e-11,5.0988110995268e-11,-0.00093717336884907,0.00093717333562939,1.8292519584907e-09,-1.868804105992e-09,-0.0011174036924982,0.0011174047884358,-0.0011174048702559,0.0011174036499112,-0.0011174035821944,0.0011174049107707,-0.0011174048435616,0.0011174035724156,-0.00094144385223235,0.00094144255159472,-0.00094144386512293,0.00094144263631247,0.70214463298857,128566,2924,0.0039005835736368,0.0072196640155696,0.0039005835769082,35.345420193487,4.5163361547896e-05,4.5163361547896e-05,4.5163361547896e-05,4225897.5346241,0.015135548763151
35419200,0.99888017875306,0.015337676627465,0.0042926256189518,0.0067524253865084,0.0042926256220049,-0.00093817531647899,0.00093817511923435,2.6669643880172e-11,-2.3167211983835e-10,1.3178234483707e-09,-1.5695755529854e-09,-0.0011185140441234,0.00111851480501,-0.0011185140290477,0.001118514750847,-0.0011185148244106,0.001118513865693,-0.0011185150654765,0.0011185137896685,-0.00094251143895246,0.0009425106760848,-0.0009425118943258,0.00094251027890608,8.7021688664793e-11,1.6234557480707e-10,-2.4828202718979e-09,2.7253169275562e-09,-0.0017411788880071,0.0017411791347488,-0.001916896074131,0.0019168944127674,-0.0019168941865744,0.0019168963341515,-0.0019168959207849,0.0019168945505545,-0.0019168943055421,0.001916896187719,-0.0015424407246151,0.0015424362315039,-0.0015424359758443,0.0015424410102904,-0.0015424373499744,0.001542439595545,-0.0015424375863601,0.0015424393277171,-4.765208591222e-11,4.4303500550197e-11,-0.00093817521927191,0.00093817521763683,1.6683989539395e-09,-1.6725401214922e-09,-0.0011185138801035,0.0011185149038401,-0.0011185149376108,0.0011185138814247,-0.0011185137831435,0.001118515016319,-0.0011185149326418,0.0011185137895327,-0.00094251165012298,0.00094251045167198,-0.00094251159384622,0.0009425105741255,0.68162530712687,128566,2924,0.003904747946108,0.0072251432483775,0.0039047479486091,35.930430630183,4.9843445041468e-05,4.9843445041468e-05,4.9843445041468e-05,4234018.6275152,0.015149566934696
35619200,0.99895628944531,0.015338742143928,0.004292917089948,0.0067529079609785,0.0042929170930012,-0.0009395943978659,0.00093959419774218,-3.2802457297152e-11,-1.7426226760156e-10,1.3056777054497e-09,-1.5687040032283e-09,-0.0011200003853399,0.0011200011047381,-0.001120000336024,0.0011200010904257,-0.0011200011621251,0.001120000166898,-0.001120001367378,0.0011200001367772,-0.00094398091890889,0.00094398004302845,-0.00094398127344291,0.00094397978335995,1.145117942727e-10,1.3212879067379e-10,-2.6586789348306e-09,2.9000308811649e-09,-0.0017428949758643,0.001742895220875,-0.0019186670804189,0.001918665317835,-0.0019186650760935,0.0019186673596534,-0.0019186669490522,0.0019186654345576,-0.0019186652117295,0.0019186671954359,-0.001544076517066,0.0015440716527156,-0.0015440713816557,0.0015440767502696,-0.0015440728723886,0.001544075288266,-0.0015440731753129,0.0015440749896543,-6.7195859668495e-11,1.449733400307e-10,-0.00093959425652285,0.00093959433992201,1.3200589958097e-09,-1.2110109120481e-09,-0.0011200003153985,0.0011200011094975,-0.001120001107035,0.0011200003540267,-0.0011200001797576,0.0011200012596943,-0.0011200010583475,0.0011200003032402,-0.00094398083986846,0.00094398010825765,-0.00094398091496994,0.00094398011141286,0.65730119701153,128566,2924,0.003910642705742,0.0072322355460565,0.00391064270755,36.73874841821,5.6309987345678e-05,5.6309987345678e-05,5.6309987345678e-05,4248753.7549536,0.015168735239147
35819200,0.99903097258954,0.015339856538982,0.0042932250283028,0.0067534064793232,0.0042932250313559,-0.0009413559313285,0.0009413557287895,-5.6507979629937e-11,-1.5341002975444e-10,1.3122533029337e-09,-1.5776428042717e-09,-0.0011217837353694,0.0011217844441569,-0.0011217836703483,0.0011217844422744,-0.0011217845165498,0.0011217834986483,-0.0011217847088328,0.0011217834864508,-0.00094577268317886,0.00094577175052123,-0.0009457729988636,0.0009457715479813,1.0988350407555e-10,1.3731261048812e-10,-2.7111511622518e-09,2.953116018568e-09,-0.0017449174689679,0.0017449177156867,-0.0019207788628381,0.0019207770816179,-0.0019207768409756,0.0019207791411409,-0.0019207787282145,0.0019207772008223,-0.001920776972053,0.0019207789809636,-0.0015460006842702,0.001545995726699,-0.0015459954531186,0.0015460009252237,-0.0015459969830552,0.0015459994266222,-0.0015459972687531,0.0015459991360766,-8.1424792043201e-11,1.7796668864607e-10,-0.00094135577898363,0.00094135588175587,1.2410137310589e-09,-1.1096141415947e-09,-0.0011217836860524,0.0011217844268088,-0.0011217844219059,0.0011217837282057,-0.0011217835354964,0.0011217845914416,-0.0011217843565608,0.0011217836931215,-0.00094577251664252,0.00094577190702016,-0.00094577264627059,0.00094577186390874,0.69619442603095,128566,2924,0.003917957271294,0.0072405974524081,0.0039179572726447,37.724587536228,6.419670028982e-05,6.419670028982e-05,6.419670028982e-05,4269662.2624991,0.015192074530756
36019200,0.99910129121651,0.015340971103796,0.0042935354667265,0.0067539001672905,0.0042935354697793,-0.0009418179940123,0.00094181780447619,-1.4900879608209e-11,-1.8365348980492e-10,1.2932469059172e-09,-1.5266348381771e-09,-0.0011223237118798,0.0011223244280383,-0.0011223236671476,0.0011223244006917,-0.0011223244699505,0.0011223235069339,-0.0011223246832361,0.0011223234668381,-0.00094627562947043,0.00094627479458059,-0.00094627599741111,0.00094627450094791,1.3768486788062e-10,1.0758071895347e-10,-2.4299139064452e-09,2.6676387982894e-09,-0.0017456100197844,0.0017456102635695,-0.0019214980419375,0.001921496465787,-0.0019214962074354,0.0019214983352649,-0.0019214979231707,0.0019214965662654,-0.0019214963572111,0.001921498154273,-0.0015466413688466,0.0015466369476671,-0.0015466367736264,0.0015466416585798,-0.0015466380020528,0.001546640308663,-0.0015466383128231,0.0015466399115437,-4.5629392009278e-11,1.4361403867132e-10,-0.00094181785049944,0.00094181794913747,1.1777047055473e-09,-1.0871906906764e-09,-0.0011223236682083,0.0011223244075158,-0.0011223243739641,0.0011223237387684,-0.0011223235408136,0.0011223245513895,-0.0011223243350205,0.0011223236802315,-0.00094627553742923,0.00094627489329415,-0.00094627557991944,0.00094627491837423,0.73586530175629,128566,2924,0.0039198790637193,0.0072434571030213,0.0039198790660552,37.99450216373,6.635601730984e-05,6.635601730984e-05,6.635601730984e-05,4271793.8528996,0.015198880630785
36219200,0.99916608139194,0.015341963521346,0.004293810391837,0.0067543427346194,0.0042938103948891,-0.00094153339247527,0.0009415332115786,4.7968823083544e-11,-2.3705072451751e-10,1.2493303007103e-09,-1.4784435085068e-09,-0.0011221824845712,0.0011221832118354,-0.0011221824805405,0.0011221831600638,-0.0011221832091522,0.0011221823363087,-0.0011221834711615,0.0011221822464118,-0.00094606095488433,0.00094606031412064,-0.00094606146588475,0.00094605986210723,1.6454922719288e-10,7.7692951180731e-11,-2.2263120636358e-09,2.4616558728675e-09,-0.0017455782204089,0.0017455784620393,-0.0019214320316097,0.0019214306024104,-0.0019214303204149,0.001921432343737,-0.00192143192169,0.0019214306925079,-0.0019214305007656,0.0019214321400745,-0.0015465916982565,0.0015465876799761,-0.0015465875310095,0.0015465919403492,-0.0015465885604921,0.0015465907886183,-0.0015465889785795,0.0015465903275427,2.6070494354734e-11,1.0202746779174e-10,-0.00094153323763278,0.00094153336758887,1.0405606019408e-09,-9.1085953579749e-10,-0.0011221824687268,0.0011221831693738,-0.0011221830664318,0.0011221826114607,-0.0011221823736187,0.0011221832835823,-0.0011221830772271,0.0011221825069273,-0.00094606096659429,0.00094606030354606,-0.00094606085636394,0.00094606046898606,0.71361274531013,128566,2924,0.003918703757711,0.0072433178205862,0.0039187037601265,37.867248819207,6.5337990553657e-05,6.5337990553657e-05,6.5337990553657e-05,4261180.6680828,0.015196355736797
36419200,0.99922325330327,0.015342827051918,0.0042940492233169,0.006754728602232,0.0042940492263691,-0.0009397890572371,0.00093978888506629,6.5771190202198e-12,-1.8839412298091e-10,1.2053331943762e-09,-1.4182895848444e-09,-0.0011204376172343,0.0011204382919315,-0.001120437581868,0.0011204382605972,-0.0011204383094402,0.0011204374394072,-0.0011204385347136,0.0011204373883285,-0.00094429762457679,0.00094429690675272,-0.00094429802515046,0.00094429657302542,2.2825189035555e-10,8.8904656964933e-12,-2.0117759216265e-09,2.2421801928754e-09,-0.001743797397808,0.0017437976341204,-0.0019196461262121,0.0019196448755405,-0.0019196445563683,0.0019196464728592,-0.0019196460671928,0.0019196449140559,-0.0019196447697961,0.001919646225966,-0.0015448219489707,0.0015448182936676,-0.0015448181906661,0.001544822162884,-0.001544819003161,0.0015448212157955,-0.0015448195109679,0.0015448206182771,8.5605829543317e-12,1.763806204615e-10,-0.00093978887911607,0.00093978906498692,7.368651170706e-10,-5.5004349509475e-10,-0.0011204376722327,0.0011204381756547,-0.0011204380505916,0.0011204378346239,-0.0011204375501805,0.0011204383154853,-0.0011204380217365,0.0011204377665459,-0.00094429740310933,0.0009442971385735,-0.00094429741048272,0.00094429719330959,0.7043424746392,128566,2924,0.0039114633961669,0.0072359522581659,0.0039114633998698,36.901046175327,5.7608369402617e-05,5.7608369402617e-05,5.7608369402617e-05,4241029.9419224,0.015174176926368
36619200,0.99927511302225,0.015343564669809,0.0042942515569807,0.0067550615527953,0.0042942515600333,-0.00093888026102705,0.00093888008062493,1.2078265263611e-11,-1.9995952681713e-10,1.2018916928059e-09,-1.4430317306359e-09,-0.0011195127488095,0.0011195134315213,-0.0011195127218585,0.0011195133993016,-0.0011195134463617,0.0011195125739414,-0.0011195136829169,0.0011195125194615,-0.00094337576856804,0.00094337507654005,-0.00094337621700547,0.00094337473442319,2.1601366746015e-10,2.1031833550745e-11,-2.0395800650526e-09,2.2726136316841e-09,-0.0017428770557784,0.0017428772933191,-0.0019187349899138,0.0019187337160979,-0.0019187334009713,0.0019187353275669,-0.0019187349223206,0.0019187337646286,-0.0019187336090477,0.0019187350898019,-0.0015438961275596,0.0015438924379603,-0.0015438922417396,0.0015438962631408,-0.0015438931644203,0.0015438953725845,-0.0015438936903459,0.0015438948453885,1.7427341731673e-11,1.7195007783635e-10,-0.00093888007245142,0.00093888026994651,7.507686641209e-10,-5.11400237026e-10,-0.0011195128074619,0.0011195133097497,-0.0011195131785025,0.0011195129769186,-0.0011195126884271,0.0011195134448675,-0.0011195131537007,0.0011195129028684,-0.00094337556190313,0.00094337527385351,-0.00094337556099519,0.00094337535193408,0.66675554475506,128566,2924,0.0039076910266214,0.0072321459579066,0.0039076910282547,36.395401040275,5.35632083222e-05,5.35632083222e-05,5.35632083222e-05,4230594.6630588,0.015162652808855
36819200,0.99932359877715,0.015344234956827,0.0042944347581853,0.0067553654374042,0.0042944347612375,-0.0009389684049972,0.00093896820931746,-1.2356833198404e-11,-1.9026550672537e-10,1.2600558929405e-09,-1.5229718044921e-09,-0.0011195284022773,0.0011195291083537,-0.0011195283651803,0.0011195290838042,-0.0011195291472995,0.0011195282011672,-0.0011195293695189,0.0011195281615942,-0.00094342897644681,0.00094342818049451,-0.00094342938425703,0.00094342788858453,1.55338091175e-10,8.7747821187825e-11,-2.2767663131755e-09,2.5157750129179e-09,-0.0017429436987239,0.0017429439420072,-0.0019188670934211,0.0019188656284602,-0.0019188653523328,0.0019188673960329,-0.0019188669886371,0.0019188657172569,-0.0019188655161527,0.0019188672035213,-0.0015439208988302,0.001543916778705,-0.0015439165146324,0.0015439210686869,-0.0015439177059988,0.0015439199487699,-0.0015439181044197,0.0015439195684197,-2.6100425951374e-11,1.653177445516e-10,-0.00093896823339949,0.00093896838162647,9.9310910316918e-10,-7.989307540374e-10,-0.001119528413931,0.0011195290312721,-0.0011195289631725,0.0011195285200208,-0.0011195282845985,0.0011195291754014,-0.0011195289220165,0.0011195284610498,-0.00094342880486514,0.00094342833779075,-0.00094342885745115,0.00094342836990193,0.64958127018987,128566,2924,0.0039080550198067,0.0072324243888226,0.0039080550213985,36.429636070886,5.3837088567088e-05,5.3837088567088e-05,5.3837088567088e-05,4235234.4658615,0.015163672132977
37019200,0.99936952926063,0.015344913654977,0.0042946223156094,0.006755669020706,0.0042946223186615,-0.00093952448727917,0.00093952427983057,-1.9738289935262e-11,-1.951011876191e-10,1.3313762867305e-09,-1.6013170238347e-09,-0.0011199986478452,0.0011199993895173,-0.0011199986076418,0.001119999363538,-0.0011199994422251,0.001119998432411,-0.0011199996615513,0.0011199983918991,-0.00094394387934393,0.00094394301219515,-0.00094394427408932,0.00094394271954576,8.1313141409934e-11,1.6916217403523e-10,-2.587300087523e-09,2.832008744018e-09,-0.0017434849535166,0.0017434852033246,-0.001919498992084,0.0019194972758623,-0.001919497049206,0.0019194992550086,-0.0019194988368508,0.0019194974166902,-0.0019194971624798,0.0019194991137644,-0.0015444019211559,0.0015443972398926,-0.0015443969555151,0.0015444021860866,-0.0015443984240255,0.0015444007281714,-0.0015443986579461,0.0015444004868169,-6.2132739563927e-11,1.3404884955545e-10,-0.00093952434502541,0.00093952442291415,1.2950682188784e-09,-1.1937361964957e-09,-0.0011199985949844,0.0011199993766275,-0.0011199993743986,0.0011199986350162,-0.0011199984641054,0.0011199995225139,-0.0011199993323447,0.0011199985777352,-0.00094394381595714,0.00094394306471502,-0.00094394387235952,0.00094394308965547,0.68962109509634,128566,2924,0.0039103608895446,0.007234666640046,0.0039103608913395,36.71653631374,5.6132290509918e-05,5.6132290509918e-05,5.6132290509918e-05,4246302.6918153,0.015170627435404
37219200,0.99941412240788,0.015345618847687,0.0042948190556785,0.0067559807332775,0.0042948190587306,-0.00094090934310435,0.0009409091192687,-2.3605319250538e-11,-2.0607337803973e-10,1.4055751783288e-09,-1.6992609686262e-09,-0.0011214662820429,0.001121467068596,-0.0011214662463281,0.0011214670402745,-0.0011214671328731,0.0011214660539022,-0.0011214673552173,0.0011214660120256,-0.00094538456291356,0.00094538364044471,-0.00094538497182711,0.00094538333825643,6.0464516968158e-12,2.5159259454835e-10,-3.0730739912872e-09,3.3246600842695e-09,-0.0017451164832246,0.0017451167382975,-0.0019211592656106,0.0019211571830813,-0.0019211570099472,0.001921159486305,-0.0019211590602425,0.0019211573767919,-0.0019211570726463,0.0019211593999267,-0.0015459717227256,0.0015459661381428,-0.0015459657891938,0.0015459720375284,-0.001545967691507,0.0015459701644036,-0.0015459677880363,0.0015459701014411,-8.607446953551e-11,1.0602905491594e-10,-0.00094090921835097,0.00094090924463408,1.5693616122859e-09,-1.5193146137783e-09,-0.0011214661753567,0.0011214671089588,-0.0011214671555955,0.0011214661654976,-0.0011214660464653,0.0011214672523443,-0.0011214671142554,0.0011214661073317,-0.00094538460102045,0.00094538358745134,-0.00094538464960028,0.000945383618101,0.73362850461287,128566,2924,0.0039161134336209,0.0072414096359453,0.0039161134349934,37.496930979456,6.2375447835651e-05,6.2375447835651e-05,6.2375447835651e-05,4258004.8657119,0.015189154224929
37419200,0.99945653283442,0.015346241832974,0.0042949907918638,0.0067562602461943,0.0042949907949159,-0.00094164900129538,0.00094164877878392,-1.7129484422921e-11,-2.1267533111717e-10,1.4342211306687e-09,-1.7137309782244e-09,-0.001122392553567,0.0011223933561878,-0.0011223925210424,0.0011223933245695,-0.0011223934185201,0.0011223923305248,-0.0011223936475247,0.001122392281409,-0.0009462227699461,0.00094622184551734,-0.00094622318571471,0.00094622151082412,-1.6340599982358e-11,2.7658787495969e-10,-3.3993423268371e-09,3.6512057162893e-09,-0.0017461908024452,0.0017461910603597,-0.0019221945990116,0.0019221922923979,-0.0019221921350105,0.0019221948177363,-0.0019221943744049,0.0019221925032638,-0.0019221921854464,0.0019221947460039,-0.0015470185069473,0.0015470123034969,-0.0015470120285109,0.0015470189139866,-0.0015470140875406,0.0015470167301242,-0.0015470141223751,0.0015470166709176,-8.0258592019076e-11,1.0066416681005e-10,-0.00094164888031458,0.00094164890081025,1.5812834531112e-09,-1.5699750133732e-09,-0.0011223924434327,0.0011223934037501,-0.0011223934432137,0.0011223924432101,-0.0011223923178916,0.0011223935459162,-0.0011223934105721,0.001122392379352,-0.00094622283113065,0.00094622178546403,-0.00094622284889292,0.00094622183401069,0.6866585353274,128566,2924,0.0039191911816779,0.0072458433405794,0.0039191911838555,37.943029895502,6.5944239164014e-05,6.5944239164014e-05,6.5944239164014e-05,4257102.8839636,0.015199908619792
37619200,0.99949582063895,0.015346798159936,0.0042951432902308,0.0067565115764225,0.0042951432932828,-0.00094159130241233,0.00094159108746912,-2.4743817060285e-11,-1.9868910209149e-10,1.4019493989725e-09,-1.6681056087834e-09,-0.0011223492954161,0.0011223500725501,-0.0011223492492031,0.0011223500402048,-0.001122350134089,0.0011223490672193,-0.0011223503498054,0.0011223490256658,-0.00094617258834025,0.00094617165356582,-0.00094617296027398,0.00094617135204852,1.5834317096011e-11,2.4212242497318e-10,-3.0151630142514e-09,3.2647051889681e-09,-0.0017462040623258,0.0017462043182763,-0.0019222327644014,0.0019222307411511,-0.0019222305617959,0.0019222329963421,-0.0019222325644807,0.0019222309278133,-0.0019222306289758,0.0019222329011825,-0.0015469998704401,0.0015469944004657,-0.0015469941365639,0.0015470002571656,-0.0015469959144112,0.0015469983672162,-0.0015469959851917,0.0015469982329444,-1.1984365900186e-10,8.4790642655356e-11,-0.00094159121412471,0.00094159117732672,1.812307644569e-09,-1.8684720187317e-09,-0.0011223491131553,0.0011223501866501,-0.0011223502902149,0.0011223490472974,-0.0011223489802008,0.0011223503353605,-0.0011223502458924,0.0011223489936081,-0.00094617273850222,0.00094617150271553,-0.00094617279834398,0.00094617151427117,0.66415581122186,128566,2924,0.0039189526920989,0.0072458971214913,0.0039189526953521,37.91670026812,6.573360214496e-05,6.573360214496e-05,6.573360214496e-05,4256356.1756912,0.015199478755821
37819200,0.99953118551623,0.015347278945324,0.0042952742499504,0.0067567304423708,0.0042952742530028,-0.00094058466491819,0.00094058446486994,-1.1057812266793e-11,-1.9717060163166e-10,1.3325138025334e-09,-1.5837118224556e-09,-0.0011212367127871,0.0011212374555042,-0.0011212366736824,0.0011212374258601,-0.0011212375010353,0.0011212365062125,-0.0011212377220989,0.00112123645724,-0.00094509690693277,0.00094509605787122,-0.00094509729601479,0.00094509573634989,9.0382564110002e-11,1.6006693941782e-10,-2.892174982216e-09,3.1351303070388e-09,-0.0017450428748238,0.001745043123119,-0.0019211277352082,0.0019211258214461,-0.0019211255981195,0.0019211280077729,-0.0019211275836169,0.0019211259585312,-0.001921125718996,0.001921127858954,-0.0015458226288527,0.0015458173396011,-0.0015458171221447,0.0015458229431021,-0.0015458187218744,0.0015458212439804,-0.0015458189604359,0.0015458209573465,-7.7579419876976e-11,1.174934860825e-10,-0.00094058454607529,0.00094058458534901,1.4580069595353e-09,-1.4251071181506e-09,-0.0011212366109854,0.0011212374929702,-0.0011212375201276,0.0011212366207294,-0.0011212364796325,0.0011212376410844,-0.0011212374818042,0.0011212365623754,-0.00094509693794643,0.00094509602865865,-0.00094509697847147,0.00094509605151211,0.64016454015533,128566,2924,0.0039147702695075,0.0072411001085723,0.0039147702729066,37.335539697278,6.1084317578223e-05,6.1084317578223e-05,6.1084317578223e-05,4250199.5740335,0.015186113914095
38019200,0.99956234580635,0.01534772165523,0.0042953958370181,0.0067569299781412,0.0042953958400706,-0.00093882426287361,0.00093882408010969,-5.1658006313514e-12,-1.8703889983695e-10,1.2530629612756e-09,-1.4818144559385e-09,-0.001119256052131,0.0011192567494803,-0.0011192560096309,0.0011192567209672,-0.0011192567807941,0.0011192558605307,-0.0011192570002922,0.00111925581202,-0.00094319881912556,0.00094319803484502,-0.00094319920255573,0.00094319772348446,1.6734711436641e-10,7.5443716246255e-11,-2.4191560895009e-09,2.6552589194862e-09,-0.0017429181941485,0.0017429184370631,-0.0019190893167909,0.0019190877610641,-0.0019190874827044,0.0019190896325373,-0.0019190892167544,0.0019190878436102,-0.0019190876558953,0.0019190894275817,-0.0015436947001716,0.0015436902898687,-0.0015436901267445,0.0015436949513351,-0.0015436913107543,0.0015436936792465,-0.0015436916959557,0.0015436932177117,-6.0767491997406e-11,1.4068020683509e-10,-0.00093882413232905,0.00093882421236382,1.2554871864341e-09,-1.1783024054516e-09,-0.0011192559851857,0.0011192567518259,-0.0011192567422151,0.0011192560327341,-0.0011192558512485,0.0011192569028659,-0.0011192567023775,0.0011192559758423,-0.00094319878099075,0.00094319807472939,-0.00094319883389077,0.00094319809173038,0.66570161984079,128566,2924,0.0039074544483726,0.0072323242181597,0.0039074544519125,36.306820578187,5.2854564625494e-05,5.2854564625494e-05,5.2854564625494e-05,4240422.0747566,0.015162345637197
38219200,0.99959076917236,0.015348129018376,0.0042955079713528,0.0067571130726184,0.0042955079744054,-0.00093808123295817,0.00093808104650635,-4.2876334128012e-12,-1.8959918740484e-10,1.2338087691398e-09,-1.4821779952444e-09,-0.0011184174232059,0.0011184181146201,-0.0011184173834795,0.0011184180884342,-0.0011184181437492,0.0011184172325387,-0.0011184183689488,0.001118417185888,-0.00094239900886478,0.00094239825036584,-0.00094239942154146,0.00094239794409376,1.7882099778832e-10,6.204141879489e-11,-2.3497079192124e-09,2.5862749890156e-09,-0.0017420224358912,0.0017420226778451,-0.0019182355053152,0.0019182340040238,-0.0019182337156691,0.0019182358254297,-0.0019182354133754,0.0019182340794918,-0.0019182338981074,0.0019182356128074,-0.0015427859959756,0.0015427817222703,-0.0015427814943551,0.0015427861657087,-0.0015427826824237,0.0015427850267187,-0.0015427831240962,0.0015427845780872,-4.8076821197878e-11,1.5314580705449e-10,-0.00093808108456831,0.00093808119566207,1.1679515635579e-09,-1.0235238436484e-09,-0.0011184173806866,0.0011184180907229,-0.0011184180587186,0.0011184174510805,-0.0011184172454137,0.0011184182413428,-0.0011184180176675,0.0011184173929965,-0.00094239893379205,0.0009423983107496,-0.0009423989914898,0.00094239833684541,0.67076548994042,128566,2924,0.0039043667705113,0.0072286243894448,0.003904366772192,35.86769365368,4.9341549229438e-05,4.9341549229438e-05,4.9341549229438e-05,4235357.9804862,0.015152318572067
38419200,0.99962312658841,0.015348625121979,0.0042956460444841,0.0067573330299577,0.0042956460475367,-0.00094479470645564,0.00094479446648186,-1.9348035201026e-11,-2.2425098874705e-10,1.4433510515941e-09,-1.7746034143485e-09,-0.0011254228811807,0.0011254236847931,-0.0011254228330711,0.0011254236644324,-0.0011254237529948,0.0011254226492399,-0.0011254239971306,0.001125422583869,-0.00094935443417129,0.00094935352081311,-0.00094935492062187,0.00094935319096701,-8.3830143928999e-11,3.4687661286347e-10,-3.1743546898785e-09,3.4337866177053e-09,-0.0017495963771286,0.0017495966414156,-0.0019258566401762,0.0019258544190152,-0.0019258542958333,0.0019258568095222,-0.0019258563619046,0.0019258546929899,-0.0019258543150882,0.0019258567684084,-0.0015501760402165,0.0015501703669313,-0.0015501698459217,0.001550176326546,-0.0015501720097622,0.0015501744259063,-0.001550171991345,0.0015501745417041,-1.5139994097176e-10,3.3859658003153e-11,-0.00094479463759941,0.00094479453352386,2.2659613973465e-09,-2.3152340068981e-09,-0.0011254226078879,0.0011254238836579,-0.0011254240651309,0.0011254224651551,-0.0011254224630955,0.0011254240398948,-0.0011254240393604,0.0011254223889943,-0.00094935479336223,0.00094935310435522,-0.00094935483037948,0.00094935318082324,0.71254271173485,128566,2924,0.0039322483569265,0.0072599312869889,0.0039322483534038,39.662465118262,7.96997209461e-05,7.96997209461e-05,7.96997209461e-05,4297983.4919582,0.015240718833075
38619200,0.99965306298277,0.015349085593428,0.0042957737506707,0.0067575380890338,0.0042957737537237,-0.00094491689408588,0.00094491668116324,-1.4265891319166e-11,-2.0844379803805e-10,1.4251509925474e-09,-1.6763053055824e-09,-0.0011257140567924,0.0011257148484291,-0.0011257140173225,0.0011257148132929,-0.0011257149051497,0.0011257138372003,-0.0011257151304558,0.001125713783933,-0.0009495322529964,0.00094953133758437,-0.00094953264190696,0.00094953098182722,-1.1560969349734e-11,2.736981816496e-10,-3.3109069806527e-09,3.5618954086579e-09,-0.0017499711324567,0.0017499713909052,-0.001926212357391,0.0019262100996311,-0.0019262099417082,0.0019262125805156,-0.0019262121340311,0.0019262103057767,-0.0019262099942235,0.0019262125036313,-0.0015505322853895,0.0015505262501139,-0.0015505260572354,0.0015505327760806,-0.0015505279658356,0.0015505305689528,-0.0015505279759122,0.0015505304518867,-9.9890659333558e-11,9.4271996375075e-11,-0.00094491679657736,0.00094491678162279,1.6720928965627e-09,-1.7398855752773e-09,-0.0011257139159341,0.001125714927379,-0.0011257149959321,0.0011257138853752,-0.0011257137849138,0.0011257150759242,-0.0011257149610298,0.0011257138247568,-0.00094953237342064,0.00094953124320699,-0.00094953239065055,0.00094953127861382,0.71626667193395,128566,2924,0.0039327608815107,0.0072614744004106,0.0039327608875033,39.752524974902,8.0420199799214e-05,8.0420199799214e-05,8.0420199799214e-05,4292996.0718247,0.015243329825557
38819200,0.99968062654209,0.015349511070029,0.0042958918330358,0.0067577274009047,0.0042958918360883,-0.00094486673872439,0.00094486653313045,-1.3994130812439e-11,-2.0017058279449e-10,1.3481232958708e-09,-1.6081156318478e-09,-0.0011257843394932,0.0011257850867686,-0.0011257842917065,0.0011257850581359,-0.0011257851354043,0.0011257841274022,-0.0011257853625043,0.001125784075219,-0.00094954968227743,0.00094954883166302,-0.00094955009140042,0.00094954849690665,6.5473980756008e-11,1.8956659828231e-10,-2.6824946549826e-09,2.9304386047592e-09,-0.0017501159604086,0.0017501162150297,-0.0019263239631729,0.0019263221802726,-0.0019263219624997,0.0019263242259093,-0.0019263237899251,0.00192632233784,-0.001926322069955,0.0019263240896555,-0.0015506631234435,0.0015506582901208,-0.0015506580356404,0.0015506634426079,-0.0015506595342554,0.0015506618815648,-0.0015506597318783,0.0015506616346774,-1.0888097088608e-10,9.664625608296e-11,-0.00094486664326987,0.00094486663017983,1.7356797438517e-09,-1.7554252942701e-09,-0.0011257841667194,0.0011257851915344,-0.0011257852747534,0.001125784123394,-0.0011257840267275,0.0011257853466949,-0.0011257852365366,0.0011257840631896,-0.00094954984299237,0.00094954866390763,-0.00094954988471873,0.00094954869618864,0.71845447236585,128566,2924,0.0039325575088958,0.0072620673156151,0.0039325575122395,39.755865030046,8.0446920240367e-05,8.0446920240367e-05,8.0446920240367e-05,4285894.6872808,0.015243521607457
38880000,0.99968879173159,0.015349637280721,0.0042959268788207,0.0067577835200272,0.0042959268818732,-0.00094483869330493,0.00094483849127727,-1.4270239546624e-11,-1.9538592716872e-10,1.3287008262746e-09,-1.5878264484625e-09,-0.0011258024733454,0.0011258032049419,-0.0011258024193405,0.0011258031832625,-0.0011258032520351,0.0011258022642008,-0.0011258034781144,0.0011258022049871,-0.00094955133389114,0.00094955051273656,-0.00094955174731652,0.00094955016191479,8.4544396403194e-11,1.6549621602773e-10,-2.2989399875497e-09,2.542485147471e-09,-0.0017501616915387,0.0017501619408647,-0.0019263566655825,0.0019263551208838,-0.0019263548894401,0.0019263569278034,-0.0019263565014041,0.0019263552697923,-0.0019263550163367,0.0019263567729147,-0.0015507029940496,0.0015506989036574,-0.0015506986368881,0.0015507032679431,-0.0015506998711304,0.0015507020174679,-0.0015507001362171,0.001550701722539,-1.3399004220354e-10,7.7463264487943e-11,-0.00094483861982818,0.00094483856559641,1.9127660947794e-09,-1.9722628060358e-09,-0.0011258022537972,0.0011258033554172,-0.0011258034814962,0.0011258021646997,-0.0011258021071228,0.001125803517672,-0.0011258034460084,0.0011258021019842,-0.00094955159149737,0.00094955023411423,-0.00094955162575646,0.00094955027612009,0.71910520603942,128566,2924,0.0039324430751207,0.007262253908039,0.0039324430769018,39.755986182977,8.044788946382e-05,8.044788946382e-05,8.044788946382e-05,4283436.6461749,0.015243479602659
