time,ASR_ext,ASR_strain,ASR_strain_xx,ASR_strain_yy,ASR_strain_zz,disp_x_101,disp_x_102,disp_x_103,disp_x_104,disp_x_105,disp_x_106,disp_x_p10_neg,disp_x_p10_pos,disp_x_p11_neg,disp_x_p11_pos,disp_x_p12_neg,disp_x_p12_pos,disp_x_p13_neg,disp_x_p13_pos,disp_x_p14_neg,disp_x_p14_pos,disp_x_p15_neg,disp_x_p15_pos,disp_x_p16_neg,disp_x_p16_pos,disp_x_p1_neg,disp_x_p1_pos,disp_x_p2_neg,disp_x_p2_pos,disp_x_p3_neg,disp_x_p3_pos,disp_x_p4_neg,disp_x_p4_pos,disp_x_p5_neg,disp_x_p5_pos,disp_x_p6_neg,disp_x_p6_pos,disp_x_p7_neg,disp_x_p7_pos,disp_x_p8_neg,disp_x_p8_pos,disp_x_p9_neg,disp_x_p9_pos,disp_y_101,disp_y_102,disp_y_103,disp_y_104,disp_y_105,disp_y_106,disp_y_p10_neg,disp_y_p10_pos,disp_y_p11_neg,disp_y_p11_pos,disp_y_p12_neg,disp_y_p12_pos,disp_y_p1_neg,disp_y_p1_pos,disp_y_p2_neg,disp_y_p2_pos,disp_y_p3_neg,disp_y_p3_pos,disp_y_p4_neg,disp_y_p4_pos,disp_y_p5_neg,disp_y_p5_pos,disp_y_p6_neg,disp_y_p6_pos,disp_y_p7_neg,disp_y_p7_pos,disp_y_p8_neg,disp_y_p8_pos,disp_y_p9_neg,disp_y_p9_pos,disp_z_101,disp_z_102,disp_z_103,disp_z_104,disp_z_105,disp_z_106,disp_z_p10_neg,disp_z_p10_pos,disp_z_p11_neg,disp_z_p11_pos,disp_z_p12_neg,disp_z_p12_pos,disp_z_p13_neg,disp_z_p13_pos,disp_z_p14_neg,disp_z_p14_pos,disp_z_p15_neg,disp_z_p15_pos,disp_z_p16_neg,disp_z_p16_pos,disp_z_p1_neg,disp_z_p1_pos,disp_z_p2_neg,disp_z_p2_pos,disp_z_p3_neg,disp_z_p3_pos,disp_z_p4_neg,disp_z_p4_pos,disp_z_p5_neg,disp_z_p5_pos,disp_z_p6_neg,disp_z_p6_pos,disp_z_p7_neg,disp_z_p7_pos,disp_z_p8_neg,disp_z_p8_pos,disp_z_p9_neg,disp_z_p9_pos,humidity,ndof,nelem,strain_xx,strain_yy,strain_zz,temp,thermal_strain_xx,thermal_strain_yy,thermal_strain_zz,vonmises,vstrain
14391759,0,0,0,0,0,0,0,0,0,0,0,0,0,0,0,0,0,0,0,0,0,0,0,0,0,0,0,0,0,0,0,0,0,0,0,0,0,0,0,0,0,0,0,0,0,0,0,0,0,0,0,0,0,0,0,0,0,0,0,0,0,0,0,0,0,0,0,0,0,0,0,0,0,0,0,0,0,0,0,0,0,0,0,0,0,0,0,0,0,0,0,0,0,0,0,0,0,0,0,0,0,0,0,0,0,0,0,0,0,0,0,0,0,0,0,0,0,0,0,0,0,0,0
14591759,0.020203182647758,0.00035679931028126,0.00011893310342709,0.00011893310342709,0.00011893310342709,-2.7135537729814e-05,2.712391392104e-05,-2.1122765002313e-08,-1.9533865365657e-08,-2.8355056348859e-09,-1.4950399537095e-09,-2.2802837766782e-05,2.2713347367162e-05,-2.6006919227299e-05,2.6002462913308e-05,-2.6004273987418e-05,2.6045120317365e-05,-2.2814333739261e-05,2.2734496842127e-05,-2.2804124372176e-05,2.2712083725406e-05,-2.6008191677161e-05,2.6001140500556e-05,-2.6005567775946e-05,2.6043819131604e-05,-2.8975139296936e-05,2.8967041236186e-05,-2.8972421813644e-05,2.8979410036718e-05,-2.8974707356755e-05,2.8967500125759e-05,-2.8971980427455e-05,2.8979859510567e-05,-2.5946073499203e-05,2.5908614232809e-05,-2.5937067619175e-05,2.5882991252447e-05,-2.5946500610377e-05,2.5908161548079e-05,-2.5937514151225e-05,2.5882557954236e-05,-2.2813087777864e-05,2.2735801058584e-05,4.209986628768e-10,-8.7401352019417e-10,-1.66312501712e-09,1.2293871922637e-09,-2.9026872317516e-05,2.9026436488693e-05,-2.7615004091826e-05,2.7617834434748e-05,-2.7866334373107e-05,2.7866183339938e-05,-2.7862430055205e-05,2.7859739846611e-05,-3.0028933917984e-05,3.0027960017628e-05,-3.0029534801515e-05,3.0030538495179e-05,-3.0028887807797e-05,3.0027021746657e-05,-3.0030223589538e-05,3.0030335135635e-05,-2.76185522058e-05,2.7614858372308e-05,-2.7621746580491e-05,2.7623699045101e-05,-2.7866095769971e-05,2.7867889852537e-05,-2.7837834470833e-05,2.7837089405604e-05,-2.7611613060901e-05,2.7608797142452e-05,2.2715017152747e-09,3.6027647445577e-08,-2.8046741502655e-05,2.805127515143e-05,4.1566323794555e-09,1.2161305556768e-09,-2.5965162211571e-05,2.5965581372125e-05,-2.6866799329637e-05,2.6803469870976e-05,-2.6876133476319e-05,2.6866514801903e-05,-2.6002698351191e-05,2.6199742639412e-05,-2.5962369571928e-05,2.5968420184194e-05,-2.6863940782203e-05,2.6806314712151e-05,-2.6873294034056e-05,2.6869378750197e-05,-2.9335947807804e-05,2.9335606197494e-05,-2.9336930335643e-05,2.9334613578932e-05,-2.9332816521819e-05,2.9326893210897e-05,-2.9333807739018e-05,2.9325909290845e-05,-2.7081793177748e-05,2.714801896925e-05,-2.7067276820323e-05,2.707112743699e-05,-2.7066314207782e-05,2.7072111856143e-05,-2.7080811390581e-05,2.7148984153532e-05,-2.6005531620673e-05,2.6196944605181e-05,0.70641910244125,128566,2924,0.00011303402981385,0.00012093689504222,0.00011686387050821,31.980470976332,-1.5623218934205e-07,-1.5623218934205e-07,-1.5623218934205e-07,772268.67228263,0.00035089704748345
14791759,0.039122339760895,0.00067757635544852,0.00022408198602937,0.00022779528855445,0.0002256990808647,-4.9196930558361e-05,4.9172296502164e-05,-5.2393493224907e-08,-3.7185170505368e-08,-6.4000837655063e-09,-3.2007066445335e-09,-4.0584226329522e-05,4.0403348705685e-05,-4.7073437272819e-05,4.7060357710831e-05,-4.7063740510709e-05,4.7159475464896e-05,-4.062198406715e-05,4.0438984497972e-05,-4.0587037230869e-05,4.0400598066869e-05,-4.7076554120046e-05,4.70571099317e-05,-4.7066747527409e-05,4.7156447547388e-05,-5.3221951280957e-05,5.3199809160055e-05,-5.3212228390367e-05,5.323323049298e-05,-5.322089561255e-05,5.3200936238304e-05,-5.3211204860799e-05,5.3234274570863e-05,-4.6851322943522e-05,4.6756055211839e-05,-4.6820331923904e-05,4.6710217887382e-05,-4.6852419984394e-05,4.6754890393557e-05,-4.6821314274116e-05,4.6709268198231e-05,-4.061869545457e-05,4.0442392760163e-05,9.1925405144455e-10,-2.1699110992771e-09,-4.446949327791e-09,3.2455899306595e-09,-5.3581525645489e-05,5.3580319206606e-05,-5.0745218216493e-05,5.0752666466049e-05,-5.1234770265555e-05,5.1233894624444e-05,-5.1225504379592e-05,5.1218730475817e-05,-5.5910198181487e-05,5.5907412599659e-05,-5.5911329806659e-05,5.5913854319061e-05,-5.5910085189072e-05,5.5905229662491e-05,-5.5914089057192e-05,5.5914429018859e-05,-5.0753033960666e-05,5.0743360291065e-05,-5.0752578118803e-05,5.0757766035447e-05,-5.1233911248215e-05,5.1238372572627e-05,-5.1173686610107e-05,5.1171919887562e-05,-5.0738583136816e-05,5.073084022309e-05,8.4161848070224e-09,8.1520258772837e-08,-5.1224654123348e-05,5.1233290925806e-05,9.9567223751664e-09,2.1929580689139e-09,-4.6981941297554e-05,4.6988347040964e-05,-4.9024332111509e-05,4.8877173185159e-05,-4.9044480278863e-05,4.902324133868e-05,-4.706017141009e-05,4.7486936003412e-05,-4.6974876436633e-05,4.6995582952301e-05,-4.9016693026599e-05,4.8884775671488e-05,-4.9037051268576e-05,4.9030725253873e-05,-5.411884791568e-05,5.4120204332785e-05,-5.4121414852118e-05,5.4117614069315e-05,-5.4112041270868e-05,5.4094714256031e-05,-5.4114687734505e-05,5.4092087249066e-05,-4.9368248809226e-05,4.9519892670055e-05,-4.9333732099933e-05,4.9348589684558e-05,-4.9331270614863e-05,4.9351101415624e-05,-4.9365577032052e-05,4.952252264615e-05,-4.7067946982872e-05,4.7479272470148e-05,0.7058094723657,128566,2924,0.00020491453271773,0.00022322818882437,0.00021343062540297,30.97458326958,-8.2033338433578e-06,-8.2033338433578e-06,-8.2033338433578e-06,1253302.9674863,0.00064178192727747
14991759,0.056603987429017,0.00096619159149597,0.00031758512400653,0.00032705860421791,0.00032154786327153,-6.8687709585929e-05,6.8636433135296e-05,-1.0894462014351e-07,-7.3262623147404e-08,-1.7828599466584e-08,-1.2058649646968e-08,-5.4638571641301e-05,5.428072475852e-05,-6.4861077831187e-05,6.4825112716275e-05,-6.4837430447009e-05,6.500322971318e-05,-5.4722969495289e-05,5.4366817961012e-05,-5.4643962339749e-05,5.4275349187158e-05,-6.4866679231374e-05,6.4819370624984e-05,-6.4842954402249e-05,6.4997635805215e-05,-7.5590505931095e-05,7.5543260530178e-05,-7.5568556071866e-05,7.5614488582638e-05,-7.5588630935183e-05,7.5545247955456e-05,-7.5566698448681e-05,7.5616405286084e-05,-6.5050988776559e-05,6.4847458962204e-05,-6.4982955262579e-05,6.4743676215457e-05,-6.5052909135833e-05,6.4845460190023e-05,-6.4984814819685e-05,6.4741848660885e-05,-5.4717316043423e-05,5.4372616155353e-05,1.8535493368897e-09,-3.7697870268312e-09,-8.4884658108874e-09,6.642673904394e-09,-7.6573153685552e-05,7.6571304079999e-05,-7.249179369531e-05,7.250668776265e-05,-7.4278210860013e-05,7.42767113132e-05,-7.427415941353e-05,7.4261751377016e-05,-7.9805906696464e-05,7.9800838377265e-05,-7.980735087363e-05,7.9812608717229e-05,-7.980792721142e-05,7.9799052677971e-05,-7.9810662014535e-05,7.981202483276e-05,-7.2493582180803e-05,7.2475130771729e-05,-7.2473016028689e-05,7.2484009285536e-05,-7.4278262778087e-05,7.4287012776333e-05,-7.4205007033092e-05,7.4202594372149e-05,-7.2475010103684e-05,7.2460227052911e-05,2.2607075112054e-08,1.3833935607294e-07,-7.2225548221302e-05,7.2239927470881e-05,1.7832130377073e-08,2.6234040111906e-09,-6.6075822354469e-05,6.6099017211065e-05,-6.8551149430776e-05,6.8285465832694e-05,-6.8572617586029e-05,6.85325790849e-05,-6.6256934433915e-05,6.7005681243564e-05,-6.6061334362193e-05,6.6113650361605e-05,-6.8536261297101e-05,6.830031005074e-05,-6.855789168412e-05,6.8547356644744e-05,-7.6786720342484e-05,7.6793932069194e-05,-7.6791781679813e-05,7.6788841640061e-05,-7.678098252878e-05,7.6742348602576e-05,-7.6786114823901e-05,7.6737242390313e-05,-7.0595220558304e-05,7.087525249001e-05,-7.0495860008739e-05,7.0536731535652e-05,-7.0490901698489e-05,7.0541754707224e-05,-7.0590076932776e-05,7.0880337725705e-05,-6.6271904039348e-05,6.6990834724347e-05,0.70496359349122,128566,2924,0.00028605075019863,0.00031899849473017,0.00030092322667273,29.795231968378,-1.7638144252978e-05,-1.7638144252978e-05,-1.7638144252978e-05,1334341.5887861,0.00090638870056037
15191759,0.071005648064446,0.0011876225879222,0.0003883808773374,0.00040436110800595,0.00039488060257889,-8.0645978538742e-05,8.0564487727875e-05,-1.7624367529217e-07,-1.1513355880716e-07,-3.0161573897282e-08,-2.130390313591e-08,-5.9909904826351e-05,5.9319752103263e-05,-7.4634074656181e-05,7.4576695597091e-05,-7.4591521107017e-05,7.4847820235142e-05,-6.0054415682017e-05,5.9497796680188e-05,-5.9920040923791e-05,5.9309703048102e-05,-7.4642134170252e-05,7.4568460082867e-05,-7.4600556483709e-05,7.4838709355354e-05,-9.0563965219403e-05,9.0485984113921e-05,-9.0526337838318e-05,9.0599432461058e-05,-9.0561271875516e-05,9.0488862681941e-05,-9.05232682275e-05,9.0602536857477e-05,-7.556654560396e-05,7.523579450697e-05,-7.545110204066e-05,7.5069811033258e-05,-7.5568924881212e-05,7.5233260317048e-05,-7.5454517767028e-05,7.5066471429872e-05,-6.0047560505146e-05,5.9504889581582e-05,3.0755512015238e-09,-5.6193330246966e-09,-1.1049413608003e-08,8.596002478069e-09,-9.2096844928709e-05,9.2094392875819e-05,-8.6737257497558e-05,8.6756474303632e-05,-9.0005061698277e-05,9.0004967076997e-05,-9.0003064246401e-05,8.9985008832598e-05,-9.5999257584573e-05,9.5993285321189e-05,-9.6002125626264e-05,9.6009203060371e-05,-9.6004316657398e-05,9.5992098507796e-05,-9.6003618273783e-05,9.6005055112364e-05,-8.6720888545526e-05,8.6695864049384e-05,-8.667560028863e-05,8.6689904237773e-05,-9.0008138796078e-05,9.0020296585531e-05,-8.9924937866007e-05,8.9920929226389e-05,-8.6702065339118e-05,8.6683840845894e-05,4.4211572126628e-08,1.9655805801151e-07,-8.5670914491321e-05,8.5691993937601e-05,2.5585148141507e-08,5.2176153165071e-09,-7.7338007396279e-05,7.7392265071238e-05,-7.9944906911607e-05,7.9539921862217e-05,-7.9958491302522e-05,7.9903064211295e-05,-7.7670955067558e-05,7.8794347970672e-05,-7.7316783828717e-05,7.7413714362751e-05,-7.9925523137699e-05,7.9559239427892e-05,-7.9938233986509e-05,7.9923418752397e-05,-9.1920312355819e-05,9.1937901373441e-05,-9.1927262121753e-05,9.193088190293e-05,-9.1921145942928e-05,9.1858474693333e-05,-9.1927843877735e-05,9.1851818133454e-05,-8.4445826645202e-05,8.4851314597638e-05,-8.4260098787389e-05,8.4341720376868e-05,-8.4252916156445e-05,8.4348996551971e-05,-8.443945527364e-05,8.4857579343047e-05,-7.7689261974806e-05,7.8776220804637e-05,0.66036417964586,128566,2924,0.00033579882225268,0.00038365538897423,0.0003569403923136,27.128221010319,-3.8974231917449e-05,-3.8974231917449e-05,-3.8974231917449e-05,1368383.7994927,0.0010769844915498
15391759,0.084310180456542,0.0014166597436777,0.00046143253256705,0.00048449057243019,0.00047073663868043,-9.5455268911021e-05,9.5347330468056e-05,-2.4826664813978e-07,-1.5169955299666e-07,-3.7921577931976e-08,-2.2709525655085e-08,-6.9409325146133e-05,6.863327843276e-05,-8.887970050858e-05,8.8807635719624e-05,-8.8817544111747e-05,8.921423081343e-05,-6.9625450776688e-05,6.8843665793653e-05,-6.9424967406738e-05,6.8617838408721e-05,-8.8894140294451e-05,8.8792920830273e-05,-8.8832578864276e-05,8.9199100652349e-05,-0.00010756479935186,0.00010745058353275,-0.00010750806815465,0.00010760413622474,-0.00010755996825281,0.00010745563454759,-0.00010750298344937,0.00010760932900941,-9.0065979545633e-05,8.9606442838802e-05,-8.9893621143681e-05,8.9409499550243e-05,-9.0070674078238e-05,8.9601570239799e-05,-8.9898956417425e-05,8.9404273706922e-05,-6.9611853699809e-05,6.8857673468564e-05,5.7487200758639e-09,-9.468884702118e-09,-1.8059549354417e-08,1.4482919805058e-08,-0.00011070038013081,0.0001106967972797,-0.00010484008543401,0.00010487320506507,-0.00010893413364533,0.00010893473685646,-0.00010892688562214,0.00010889721510561,-0.00011469646707452,0.00011468717204644,-0.00011469799641247,0.00011471053559066,-0.00011470425483026,0.0001146844851257,-0.00011470278169542,0.000114705142581,-0.00010482797138311,0.00010478728203061,-0.00010477644698122,0.00010479979141879,-0.000108935112809,0.00010895701033163,-0.00010879451520583,0.00010878698326519,-0.00010479858683498,0.00010476855308934,6.4025936722597e-08,2.6634325627194e-07,-0.00010209914810157,0.00010212727698069,3.7197345843688e-08,3.8020895689243e-09,-9.3418917517259e-05,9.3496708590533e-05,-9.5555892935598e-05,9.497985422501e-05,-9.5573922610599e-05,9.5494264437135e-05,-9.3894850154388e-05,9.5473240882052e-05,-9.3385806968862e-05,9.3530037265646e-05,-9.5523460890364e-05,9.501221664728e-05,-9.5541222965536e-05,9.5527122742881e-05,-0.00010932140976173,0.00010934850541636,-0.00010933262813728,0.00010933721264428,-0.00010932567761495,0.00010924392646493,-0.00010933679600303,0.00010923285474157,-0.00010170808814141,0.00010223758185487,-0.00010145176827603,0.0001015684077396,-0.00010144050773169,0.00010157981113982,-0.00010169712328939,0.00010224842464972,-9.3926802489032e-05,9.5441462492568e-05,0.73443066853741,128566,2924,0.00039742771665558,0.00046113437070171,0.00042537914291459,25.98747420083,-4.8100206393362e-05,-4.8100206393362e-05,-4.8100206393362e-05,1189308.7324156,0.0012847785433707
15591759,0.097361930559157,0.001647270120117,0.00053458366651375,0.00056559746522599,0.00054708898837729,-0.00011107282103372,0.00011093967331644,-3.181064271474e-07,-1.8488979717579e-07,-4.6649756127954e-08,-2.3105070717121e-08,-8.0382857811701e-05,7.9483597322192e-05,-0.00010403391261832,0.00010394778428908,-0.00010395222645832,0.00010447804291864,-8.0672258688264e-05,7.9676679483275e-05,-8.0407406975807e-05,7.9459167183585e-05,-0.00010405618905747,0.00010392513226561,-0.00010397561212238,0.00010445443541435,-0.00012528652539492,0.00012513652428797,-0.00012521193847688,0.00012532980825362,-0.00012527907269743,0.00012514427728603,-0.00012520404627803,0.00012533787744999,-0.00010530621607488,0.0001047213085244,-0.00010507909411403,0.00010450638785,-0.00010531338896616,0.00010471393349534,-0.00010508745133673,0.00010449811635671,-8.0651319976205e-05,7.9698048594062e-05,8.956068394863e-09,-1.4317949548753e-08,-2.8124076111677e-08,2.2977320117679e-08,-0.00013023858955374,0.00013023342825263,-0.00012400983124405,0.00012406201576506,-0.00012892887325639,0.00012892982069468,-0.00012892251781287,0.00012887688457299,-0.00013429647497724,0.00013428221096233,-0.00013429534432272,0.00013431513847438,-0.00013430780696605,0.00013427749475868,-0.00013430435058242,0.00013430870954155,-0.00012400935093091,0.00012394598303269,-0.00012395568196696,0.00012399317661828,-0.00012892685768543,0.00012896100382159,-0.00012875049130248,0.0001287398493887,-0.00012396671621714,0.00012391989925135,8.4965919067098e-08,3.3886707897793e-07,-0.00011933452442945,0.00011936933717737,5.1522583003794e-08,-4.7654621596522e-10,-0.00011043217085098,0.00011052974419823,-0.00011218002416401,0.00011140787162552,-0.00011220211169438,0.00011209086887745,-0.00011103518801805,0.00011307430446722,-0.00011038024062699,0.00011058200216515,-0.00011212960345092,0.00011145819948345,-0.00011215099255908,0.00011214217086777,-0.00012749653029951,0.00012753531895634,-0.00012751403497579,0.00012751772096697,-0.00012750263536651,0.00012740421740757,-0.00012751988798204,0.00012738702531414,-0.00011985205777474,0.00012050961784154,-0.00011952916515423,0.00011967990103596,-0.00011951149196353,0.00011969773977781,-0.00011983512168115,0.0001205264070874,-0.00011108463061936,0.00011302513749073,0.74589984738503,128566,2924,0.00046242191866583,0.00054249864137098,0.00049717387703725,25.604579954144,-5.1163360366849e-05,-5.1163360366849e-05,-5.1163360366849e-05,1222358.0017155,0.0015032381381713
15791759,0.10982410330295,0.0018794095286524,0.00060781798897265,0.00064769931578187,0.00062389222389787,-0.00012581492447148,0.00012565527848986,-3.9071497598427e-07,-2.1567243840487e-07,-5.4451642692201e-08,-2.2350461551262e-08,-9.1620962460644e-05,9.0620917670124e-05,-0.00011900694438906,0.00011890347868329,-0.00011890510971151,0.00011956549176783,-9.1989215340801e-05,9.0761959959107e-05,-9.1652595974541e-05,9.0589365615248e-05,-0.00011903792189634,0.000118872003451,-0.00011893638878964,0.00011953387896737,-0.00014182716559844,0.00014164004220866,-0.00014173329408963,0.00014187582421148,-0.0001418167843846,0.00014165079514035,-0.00014172273518158,0.00014188663066114,-0.00011998118480588,0.00011926761289084,-0.00011969608858957,0.0001190146578574,-0.00011999157183656,0.0001192569959651,-0.00011970688762734,0.00011900393898056,-9.1958705117239e-05,9.07929267695e-05,1.2287965022416e-08,-1.9445665224753e-08,-3.8968691640911e-08,3.2101205917658e-08,-0.00014894994616253,0.00014894305762191,-0.00014268590537916,0.00014275919020481,-0.0001479790276658,0.00014797940786277,-0.00014797168440657,0.00014790976794596,-0.0001529722007611,0.00015295225681192,-0.0001529678459333,0.00015299558402608,-0.00015298634062925,0.00015294496049647,-0.00015298241231471,0.00015298873826631,-0.00014270796956618,0.00014262095034813,-0.00014266042688301,0.00014271248584427,-0.00014797266209774,0.00014802046091671,-0.00014774385380264,0.00014772933777584,-0.00014264643194922,0.00014258075605396,1.0616197569542e-07,4.1648923337441e-07,-0.00013567187602784,0.00013571503626766,6.803158992298e-08,-3.7216135067252e-09,-0.00012715840070802,0.00012727812410016,-0.00012851511221765,0.0001275452167292,-0.00012854641127388,0.00012840515272522,-0.00012788074278605,0.00013041461782752,-0.00012708873219976,0.0001273482973734,-0.00012844487868854,0.00012761531710178,-0.00012847644491443,0.00012847535638567,-0.00014453718182662,0.00014458759490177,-0.00014456112122163,0.00014456354145516,-0.00014454427710851,0.00014442539827301,-0.00014456827456303,0.00014440147710404,-0.00013723264502025,0.00013803131844481,-0.00013684303651513,0.00013702926020921,-0.00013681926520196,0.000137053243729,-0.00013720865272678,0.00013805513222336,-0.00012795099819151,0.0001303447452815,0.78513037481618,128566,2924,0.00052376380303314,0.00062041301636485,0.00056522746830027,24.908524742936,-5.6731802056512e-05,-5.6731802056512e-05,-5.6731802056512e-05,1251055.3895512,0.0017108820935053
15991759,0.12210890245315,0.0021065015786911,0.00067893979947791,0.0007286442122238,0.00069891756698943,-0.00014088349675752,0.00014068929384131,-4.7391125477538e-07,-2.5555429155105e-07,-6.5041168282867e-08,-2.2497335475466e-08,-0.0001026201242653,0.00010145586506267,-0.00013433633749198,0.00013421510240379,-0.0001342114278339,0.00013503085862665,-0.00010307611679536,0.00010158118287395,-0.00010266281835585,0.00010141318678988,-0.00013437714821944,0.00013417366530383,-0.0001342531427435,0.00013498868098598,-0.00015877570024775,0.00015854475324054,-0.00015866034288773,0.00015882702453291,-0.00015876199325394,0.00015855891401349,-0.0001586462621096,0.00015884142801085,-0.00013498384144886,0.00013412102855441,-0.000134632762971,0.00013382261889443,-0.0001349973837422,0.00013410722900442,-0.00013464729763042,0.00013380813797725,-0.0001030364551497,0.00010162138471056,1.6375280582735e-08,-2.5659112578514e-08,-5.1926997466416e-08,4.3026215127934e-08,-0.0001683197769886,0.00016831084589679,-0.0001619308845401,0.00016202868934812,-0.00016761603219618,0.00016761676575746,-0.00016760328460187,0.00016752088917677,-0.00017227722580746,0.00017225085324446,-0.00017226886281049,0.00017230590362581,-0.00017229364824237,0.00017223872376871,-0.00017228852474029,0.00017229743078543,-0.00016197844683784,0.00016186225784098,-0.00016193914807469,0.00016200942056384,-0.00016760457656027,0.00016766805643133,-0.00016730130566227,0.00016728284408497,-0.00016189697309462,0.00016180964376764,1.3176039001201e-07,5.0189213353572e-07,-0.00015244570774326,0.0001524995426287,8.7878032748613e-08,-7.8975735250867e-09,-0.00014436152374176,0.00014450548830594,-0.00014530669242836,0.00014412063222,-0.00014534391936804,0.00014516783000705,-0.0001452291293093,0.00014832840520232,-0.00014426741444366,0.00014460016508244,-0.00014521323430206,0.00014421393518494,-0.00014525015830167,0.0001452618884399,-0.00016199568332063,0.00016206109862504,-0.00016202772140663,0.00016202891903992,-0.00016200775330592,0.00016186382173756,-0.00016203967035095,0.00016183200049715,-0.00015510223500763,0.00015605097991994,-0.00015462750882582,0.00015485608493829,-0.00015459544057901,0.00015488841158675,-0.00015507053044711,0.00015608246012235,-0.00014532198279856,0.00014823601527921,0.77894844537016,128566,2924,0.00058644515176573,0.00070106219823726,0.00063509879815955,24.62134803901,-5.9029215687921e-05,-5.9029215687921e-05,-5.9029215687921e-05,1317248.6338222,0.0019244726385578
16191759,0.13475006787159,0.0023378472464794,0.0007508578890603,0.00081174487582943,0.00077524448158964,-0.00015719588459207,0.00015696164121485,-5.6826370777208e-07,-3.0160826934044e-07,-7.7201206782199e-08,-2.1963795154038e-08,-0.00011420806279828,0.00011285031385902,-0.00015091142782671,0.000150772130029,-0.00015076093853295,0.00015176035277609,-0.00011476289074805,0.00011296437343093,-0.00011426298380544,0.00011279533410651,-0.0001509646127902,0.00015071816399208,-0.00015081492300442,0.00015170574765676,-0.00017715344206971,0.0001768722813132,-0.00017701348989928,0.00017720596008318,-0.00017713556231273,0.00017689071271207,-0.0001769952635709,0.00017722460099904,-0.00015117083011101,0.00015013839466364,-0.00015074476666386,0.00014978793206536,-0.00015118860196618,0.00015012033835797,-0.00015076345877976,0.00014976926937582,-0.00011471083260753,0.000113017050191,2.1335090675864e-08,-3.3231103518289e-08,-6.7230821092697e-08,5.582971382808e-08,-0.00018940832163494,0.00018939688061075,-0.00018276213078313,0.00018288923892669,-0.00018891868208146,0.00018891971125705,-0.00018889833984786,0.00018879176827704,-0.00019330678816439,0.00019327275032349,-0.00019329351475973,0.00019334166606738,-0.00019332528864716,0.000193254329541,-0.00019331865869778,0.00019333022014164,-0.00018283958588021,0.00018268925428143,-0.00018281545977251,0.00018290650640021,-0.00018890048783833,0.00018898315223961,-0.00018851082623808,0.00018848678015498,-0.00018273544949476,0.00018262224640829,1.6093696660769e-07,5.9853185027424e-07,-0.00017062207567071,0.00017068781811709,1.1073626804519e-07,-1.2995981464621e-08,-0.00016294064547971,0.0001631122401946,-0.0001635351650999,0.00016210423939984,-0.00016358205933077,0.00016336729823661,-0.00016397324251149,0.00016771137683612,-0.00016281947006338,0.00016323412171788,-0.00016341423720632,0.00016222497727883,-0.00016346103986694,0.00016348869730315,-0.00018091028740201,0.00018099268575948,-0.00018095160744011,0.00018095119006973,-0.00018092894041206,0.00018075569616081,-0.00018097021286502,0.00018071454065566,-0.00017438836203503,0.0001755056651158,-0.00017381351122836,0.00017409120474697,-0.00017377224178948,0.00017413279428372,-0.00017434722948556,0.00017554651892252,-0.00016409375321787,0.00016759143498167,0.77198654576378,128566,2924,0.00065429105220931,0.00078885930676202,0.00071080757706845,24.889747133275,-5.6882022933798e-05,-5.6882022933798e-05,-5.6882022933798e-05,1411789.1648397,0.0021562979966681
16391759,0.14672961137578,0.0025576764595047,0.00081867466716,0.00089132232384936,0.00084767946849533,-0.00017067565309759,0.00017040012489846,-6.6730574076125e-07,-3.4578300377517e-07,-8.9745853009068e-08,-2.1302110822506e-08,-0.00012302917320128,0.0001214662952883,-0.00016471696815762,0.00016455848133185,-0.00016453834110832,0.00016572020808571,-0.00012369097729669,0.0001215818652496,-0.00012309634502007,0.00012139905798963,-0.0001647831604988,0.00016449132900779,-0.00016460497569107,0.00016565287703472,-0.00019262245382756,0.00019228798543209,-0.00019245527936668,0.00019267448941866,-0.00019260019282932,0.00019231093679776,-0.00019243276097241,0.00019269746324396,-0.00016453878453419,0.00016332689267283,-0.00016402959610231,0.00016293187125943,-0.0001645610863718,0.00016330421246928,-0.00016405246075265,0.00016290905832259,-0.00012362553904158,0.00012164803384954,2.6429698012144e-08,-4.115980232909e-08,-8.1908932669074e-08,6.7792563997668e-08,-0.00020759478163425,0.00020758062104154,-0.00020065993076622,0.00020081501549616,-0.00020726290585915,0.00020726483832697,-0.00020723339306712,0.000207102576241,-0.00021145362270169,0.00021141232242294,-0.00021143597135587,0.0002114947608899,-0.00021147343357476,0.00021138661513445,-0.00021146599746993,0.0002114793145847,-0.00020076940635806,0.00020058612043495,-0.00020076037977401,0.00020087024447495,-0.00020723821683927,0.00020733998756175,-0.00020676094084619,0.00020672997382672,-0.00020064063794799,0.00020050281792635,1.9012381664217e-07,6.9784496118608e-07,-0.00018588100968973,0.00018595892346745,1.3325100285462e-07,-1.6896504061282e-08,-0.0001786245654466,0.00017882547259637,-0.00017893772968709,0.00017726539647073,-0.00017899675885796,0.00017874575877538,-0.00017982344661087,0.00018421519952543,-0.00017847831729812,0.00017897261126368,-0.00017879073993937,0.00017741217851362,-0.00017885015724294,0.0001788928724094,-0.00019688080391364,0.0001969793237275,-0.00019693083876894,0.00019692904970537,-0.00019690636246724,0.00019670239694102,-0.00019695653665066,0.0001966523698827,-0.000190703454049,0.00019199658546906,-0.00019002511348796,0.00019035270767414,-0.00018997528730682,0.00019040292886274,-0.00019065324525555,0.00019204643094334,-0.00017997050565555,0.00018406881228041,0.77561891959691,128566,2924,0.00071033604724403,0.0008645666160851,0.000774364700487,24.115915621937,-6.3072675024506e-05,-6.3072675024506e-05,-6.3072675024506e-05,1487291.7920014,0.0023520491902387
16591759,0.15847582487838,0.0027807604262395,0.00088714816309413,0.00097245246320198,0.00092115979994338,-0.00018495362891472,0.00018463460493585,-7.6862832510614e-07,-3.961322481951e-07,-1.0231052853588e-07,-1.8759796817906e-08,-0.0001326820474596,0.00013089668279352,-0.00017970299920867,0.00017952711685601,-0.00017949644398017,0.00018087334337795,-0.00013345144525476,0.00013102011087778,-0.0001327652059851,0.0001308133172719,-0.00017978338456724,0.00017944554787458,-0.00017957818864725,0.00018079067222169,-0.0002087843967897,0.00020839746402176,-0.00020859092723207,0.00020883633214123,-0.00020875735214862,0.00020842531506234,-0.00020856334986399,0.00020886453743324,-0.00017896029273803,0.00017756655139749,-0.00017836961532091,0.00017711791622926,-0.0001789871710378,0.00017753930676873,-0.0001783979136751,0.00017708961397541,-0.00013337272784108,0.00013109963491286,3.2110889116732e-08,-5.036703719305e-08,-9.8532576031989e-08,8.1035784725843e-08,-0.00022682021289013,0.00022680265327184,-0.00021975730617307,0.00021994278081378,-0.00022672946563711,0.00022673305285421,-0.00022668858420271,0.00022652924113653,-0.00023048342187888,0.00023043393935959,-0.00023046100500642,0.00023053123498537,-0.0002305044970316,0.00023039918952327,-0.00023049597501169,0.00023051104317012,-0.00021990590064644,0.00021968456390125,-0.00021990848582362,0.00022003969398593,-0.00022669802723402,0.00022682040807543,-0.00022611504623673,0.00022607638255336,-0.00021974833039443,0.00021958334264318,2.2522370120043e-07,8.0085276888268e-07,-0.00020200774676212,0.00020209961649491,1.5907536285675e-07,-2.1596691885358e-08,-0.00019563575839527,0.00019587164381394,-0.00019558579770831,0.00019364887388549,-0.00019566050843831,0.00019537255036665,-0.00019701552337296,0.00020211618542658,-0.00019545826443845,0.00019605018672322,-0.0001954093520637,0.00019382506656647,-0.00019548358926252,0.00019555007854426,-0.00021355801910899,0.00021367707564605,-0.00021361836730698,0.0002136164649679,-0.00021359438523602,0.00021335456264312,-0.00021365458462973,0.00021329453699188,-0.00020807009852541,0.00020953997460944,-0.00020727308767122,0.00020766044136519,-0.00020721264916004,0.000207721360408,-0.00020801015886705,0.00020959949263341,-0.00019719114983819,0.00020194137469552,0.80315472256045,128566,2924,0.00076969737177259,0.00094459165499987,0.00084153446468516,23.784789978947,-6.5721680168427e-05,-6.5721680168427e-05,-6.5721680168427e-05,1562609.6523892,0.0025591132126003
16791759,0.170175684663,0.0030036347970025,0.00095505595824072,0.001054070891861,0.00099450794690075,-0.00019949924842646,0.00019913211746637,-8.8300881090508e-07,-4.4872468052923e-07,-1.1546521996863e-07,-1.5380189119428e-08,-0.00014204546653651,0.0001400250711042,-0.00019499364406687,0.00019479608267017,-0.00019475481822435,0.00019635005796837,-0.00014293900757349,0.00014014992438236,-0.00014214407458789,0.00013992619160067,-0.00019509030801258,0.00019469801410129,-0.00019485237209999,0.00019625137593649,-0.00022531233821895,0.00022486681399738,-0.00022508740339981,0.00022536567162681,-0.00022527981011504,0.00022490029247321,-0.00022505448883198,0.00022539933411675,-0.00019370133940761,0.00019210253119874,-0.00019301521742036,0.00019159053229259,-0.00019373390746595,0.00019206955227474,-0.00019304874713561,0.00019155696874475,-0.00014284365062703,0.00014024621730764,3.8464328008844e-08,-6.0335981228337e-08,-1.1698801967677e-07,9.6024092568327e-08,-0.00024661834823744,0.00024659730796036,-0.00023935082280625,0.00023957133289863,-0.00024682567114458,0.00024683029958681,-0.00024677170089646,0.0002465818813602,-0.00025005907395253,0.00025000039513537,-0.00025003131077066,0.00025011479755914,-0.00025008084878817,0.00024995556292165,-0.00025007057798405,0.00025008778261654,-0.00023954242667063,0.00023927968441102,-0.00023955594243306,0.00023971071894766,-0.00024678576989031,0.00024693204126245,-0.00024608170215116,0.00024603432163543,-0.00023935348007916,0.00023915750995983,2.6094887493713e-07,9.1680473506765e-07,-0.00021848605328758,0.00021859414699605,1.8664859986888e-07,-2.7182263024612e-08,-0.00021308976992365,0.00021336118039371,-0.00021260963325606,0.00021038639091555,-0.00021270483151779,0.0002123755252095,-0.00021466740656083,0.00022054554757331,-0.00021288074960782,0.00021357142719822,-0.00021240044643432,0.00021059528020872,-0.00021249575613142,0.00021258531970859,-0.00023059779647557,0.00023073717163623,-0.00023066909313871,0.00023066556903266,-0.00023064512759993,0.00023036832223345,-0.00023071649249926,0.00023029716312218,-0.00022582156413697,0.00022749634983933,-0.00022489885070449,0.00022534654653475,-0.00022482768430402,0.00022541825690075,-0.0002257502478699,0.00022756716758914,-0.00021487635946522,0.00022033756523589,0.80668182318214,128566,2924,0.00083016073314837,0.001026993623805,0.00091016800950008,23.660023692901,-6.6719810456792e-05,-6.6719810456792e-05,-6.6719810456792e-05,1644309.9446518,0.0027711766261701
16991759,0.18177013280552,0.00321967764832,0.0010204315542568,0.0011337973092522,0.0010654487848111,-0.00021349922920557,0.00021308366585038,-1.0005500460827e-06,-5.05335251258e-07,-1.2947112146613e-07,-1.1932066914538e-08,-0.00015036241772834,0.00014808190840409,-0.0002095282185595,0.00020931054442846,-0.00020925638614136,0.00021107595046694,-0.00015138394090401,0.00014822946042774,-0.00015047740254159,0.00014796653713377,-0.00020964201415517,0.00020919512151246,-0.00020937068389164,0.00021096030084701,-0.00024143636814012,0.00024093351019045,-0.00024117948655624,0.00024149605104119,-0.00024139806492764,0.0002409729069591,-0.00024114093748179,0.00024153550096393,-0.00020774550010536,0.0002059347588505,-0.00020696209080219,0.00020535117996198,-0.00020778404644483,0.00020589577979894,-0.00020700118746637,0.00020531200951417,-0.00015127110057236,0.00014834332550088,4.5178738242165e-08,-7.0836596160487e-08,-1.3611223358324e-07,1.1151629154366e-07,-0.00026602771115616,0.00026600302406516,-0.00025841366905543,0.00025867042356277,-0.00026652230039963,0.00026652836070552,-0.00026645560325385,0.00026623380129679,-0.00026930646022204,0.00026923834619829,-0.00026927290249167,0.00026937016069485,-0.00026932949721293,0.00026918335082758,-0.00026931734479812,0.00026933662815208,-0.00025864516487818,0.00025833934196056,-0.00025867032843717,0.00025884941555608,-0.00026647380066147,0.00026664497197732,-0.00026565132774655,0.00026559463773367,-0.00025842680916248,0.00025819890223146,3.0076807691824e-07,1.0355968546122e-06,-0.00023442214498326,0.00023454760163071,2.1515363669191e-07,-3.324731154202e-08,-0.00022976395614393,0.0002300766651344,-0.00022887877954328,0.00022635450619834,-0.00022899200289749,0.00022861992800562,-0.00023154949851989,0.00023823318538472,-0.00022952170097454,0.00023032029958037,-0.00022863552474925,0.00022659741406176,-0.00022874931178967,0.00022886343524374,-0.0002472178267279,0.00024738008415753,-0.00024730056481625,0.00024729700885136,-0.00024727856672054,0.00024696216778895,-0.00024736153819396,0.00024687943653128,-0.00024296432553775,0.00024485084021172,-0.00024190436178601,0.00024242013186018,-0.00024182189269909,0.00024250320838783,-0.00024288125469955,0.00024493333626863,-0.00023179291999737,0.00023799088153237,0.79134050585352,128566,2924,0.00088834909134477,0.0011077699622091,0.00097654214565769,23.477443542935,-6.8180451656519e-05,-6.8180451656519e-05,-6.8180451656519e-05,1726072.9151902,0.0029771072552898
17191759,0.19302349609976,0.0034238281250067,0.0010818847037419,0.0012096605707219,0.0011322828505429,-0.00022626497364464,0.00022580189307295,-1.1187749420574e-06,-5.606119503796e-07,-1.4399368558401e-07,-8.0120559352437e-09,-0.00015732877711736,0.00015478320355928,-0.00022257701756806,0.00022234211259763,-0.00022227059821327,0.00022431977365053,-0.00015848293191755,0.0001549630469108,-0.0001574618793,0.00015464965756051,-0.00022270864568273,0.00022220863529126,-0.00022240289688907,0.0002241859403398,-0.00025638788684204,0.00025582757474286,-0.00025609825685373,0.00025645518246917,-0.00025634357077592,0.00025587313672485,-0.00025605364052216,0.00025650083234572,-0.0002203701007709,0.00021834454769503,-0.00021948651946973,0.00021769348378153,-0.00022041467176882,0.00021829948904007,-0.00021953179000154,0.00021764812730662,-0.0001583523927599,0.00015509472584509,5.2352501437135e-08,-8.1866082794932e-08,-1.55404039443e-07,1.2710791875967e-07,-0.00028413931381144,0.00028411091565183,-0.00027605559147371,0.00027634884480725,-0.00028485652267762,0.00028486511350212,-0.00028477900963608,0.00028452382720401,-0.00028735510457779,0.00028727782800906,-0.00028731577768288,0.00028742707298192,-0.00028738017253399,0.00028721259990555,-0.00028736609870703,0.00028738725459676,-0.00027632422183023,0.00027597438474659,-0.00027636075588633,0.00027656429158563,-0.00028480004316274,0.00028499682194183,-0.00028386462231963,0.00028379794599219,-0.00027607801853381,0.0002758184496206,3.4044852867187e-07,1.1540859551475e-06,-0.00024902481908297,0.00024916636880492,2.4338458303273e-07,-4.008587976686e-08,-0.00024477052825016,0.00024512261564422,-0.00024360655162492,0.0002407806677509,-0.00024373700871681,0.00024332020186285,-0.00024676557804354,0.00025423653525672,-0.00024449379419739,0.00024540091058516,-0.00024332901645769,0.00024105781818817,-0.0002434599492934,0.00024359819714905,-0.00026262348283986,0.00026280880582163,-0.00026271791992691,0.00026271399228677,-0.00026269718220178,0.00026234144362165,-0.00026279183398452,0.00026224706878506,-0.00025865569332399,0.0002607577319145,-0.00025745973953033,0.00025804229811121,-0.00025736551447349,0.00025813720141662,-0.00025856097183748,0.00026085179607118,-0.0002470431916864,0.00025396018482966,0.77293706737003,128566,2924,0.00094139871646652,0.0011831383692111,0.0010373590374646,23.033122525042,-7.1735019799664e-05,-7.1735019799664e-05,-7.1735019799664e-05,1801266.9222991,0.0031669258601384
17391759,0.20409699187891,0.0036164916918147,0.0011396598323556,0.0012817096245754,0.0011951222348837,-0.00023868553224863,0.00023817751308734,-1.2366953061842e-06,-6.1398022096904e-07,-1.5892772004788e-07,-2.9095644532949e-09,-0.00016377425126769,0.00016095590287166,-0.00023494976782849,0.00023469930114625,-0.00023460780457269,0.00023689560602931,-0.00016506523705441,0.0001611833443663,-0.00016392690028573,0.00016080268667136,-0.0002351008516528,0.00023454616135845,-0.00023475958665368,0.00023674203905801,-0.00027112063471871,0.00027050245457172,-0.00027079733349069,0.00027119732552881,-0.0002710697521343,0.00027055471641442,-0.00027074614718078,0.00027124970192715,-0.00023240113458469,0.000230159644023,-0.00023141482366451,0.00022944480191161,-0.00023245232651614,0.00023010795558901,-0.00023146674397916,0.00022939274272564,-0.00016491531707836,0.00016133447623998,6.0287935642905e-08,-9.373975358005e-08,-1.754213339356e-07,1.4334570967116e-07,-0.00030188604257585,0.00030185385043023,-0.00029314826875297,0.00029347986859358,-0.00030272483678738,0.00030273694413647,-0.00030263848527239,0.0003023478576794,-0.00030517751336604,0.00030509105100175,-0.00030513190558054,0.00030525815959227,-0.00030520531707099,0.00030501525643492,-0.00030518889577532,0.00030521173359837,-0.00029345189342354,0.00029305614268166,-0.00029349758202991,0.00029372624668789,-0.00030265994331893,0.00030288433914099,-0.00030161431783253,0.0003015364183964,-0.00029318021732653,0.00029288804067793,3.8063620984035e-07,1.2734878161561e-06,-0.00026320018763797,0.0002633562526061,2.716622927051e-07,-4.7869069428538e-08,-0.00025890538541823,0.00025929649395463,-0.00025764193748632,0.00025451219782796,-0.00025778822328519,0.0002573244262175,-0.0002611013237908,0.00026934245127092,-0.00025859331842591,0.00025961029159971,-0.00025732906954616,0.00025482461849141,-0.00025747587029305,0.0002576378029126,-0.00027776370412704,0.00027797257243963,-0.00027787015474089,0.00027786571736963,-0.00027784955331847,0.00027745467984468,-0.00027795623285452,0.00027734830984634,-0.00027377203329067,0.00027609356843386,-0.00027244003493936,0.00027309017749474,-0.00027233379974068,0.0002731971559816,-0.00027366528884755,0.00027619958679715,-0.00026141424910982,0.00026903094637801,0.74411350906019,128566,2924,0.00099301462410759,0.0012569821226257,0.0010963903549654,22.771894622482,-7.3824843020146e-05,-7.3824843020146e-05,-7.3824843020146e-05,1880222.924836,0.0033520215511088
17591759,0.21331987075066,0.0037706383696375,0.001185747536,0.001339687222986,0.0012452036106514,-0.00024470030100613,0.00024415819655421,-1.3355456829283e-06,-6.5173728326458e-07,-1.7232414602121e-07,2.5140865579687e-09,-0.00016501233834675,0.00016197710236499,-0.00024062726687535,0.00024036667119864,-0.00024025382439573,0.00024274153256167,-0.00016642645864377,0.00016224133343933,-0.00016518073569064,0.00016180796128813,-0.00024079751692039,0.00024019423298706,-0.000240423116164,0.00024257028678629,-0.00027909245028513,0.00027842401298701,-0.00027873866566078,0.00027917788106207,-0.00027903510604849,0.00027848284845572,-0.00027868158145369,0.00027923629647476,-0.00023783827415765,0.00023541510736519,-0.00023676128188711,0.00023466011619896,-0.00023789652201748,0.00023535634317765,-0.00023681861170815,0.00023460260408996,-0.00016625568485137,0.00016241332859322,6.784630091327e-08,-1.0459856999429e-07,-1.9222065099146e-07,1.5697720067338e-07,-0.00031210880387311,0.00031207343510112,-0.00030267701608275,0.00030304224877063,-0.00031291384184984,0.00031292983253613,-0.00031282189178186,0.00031250061067915,-0.00031565884162237,0.00031556499630038,-0.0003156073584937,0.00031574704264145,-0.00031568983024041,0.00031548059222527,-0.00031567122022473,0.00031569459031741,-0.00030300827208338,0.00030257421570826,-0.00030305334025185,0.00030330165228277,-0.00031284153519937,0.0003130917021551,-0.00031171303211058,0.00031162310644548,-0.0003027183799924,0.00030239858164094,4.1398007535254e-07,1.3692617834497e-06,-0.00027046540482391,0.00027063194505313,2.9358488782069e-07,-5.4191225390145e-08,-0.0002656945172815,0.00026612164840318,-0.00026460204198462,0.00026122986556478,-0.00026475870634541,0.0002642587025279,-0.00026805301466022,0.00027689293974794,-0.00026535742703534,0.00026646058595953,-0.00026426067255132,0.00026157075249657,-0.00026441955238809,0.00026459893338347,-0.00028598868381536,0.00028621661429633,-0.00028610426773405,0.00028610061189046,-0.00028608340934906,0.0002856558020332,-0.00028619980181362,0.00028553975523705,-0.00028163474403553,0.00028413637526941,-0.0002801917887593,0.0002808990260585,-0.00028007697657334,0.0002810146471123,-0.00028151771898443,0.00028425261100124,-0.00026839619359449,0.00027655131533426,0.71798652360066,128566,2924,0.0010179860239832,0.0012995132440252,0.0011266501899469,20.396039614491,-9.2831683084073e-05,-9.2831683084073e-05,-9.2831683084073e-05,1912952.4584819,0.0034501200116992
17791759,0.22174929731546,0.0039068545982656,0.0012265357841018,0.0013909815581787,0.0012893372559851,-0.00025176032442086,0.00025119050667961,-1.4216357506272e-06,-6.8811651528665e-07,-1.8492335361841e-07,9.921577073141e-09,-0.00016768131792261,0.00016441999086648,-0.00024726052834759,0.00024699914871392,-0.00024685781832784,0.00024953966601511,-0.00016920490478111,0.00016475775996843,-0.00016787322253692,0.00016422725447085,-0.00024744905013249,0.00024680831513243,-0.00024704783995212,0.00024934750272504,-0.00028801140944214,0.00028729971742996,-0.00028763208923104,0.00028810638219394,-0.00028794790360235,0.00028736482320063,-0.00028756802898895,0.00028817191158999,-0.00024428326970942,0.00024170106266856,-0.0002431274223694,0.00024090357954777,-0.00024434691564052,0.00024163691076559,-0.00024319260795507,0.00024083814220719,-0.00016901862842551,0.00016494521687453,7.6239892153437e-08,-1.1623626709334e-07,-2.0887681064606e-07,1.7048331868027e-07,-0.00032306452830395,0.00032302600344656,-0.00031289745787276,0.00031329448476383,-0.00032379521559938,0.00032381892722909,-0.00032370214890141,0.00032334663554907,-0.00032691638407791,0.00032681646419368,-0.00032685938883598,0.00032701227874978,-0.00032695233118318,0.00032672279289553,-0.00032693036818719,0.00032695440722953,-0.00031325711326377,0.0003127824120313,-0.00031329093695874,0.00031356028114439,-0.00032371793617827,0.00032399329024772,-0.0003225157427955,0.00032241432994182,-0.00031294780936632,0.00031260329813241,4.4812486274777e-07,1.4555308706327e-06,-0.00027864481287505,0.00027882042464164,3.1627605735373e-07,-6.3568122223295e-08,-0.0002732509364209,0.00027370544512989,-0.00027245161018817,0.00026885479987123,-0.00027261733077642,0.00027207754066929,-0.00027575397046424,0.00028514304944482,-0.00027287818930467,0.00027408024295072,-0.00027208010017229,0.00026922577407272,-0.00027224551117864,0.00027245054127218,-0.00029511351412318,0.00029536394803884,-0.00029524017959774,0.00029523682079185,-0.00029521852168862,0.00029475960927813,-0.0002953451589263,0.00029463333643234,-0.00029029715523935,0.00029296163595584,-0.00028874831924545,0.00028951090107942,-0.00028862151015015,0.0002896386106627,-0.0002901707658586,0.00029308718954815,-0.00027612454396378,0.00028477417027447,0.696693706875,128566,2924,0.0010473207121054,0.0013450923779493,0.0011607107802809,19.228070647205,-0.00010217543482236,-0.00010217543482236,-0.00010217543482236,1961825.3375786,0.0035594802497461
17991759,0.23017155071048,0.0040410114907215,0.001266721402204,0.0014415833581152,0.0013327067304024,-0.00026071809255865,0.00026011951638492,-1.5112795579572e-06,-7.2287128550801e-07,-1.9957702916801e-07,1.6471151171622e-08,-0.00017222978969762,0.0001687132354241,-0.00025577020477604,0.00025550408653108,-0.00025533826723012,0.00025821129195809,-0.00017386968003037,0.00016913904311561,-0.00017243970206139,0.00016850238892891,-0.00025598021245895,0.00025529168204392,-0.00025554822984302,0.00025799909233403,-0.00029889308245921,0.000298132229955,-0.00029848531914418,0.00029899485249087,-0.00029882231599929,0.00029820467507659,-0.0002984145081262,0.00029906722054618,-0.00025264352014596,0.00024989801522702,-0.00025140568317226,0.00024906525523135,-0.00025271496037893,0.00024982603445404,-0.00025147712661883,0.00024899353576066,-0.00017366006972492,0.00016934987921807,8.5293101459269e-08,-1.2815395807563e-07,-2.2586332631686e-07,1.8469185467256e-07,-0.00033600982335955,0.00033596851808128,-0.00032505048027374,0.00032548311414288,-0.00033665225393887,0.00033668246843671,-0.00033656400023928,0.00033617555486688,-0.00034020671634998,0.00034010039588115,-0.00034014338702125,0.00034031117149775,-0.00034024788720664,0.00033999846550312,-0.000340223379621,0.00034024776444425,-0.0003254411375764,0.0003249269249959,-0.00032546457476831,0.00032575388291643,-0.00033656829105207,0.00033687264902074,-0.00033530267191439,0.00033518741099056,-0.00032511298976124,0.00032474133891778,4.7915550581904e-07,1.5460981708475e-06,-0.00028873081412223,0.00028891551919221,3.382641925696e-07,-7.256604392939e-08,-0.00028268041562772,0.00028316387323777,-0.0002822492248731,0.00027842755216601,-0.00028242392675075,0.00028184526419711,-0.00028532685214646,0.00029528187993258,-0.00028228013432262,0.00028356629926038,-0.00028184649004371,0.00027882971834965,-0.00028202261525071,0.00028224780138231,-0.00030619143423084,0.00030646121924399,-0.00030632814054816,0.00030632402186087,-0.00030630311483929,0.00030581474736417,-0.00030644036512382,0.00030567788552038,-0.00030083817444516,0.00030366953330167,-0.00029918780689225,0.00030000183170725,-0.00029905158109453,0.00030013902145092,-0.00030070054362916,0.00030380627266006,-0.00028573062863346,0.00029487987798181,0.68920463941948,128566,2924,0.0010845517290636,0.0013989481242429,0.0012027047339994,19.173508749013,-0.0001026119300079,-0.0001026119300079,-0.0001026119300079,2029241.3743301,0.0036930478752988
18191759,0.23778568794915,0.0041640773448944,0.0013035627794126,0.0014880704242829,0.0013724441411989,-0.00026660082957311,0.0002659770384322,-1.5917759887045e-06,-7.5113508192593e-07,-2.1374378571881e-07,2.1660979363343e-08,-0.00017440503635754,0.00017068977384172,-0.00026132260856654,0.00026104824012344,-0.00026086214204406,0.00026390492114802,-0.00017615222145329,0.00017116802806151,-0.00017463566962679,0.00017045814012861,-0.00026155102683335,0.00026081738521865,-0.00026109155548969,0.00026367319990014,-0.00030642533115499,0.00030562165825252,-0.000305991737411,0.00030653456521613,-0.00030634833337072,0.00030570039279497,-0.00030591434501837,0.00030661357607939,-0.00025806694499643,0.00025517486155108,-0.00025675262129752,0.00025431718707411,-0.00025814427712887,0.0002550969781086,-0.00025683103137246,0.00025423847494012,-0.00017592549957251,0.00017139595857533,9.3918457014474e-08,-1.3877872761963e-07,-2.3911889374629e-07,1.9600240766015e-07,-0.00034538701832396,0.00034534376647127,-0.00033374559729857,0.00033420620914537,-0.00034594870630955,0.00034598823170441,-0.00034587222334936,0.00034545416102026,-0.00034992319826914,0.00034981336299716,-0.00034985590343642,0.00035003618164481,-0.00034997086139219,0.00034970471274212,-0.00034994433112139,0.00034996872507166,-0.00033416429541218,0.00033361710661029,-0.0003341815548996,0.00033448711699632,-0.00034586182963664,0.00034619071424265,-0.00034454449629674,0.00034441715692448,-0.00033381488905198,0.00033342423117338,5.0911513174581e-07,1.6268410222156e-06,-0.00029551656773665,0.00029571039162131,3.565196500985e-07,-7.8655191070404e-08,-0.00028895761706136,0.00028947021840688,-0.00028893765652741,0.00028491905571128,-0.00028912182861661,0.0002885126085996,-0.00029173549186244,0.00030219355651283,-0.00028853161091279,0.00028989842448106,-0.00028851164944774,0.00028534447028334,-0.00028869612116867,0.00028893955662404,-0.00031386219316037,0.00031415037182028,-0.00031400719512806,0.00031400486126105,-0.00031398043826932,0.00031346292459254,-0.0003141256276753,0.00031331813680322,-0.00030803010950287,0.00031100575905346,-0.00030628914319512,0.00030715351020201,-0.00030614423224637,0.00030729941959044,-0.0003078849417374,0.00031115001230186,-0.00029216119242377,0.00030176969573091,0.70094302207138,128566,2924,0.0011089900383689,0.00143795710014,0.0012309628606286,17.889512094253,-0.00011288390324598,-0.00011288390324598,-0.00011288390324598,2063358.6170134,0.0037850999067316
18391759,0.24462323225487,0.0042748361669559,0.0013367496855979,0.0015299283576016,0.0014081581237563,-0.00027149959606842,0.00027085591025141,-1.6649626195134e-06,-7.7592481914739e-07,-2.2580819424077e-07,2.9003137667563e-08,-0.00017597855377287,0.00017208723423365,-0.00026596952204895,0.00026569274511204,-0.00026548339017458,0.00026868617767345,-0.00017782648500336,0.00017260755462525,-0.00017622790185644,0.00017183689629333,-0.00026621699832311,0.00026544281270644,-0.00026573172874817,0.00026843550956663,-0.00031279415225833,0.00031195438585262,-0.00031233668359949,0.00031291442006039,-0.00031271069126203,0.00031203961977169,-0.0003122528684075,0.00031299989510044,-0.00026262266189726,0.00025959854400224,-0.00026123783750387,0.00025871171788355,-0.00026270652669692,0.0002595141233074,-0.00026132263164545,0.00025862661300735,-0.00017758056933508,0.00017285469823482,1.0286093540874e-07,-1.4919607359092e-07,-2.5117247887612e-07,2.0662576681004e-07,-0.00035343259196338,0.00035338791050855,-0.00034119713814974,0.00034168506984804,-0.00035394223989,0.00035399164624115,-0.00035387578623123,0.00035342984004493,-0.00035825761734761,0.00035814524182221,-0.00035818641583012,0.00035837932068561,-0.00035831113378119,0.00035802956113922,-0.00035828273144102,0.00035830677387401,-0.0003416424567085,0.00034106526432977,-0.00034165441798678,0.0003419742066924,-0.00035385151022785,0.00035420558286129,-0.00035248732738239,0.00035234702593702,-0.000341273899598,0.00034086599123445,5.3765781717581e-07,1.7001507751022e-06,-0.00030118314110114,0.00030138592198672,3.7387257518092e-07,-8.4142848339991e-08,-0.00029425019490833,0.00029479333204894,-0.00029459490646509,0.00029039506863628,-0.00029478661288076,0.0002941506628774,-0.00029715174097027,0.00030806812087348,-0.00029380213576259,0.00029524359964162,-0.00029414643266841,0.00029084293138848,-0.00029433864272421,0.00029459988701218,-0.00032031326892466,0.0003206190995451,-0.00032046585109771,0.0003204659998539,-0.00032043803121004,0.0003198934774911,-0.0003205908656084,0.00031974105816234,-0.00031409049386245,0.00031719998529992,-0.00031226430066666,0.00031317747042352,-0.00031211189089869,0.00031333090343843,-0.00031393758983949,0.00031735195300812,-0.00029760016022468,0.00030762157423585,0.70345144624823,128566,2924,0.0011293434802099,0.0014714253725847,0.001254562409513,16.541450827173,-0.00012366839338262,-0.00012366839338262,-0.00012366839338262,2084929.6018445,0.0038628205430984
18591759,0.25117841093816,0.0043786722276511,0.0013678790228546,0.0015692343257697,0.0014415588790268,-0.00027741993011711,0.00027675743714113,-1.7338105061771e-06,-8.0403476030844e-07,-2.3797930395974e-07,3.7795392386577e-08,-0.00017851795176999,0.00017444797063951,-0.0002715901497682,0.00027131582142574,-0.00027108060881281,0.00027444355306123,-0.00018046036380607,0.00017501758910224,-0.00017878850448091,0.00017417651993977,-0.00027185792618359,0.00027104556836757,-0.00027134969105763,0.0002741721550852,-0.00032020440039995,0.0003193315060157,-0.00031972552742902,0.00032033659070498,-0.00032011401548955,0.0003194236526409,-0.00031963464424465,0.00032042913569019,-0.00026819090039909,0.00026504244443391,-0.00026674222332698,0.00026411881340926,-0.00026828154671078,0.00026495125130113,-0.00026683423244244,0.00026402650312984,-0.00018019460944546,0.00017528457549272,1.1298472989287e-07,-1.6019746455869e-07,-2.6300556516612e-07,2.1763563077019e-07,-0.00036245560391844,0.00036241010393744,-0.00034959980073344,0.00035011609528467,-0.00036291362993378,0.00036297556341185,-0.00036285767926384,0.00036238235576706,-0.00036757161398865,0.0003674579442454,-0.00036749649930016,0.00036770320635307,-0.00036763144306415,0.00036733430249493,-0.00036760087365033,0.00036762473290198,-0.00035007155251733,0.00034946391513008,-0.00035007661914139,0.00035041110550893,-0.00036281920091701,0.00036320058291752,-0.00036140934137447,0.00036125530974968,-0.00034968378622042,0.00034925997176779,5.684972559773e-07,1.7697240605614e-06,-0.00030785391118653,0.00030806573748021,3.9165803487248e-07,-9.0130873065064e-08,-0.00030050656244009,0.00030108297241862,-0.00030120467067962,0.00029682341660142,-0.00030140194288459,0.00030073964774704,-0.00030353475894592,0.00031489778838029,-0.0003000345459683,0.00030155725766095,-0.0003007331098893,0.00029729435506375,-0.00030093046804136,0.00030121239492317,-0.00032777806519466,0.00032810353542647,-0.00032793863705017,0.00032794244292395,-0.00032791131548928,0.0003273386862844,-0.00032807199388034,0.00032717842033737,-0.00032113850967454,0.0003243738800445,-0.00031922209107612,0.00032018808370218,-0.00031906155955593,0.00032034966497748,-0.00032097789414101,0.00032453356098268,-0.00030400586064289,0.00031442855675701,0.68932345646305,128566,2924,0.0011539507345022,0.0015089600959724,0.0012823403170726,15.993437881394,-0.00012805249694884,-0.00012805249694884,-0.00012805249694884,2118501.842542,0.0039530954641332
18791759,0.25765695102307,0.0044876481029774,0.0014005845968058,0.0016103922186243,0.0014766712875472,-0.00028424473691451,0.00028356531356826,-1.807725050711e-06,-8.2579134695451e-07,-2.4857861476735e-07,4.9645112244473e-08,-0.00018226645348803,0.00017802937395797,-0.00027843209165752,0.0002781609821571,-0.00027789591469189,0.00028143066552732,-0.00018431706828035,0.00017863120032848,-0.00018255785920305,0.00017773704625229,-0.00027872216892809,0.00027786839792796,-0.00027818661207529,0.00028113760590563,-0.00032840232827044,0.00032749537119424,-0.00032789814350822,0.00032854991209115,-0.00032830439696722,0.0003275951354282,-0.00032779992745037,0.00032864983440525,-0.00027493287816524,0.00027165234137225,-0.00027340966511318,0.00027069244805833,-0.00027503131498992,0.0002715533314349,-0.00027350880385532,0.00027059300318643,-0.00018402826381755,0.0001789212812513,1.2337253245154e-07,-1.7194672371709e-07,-2.75187524446e-07,2.2853194246284e-07,-0.00037241247932711,0.00037236569114247,-0.00035910541023077,0.00035965078401317,-0.00037287331044798,0.00037294758023883,-0.00037282607485946,0.00037232038144468,-0.00037771816968807,0.0003776028259637,-0.00037763904237908,0.00037785965942716,-0.0003777839803823,0.00037747059849726,-0.00037775164064328,0.00037777439061906,-0.0003596072242953,0.00035896865651431,-0.00035960969591741,0.00035995775854547,-0.00037277416200115,0.0003731840047727,-0.00037131050065385,0.00037114078022203,-0.00035919858807332,0.00035875794163143,5.9440737362693e-07,1.8482325017603e-06,-0.00031543184977128,0.00031565430128704,4.0969622125898e-07,-9.4451098664623e-08,-0.00030805938216818,0.00030866212586691,-0.00030905377386797,0.00030449272063636,-0.00030926189094086,0.00030857290460969,-0.00031120622639193,0.00032305370390558,-0.00030756673642997,0.00030915707634847,-0.00030855996248959,0.00030498588342644,-0.0003087688992305,0.00030906717950927,-0.00033602237859992,0.00033636379431035,-0.00033619029472294,0.0003361953501205,-0.00033616032264662,0.00033556258917371,-0.0003363285902517,0.00033539475346142,-0.00032922638287784,0.00033258666906062,-0.00032722910034546,0.00032824061112927,-0.00032706148791182,0.00032840927941496,-0.00032905792877208,0.00033275415400296,-0.00031170037206781,0.00032256148986141,0.73043848022772,128566,2924,0.0011823259886639,0.0015503773391768,0.0013138956773061,15.814615888404,-0.00012948307289277,-0.00012948307289277,-0.00012948307289277,2147314.9352228,0.0040548517422822
18991759,0.26429252090507,0.0046012692211841,0.0014346322713858,0.0016533686791642,0.0015132682706341,-0.00029210502564148,0.00029140720296085,-1.8844113538466e-06,-8.5463304297742e-07,-2.5853241412698e-07,6.3398032614623e-08,-0.00018665472867909,0.00018222641325929,-0.00028643457282145,0.00028616911859356,-0.000285871501965,0.00028959731666753,-0.00018881441414201,0.00018287309358995,-0.00018696980863425,0.000181910374433,-0.00028674766018835,0.00028585344510724,-0.0002861855022204,0.00028928086380952,-0.00033772850871136,0.00033678903489665,-0.00033719935995179,0.00033789403158431,-0.00033762272330162,0.00033689666521166,-0.00033709319110248,0.00033800192255123,-0.00028283110490926,0.00027941551323976,-0.00028123334540345,0.00027839994753392,-0.00028293728968331,0.00027930875456108,-0.00028134051726572,0.00027829244211442,-0.00018850296070796,0.0001831858515035,1.3438121239239e-07,-1.8445420915972e-07,-2.8751928925366e-07,2.3952516138491e-07,-0.00038364818849168,0.00038360005786093,-0.00036993182439231,0.00037050642396191,-0.00038414379017859,0.00038423221286416,-0.00038410458295339,0.00038356642488414,-0.00038906203510462,0.00038894552793094,-0.00038897938343852,0.00038921429076265,-0.00038913396000582,0.00038880353346295,-0.00038910011230952,0.00038912147679009,-0.00037046688554156,0.0003697961109548,-0.00037047507632698,0.00037083692258413,-0.00038404047963793,0.0003844796881534,-0.00038250715084222,0.00038232085212924,-0.00037003298022415,0.00036957621333065,6.2594117775574e-07,1.9313622179259e-06,-0.00032411938667235,0.0003243548142606,4.2968761710113e-07,-9.7915796718314e-08,-0.00031689010745222,0.00031752768739882,-0.0003181005739074,0.0003133384195905,-0.00031832095747082,0.00031760633439673,-0.00032017829633749,0.00033257525900862,-0.00031637405273342,0.00031804612778251,-0.00031758395734107,0.00031385435780972,-0.00031780485198823,0.00031812375012754,-0.00034536284549717,0.00034572406842097,-0.00034553863279281,0.00034554774774674,-0.00034550851144079,0.00034488210510964,-0.00034568455232612,0.00034470650909899,-0.00033856024785116,0.0003420371858689,-0.00033646894825073,0.00033753611047378,-0.00033629337218013,0.00033771278325306,-0.000338384137064,0.0003422123031808,-0.00032069494105494,0.00033206059960867,0.74319115901731,128566,2924,0.0012150079249805,0.0015971122876371,0.0013500720145993,16.067729868136,-0.00012745816105491,-0.00012745816105491,-0.00012745816105491,2178579.62367,0.0041709230038414
19191759,0.27160245661265,0.0047338693064404,0.0014742853082224,0.0017035406262104,0.0015560433720076,-0.00030273337876212,0.0003020119158497,-1.9713906300726e-06,-8.9335684485623e-07,-2.6839058747545e-07,7.8264716969203e-08,-0.00019340180802617,0.00018875628271066,-0.00029757999121786,0.00029732037383459,-0.00029698917824291,0.00030093419580155,-0.00019567854089449,0.00018944371923924,-0.00019374064476089,0.00018841621351406,-0.00029791730167291,0.00029698034485543,-0.00029732714514073,0.00030059350744516,-0.00034992395310318,0.00034894960494525,-0.00034936812796205,0.00035011051928189,-0.00034980993682279,0.00034906551019965,-0.00034925385198798,0.00035022665865835,-0.00029378424942728,0.00029021704209341,-0.00029210663037071,0.000289130280614,-0.00029389881191042,0.00029010200513393,-0.00029222188198204,0.00028901457820638,-0.00019534250815551,0.00018978091850835,1.4552329883468e-07,-1.978727120265e-07,-3.0260586393738e-07,2.5247527131011e-07,-0.00039821167845956,0.00039816138950433,-0.00038421664699279,0.00038482487798182,-0.00039882966365949,0.00039893054200637,-0.00039879220454812,0.00039821845611917,-0.00040358434527608,0.00040346451725093,-0.00040349720806661,0.00040374757315122,-0.00040366160141373,0.0004033114910859,-0.00040362715454765,0.00040364745124472,-0.0003847940217568,0.00038408557937406,-0.00038481634622139,0.00038519520265447,-0.000398720135222,0.00039919072559765,-0.00039709000714428,0.00039688663165355,-0.00038432879135551,0.00038385053482899,6.6348983202222e-07,2.0285781075831e-06,-0.00033575105366809,0.00033600287030058,4.5224819086481e-07,-1.0125414305793e-07,-0.00032913660013483,0.00032981948654369,-0.00033044025326398,0.00032543859546466,-0.0003306775160918,0.00032993571906154,-0.00033259308151944,0.00034564917580842,-0.00032859568075964,0.00033036298999497,-0.00032989814130125,0.00032597993449241,-0.00033013618418163,0.00033047835760618,-0.00035757509412609,0.00035795947542303,-0.00035775948527286,0.00035777456365441,-0.00035773083045547,0.00035707039872818,-0.00035791555719141,0.00035688612796543,-0.00035107103828541,0.00035469852572879,-0.00034886889974992,0.00035000268710855,-0.00034868485045723,0.00035018788068873,-0.00035088621198884,0.00035488234813311,-0.00033313543974388,0.00034510901509816,0.7853509726746,128566,2924,0.0012591991081533,0.0016576854808692,0.0013985042949592,17.22208311722,-0.00011822333506224,-0.00011822333506224,-0.00011822333506224,2221580.3075481,0.0043247723059257
19391759,0.27947460505183,0.0048734973317023,0.0015158165368838,0.0017567328192952,0.0016009479755233,-0.00031337034476415,0.00031262227909131,-2.0734638703131e-06,-9.3238368736999e-07,-2.7782971326256e-07,9.3588078849388e-08,-0.00019927370538663,0.00019439765311781,-0.00030860651471762,0.00030835032152946,-0.00030798119002084,0.0003121756018996,-0.00020168773268638,0.00019511758009017,-0.00019963686604614,0.00019403342611445,-0.00030896797728344,0.00030798602842023,-0.00030834338853566,0.00031181068099021,-0.00036238420268608,0.00036136859861363,-0.00036179522859323,0.00036259456246148,-0.00036226199008268,0.00036149278904196,-0.00036167271300845,0.00036271897702603,-0.00030467179124771,0.0003009226382445,-0.00030289413853295,0.00029976891563639,-0.00030479452603856,0.0003007993394306,-0.00030301764955631,0.00029964499287706,-0.00020132772007322,0.00019547895765916,1.5668948702734e-07,-2.1125437548778e-07,-3.1740793490763e-07,2.6519221352325e-07,-0.00041319325807885,0.00041314088355267,-0.00039880781036857,0.00039944911817495,-0.00041395071866481,0.00041406437977675,-0.00041391125659098,0.00041330208449172,-0.00041852668687313,0.00041840383173788,-0.00041843568322117,0.00041870139444278,-0.00041860946159073,0.00041823987372601,-0.00041857556424818,0.0004185947993921,-0.00039942238014284,0.00039867667628031,-0.00039946811544807,0.00039986362748382,-0.00041383537224639,0.00041433707713919,-0.00041209206270696,0.00041187161352282,-0.0003989261063934,0.00039842706934657,7.0036663116368e-07,2.1423803029008e-06,-0.00034746852789157,0.00034773951502351,4.7712133500187e-07,-1.0524891417511e-07,-0.00034133167505196,0.00034205425908219,-0.00034268341887742,0.00033741333641642,-0.00034294073305614,0.00034216399893413,-0.00034497102930314,0.00035877375294365,-0.00034076243028242,0.00034262613801644,-0.00034211311576541,0.00033798288852376,-0.00034237119370071,0.00034273494593577,-0.00037001262986454,0.00037041946127859,-0.00037020662693799,0.000370224907888,-0.00037017664200295,0.00036948272769923,-0.00037037099064093,0.00036928886507838,-0.00036370566564482,0.00036752348156758,-0.0003613883722496,0.0003625862319286,-0.00036119467413352,0.00036278112677655,-0.00036351115941925,0.00036771691529169,-0.0003455416387863,0.00035820533701892,0.7695181477603,128566,2924,0.0013034200006837,0.0017199932649654,0.0014472968850911,18.120840520151,-0.00011103327583879,-0.00011103327583879,-0.00011103327583879,2266988.5641392,0.0044807803305259
19591759,0.2875563064946,0.0050132607042359,0.0015572498986301,0.001810268668335,0.0016457421372708,-0.0003230261514321,0.00032225400565236,-2.1739248704951e-06,-9.7309198813444e-07,-2.8637805270749e-07,1.0950515796985e-07,-0.00020404719236207,0.00019893835397389,-0.00031847234941358,0.00031822260533285,-0.00031781287136588,0.00032226180946848,-0.00020659630321014,0.00019969797465296,-0.00020443509559663,0.00019854932005885,-0.00031885737410636,0.00031783459965466,-0.00031819924666055,0.00032187261038968,-0.00037392778006358,0.00037287267800869,-0.00037330600944083,0.00037416281858049,-0.00037379756791365,0.00037300495014421,-0.00037317528308691,0.00037429550303218,-0.00031445739657323,0.00031052738925681,-0.00031258047179993,0.00030929468030442,-0.00031458795276058,0.00031039622723645,-0.00031271241935317,0.00030916232688393,-0.00020621327607235,0.00020008239131335,1.6759920887888e-07,-2.2451193178785e-07,-3.327431641953e-07,2.7831249926791e-07,-0.00042721520318681,0.00042716060663167,-0.00041232971766741,0.00041300448029118,-0.00042809019047449,0.00042821610412283,-0.00042804838966302,0.00042740342276277,-0.00043258890105784,0.00043246252654241,-0.00043249408242142,0.00043277509480234,-0.00043267755070873,0.00043228806725181,-0.00043264418294252,0.00043266273612877,-0.00041297834040902,0.00041219419802367,-0.00041304755359563,0.00041346093962319,-0.00042796912005082,0.00042850149592639,-0.00042611408795424,0.00042587741956271,-0.00041245242024633,0.00041193169119111,7.4141755312856e-07,2.2558215685478e-06,-0.0003581326256977,0.00035842208497398,5.0262638966403e-07,-1.1034387766721e-07,-0.00035222777693811,0.00035299472441908,-0.00035371736393114,0.00034817211477367,-0.00035399304477265,0.00035317967917285,-0.0003560589595779,0.00037059472258754,-0.00035162782142984,0.00035359743250471,-0.0003531173944325,0.00034877129739816,-0.00035339329710698,0.00035378089729326,-0.00038149355834155,0.00038192532407217,-0.00038169784638396,0.00038172045385526,-0.00038166792308399,0.00038093625273892,-0.00038187238645076,0.00038073229280327,-0.00037522640551167,0.00037923444216305,-0.00037278622193213,0.00037405599654751,-0.0003725820606183,0.00037426140434536,-0.00037502197059302,0.00037943775690317,-0.00035665870225233,0.00036999725095184,0.75194288486135,128566,2924,0.0013435624747305,0.0017783048228255,0.0014917028938893,18.431085611499,-0.00010855131510801,-0.00010855131510801,-0.00010855131510801,2308832.4732112,0.004624294335113
19791759,0.29574403452862,0.0051509717306679,0.0015980149017216,0.0018632346132149,0.0016897222157314,-0.00033234267425629,0.0003315489642139,-2.2754491975629e-06,-1.0104167401414e-06,-2.9386358013248e-07,1.2593821729416e-07,-0.00020844083768569,0.00020309532887437,-0.00032782131366336,0.00032758240429657,-0.00032712697060422,0.00033183694101726,-0.00021112808510176,0.00020389903741331,-0.00020885126632925,0.00020268373659859,-0.0003282299521997,0.00032717064897849,-0.00032753641306889,0.00033142455775029,-0.00038517672913257,0.00038408177152117,-0.0003845203804748,0.00038543778089783,-0.00038503851357139,0.0003842221371381,-0.00038438182379382,0.00038557836160696,-0.00032382310137279,0.00031970845043319,-0.00032184269158534,0.00031838579093222,-0.00032396186184412,0.00031956903681734,-0.00032198233358918,0.00031824575880605,-0.00021072087421882,0.0002043076631894,1.7825504250708e-07,-2.3766810347837e-07,-3.5013753780739e-07,2.9333937064689e-07,-0.00044087606034168,0.00044081908878966,-0.00042538138899494,0.00042609379531987,-0.00044184281394198,0.00044197856711309,-0.00044179721884656,0.00044111592594293,-0.0004463729045296,0.00044624125068028,-0.00044627290736956,0.00044657042454497,-0.00044646758242824,0.00044605707966186,-0.0004464340230314,0.00044645296135531,-0.00042606496434978,0.00042523905186664,-0.00042614915387184,0.00042658367199596,-0.00044171410611265,0.00044227855336402,-0.00043975041331579,0.00043949843526207,-0.00042551202804735,0.00042496486957281,7.8217460225757e-07,2.3719654693429e-06,-0.00036837744055952,0.00036868545010599,5.2854401299074e-07,-1.1543566520181e-07,-0.00036247891982303,0.00036329030592002,-0.00036420071492817,0.0003583847247961,-0.00036449423503347,0.00036364335645294,-0.00036649749127461,0.00038176071923696,-0.00036184959465057,0.00036392251549677,-0.00036357006670678,0.00035901455822087,-0.00036386444747926,0.0003642746757829,-0.00039264508871919,0.00039310126678788,-0.00039285961734631,0.0003928861323624,-0.00039282809399441,0.00039205872750039,-0.00039304301773709,0.00039184432784667,-0.00038624936000293,0.00039045487592974,-0.00038368625362108,0.00038502817754485,-0.00038347209811321,0.00038524362588314,-0.0003860342551249,0.00039066881203331,-0.00036712846820804,0.00038113212077841,0.73295182039205,128566,2924,0.0013822978488072,0.0018351100938957,0.0015343624803327,18.579181323768,-0.00010736654940986,-0.00010736654940986,-0.00010736654940986,2351262.4165074,0.0047631475159932
19991759,0.30384238319419,0.0052900542158733,0.0016391620641648,0.0019167848137369,0.0017341073379716,-0.00034117780939706,0.00034036116674265,-2.3767688362197e-06,-1.049555565508e-06,-2.9994950796838e-07,1.4163122319969e-07,-0.00021266356702109,0.00020707278246963,-0.00033681311858925,0.00033658296940252,-0.00033608387860009,0.00034105874017683,-0.00021548655192796,0.0002079301854649,-0.0002130949935543,0.0002066401984419,-0.00033724313835441,0.00033614972237514,-0.00033651445535752,0.00034062508410237,-0.00039582418039681,0.00039468898901796,-0.00039513325428207,0.00039611048059229,-0.00039567874621621,0.00039483666606797,-0.00039498756181959,0.00039625830271531,-0.00033289494025149,0.00032859615522091,-0.00033081140937366,0.0003271649228882,-0.00033304106850138,0.00032844938251044,-0.00033095816506429,0.00032701774782615,-0.00021505778569586,0.00020836046685028,1.878158711802e-07,-2.4973661032689e-07,-3.6785137036679e-07,3.0866253942146e-07,-0.00045394805336092,0.00045388868157804,-0.00043791759816558,0.00043866729772226,-0.00045502444698883,0.00045516789194881,-0.00045497221239999,0.00045425633043008,-0.00045954813645388,0.0004594102825291,-0.0004594429494473,0.00045975635477942,-0.00045964825304043,0.000459217176999,-0.00045961459237667,0.00045963489440346,-0.00043863826353214,0.00043777051340913,-0.00043873675434755,0.00043919390259628,-0.00045488805881557,0.00045548239725989,-0.00045280622178866,0.00045254145517873,-0.00043805703096151,0.00043748226326494,8.2464356239367e-07,2.4886203440265e-06,-0.00037804505217375,0.00037837220630554,5.5600593280219e-07,-1.2100115259227e-07,-0.00037230248451306,0.00037315914475297,-0.00037427195503412,0.0003681857213743,-0.00037458474623464,0.00037369560841259,-0.00037650526304379,0.00039249377021763,-0.00037164122806941,0.00037382339189991,-0.00037360885259587,0.00036884798055977,-0.00037392275450105,0.00037435919395775,-0.00040316451978368,0.00040364725706559,-0.00040339000994757,0.00040342114213497,-0.00040335701363873,0.00040254996772364,-0.00040358298602148,0.00040232453262827,-0.00039673340136317,0.0004011178848952,-0.00039404469359115,0.00039546222770319,-0.00039381965068285,0.00039568860519472,-0.00039650717081054,0.00040134290536925,-0.00037716897377099,0.0003918325108433,0.74870071845296,128566,2924,0.0014190267514587,0.0018894624679066,0.001574620156009,18.423818404128,-0.00010860945276698,-0.00010860945276698,-0.00010860945276698,2385277.3266143,0.0048951244749607
20191759,0.31188108654314,0.0054312477604783,0.0016809090053916,0.0019712039608356,0.0017791347942511,-0.00035019301027916,0.00034935560368092,-2.4777838204246e-06,-1.0907859409969e-06,-3.025023797501e-07,1.5911429784774e-07,-0.00021695564117085,0.00021111435399454,-0.00034612149423114,0.0003459035703879,-0.00034535776560728,0.00035060967153881,-0.00021991364603147,0.00021202530001721,-0.0002174054214286,0.00021066334740414,-0.00034657146590147,0.00034545024859612,-0.00034580745974263,0.0003501567555532,-0.000406615204113,0.00040544529214698,-0.00040588933120241,0.00040693166584819,-0.00040646302185835,0.00040559981016352,-0.00040573716915814,0.00040708604022935,-0.00034237662390421,0.00033789430055063,-0.00034018907915381,0.000336326301024,-0.00034252983249426,0.00033774044156569,-0.00034034206101757,0.00033617287275934,-0.00021946410164377,0.00021247637553257,1.9652096923859e-07,-2.609054800238e-07,-3.8623829355011e-07,3.2470549574183e-07,-0.00046723650319398,0.00046717477707325,-0.00045075063475855,0.00045153878063257,-0.00046846582471638,0.00046861449795661,-0.00046840314620907,0.00046765427274678,-0.0004728587175854,0.00047271356568335,-0.00047274818154249,0.00047307750785647,-0.00047296351831414,0.00047251213923177,-0.00047293017973106,0.00047295283082886,-0.00045151060483268,0.00045060057207687,-0.0004516296150141,0.00045211109542228,-0.00046832075616106,0.00046894409496844,-0.00046611008803095,0.00046583446408336,-0.00045089966513414,0.00045029508657781,8.7073206320581e-07,2.6094184646421e-06,-0.00038785304602771,0.00038820192247262,5.8519617909447e-07,-1.2610757410717e-07,-0.00038244544295816,0.00038335340660666,-0.00038461690588908,0.00037824865662788,-0.00038495039395295,0.0003840240424926,-0.00038684239426653,0.00040360485353137,-0.0003817518651359,0.00038405010816485,-0.00038391980562104,0.00037894488088749,-0.00038425525800542,0.00038472083654756,-0.00041378874452599,0.00041430060506782,-0.00041402551519805,0.00041406317933146,-0.00041399153099179,0.00041314479679496,-0.00041422908360853,0.0004129077956745,-0.00040745639606547,0.00041202200326514,-0.00040463473474231,0.00040613520229062,-0.00040439867986864,0.00040637263226938,-0.0004072183097894,0.00041225882916253,-0.00038754093177492,0.00040290885542065,0.7656637109221,128566,2924,0.0014565097920767,0.0019447111074455,0.0016154653780641,18.316779703087,-0.00010946576237531,-0.00010946576237531,-0.00010946576237531,2414300.6278521,0.0050293676526015
20391759,0.32008924737918,0.0055764855737341,0.0017238216509028,0.0020272947475505,0.0018253691752809,-0.00036013888033107,0.00035928118154525,-2.5869330926418e-06,-1.1287951103946e-06,-3.0221654297625e-07,1.7666394689573e-07,-0.00022178690410271,0.00021568442756038,-0.00035640326992522,0.00035619570881095,-0.00035560097944041,0.00036115041971415,-0.00022488823096992,0.00021664785789671,-0.00022225430841713,0.000215215751628,-0.00035686982845193,0.00035572567202057,-0.00035606775543497,0.00036068030128005,-0.00041841331269111,0.00041720797963825,-0.00041764893999788,0.00041876285900125,-0.00041825552887087,0.00041736819032649,-0.00041749102495446,0.00041892308721168,-0.00035295027597161,0.00034826738840862,-0.00035064657165231,0.00034656110872746,-0.00035310899916353,0.00034810800555105,-0.00035080551294935,0.00034640171404463,-0.00022442258234309,0.0002171150893548,2.0388260793955e-07,-2.7066837816239e-07,-4.05456219555e-07,3.4163328810753e-07,-0.00048165038717517,0.00048158636085965,-0.00046471703012055,0.00046554375553633,-0.00048307856760536,0.0004832299351371,-0.00048300063791311,0.00048222027916118,-0.00048723534923786,0.00048708167539606,-0.00048711961883036,0.00048746434517927,-0.00048734445540487,0.0004868729587193,-0.00048731116253236,0.00048733793879496,-0.00046551676932646,0.00046456307390342,-0.0004656627915835,0.00046617191506407,-0.00048292487137271,0.00048357441847754,-0.00048057086054342,0.00048028836108386,-0.00046487473521617,0.00046423846396076,9.1718738054143e-07,2.7453079898949e-06,-0.00039859123548763,0.00039896366363252,6.1687163033082e-07,-1.3070438897183e-07,-0.00039358496676524,0.00039454046760638,-0.00039592384075661,0.00038925795627445,-0.0003962832263442,0.00039531564459972,-0.00039818141419542,0.00041578786163765,-0.00039285510070527,0.00039527355585394,-0.00039519148206909,0.00038998942878508,-0.00039555232469677,0.00039604826674977,-0.00042538090306338,0.00042592270101077,-0.00042562983812958,0.00042567309611282,-0.00042559254605024,0.00042470598730521,-0.00042584210782418,0.0004244569944785,-0.00041919173746568,0.00042394801535996,-0.00041623569473202,0.00041781887141297,-0.00041598725333727,0.00041806872453556,-0.00041894182618972,0.00042419662442085,-0.00039891472224164,0.0004150571352319,0.7715769883454,128566,2924,0.0014978671238506,0.0020046351592259,0.0016601818052444,18.578467129202,-0.00010737226296638,-0.00010737226296638,-0.00010737226296638,2447097.4103098,0.0051761141174745
20591759,0.32823425384147,0.0057081215195475,0.0017627204526929,0.0020784661961384,0.0018669348707162,-0.00036873217993803,0.00036786200666307,-2.6914787850482e-06,-1.1526843174647e-06,-2.9865629466137e-07,1.9283703149059e-07,-0.0002249066703157,0.00021854101150294,-0.00036475716959109,0.00036456077440828,-0.00036391639314686,0.000369760751008,-0.00022814517701911,0.00021957253421716,-0.00022538658618749,0.00021805978496268,-0.00036523593823722,0.00036407842469414,-0.00036439552365098,0.00036927814741594,-0.00042905176692111,0.00042781374086081,-0.00042824977149031,0.0004294365063492,-0.00042888986102101,0.0004279781464655,-0.00042808769240429,0.00042960098151175,-0.00036177216020871,0.00035689229747365,-0.00035935586826966,0.00035507306481236,-0.00036193500073365,0.0003567287990873,-0.00035951907380727,0.00035490938860801,-0.00022766739816669,0.00022005190136184,2.0901795178249e-07,-2.7802797617811e-07,-4.2353005943444e-07,3.5757278455195e-07,-0.00049457195711693,0.00049450578735272,-0.00047688789677883,0.00047774992123329,-0.00049610165076805,0.00049625183415872,-0.00049600953427697,0.00049520332059151,-0.00050032651285138,0.0005001635839744,-0.00050020618283336,0.00050056425780506,-0.00050043941592465,0.00049995027945643,-0.00050040437295841,0.00050043619674547,-0.00047771856090503,0.0004767251860541,-0.00047787162184375,0.00047840781909088,-0.00049594120442375,0.00049661209185701,-0.00049345493390031,0.00049316936996046,-0.00047705096855546,0.00047638350504598,9.6356541537804e-07,2.8729144023621e-06,-0.00040785899617883,0.00040825313082125,6.4873268736612e-07,-1.3290463641901e-07,-0.00040245453437866,0.00040345883506731,-0.00040520342615804,0.00039826190051732,-0.00040558436324541,0.00040457801849927,-0.0004072453352168,0.00042564751062961,-0.00040169107269512,0.00040422561644008,-0.00040443775091878,0.00039902666402714,-0.00040482006070563,0.00040534409633164,-0.0004357535077604,0.00043632531410739,-0.00043601380644541,0.00043606432832338,-0.00043597271726061,0.00043504775969861,-0.00043623361361906,0.00043478744544061,-0.00042924788996937,0.00043418837716854,-0.00042615903810263,0.00042782585433871,-0.00042589918113719,0.00042808714517546,-0.00042898667152848,0.00043444825459479,-0.00040801180968114,0.00042488369103457,0.70762321658686,128566,2924,0.0015336129068171,0.0020583496185821,0.0016987757544665,18.473813947993,-0.00010820948841605,-0.00010820948841605,-0.00010820948841605,2479261.7071008,0.0053048452649512
20791759,0.33597648757136,0.0058403271154886,0.0018018331587322,0.0021297409859125,0.0019087529708439,-0.00037629701487715,0.00037541786745766,-2.7883317808877e-06,-1.1740673962405e-06,-2.9070887187454e-07,2.0813061962148e-07,-0.00022807676884837,0.00022146609679814,-0.00037242248088972,0.00037223652769867,-0.00037154459267579,0.00037767527937392,-0.00023144178839625,0.00022257001553259,-0.00022856514536052,0.00022097620758871,-0.00037290793122024,0.00037174734410285,-0.00037203118680933,0.00037718489455043,-0.00043830605640268,0.00043704174850007,-0.00043746777383884,0.00043873117800752,-0.00043814188362009,0.00043720843715915,-0.00043730320287505,0.00043889828538092,-0.0003698580731353,0.00036479585792583,-0.0003673321451424,0.00036287095621059,-0.00037002301041179,0.00036463042417535,-0.00036749819887517,0.00036270431820686,-0.00023095815257912,0.00022305509403161,2.1163638497899e-07,-2.8268528849986e-07,-4.3983217230117e-07,3.7191260612514e-07,-0.00050607075069189,0.00050600259056882,-0.00048784636939629,0.0004887384262569,-0.00050772273432173,0.00050786827165779,-0.00050760871811996,0.00050678267225014,-0.00051195131890477,0.00051177876265387,-0.00051182722013387,0.00051219579932392,-0.00051206598355451,0.00051156207442742,-0.00051202958259026,0.00051206732276348,-0.00048870772517463,0.00048767956199398,-0.00048886602568592,0.00048942827211597,-0.000507556677539,0.00050824248179225,-0.00050492898783572,0.00050464493704956,-0.00048801490763015,0.00048731832300974,1.0081191457952e-06,2.9963571274504e-06,-0.00041592926373121,0.00041634577364693,6.7793758697519e-07,-1.3455435337429e-07,-0.00041049311465309,0.00041154537577602,-0.00041366243880101,0.00040646934185712,-0.00041406890838229,0.00041302824365807,-0.00041545532527026,0.00043459879892261,-0.00040969796426123,0.00041234392687178,-0.00041286689553658,0.00040726386737775,-0.0004132739578225,0.00041382494056382,-0.00044472742592058,0.0004453279985455,-0.00044499816119772,0.00044505659534026,-0.00044495355607172,0.00044399226662411,-0.00044522458819555,0.00044372180205556,-0.00043812352897299,0.00044324006977742,-0.00043491495978628,0.00043666240778128,-0.00043464445554951,0.00043693438263006,-0.00043785252089466,0.00044350975775699,-0.00041625065264332,0.00043380619322763,0.74689429993261,128566,2924,0.0015650854218505,0.002106145632982,0.0017323888439043,17.813137480964,-0.00011349490015229,-0.00011349490015229,-0.00011349490015229,2499536.4821459,0.0054183361326447
20991759,0.34322597551412,0.0059596337374649,0.0018371751576346,0.0021761324202962,0.0019463261595341,-0.00038270375629669,0.00038182049621878,-2.8801215815017e-06,-1.1874475610401e-06,-2.7889511250678e-07,2.2140888588283e-07,-0.00022990090362362,0.00022303581101455,-0.00037875296662084,0.0003785778687456,-0.00037783925505971,0.00038424670826859,-0.00023338186078597,0.00022422680602728,-0.00023039174271537,0.00022254371073926,-0.00037923947721542,0.00037808756821092,-0.00037832765723401,0.00038375457705015,-0.0004464132268798,0.00044512779332423,-0.0004455407144612,0.00044688230824938,-0.00044624873997812,0.00044529489187545,-0.00044537555150526,0.00044705001467792,-0.00037662394313608,0.00037138926348809,-0.00037399574538218,0.00036937841690857,-0.00037678893462292,0.00037122364780872,-0.00037416263446639,0.00036921100445496,-0.00023289774551603,0.00022471249826812,2.1152869355829e-07,-2.8421090782065e-07,-4.5484424168566e-07,3.8533698151406e-07,-0.00051617423495117,0.00051610449079496,-0.00049736165572599,0.00049828014937883,-0.00051790737866199,0.0005180435009802,-0.00051776998934968,0.0005169311456193,-0.00052220181105445,0.00052201880842323,-0.00052207428090218,0.00052245109544268,-0.00052231702130565,0.00052180151972558,-0.00052227871843011,0.00052232403856636,-0.00049824870576398,0.00049719028064767,-0.00049841171055856,0.00049900006955096,-0.00051773629465806,0.00051843102553445,-0.00051497449828114,0.00051469717588915,-0.00049753346786055,0.00049680828829793,1.0517679178443e-06,3.1134193115588e-06,-0.00042274734409686,0.00042318417313953,7.0557004372544e-07,-1.3527216826048e-07,-0.00041703020692721,0.00041813218246265,-0.00042062320137025,0.00041318977861922,-0.00042105331046457,0.0004199820187704,-0.00042216483233764,0.0004420234016141,-0.00041620650205444,0.00041895937368105,-0.00041980025792424,0.00041401176241076,-0.00042023031627742,0.00042080686599186,-0.00045250268798461,0.00045313117325591,-0.00045278296571212,0.00045285019353588,-0.00045273511203526,0.00045173929555443,-0.00045301548880862,0.0004514595104762,-0.00044566565353904,0.00045092372637408,-0.00044234111850691,0.00044416849405981,-0.00044206081457995,0.00044445025095182,-0.00044538539336157,0.00045120259148764,-0.00042298707212225,0.00044120393115857,0.721205762608,128566,2924,0.0015917496372907,0.0021481387670497,0.0017607882084558,16.960868245698,-0.00012031305403441,-0.00012031305403441,-0.00012031305403441,2512898.9641165,0.0055159282807922
21191759,0.34950296273496,0.0060633048076043,0.0018679488836575,0.0022164261653778,0.001978929758569,-0.00038628974288846,0.00038540565234168,-2.9598426712239e-06,-1.1975155644955e-06,-2.6662950571055e-07,2.2965910875235e-07,-0.00022985715139378,0.00022278212375668,-0.00038229475130843,0.00038211172790866,-0.00038134896891422,0.00038798170509039,-0.0002334356319563,0.0002240436183246,-0.00023034567381635,0.00022229247337522,-0.00038277676140975,0.00038162582698753,-0.00038183392795386,0.00038749302989369,-0.00045136613803438,0.00045006481327745,-0.00045046330221265,0.00045187710779979,-0.00045120318460023,0.00045023040014183,-0.00045029935426782,0.00045204367527378,-0.00038051480400762,0.00037512965524733,-0.00037779674112081,0.00037304217880838,-0.00038067796734481,0.00037496587279474,-0.00037796283450776,0.00037287561343957,-0.00023295711757162,0.00022452381481478,2.088994828213e-07,-2.827586513156e-07,-4.672764321599e-07,3.9661532337828e-07,-0.00052274728359243,0.00052267638272342,-0.00050344439467745,0.00050438307429508,-0.00052452427610306,0.00052464780233585,-0.00052436773653725,0.00052352337348661,-0.00052894898290115,0.00052875574735422,-0.0005288187701562,0.00052920081979684,-0.00052906259867762,0.0005285392280841,-0.00052902248985921,0.00052907610278152,-0.00050435039258877,0.00050326846396907,-0.0005045113664744,0.00050512361171246,-0.00052434990739195,0.00052504681154599,-0.0005214740906831,0.00052120792667846,-0.00050361825332551,0.00050286783767719,1.0899720991995e-06,3.2047296153497e-06,-0.00042653841918664,0.00042698938850194,7.2856029908354e-07,-1.3571166521225e-07,-0.00042051456966604,0.00042166037951508,-0.00042456362800086,0.00041693153642698,-0.00042501266919443,0.00042391621565115,-0.00042579651695363,0.00044624257092408,-0.00041966643843221,0.00042251205971337,-0.00042371821255571,0.00041777601995269,-0.00042416627260105,0.00042476455033889,-0.0004571062458124,0.00045775905406462,-0.00045739449062006,0.00045747011575575,-0.00045734516614036,0.00045631880668887,-0.00045763318038971,0.00045603139412179,-0.00045006208360823,0.00045540471482077,-0.0004466376515752,0.00044853511554953,-0.00044634906771231,0.00044882518574661,-0.00044977444506298,0.00045569095458677,-0.0004266402257398,0.00044540162278003,0.72387934084916,128566,2924,0.0016066827306842,0.0021754543509428,0.001776584297924,15.117701235299,-0.0001350583901176,-0.0001350583901176,-0.0001350583901176,2508239.7684063,0.0055742987573599
21391759,0.35521893690178,0.006158152489654,0.0018961868211185,0.0022532307996391,0.0020087348688964,-0.00039047873009866,0.00038959138293573,-3.0346412316485e-06,-1.213030211423e-06,-2.5284599506848e-07,2.3578203207861e-07,-0.00023066492971455,0.0002233778579785,-0.00038651028863762,0.00038632256198818,-0.00038553762676856,0.00039238208098514,-0.0002343264015366,0.00022471165209052,-0.00023114146855484,0.00022290028668946,-0.00038698624589105,0.00038584269287281,-0.00038601361559933,0.00039190235063709,-0.00045681353336757,0.00045549575933412,-0.00045588235579931,0.00045736235805713,-0.00045665267034203,0.00045565928977415,-0.00045572145804142,0.00045752589045441,-0.00038502360174191,0.00037948797826702,-0.00038221851390418,0.00037733393067689,-0.00038518564643484,0.00037932530234296,-0.00038238059832273,0.00037717138309922,-0.00023385090295434,0.00022518888340654,2.0469262083467e-07,-2.7936792534716e-07,-4.7934553640963e-07,4.0786353972114e-07,-0.00052970287604921,0.00052963115361474,-0.00050997590406851,0.0005109355635307,-0.00053153236417294,0.00053163830666332,-0.00053134889577977,0.00053050488811969,-0.00053602616255029,0.00053582131514673,-0.00053589241194177,0.00053627933844863,-0.00053613648596891,0.00053560757598928,-0.00053609519388759,0.00053615782263852,-0.00051089906401798,0.00050979750411619,-0.00051106012621246,0.00051169544891939,-0.00053135199206255,0.00053204987292949,-0.00052836185646366,0.00052810860223955,-0.00051015463742606,0.00050937655140586,1.1280446557994e-06,3.2905900570666e-06,-0.00043090925051162,0.00043137542578692,7.5097639581204e-07,-1.3709360396837e-07,-0.00042467081336018,0.0004258666045727,-0.00042910970819449,0.00042128493707066,-0.00042957310538222,0.00042845438367651,-0.00043009553946539,0.00045109806375986,-0.00042380398426267,0.00042673697041957,-0.00042823948643504,0.00042215422249004,-0.00042870491752212,0.00042932453977938,-0.00046219967964652,0.00046287695660979,-0.00046249535472547,0.00046258057662046,-0.00046244580103551,0.00046139049943719,-0.0004627422378997,0.00046109467179211,-0.00045501515245507,0.00046045649019138,-0.00045150439133885,0.00045346394937724,-0.00045120937658476,0.00045376042216563,-0.00045471807096033,0.00046075216935618,-0.00043096721820704,0.00045022917471956,0.72693239774177,128566,2924,0.0016241185295137,0.0022043605926041,0.0017947938349908,13.932368525479,-0.00014454105179617,-0.00014454105179617,-0.00014454105179617,2509858.3116563,0.0056392157615557
21591759,0.36062427328831,0.0062486763421966,0.0019231842362807,0.0022883257630941,0.0020371663428219,-0.00039525199193556,0.00039434683873276,-3.1167625023382e-06,-1.2325454375847e-06,-2.4450422820854e-07,2.3146244782878e-07,-0.00023213854486608,0.0002246290724046,-0.00039138357402155,0.00039115908350072,-0.00039038138408731,0.00039740595458571,-0.00023588098155739,0.00022603852696163,-0.00023260432929451,0.00022416198101556,-0.00039184664636186,0.00039069209235001,-0.00039084539879357,0.00039693808009757,-0.00046279428084875,0.00046144989395985,-0.00046183457700737,0.00046336979076787,-0.00046263781610191,0.00046160903375758,-0.00046167773398787,0.000463529270374,-0.00039010703384951,0.00038441256275921,-0.00038721557976472,0.00038223699667558,-0.000390264380897,0.00038425461076969,-0.00038737390934038,0.00038207815934128,-0.00023541945015621,0.00022650167517457,1.9814488575188e-07,-2.7327398013999e-07,-4.9081305831439e-07,4.1885024542613e-07,-0.00053714149658697,0.00053706928722004,-0.0005170386972966,0.00051801510870345,-0.00053902571713775,0.00053911185424544,-0.00053881642856755,0.00053797625769111,-0.0005435507046664,0.00054333383703566,-0.00054341419555724,0.00054380369900843,-0.00054365650196753,0.00054312369967174,-0.00054361360950282,0.00054368763590044,-0.00051797714861093,0.00051685679286531,-0.00051813925355053,0.00051880088689423,-0.00053884145197556,0.00053953334042577,-0.00053573625100034,0.00053550300392018,-0.00051722070340266,0.00051641647939757,1.1623640109495e-06,3.3764987902776e-06,-0.00043584879728528,0.00043633106124947,7.719693158016e-07,-1.3835859745207e-07,-0.00042946438013048,0.00043069780298692,-0.00043425404283074,0.00042624503399187,-0.00043473289856307,0.00043359015595087,-0.00043503167623934,0.00045658260921564,-0.00042857419005708,0.00043159155837749,-0.00043336261003272,0.00042713550379176,-0.00043384232076559,0.00043448268446975,-0.00046781960817695,0.00046851956876893,-0.0004681228924842,0.00046821557626404,-0.00046807298190783,0.00046699096451152,-0.00046837666108675,0.00046668788923654,-0.00046050863659959,0.00046609836338085,-0.00045691008414348,0.00045892895194525,-0.00045660707188284,0.00045923338755195,-0.00046020473884385,0.00046640085737524,-0.00043592356383926,0.00045569349874834,0.73328844607404,128566,2924,0.0016439543669106,0.0022352747774919,0.0018153702496111,13.227139550295,-0.00015018288359764,-0.00015018288359764,-0.00015018288359764,2516479.425639,0.0057109503305869
21791759,0.36617143685776,0.0063402328269704,0.0019505239408958,0.0023238494388637,0.002065859447211,-0.00040197641887657,0.00040104914645105,-3.2020205734874e-06,-1.2564177211187e-06,-2.3798035684948e-07,2.2477725266039e-07,-0.00023521346189472,0.00022745749321415,-0.00039818825586778,0.00039792694422668,-0.00039715735908719,0.00040437040254327,-0.00023903617402475,0.00022894933353879,-0.00023566581774515,0.00022700390362611,-0.00039863847077313,0.00039747278642669,-0.00039760826944238,0.00040391558855473,-0.00047085337039062,0.00046948350108763,-0.00046986516873555,0.00047145714697833,-0.00047070125080614,0.00046963828985064,-0.0004697127808244,0.00047161219856303,-0.00039714214856176,0.00039128462152697,-0.00039416550637276,0.00038907736548324,-0.00039729526339366,0.00039113094155723,-0.00039431930506024,0.00038892304896627,-0.00023858716086666,0.00022939995731354,1.9139069995915e-07,-2.6683539108286e-07,-5.0251333623622e-07,4.3019801935216e-07,-0.00054674800127275,0.00054667543520667,-0.00052622803701096,0.00052722241263724,-0.0005486950308151,0.0005487599957063,-0.00054846638296672,0.00054763131279395,-0.00055322743105847,0.00055299808392212,-0.00055308799597273,0.00055348047977618,-0.00055332784389609,0.00055279144669804,-0.00055328344601831,0.000553369124671,-0.00052718064308417,0.0005260419274423,-0.00052734411182909,0.0005280321960041,-0.00054850627621323,0.00054919266772687,-0.00054528601554055,0.00054507288720413,-0.00052641312723309,0.00052558142215065,1.1993770907061e-06,3.4691073040233e-06,-0.00044280082503071,0.000443301206169,7.9452817492098e-07,-1.3917796643087e-07,-0.00043622390264609,0.00043750069514112,-0.00044136846927395,0.0004331634502222,-0.00044185946643912,0.00044069275950497,-0.00044195428065846,0.00046409382012605,-0.00043531115843865,0.0004384170194753,-0.00044045394857759,0.00043407696709439,-0.00044094615978463,0.00044160802070594,-0.00047550892484456,0.00047623313651459,-0.00047581994758769,0.00047592141201353,-0.0004757707621069,0.00047466076370575,-0.00047608228557521,0.00047434985010794,-0.00046805213380275,0.0004738121835143,-0.00046435532418547,0.00046644007968576,-0.00046404466624003,0.00046675216189482,-0.00046774030055367,0.00047412261839159,-0.00044286944243055,0.00046318147458057,0.72319362798231,128566,2924,0.001671899274255,0.002275199454747,0.0018443201005382,13.545829550342,-0.00014763336359727,-0.00014763336359727,-0.00014763336359727,2539427.3002292,0.005808331409464
21991759,0.37190986746867,0.0064334191340729,0.0019783572909527,0.0023600723484138,0.0020949894947065,-0.00040904024162682,0.00040808754892735,-3.2923503164173e-06,-1.2821478994621e-06,-2.3594567043995e-07,2.1406530034396e-07,-0.00023850958738462,0.00023049494391989,-0.00040527755895289,0.00040497155654769,-0.00040421705556095,0.00041161606543553,-0.00024241510045692,0.00023206739497277,-0.00023894914560003,0.00023005384634908,-0.00040571534773043,0.00040452983082223,-0.00040465527010999,0.00041117369466565,-0.00047932520615858,0.00047792464925186,-0.00047830822854889,0.00047995488583481,-0.00047917729580411,0.00047807521541797,-0.00047816012702704,0.00048010568592961,-0.00040446247859431,0.0003984365406929,-0.00040139987713009,0.0003962134843746,-0.00040461147052085,0.0003982871129517,-0.0004015493116666,0.00039606340658449,-0.00024197844063511,0.00023250549801851,1.8488394159724e-07,-2.6056614293905e-07,-5.137013104037e-07,4.4112490894683e-07,-0.00055678245674881,0.00055670960550637,-0.00053579032812891,0.00053680194451102,-0.00055877793862978,0.00055882260295065,-0.00055852917967549,0.00055769902649213,-0.00056337254632204,0.00056313125053312,-0.00056323059047578,0.00056362588055655,-0.000563467869756,0.00056292808987698,-0.00056342151230024,0.00056351845319564,-0.00053675650406383,0.0005356002064093,-0.00053691640449821,0.0005376300773872,-0.00055858560988813,0.00055926664738947,-0.00055524960794491,0.00055505612203345,-0.00053597720053984,0.00053511923702344,1.2350033878525e-06,3.5617929122879e-06,-0.00045008987421241,0.00045060749894671,8.1643870348783e-07,-1.3913982429911e-07,-0.00044320974088192,0.00044452862981042,-0.00044876326317773,0.00044036366038649,-0.00044926722242181,0.00044807593117447,-0.00044911318918342,0.0004718465355205,-0.00044227561605218,0.00044546615776121,-0.00044782721596325,0.00044129859902736,-0.00044833252758928,0.00044901241388488,-0.00048359289617745,0.00048433952935053,-0.00048391121266109,0.00048402053206325,-0.00048386257626215,0.00048272427511449,-0.00048418143302337,0.00048240602001105,-0.00047591278053244,0.00048186642257806,-0.00047211997020667,0.00047426853282892,-0.00047180209601878,0.00047458776075413,-0.0004755936699027,0.00048218416151303,-0.00045004987347701,0.00047091271340086,0.71247575221851,128566,2924,0.0017012492159166,0.0023169009319927,0.0018746688761486,13.97158947784,-0.00014422728417728,-0.00014422728417728,-0.00014422728417728,2566701.0533585,0.0059103302360124
22191759,0.37791041626948,0.0065291585468232,0.0020069613483836,0.0023973558365927,0.0021248413618469,-0.00041656912396076,0.00041558777982849,-3.3864731107029e-06,-1.3089958507261e-06,-2.4056739452175e-07,2.013388894441e-07,-0.00024211630284571,0.00023383832191581,-0.00041277942147975,0.00041242598778529,-0.00041168805198057,0.00041927801847408,-0.00024611206860752,0.00023548679910246,-0.00024254846605305,0.00023340498307547,-0.00041320902781229,0.00041199241407449,-0.00041211853256923,0.00041884358012068,-0.0004883424905961,0.00048690933796055,-0.00048729595356381,0.00048899835581783,-0.00048819734524651,0.00048705717963509,-0.00048715046572695,0.0004891465117999,-0.00041220123331751,0.0004060047402067,-0.00040904907742938,0.00040378215191686,-0.00041234730501251,0.00040585810903937,-0.00040919603928846,0.00040363468083973,-0.00024568392927952,0.00023591647875654,1.8054561166052e-07,-2.567153977637e-07,-5.2489435915237e-07,4.5181415145728e-07,-0.00056740495263786,0.00056733161533645,-0.00054587894300606,0.00054690855328479,-0.00056943058842443,0.00056945961103636,-0.00056917178818216,0.00056834176140511,-0.00057414684816501,0.00057389514342918,-0.0005740028410611,0.00057440223111857,-0.00057423803954555,0.00057369313380106,-0.0005741902424089,0.00057429680373145,-0.00054685641536263,0.00054568074335474,-0.00054701370021689,0.00054775117006449,-0.00056923526717278,0.00056991486398686,-0.00056579021104225,0.00056561169364159,-0.00054606513104298,0.00054518271885225,1.2709952795546e-06,3.6590546148001e-06,-0.00045784991189943,0.00045838600259639,8.3812913579913e-07,-1.3939098806973e-07,-0.00045057332042606,0.00045193377207679,-0.00045658387218844,0.00044798612687986,-0.00045709895253283,0.00045588175400477,-0.0004566669097826,0.00047999588268821,-0.00044961735541336,0.00045289336519313,-0.00045562655241675,0.00044894237574888,-0.00045614268037312,0.00045684001263299,-0.00049220517068137,0.00049297418936068,-0.00049253083248952,0.00049264780831897,-0.00049248324598413,0.00049131611732818,-0.00049280936355764,0.00049099063126059,-0.00048423763398665,0.00049041747751794,-0.00048034596907886,0.00048255940640633,-0.00048002058268909,0.00048288620879081,-0.0004839112863592,0.0004907423833651,-0.00045762464157072,0.00047904106910131,0.7011622992633,128566,2924,0.0017325270558892,0.0023610438040475,0.0019069779559479,14.541903329587,-0.00013966477336331,-0.00013966477336331,-0.00013966477336331,2598726.8516167,0.0060187076365407
22391759,0.38404518966088,0.0066309713585769,0.0020373575302715,0.0024369681091023,0.0021566457192031,-0.00042392915618989,0.00042291218449036,-3.4841559828715e-06,-1.3421824355824e-06,-2.4642259945613e-07,1.9439355181509e-07,-0.00024566732066243,0.00023713577850407,-0.00042030325782051,0.00041989837840182,-0.0004191805612288,0.00042696654305041,-0.00024976189526389,0.0002388441566135,-0.0002460988997748,0.00023670300258591,-0.00042073152968267,0.00041946609835563,-0.00041961010116654,0.00042653302534301,-0.00049713140044884,0.00049565998676267,-0.00049605515300403,0.00049780939731195,-0.00049698668616521,0.00049580742506458,-0.00049590996644597,0.00049795727059357,-0.00041985750833818,0.00041349091558458,-0.00041661653131558,0.0004112576123007,-0.00042000303951341,0.00041334482057333,-0.00041676332389352,0.00041111032004466,-0.0002493355068611,0.00023927208750844,1.7955588190553e-07,-2.564100263993e-07,-5.3618514788461e-07,4.6243053764032e-07,-0.00057790004603896,0.00057782603412422,-0.00055592209946639,0.00055697188663562,-0.00057996570862848,0.0005799856219737,-0.0005796968445873,0.00057885993620335,-0.00058475368571556,0.00058449366470485,-0.00058460785097507,0.00058501342335026,-0.00058484225578205,0.00058428970525825,-0.00058479263369921,0.0005849062957524,-0.00055691321178942,0.00055571565586197,-0.0005570721550202,0.00055783101240812,-0.0005797678116513,0.000580452546227,-0.00057620465089098,0.00057603422643493,-0.00055610789357715,0.00055520313287471,1.3078458446332e-06,3.7602059948714e-06,-0.00046543167500296,0.00046598633664675,8.6024179739666e-07,-1.3902952964614e-07,-0.00045798679189669,0.00045939048655354,-0.00046442611355338,0.00045562295017306,-0.00046495105009878,0.00046370811368855,-0.0004642781712057,0.00048822848224968,-0.00045700903237485,0.00046037197928983,-0.00046344768164657,0.00045660027262455,-0.00046397333390635,0.0004646878541595,-0.00050057194319302,0.00050136352123942,-0.00050090491487307,0.00050102981270339,-0.00050085999795102,0.00049966362292159,-0.00050119332215694,0.00049933094853771,-0.00049243394859681,0.00049880342864541,-0.00048844351752803,0.00049072255398361,-0.00048811070320264,0.00049105679458862,-0.00049210051603047,0.0004991353863128,-0.00046525662573606,0.00048725304858265,0.728684159954,128566,2924,0.0017630874825844,0.0024046545898717,0.0019385449944474,14.83199497497,-0.00013734404020024,-0.00013734404020024,-0.00013734404020024,2624172.6931506,0.0061250923095593
22591759,0.39025413908599,0.0067350579297627,0.0020684108370254,0.0024775051579168,0.0021891419348204,-0.00043115665770241,0.0004301036922395,-3.5858038870795e-06,-1.3738107948966e-06,-2.5220379330554e-07,1.9353096729495e-07,-0.0002487945378412,0.0002399942990416,-0.00042775010661101,0.0004273067988228,-0.00042659491621683,0.00043460340587705,-0.00025299882437661,0.00024176228524652,-0.00024923041967205,0.00023955726265389,-0.00042818333252677,0.00042686952045423,-0.00042702909709074,0.0004341652113366,-0.00050583850244486,0.00050432519493661,-0.00050473098615105,0.00050653718748028,-0.0005056921226889,0.00050447433722277,-0.00050458423435622,0.00050668665482302,-0.00042743375216572,0.00042089340079449,-0.00042410039381177,0.00041860418392458,-0.00042758108211672,0.0004207454955506,-0.00042424865711595,0.0004184554194028,-0.00025256715125757,0.00024219554163396,1.8158553052551e-07,-2.5932450757426e-07,-5.4829658190802e-07,4.7369057572077e-07,-0.00058838252210155,0.00058830765822408,-0.00056598759848663,0.00056706123676816,-0.00059050116093668,0.00059051708595175,-0.00059022417351579,0.00058937391764469,-0.00059529032394541,0.00059502325121712,-0.00059514227875752,0.00059555649937706,-0.00059537869520927,0.00059481590846358,-0.00059532712528265,0.00059544604698356,-0.00056699820012192,0.00056577543394352,-0.00056716370074989,0.00056794278186424,-0.00059029994767064,0.00059099663142346,-0.00058661257492092,0.00058644405614212,-0.00056617414429798,0.00056524714066997,1.3468193573092e-06,3.8678585695465e-06,-0.00047289447248509,0.00047347022487204,8.847212998671e-07,-1.3811197366438e-07,-0.00046534537006255,0.0004667964976032,-0.0004721775863643,0.00046315475656789,-0.00047271454882132,0.00047144530361117,-0.00047184477269482,0.00049648262064919,-0.00046434506319955,0.00046780052666576,-0.00047117592586371,0.00046415529461951,-0.00047171396604411,0.00047244793913211,-0.00050882846279516,0.00050964424731429,-0.00050916923423986,0.00050930273069827,-0.00050912664256788,0.00050789984131989,-0.00050946788105634,0.00050755926071196,-0.00050057200389053,0.00050712782288755,-0.00049647954755691,0.00049882782135788,-0.00049613905732093,0.00049916974304251,-0.00050023053499937,0.00050746780051861,-0.00047284680150008,0.00049548362281652,0.73621130426179,128566,2924,0.0017930963573907,0.0024482100942025,0.0019696216145942,14.996231106908,-0.00013603015114473,-0.00013603015114473,-0.00013603015114473,2643839.344274,0.006230384269919
22791759,0.39649713475683,0.0068406644850078,0.0020999013953869,0.0025186758084723,0.0022220872811486,-0.00043831062442873,0.00043722393985487,-3.6888922206322e-06,-1.4029670607447e-06,-2.5935709746403e-07,1.9383063783126e-07,-0.00025176358336426,0.00024270091714253,-0.00043517372956236,0.00043469392595048,-0.00043398553153462,0.0004422177407777,-0.00025608200388994,0.00024451312422681,-0.00025220718849864,0.00024225608029469,-0.00043561409410516,0.00043424944620038,-0.00043442709998746,0.00044177206541294,-0.00051447988758079,0.00051292759496855,-0.00051334112979235,0.00051520339062618,-0.00051433110539315,0.00051307918412942,-0.00051319187703748,0.00051535539193216,-0.00043495371488505,0.00042823831283532,-0.00043152650400435,0.00042590224424313,-0.00043510338607979,0.00042808806466064,-0.000431677364757,0.00042575086047629,-0.00025564346681601,0.00024495321394838,1.8477706786913e-07,-2.6351741337557e-07,-5.6137251785589e-07,4.8580948987459e-07,-0.0005988425017294,0.00059876667410569,-0.00057605847068292,0.00057715815657409,-0.00060102579574547,0.00060103971152425,-0.00060074687575721,0.00059987983163408,-0.00060577589398545,0.00060550196432344,-0.00060562512110829,0.00060604918918507,-0.00060586519919416,0.00060529055434921,-0.00060581082938708,0.00060593478613057,-0.00057709167160351,0.00057584068236987,-0.00057726427783353,0.00057806476494432,-0.00060082098232842,0.00060153219434848,-0.00059701344166055,0.00059684524460826,-0.00057624700288732,0.00057529698515377,1.3842856459628e-06,3.9773984035835e-06,-0.00048027965668783,0.00048087559571921,9.0956243508933e-07,-1.3839517998824e-07,-0.00047267154379885,0.00047416515593899,-0.00047988194945384,0.00047063180514274,-0.00048043313710862,0.00047913416855698,-0.00047938998895582,0.00050472944279288,-0.00047164626305751,0.00047519415713824,-0.00047885584666017,0.00047165676530474,-0.00047940783047579,0.00048016153215658,-0.00051700491513267,0.00051784403021272,-0.00051735411318216,0.00051749407738508,-0.00051731219785523,0.00051605496298857,-0.00051766177401362,0.00051570604720613,-0.00050866418135139,0.00051540542374475,-0.00050447010782959,0.00050688372023635,-0.00050412111266508,0.00050723414376206,-0.000508314477355,0.00051575361754879,-0.00048041621802403,0.00050370627927975,0.7429313356054,128566,2924,0.0018228040457584,0.0024916695381672,0.0020003727227345,15.079027445431,-0.00013536778043655,-0.00013536778043655,-0.00013536778043655,2661322.7102582,0.0063349598811305
22991759,0.40274629482039,0.0069406967460071,0.00212975576285,0.0025578280383521,0.002253112944805,-0.00044508298548713,0.00044396433119746,-3.7886150558337e-06,-1.4310132358461e-06,-2.6762456106467e-07,1.9349773700822e-07,-0.00025413526195701,0.0002448203878359,-0.00044195098808165,0.00044143669244312,-0.00044073086497005,0.00044918398497527,-0.00025856411562876,0.00024667527363797,-0.00025458634496992,0.0002443681375525,-0.0004423992068456,0.00044098430751068,-0.00044118010124503,0.00044873062282446,-0.0005228356904585,0.00052124532091873,-0.00052166673492981,0.00052358353178849,-0.00052268426574683,0.00052139959267008,-0.00052151490882167,0.00052373814931982,-0.00044189579765034,0.00043501032520968,-0.00043837887681102,0.00043262266971806,-0.00044204820941547,0.00043485732342425,-0.0004385322747271,0.00043246876466629,-0.00025811748279809,0.00024712348267808,1.8819395555581e-07,-2.6800512957832e-07,-5.7504373631664e-07,4.9845695365884e-07,-0.0006089040651436,0.00060882721175067,-0.00058560107351681,0.00058672824919232,-0.00061112795265596,0.00061113971259056,-0.00061084591281628,0.00060996140750232,-0.00061594439438701,0.00061566327004598,-0.00061579027339424,0.00061622475975559,-0.000616035240053,0.00061544821728123,-0.00061597704857629,0.0006161060999264,-0.00058665487928697,0.00058537457540088,-0.00058682575484527,0.0005876482400426,-0.00061091940084298,0.00061164619924406,-0.00060699336525079,0.00060682499545854,-0.00058579208859448,0.00058481780832807,1.4226040596083e-06,4.0837176623438e-06,-0.00048725134843591,0.0004878673537256,9.3507199999622e-07,-1.3932677092098e-07,-0.00047925149392155,0.00048078776319819,-0.00048691168862481,0.00047743743214909,-0.00048747400723638,0.00048614469343021,-0.0004861805757646,0.00051219172704099,-0.00047820065610399,0.0004818423685004,-0.00048585958386139,0.00047848840238402,-0.00048642294076738,0.00048719785910286,-0.00052487968994201,0.00052574332012638,-0.00052523765935174,0.00052538459081389,-0.00052519624823837,0.00052390863258034,-0.00052555467317592,0.00052355087381339,-0.00051628436614285,0.00052319994547443,-0.00051198482874764,0.00051446582069826,-0.00051162712920972,0.0005148249636724,-0.00051592571611797,0.00052355707123291,-0.00048723305426093,0.00051114233689005,0.70494751769588,128566,2924,0.001850927698834,0.0025334707844509,0.002029403116145,15.106485748795,-0.00013514811400964,-0.00013514811400964,-0.00013514811400964,2681244.7042352,0.0064345526481232
23191759,0.40899178213965,0.0070417132398227,0.0021599124965338,0.0025973654068216,0.0022844353364673,-0.00045190340286391,0.00045075684509736,-3.8838944814819e-06,-1.4516478408499e-06,-2.731034354721e-07,1.9523345547676e-07,-0.00025693820645929,0.00024740787345584,-0.00044884135731338,0.00044829280228599,-0.00044758971047491,0.00045626126217082,-0.00026147547648841,0.0002492821598429,-0.00025739637794567,0.00024694850809758,-0.00044929660966996,0.00044783331859451,-0.00044804597517566,0.00045580080044461,-0.00053114896093945,0.00052952212288003,-0.00052995039861502,0.00053192260494562,-0.0005309951701915,0.00052967880538055,-0.0005297962052642,0.0005320796366467,-0.00044889963993433,0.00044185268600187,-0.00044529498348379,0.00043941477198789,-0.00044905444722009,0.00044169728796469,-0.00044545077584394,0.00043925846184753,-0.00026102181137154,0.00024973741236873,1.9119119366892e-07,-2.7216814228289e-07,-5.889511307742e-07,5.1125089593939e-07,-0.00061892255625131,0.0006188445842939,-0.00059511481953505,0.00059626942469515,-0.00062117427628431,0.00062118303267072,-0.00062088581013012,0.00061998422421917,-0.0006261029501141,0.00062581421127178,-0.00062594534564636,0.00062638999832549,-0.00062619513470628,0.00062559572826879,-0.00062613296905722,0.00062626742105885,-0.00059618990938015,0.0005948799540328,-0.00059635302376356,0.00059719816322135,-0.00062096191142357,0.00062170347763466,-0.00061691638300083,0.00061674873084368,-0.00059530919762171,0.0005943100570909,1.4589752506615e-06,4.1871546015028e-06,-0.00049424017852106,0.00049487464806313,9.5993760652426e-07,-1.4119231908026e-07,-0.00048595302018687,0.00048752749039425,-0.00049404931111933,0.00048436160387215,-0.00049462505873612,0.00049326393524437,-0.00049307374617869,0.0005196921315811,-0.0004848760195943,0.00048860829974008,-0.00049297103205716,0.00048543874385943,-0.00049354782214704,0.00049434330341774,-0.00053272140521761,0.00053360830023806,-0.000533088279882,0.00053324065628105,-0.00053304539075147,0.0005317283489759,-0.0005334127262221,0.00053136168498723,-0.00052387279577701,0.00053096587861807,-0.00051947741339093,0.00052202158806564,-0.0005191108033801,0.00052238965032657,-0.00052350522929832,0.00053133190295005,-0.00049415243921968,0.00051861655687558,0.71243094412078,128566,2924,0.0018792580640086,0.0025750913437448,0.0020585007518436,15.116506660281,-0.00013506794671776,-0.00013506794671776,-0.00013506794671776,2703664.0711725,0.0065342486871208
23391759,0.41520208202439,0.0071424851578249,0.0021899937317435,0.0026368353955548,0.0023156560305266,-0.00045856767433103,0.00045739416372693,-3.9792954494507e-06,-1.4707471620848e-06,-2.7591172957315e-07,1.9791704533168e-07,-0.00025951592219581,0.00024976256586729,-0.00045560935768188,0.00045502802598073,-0.00045432546421612,0.00046322327924948,-0.00026416099702473,0.00025166542442289,-0.00025997937028923,0.00024929791243708,-0.0004560699941552,0.00045456310499616,-0.00045478704053848,0.00046275744020483,-0.00053930420824407,0.00053764234510179,-0.00053807570944179,0.00054010593111826,-0.00053914861004203,0.00053780087509494,-0.00053791973210313,0.00054026478982866,-0.00045577868599626,0.00044856550277179,-0.00045208444458799,0.00044607723056077,-0.00045593535182174,0.00044840824851208,-0.00045224201918144,0.00044591913366071,-0.00026370186393994,0.0002521261496108,1.9334882860518e-07,-2.7544379366309e-07,-6.0261730415919e-07,5.2384673262523e-07,-0.00062879552192817,0.00062871647456857,-0.00060450073714212,0.00060568184769205,-0.00063106912272342,0.00063107333588196,-0.00063077402370076,0.00062985728335924,-0.00063609560881047,0.00063579885559192,-0.00063593477873805,0.00063638893064565,-0.00063618850956666,0.00063557749507026,-0.00063612200792655,0.000636262316818,-0.0006055960367955,0.00060425751972813,-0.0006057531895673,0.00060662113082448,-0.00063085372485624,0.00063160831385398,-0.00062668311869563,0.00062651773781633,-0.00060469787369907,0.00060367373087072,1.4957756444515e-06,4.2920728049184e-06,-0.0005010698804127,0.00050172369216965,9.8486150194171e-07,-1.4258590340104e-07,-0.00049252258235424,0.00049413592259988,-0.00050104118846625,0.00049113864676322,-0.00050163152661261,0.00050023930152937,-0.00049984288536149,0.00052708547333313,-0.00049141992067926,0.00049524243186309,-0.00049993709671065,0.00049224158739666,-0.00050052856699928,0.00050134442034709,-0.00054039441101073,0.00054130479839569,-0.00054077004101633,0.00054092839078992,-0.00054072566020461,0.00053937941327403,-0.0005411017809866,0.00053900396859371,-0.00053128756759341,0.00053858378761079,-0.00052681884976036,0.00052942723148179,-0.00052644350926054,0.00052980403834841,-0.00053091119524056,0.00053895860114354,-0.00050094748601478,0.00052598402250755,0.71512604122779,128566,2924,0.0019069407857539,0.0026161053143191,0.0020869377784482,15.062828182923,-0.00013549737453662,-0.00013549737453662,-0.00013549737453662,2722872.5540549,0.0066320271270686
23591759,0.4217704849785,0.0072490927491758,0.0022218162840038,0.0026786260651051,0.0023486504000669,-0.00046708861621652,0.00046588762923419,-4.0798342568794e-06,-1.491487849455e-06,-2.7547396545848e-07,2.009925184072e-07,-0.00026356540803635,0.00025356806045468,-0.00046429301296662,0.00046368138223205,-0.00046297606947011,0.00047211699481809,-0.00026831860816037,0.00025550155193721,-0.0002640314862968,0.00025310077216879,-0.00046475620482787,0.00046321385367327,-0.00046344021300302,0.00047164852902184,-0.00054945838569333,0.00054776259531694,-0.00054819863580054,0.00055029279318414,-0.00054930195187708,0.00054792200587008,-0.00054804181862606,0.00055045253834285,-0.00046454258838381,0.00045716070013241,-0.00046075215656289,0.00045461610569138,-0.00046470011489557,0.00045700258080609,-0.00046091060671945,0.00045445712957444,-0.00026785691283486,0.00025596484095726,1.941189943015e-07,-2.7727094893887e-07,-6.1704364044231e-07,5.3725464293374e-07,-0.00064084650227465,0.00064076643286203,-0.0006160415511647,0.00061724976485009,-0.00064315936528263,0.00064315583364212,-0.00064284992041651,0.00064192029993871,-0.00064824204176522,0.00064793586551074,-0.00064807768333497,0.00064854094252591,-0.00064833458369129,0.0006477124323518,-0.00064826375095082,0.00064841145805771,-0.00061715977185337,0.00061579210943695,-0.00061731049054222,0.00061820381299737,-0.00064293978980881,0.00064370515578973,-0.00063862749119698,0.00063846777779402,-0.00061624242039719,0.00061519088001975,1.5343424876399e-06,4.4087498337439e-06,-0.00050982294947766,0.00051049956111288,1.0126426641294e-06,-1.4264549209481e-07,-0.00050105108616159,0.00050270572951345,-0.00050999198615103,0.00049985975222765,-0.00051060178356689,0.00050917715411064,-0.00050858520122521,0.0005365231184333,-0.00049992114062782,0.00050383955419524,-0.00050886063480524,0.00050098994967258,-0.00050947156185641,0.00051030956267003,-0.00055004504352851,0.00055098042734774,-0.00055042994834878,0.00055059473557275,-0.00055038253067539,0.00054900611015357,-0.00055076792898173,0.00054862139078609,-0.0005406926275415,0.00054824347016751,-0.00053613708562937,0.00053880729573912,-0.00053575245417925,0.0005391934004585,-0.00054030697439604,0.00054862754297653,-0.00050971707577009,0.00053539441668822,0.71571491971,128566,2924,0.0019423462102768,0.0026661667469774,0.0021233779114501,15.825333205389,-0.00012939733435689,-0.00012939733435689,-0.00012939733435689,2754506.6403139,0.0067547559642714
23791759,0.4290445577031,0.0073733064142032,0.0022588140642657,0.0027272941744049,0.0023871981755327,-0.00047782141928178,0.00047658806138294,-4.1924994294351e-06,-1.5198356134036e-06,-2.7204451413287e-07,2.0433565959678e-07,-0.00026935889134083,0.00025906845032128,-0.00047553492036012,0.0004748888482866,-0.00047418294578707,0.00048359166515565,-0.0002742269608163,0.00026104020901019,-0.00026982430493238,0.0002586017796295,-0.00047599818977067,0.00047442119205501,-0.00047464676399317,0.00048312343799803,-0.00056196096343521,0.00056023144679139,-0.00056066758006565,0.00056283531452941,-0.00056180453741925,0.00056039090787727,-0.00056051088986902,0.00056299496795807,-0.00047574690626225,0.00046817715111759,-0.00047185476538247,0.00046557904738072,-0.00047590457856737,0.00046801886900267,-0.00047201296683087,0.000465420296798,-0.00027376474992089,0.00026150399492781,1.9352552199166e-07,-2.7773295187838e-07,-6.3252225251446e-07,5.5170968095228e-07,-0.0006556490538141,0.00065556795617982,-0.0006304254041625,0.00063166208498944,-0.00065804214663361,0.00065802724440288,-0.000657709378917,0.00065676903903374,-0.00066303730762366,0.00066272002075226,-0.00066286960447261,0.00066334182592731,-0.00066312775403156,0.00066249473023026,-0.00066305335211064,0.00066321000128671,-0.00063157096553767,0.0006301732042511,-0.00063172673422241,0.00063264820982816,-0.00065781768100227,0.00065859205845415,-0.00065333376191907,0.00065318291241468,-0.00063062963580578,0.00062954753510413,1.5766691700682e-06,4.5455773162734e-06,-0.00052088099132702,0.00052158529573835,1.0442676451518e-06,-1.4079485143796e-07,-0.00051223301910463,0.00051393315415596,-0.00052155331557485,0.00051115505369443,-0.00052218994489099,0.00052073002732853,-0.00052001702578684,0.00054882070284747,-0.00051107457039479,0.00051509553213114,-0.00052039263707994,0.0005123145640948,-0.0005210307817234,0.0005218913956437,-0.00056199976843134,0.00056296202673129,-0.00056239453077382,0.00056256646136791,-0.00056234355412162,0.0005609333977783,-0.0005627389527589,0.00056053868567515,-0.0005525911055557,0.00056043384343827,-0.00054793177694804,0.00055067685024234,-0.0005475374184112,0.00055107267863657,-0.00055219532227797,0.00056082802091378,-0.00052117864657862,0.00054766232939748,0.75201888499662,128566,2924,0.0019869433125141,0.0027276565472489,0.0021694099335696,17.222733796022,-0.00011821812963182,-0.00011821812963182,-0.00011821812963182,2793804.6977771,0.0069079197149699
23991759,0.43635508342988,0.0075012150547112,0.0022967981595042,0.0027775381684543,0.0024268787267527,-0.00048636748980767,0.00048509633495242,-4.313080109671e-06,-1.5484292002917e-06,-2.6730179109109e-07,2.0450176370131e-07,-0.00027272241551316,0.00026213105178911,-0.00048468513024328,0.00048398510342271,-0.00048329492466741,0.00049298382865681,-0.00027771046747829,0.00026412970059184,-0.00027318380178665,0.00026166846401597,-0.00048514371065567,0.00048352204958928,-0.00048375437689822,0.00049251995189459,-0.00057226607813367,0.00057050230038746,-0.0005709365873494,0.00057318271498098,-0.00057211125787396,0.00057066019506736,-0.00057078140718772,0.00057334089532916,-0.0004848176228873,0.00047704491360656,-0.00048081552806236,0.00047439269500456,-0.00048497361509829,0.00047688829711202,-0.00048097236608992,0.00047423533167417,-0.00027725323173536,0.00026458855549393,1.9082391049714e-07,-2.758218411803e-07,-6.4677972334577e-07,5.6518642140355e-07,-0.00066829506331835,0.00066821318294946,-0.00064274507368284,0.00064400643090701,-0.00067078730045976,0.00067075798592465,-0.00067043143506948,0.00066948542460796,-0.00067560776911762,0.00067527894663296,-0.00067543795215635,0.00067591708070053,-0.00067569459376969,0.00067505302120623,-0.0006756171925951,0.0006757839169245,-0.000643913805236,0.00064248951460045,-0.00064408761081518,0.00064503713270168,-0.00067055948576715,0.00067133761140007,-0.00066588741984653,0.00066574968397632,-0.00064294806524927,0.00064183664723445,1.6218310001395e-06,4.6925995523369e-06,-0.00052968610195802,0.00053042121558792,1.0770405474136e-06,-1.3603501745265e-07,-0.0005211938139236,0.00052294610106229,-0.00053090218033772,0.00052022395077905,-0.00053156643884863,0.0005300733894571,-0.00052926027450672,0.0005590295531767,-0.00052000753485963,0.00052413633262931,-0.00052971424993153,0.00052141070918408,-0.00053037973925127,0.00053126234120376,-0.00057170785209555,0.00057269819787293,-0.00057211200232286,0.00057229323939659,-0.00057205945662834,0.00057061400299307,-0.00057246415298194,0.00057020999683017,-0.00056232137389806,0.00057045141436436,-0.0005575528995859,0.00056037771159378,-0.00055714903655236,0.00056078306811723,-0.00056191640979702,0.00057085477893061,-0.0005304488676098,0.00055784421085615,0.77069149952551,128566,2924,0.0020224352287558,0.0027801820298016,0.0022060802389517,17.332070850506,-0.00011734343319595,-0.00011734343319595,-0.00011734343319595,2809450.8936771,0.0070334819890541
24191759,0.443682295183,0.007622670498482,0.0023329016813223,0.0028254513409244,0.0024643174762353,-0.00049452648374324,0.00049321296838574,-4.4385294891259e-06,-1.576539828695e-06,-2.6254610120572e-07,1.9845205320349e-07,-0.00027536703964125,0.00026446911234578,-0.00049314095568472,0.00049237958609223,-0.00049171171822435,0.00050167821037249,-0.00028047147187398,0.00026648808415835,-0.00027581788614732,0.00026401708843328,-0.00049358901621484,0.00049192702066988,-0.00049216061734909,0.0005012248746364,-0.00058230942489133,0.00058050463120745,-0.0005809430719918,0.00058326107502564,-0.00058215823491734,0.00058065892214247,-0.00058079153682539,0.00058341562886186,-0.00049328136071824,0.00048529200370994,-0.00048916798735194,0.00048258118221521,-0.00049343377050838,0.00048513895590361,-0.00048932119906971,0.0004824274578956,-0.00028002463347738,0.00026693652684933,1.8525195689532e-07,-2.7070320703617e-07,-6.6227139115593e-07,5.8020238778094e-07,-0.00068057174955337,0.00068048939218942,-0.00065455781183369,0.00065584501214213,-0.00068315105499127,0.00068310056763501,-0.00068276650653374,0.00068182035154811,-0.00068788053231905,0.00068753742373786,-0.0006877077221811,0.00068819294432443,-0.00068796274064644,0.00068731414659858,-0.000687881117228,0.00068806115689558,-0.00065574698791818,0.00065429597526798,-0.00065592746819621,0.00065690993885648,-0.00068291917509531,0.00068369653832048,-0.00067805811259547,0.00067794051061308,-0.00065476038764969,0.00065361501129743,1.6666071116232e-06,4.8424605893277e-06,-0.0005380557298587,0.00053882129629759,1.1106594303986e-06,-1.3292971679615e-07,-0.00052927378314065,0.0005310748782595,-0.00053948875428106,0.00052853258393225,-0.00054018049429221,0.00053865040808519,-0.00053762949784084,0.00056835181725592,-0.00052805767278187,0.00053229490093921,-0.000538270944728,0.00052974924124969,-0.00053896396599136,0.00053986917309987,-0.00058112925522122,0.00058214832809481,-0.00058154357973901,0.00058173320720103,-0.00058148751550424,0.00058000781639021,-0.00058190239457669,0.000579593614186,-0.00057160719926573,0.00058000196078886,-0.00056672335906384,0.00056962721197536,-0.00056630932696097,0.00057004270730745,-0.00057119204739881,0.00058041554340681,-0.00053884797221467,0.0005671365404826,0.73179797981244,128566,2924,0.0020563081973561,0.0028311698376247,0.0022409378952114,17.407886747579,-0.00011673690601936,-0.00011673690601936,-0.00011673690601936,2826405.4309844,0.0071540566488016
24391759,0.45102254598833,0.0077450843689753,0.0023693041723986,0.002873771673519,0.0025020085230577,-0.00050279302106341,0.00050143569817008,-4.5611496771343e-06,-1.5996781954879e-06,-2.5595740893695e-07,1.8586261405424e-07,-0.0002785705643273,0.00026739004255542,-0.00050175651216351,0.00050092688038718,-0.00050029048349975,0.00051051883905863,-0.00028377603968881,0.00026940888329748,-0.00027900299836274,0.00026695647325963,-0.00050218578394842,0.00050049309694353,-0.00050072072660645,0.00051008415659198,-0.00059236846827967,0.00059052230419841,-0.00059096772301602,0.00059335238124511,-0.00059222372274245,0.00059067016020528,-0.00059082258666987,0.00059350054170087,-0.00050181616138423,0.00049361922081311,-0.00049759925076441,0.00049085431436974,-0.00050196211070225,0.00049347262993214,-0.00049774613765532,0.0004907069234006,-0.00028334805180109,0.0002698384611685,1.7568842353358e-07,-2.6122106053716e-07,-6.7863010254514e-07,5.9642258008264e-07,-0.00069284603253126,0.00069276353668719,-0.00066638510647047,0.00066769762562566,-0.00069548936964828,0.00069540928021024,-0.00069506758689141,0.00069412905707684,-0.00070020403089274,0.00069984352695375,-0.00070002760098834,0.00070051710245599,-0.00070027882515951,0.00069962563437351,-0.00070019271007301,0.00070038991304326,-0.00066759298816391,0.00066611625409881,-0.00066776687328346,0.0006687875496735,-0.0006952530271186,0.00069602236139176,-0.00069019805978617,0.00069010992665509,-0.00066658956996675,0.0006654058428528,1.7102800704802e-06,4.9862370938349e-06,-0.00054648457162481,0.00054727795610755,1.1447909538399e-06,-1.3152663393046e-07,-0.00053749845565077,0.00053934275748877,-0.00054819326237789,0.00053696964655722,-0.00054891449137291,0.00054734464322547,-0.00054612544254205,0.0005777257647069,-0.00053625006463346,0.00054059496949126,-0.00054694350163662,0.00053821829085469,-0.00054766583839395,0.00054859549298099,-0.00059056995437891,0.00059161765694882,-0.00059099522302009,0.00059119161382525,-0.00059093391588082,0.0005894204086729,-0.00059135967423524,0.0005889953059167,-0.00058090905927578,0.00058957130161653,-0.0005759269648179,0.00057890257459023,-0.00057550192550752,0.00057932902593566,-0.00058048308765694,0.0005899957495013,-0.00054737573061286,0.00057647859126609,0.73639361845193,128566,2924,0.0020906232960764,0.002882145812385,0.0022760353413756,17.481525345165,-0.00011614779723868,-0.00011614779723868,-0.00011614779723868,2847711.4524973,0.0072753202828171
24591759,0.45834299432022,0.0078705734353492,0.0024065916362714,0.0029233087842392,0.0025406730148386,-0.00051109834189879,0.00050969251737201,-4.6886704263842e-06,-1.628030141728e-06,-2.428098285347e-07,1.715533892802e-07,-0.00028184123850718,0.00027035675116996,-0.00051058448205387,0.00050968483603588,-0.00050908244003467,0.0005195790605821,-0.00028713707269341,0.00027236954513648,-0.0002822472525714,0.00026994968625891,-0.00051098674681817,0.00050927808663412,-0.00050948596270139,0.00051917115240551,-0.0006024154552307,0.00060053141945333,-0.00060098137401135,0.00060343675301916,-0.00060227990632688,0.00060067007199414,-0.00060084534792394,0.00060357580593079,-0.00051049301487901,0.00050207925448577,-0.00050617634035142,0.0004992673376232,-0.00051062969030623,0.00050194193842829,-0.0005063142273081,0.00049912896780743,-0.00028673635554473,0.00027277184011475,1.6223325406708e-07,-2.4731943631311e-07,-6.9572658673952e-07,6.1386800870868e-07,-0.00070519831899684,0.00070511618247313,-0.00067838176643608,0.00067971918449261,-0.00070792750505896,0.000707809564731,-0.00070745583955916,0.00070653291824756,-0.00071254382041238,0.00071216306036349,-0.00071236322936454,0.00071285540563444,-0.00071260737493105,0.00071195213238966,-0.00071251643419668,0.00071273469710511,-0.00067960427459896,0.00067810306783016,-0.00067977264967198,0.0006808367528441,-0.0007076863066887,0.00070844052340057,-0.00070241471348102,0.00070236544141396,-0.00067859000472681,0.00067736379342152,1.753395672266e-06,5.1318319781895e-06,-0.00055495138441077,0.00055577191931318,1.1795823328209e-06,-1.3141044012189e-07,-0.00054594636727544,0.00054783127777093,-0.00055707424237765,0.00054557537954679,-0.00055781796633561,0.00055620574194229,-0.00055489844040675,0.00058740502065323,-0.00054466358903694,0.00054911780171665,-0.00055579065791508,0.00054685784860448,-0.00055653521789834,0.00055749066627828,-0.00059999371517057,0.00060106999936655,-0.00060043058936598,0.00060063236474902,-0.00060036684828169,0.00059881889711874,-0.00060080411748769,0.00059838228223411,-0.00059031090765342,0.00059924345464504,-0.00058521641960407,0.00058826353617517,-0.00058477966547537,0.00058870169077176,-0.00058987350887234,0.00059967934835264,-0.00055618230444894,0.00058612425592011,0.75661008248494,128566,2924,0.0021250897872879,0.0029334436609357,0.0023112884078589,17.498093160962,-0.0001160152547123,-0.0001160152547123,-0.0001160152547123,2865283.8240562,0.0073972316225866
24791759,0.46563117687644,0.007983567866669,0.0024402676657246,0.0029681729080422,0.0025751272929023,-0.0005187037132904,0.00051726686515085,-4.801406234989e-06,-1.6315239176693e-06,-2.2133497396816e-07,1.6032413881445e-07,-0.00028394106979824,0.00027221450049834,-0.00051817151809156,0.00051721727960832,-0.00051663310481666,0.00052738496476819,-0.00028932391286713,0.00027420199393222,-0.00028431440690323,0.0002718401119669,-0.00051854202579099,0.00051684234785295,-0.00051700438573591,0.00052700932115028,-0.00061196455871813,0.00061005125722752,-0.00061049652758319,0.00061302977789061,-0.00061183981088631,0.00061017908245927,-0.00061037145465163,0.00061315784866629,-0.00051807505754314,0.00050946660228097,-0.0005136573911332,0.00050661767349588,-0.00051820108093463,0.00050933994646247,-0.00051378412360859,0.00050649042720075,-0.00028895453298557,0.00027457289964808,1.4639578997642e-07,-2.3060084621939e-07,-7.1294430897251e-07,6.3185716154253e-07,-0.00071680141504749,0.00071672004694428,-0.00068935343279615,0.00069071546774344,-0.00071955123114024,0.00071939014847755,-0.00071903495309681,0.00071813330368795,-0.00072430959188213,0.00072390690860762,-0.00072412403499714,0.00072461787500716,-0.00072436185131693,0.0007237066069821,-0.00072426537563833,0.00072450691989993,-0.00069059067242823,0.00068906685885147,-0.00069073198521873,0.00069184197608929,-0.00071930495258568,0.00072003996618173,-0.00071384166322496,0.0007138366598529,-0.00068956582945813,0.000688294807594,1.790592354409e-06,5.2749649331567e-06,-0.00056270690124307,0.00056355328810173,1.2128541914274e-06,-1.3322384956007e-07,-0.00055304880471591,0.00055496310462494,-0.00056470599717775,0.00055295509506556,-0.00056548690903358,0.00056382934016187,-0.00056226111141371,0.00059560660129503,-0.00055173240656885,0.00055628337551749,-0.00056338781209115,0.00055427215807109,-0.00056417006457307,0.00056514839640004,-0.00060892580384754,0.00061002818856009,-0.00060937428934155,0.00060957892760319,-0.00060929715869352,0.0006077201594118,-0.00060974619513104,0.00060727176693685,-0.0005988689946095,0.00060807294863511,-0.00059369555894725,0.00059680268165276,-0.00059324736323657,0.00059725230480238,-0.00059841967533324,0.00060852077693027,-0.00056358003705164,0.00059429077500949,0.68707271007982,128566,2924,0.0021566819976217,0.0029816265417911,0.0023435804523763,17.494415480654,-0.00011604467615476,-0.00011604467615476,-0.00011604467615476,2882964.1085625,0.0075101429004955
24991759,0.47328893538121,0.0081043378464706,0.0024762694851106,0.0030160782232138,0.0026119901381461,-0.00052821195278748,0.000526744314315,-4.9091562109016e-06,-1.632714547365e-06,-2.0259387279288e-07,1.5706088207818e-07,-0.00028838678637789,0.00027648334825022,-0.00052780801433641,0.00052680819155952,-0.00052623846430471,0.00053721592604685,-0.00029385213496117,0.00027839022859332,-0.00028873765557541,0.00027613145196857,-0.00052815705781607,0.00052645475033054,-0.00052658784916906,0.00053686219807545,-0.00062338255112322,0.00062143775489828,-0.00062188544461987,0.0006244860661213,-0.00062326500340731,0.00062155836106909,-0.00062176771286843,0.00062460677999022,-0.00052756363755782,0.00051877051605333,-0.0005230588410697,0.00051592192290516,-0.00052768256452166,0.0005186509741863,-0.00052317806849202,0.00051580218327542,-0.00029350387338316,0.00027873997136279,1.3566629188475e-07,-2.1922310202968e-07,-7.2987735002649e-07,6.4934971874306e-07,-0.00073041807950178,0.00073033727948322,-0.00070229131727306,0.00070368048393226,-0.00073317657971424,0.00073298266727691,-0.00073262305487881,0.00073173248550418,-0.00073816477822409,0.00073774384175133,-0.00073797407284073,0.00073847273094331,-0.00073820440358067,0.00073754560818066,-0.00073810412414626,0.00073836490058603,-0.00070354033002294,0.00070199091939375,-0.00070364341886036,0.00070479480378712,-0.00073292492807476,0.00073365042414779,-0.00072728719809168,0.00072731580764997,-0.0007025111485188,0.00070119941423631,1.8249087362458e-06,5.4110065903356e-06,-0.00057246046431151,0.00057333005397992,1.2464545432644e-06,-1.3389312231211e-07,-0.00056248067307072,0.00056442085859843,-0.00057457388205114,0.00056258499441526,-0.00057538140768564,0.00057368178653926,-0.00057197624835807,0.00060607312846996,-0.00056113149276134,0.0005657740273888,-0.0005732218891151,0.00056393576660548,-0.00057403124415966,0.00057503422536968,-0.00061977416043871,0.00062090218933863,-0.00062023398117353,0.00062044156093404,-0.0006201466515911,0.00061854269646809,-0.00062060719816408,0.0006180828305185,-0.00060939988252913,0.00061883238006825,-0.0006041334227988,0.0006072976371833,-0.00060367402955064,0.00060775852061427,-0.00060893890019818,0.0006192918004008,-0.00057332954203446,0.00060472309233689,0.69912331631417,128566,2924,0.0021961851218468,0.0030381703891767,0.0023841716714142,18.241844358128,-0.00011006524513497,-0.00011006524513497,-0.00011006524513497,2916119.693192,0.0076478250467909
25191759,0.48186586384548,0.0082434999252296,0.0025176615292626,0.0030712635408673,0.0026545748550997,-0.00054050235232008,0.00053898678115227,-5.0390620427408e-06,-1.6517178692598e-06,-2.0230227240957e-07,1.5590220334658e-07,-0.00029479024318231,0.00028263877064575,-0.00054048479965189,0.00053942270898021,-0.00053888280405743,0.00055012002608737,-0.00030036396048887,0.00028445337927358,-0.00029513828519763,0.00028228970206695,-0.0005408326720378,0.0005390704328943,-0.00053923027004058,0.00054976823058041,-0.00063784622033836,0.00063585390150079,-0.00063631840806328,0.0006389793004444,-0.00063772898682551,0.00063597421121437,-0.00063620123639707,0.00063909944722965,-0.00054002927347061,0.00053100820138086,-0.00053542852193508,0.00052816582260922,-0.00054014807964939,0.00053088874120262,-0.00053554693424473,0.00052804693482649,-0.00030001627745861,0.00028480256477348,1.3480073366307e-07,-2.184023941147e-07,-7.5061708579336e-07,6.7003468345332e-07,-0.00074754855734216,0.00074746770823848,-0.00071873875948903,0.00072016827563974,-0.0007503360241524,0.00075012616687223,-0.00074977330821999,0.00074887094163884,-0.00075544936309737,0.00075501393403659,-0.00075525212043483,0.0007557642397828,-0.00075548011678311,0.0007548080263614,-0.00075537660208874,0.00075565150097045,-0.00072001565769122,0.00071842656209051,-0.00072007916526996,0.00072127118439056,-0.00075007674261823,0.00075081468532031,-0.00074425838988565,0.00074430210928206,-0.00071896957812666,0.00071761632730424,1.8552301164039e-06,5.5631054252475e-06,-0.00058520062261514,0.00058608347947952,1.2794305363552e-06,-1.4204512962571e-07,-0.00057524012965165,0.00057719078848584,-0.00058766842384539,0.00057539128379373,-0.0005885036215741,0.00058673918173541,-0.00058505497240354,0.00062007302672782,-0.00057385198480029,0.00057858308832887,-0.0005862757966997,0.00057678257968245,-0.0005871136746488,0.00058813149935016,-0.00063366156238702,0.00063480303308715,-0.00063413496038561,0.00063432878044194,-0.00063404250945459,0.00063239414464332,-0.00063451693674901,0.00063192044193325,-0.0006231344242228,0.00063276858560671,-0.00061773019672587,0.00062094768541996,-0.0006172575109937,0.00062142195186377,-0.00062265931841069,0.00063324203286596,-0.00058644967630702,0.00061868173827845,0.71927450310535,128566,2924,0.0022472254997345,0.0031093008270325,0.0024371543164003,19.9122342735,-9.6702125811998e-05,-9.6702125811998e-05,-9.6702125811998e-05,2956859.7809981,0.007824342839806
25391759,0.49107102747883,0.0084011197071195,0.00256433247557,0.0031337691836235,0.002703018047926,-0.0005527963978173,0.00055122155464598,-5.1849617479042e-06,-1.6786801114736e-06,-2.1241776104794e-07,1.6532479999828e-07,-0.00030075776508985,0.00028834989797375,-0.00055356510030047,0.00055245703989601,-0.0005519292265191,0.00056348053151903,-0.00030646477786867,0.00029001676665422,-0.00030112601318992,0.00028798057346779,-0.00055393163590032,0.00055208606515318,-0.00055229617578037,0.00056310923338602,-0.0006524007779994,0.00065035013586411,-0.00065084174518623,0.00065355487279572,-0.0006522771914372,0.0006504768561899,-0.00065071795530835,0.00065368168784749,-0.00055270040551932,0.00054344235514532,-0.00054799653287864,0.00054059331918747,-0.00055282524452575,0.00054331681031614,-0.00054812186879862,0.00054046751215201,-0.00030609938937708,0.00029038371219049,1.4399093772854e-07,-2.2852427542684e-07,-7.7313444764565e-07,6.9170725421646e-07,-0.00076515543836447,0.00076507374361691,-0.00073583915016041,0.00073731713728638,-0.00076799328297952,0.00076778723988767,-0.00076743490036207,0.00076649755278403,-0.00077306610751153,0.00077262171603408,-0.00077286224051446,0.00077339462409014,-0.00077309300133321,0.00077239872045045,-0.00077298688784681,0.00077326932425394,-0.00073715903168467,0.0007355189508863,-0.0007372008686469,0.00073842926674516,-0.00076772629154512,0.00076849665014149,-0.00076170843846011,0.00076174747972861,-0.00073608211159457,0.00073469162280728,1.8908288727125e-06,5.7363271192623e-06,-0.00059802897969521,0.00059893593524743,1.3198369860933e-06,-1.4633234987181e-07,-0.00058850054893104,0.00059046563841218,-0.00060120733334735,0.00058861145791025,-0.00060207754824793,0.00060025053682004,-0.00059870011720461,0.00063481429140092,-0.00058706738882734,0.00059190316060486,-0.00059977136961521,0.00059004601961535,-0.00060064346594389,0.00060168707787504,-0.00064760656119048,0.00064877073212447,-0.00064809496598349,0.00064828142068247,-0.00064800118823651,0.00064631358247976,-0.00064849039633048,0.00064582513069398,-0.00063719314742316,0.00064706531415345,-0.00063164194404567,0.00063491897074045,-0.00063115397902406,0.00063540864617016,-0.00063670354957666,0.00064755317232882,-0.00060013732345007,0.00063338063697573,0.75830682050452,128566,2924,0.0022982600016683,0.0031824005217319,0.0024905239054334,21.020887543006,-8.7832899655951e-05,-8.7832899655951e-05,-8.7832899655951e-05,2981929.9711463,0.0080032601307619
25591759,0.50022290006614,0.0085629048308019,0.0026120518506595,0.0031980265828442,0.0027528263972982,-0.00056326102746381,0.00056163187920087,-5.3287743895194e-06,-1.6933002026024e-06,-2.1969219635433e-07,1.887651285762e-07,-0.00030468400143027,0.00029206983428059,-0.00056498996649309,0.00056385651835934,-0.00056332422895724,0.00057522417094062,-0.00031053332657897,0.00029349869424296,-0.00030508256395457,0.00029167003458071,-0.00056538642388349,0.00056345553956133,-0.00056372135407208,0.00057482256378361,-0.0006650799570318,0.00066297697553784,-0.000663490895035,0.00066626100800067,-0.00066494624395592,0.00066311390042977,-0.00066335690336011,0.00066639811543794,-0.00056366197519486,0.00055418598382217,-0.00055886057057955,0.00055131450436179,-0.00056379691239785,0.00055405034015422,-0.00055899618695888,0.00055117835000059,-0.00031013819921315,0.00029389534943837,1.584764324487e-07,-2.4458330403366e-07,-7.950162031866e-07,7.1215825571805e-07,-0.00078097845170098,0.00078089531731887,-0.00075131895893385,0.00075284708056656,-0.00078390166853812,0.00078371018130626,-0.00078335449625161,0.00078237143947705,-0.0007887757624084,0.0007883260889696,-0.00078856717725167,0.00078912234903863,-0.00078880411497246,0.0007880841039595,-0.00078869844438893,0.00078898338287308,-0.00075267662891264,0.00075098334296163,-0.00075271578023055,0.00075397415559813,-0.0007836252558072,0.00078443814813876,-0.00077740250951013,0.00077742427297998,-0.00075156996936538,0.00075014689559648,1.9257491226931e-06,5.9190711544453e-06,-0.00060898875769389,0.0006099185413842,1.3586381350127e-06,-1.4999543575769e-07,-0.00059998572614188,0.00060196748547694,-0.00061301223611414,0.00060008063743355,-0.00061391879276592,0.00061202486607541,-0.00061061720443498,0.00064792706870976,-0.00059851052194152,0.00060344718791936,-0.00061153476263521,0.00060155665898344,-0.00061244301744427,0.00061350313481285,-0.00065967163709533,0.00066085516457681,-0.00066017421489578,0.00066035164831995,-0.00066007515327127,0.00065834476022285,-0.00066057847441159,0.00065784220735844,-0.00064950301751834,0.0006596255964473,-0.00064381349903542,0.00064714885916031,-0.00064331130577243,0.00064765285078171,-0.00064899937999464,0.00066012745634228,-0.00061209561346867,0.00064645230551398,0.78253495935585,128566,2924,0.0023416993993511,0.0032480839810773,0.0025361226928031,21.046939935501,-8.762448051599e-05,-8.762448051599e-05,-8.762448051599e-05,2986320.5747945,0.0081592404109475
25791759,0.50878018405652,0.0087095423072432,0.0026553028294652,0.0032564359109146,0.0027978035668634,-0.00057120974581123,0.00056952967805268,-5.4675516810065e-06,-1.6947674062389e-06,-2.2675206524182e-07,2.1234839486796e-07,-0.00030626643936102,0.00029352751765537,-0.00057356273129157,0.00057240593158861,-0.00057186646164066,0.00058408893153624,-0.0003122522476951,0.00029463559212622,-0.00030669482147968,0.00029309792078216,-0.00057398929947456,0.00057197469448207,-0.00057229350241337,0.00058365730855181,-0.00067514518767504,0.00067299213662179,-0.00067352641454425,0.00067635200444601,-0.00067500132717934,0.00067313930619016,-0.00067338234466703,0.00067649928195292,-0.00057191636398344,0.00056222771606722,-0.00056702357933466,0.00055931277012227,-0.00057206157033178,0.0005620817503864,-0.00056716925661132,0.00055916655157768,-0.00031182681137396,0.00029506265969626,1.7284482678335e-07,-2.6077912931846e-07,-8.1692031291623e-07,7.3239245615693e-07,-0.00079386919461525,0.00079378438288455,-0.00076382418741846,0.00076540220779084,-0.0007968620490681,0.00079668474025963,-0.00079632578421203,0.00079529701516429,-0.00080161088145999,0.00080115562108535,-0.00080139611425543,0.00080197386736001,-0.00080164204772747,0.00080089620603753,-0.00080153428118554,0.00080182142077925,-0.00076521660824853,0.0007634703262268,-0.0007652348698652,0.00076652253810427,-0.00079657672364523,0.00079743208353174,-0.0007901672104149,0.00079017111149476,-0.00076408603686254,0.00076263012369178,1.9556338914565e-06,6.0924783296423e-06,-0.00061727436004213,0.00061822709352922,1.3975188872842e-06,-1.5322942103366e-07,-0.00060825419076557,0.00061024419341817,-0.00062181892640963,0.00060859645827365,-0.0006227604014623,0.00062080326504034,-0.00061932378582016,0.00065775465896268,-0.00060673813754343,0.00061176488168477,-0.00062030013357893,0.00061011382079707,-0.00062124354288986,0.00062232267414476,-0.00066913792368025,0.00067033859788617,-0.00066965449641057,0.00066982107018819,-0.00066954827895396,0.0006677802726109,-0.00067006567489535,0.0006672636439411,-0.00065902880846795,0.00066941660910386,-0.00065320440517216,0.00065658532345097,-0.00065268829961349,0.0006571032773561,-0.0006585110009337,0.00066993261953879,-0.00062084375618214,0.00065623836164438,0.7592218384068,128566,2924,0.0023746831672489,0.0033015862807943,0.0025706063747033,20.189225295319,-9.4486197637448e-05,-9.4486197637448e-05,-9.4486197637448e-05,2977832.8208628,0.0082812136105895
25991759,0.51700614453078,0.0088474492808179,0.0026960610760309,0.0033113918845561,0.0028399963202309,-0.00057941965153969,0.0005776932001487,-5.5945689336628e-06,-1.6823418947157e-06,-2.3682230214606e-07,2.3065882717546e-07,-0.00030860353693257,0.00029585877689847,-0.00058225267583654,0.00058106447074973,-0.00058053140611587,0.00059302734403701,-0.00031470528552262,0.00029653204015307,-0.00030905986912717,0.00029540119022684,-0.00058270693930449,0.00058060538243867,-0.00058098623523743,0.00059256779459837,-0.00068537250150113,0.00068317398495731,-0.00068372936711134,0.00068660098450785,-0.00068521925758629,0.00068333059776668,-0.00068357590163591,0.0006867577517381,-0.00058028757052412,0.00057040395778507,-0.00057531400312527,0.00056745890099755,-0.00058044215010993,0.00057024862432794,-0.00057546915465175,0.00056730318221476,-0.00031425224339274,0.00029698682418553,1.8594514033219e-07,-2.7591455452471e-07,-8.3973333396165e-07,7.5334821430079e-07,-0.00080673391119685,0.00080664722844216,-0.00077626815821623,0.00077789657172378,-0.00080976767933537,0.00080960170838676,-0.0008092471092402,0.00080817402012428,-0.00081450793177734,0.00081404567528179,-0.00081428569195933,0.00081488556908912,-0.00081454196244505,0.00081377026131606,-0.00081443111896258,0.0008147215713925,-0.0007776933493758,0.00077589289060587,-0.00077766574088351,0.00077898502316449,-0.00080947263045197,0.00081036833116453,-0.00080289973973692,0.00080288855265473,-0.00077654494735497,0.00077505379120572,1.9803202318446e-06,6.2497977487898e-06,-0.00062578959770178,0.00062676219993711,1.4356426823073e-06,-1.5882798882497e-07,-0.00061662009484142,0.00061860645028477,-0.00063073780368412,0.00061725805564953,-0.00063171402673609,0.00062969188847695,-0.00062811263625619,0.00066749376659264,-0.00061506116448328,0.00062017020837695,-0.0006291762269229,0.0006188182038008,-0.00063015433613304,0.00063125420467568,-0.00067882330440742,0.00068003948885453,-0.00067935444644392,0.00067950737851552,-0.00067923833913071,0.00067743702290568,-0.00067977028822821,0.00067690584690665,-0.00066868600087914,0.00067932611735462,-0.00066274119746322,0.00066616003297395,-0.00066221048830283,0.00066669267116718,-0.00066815365333471,0.00067985664723567,-0.00062967541655129,0.00066593473752832,0.7428664530697,128566,2924,0.002408759150941,0.0033549775887879,0.0026060369439314,19.730008051138,-9.8159935590892e-05,-9.8159935590892e-05,-9.8159935590892e-05,2977959.9233553,0.0084051461915158
26191759,0.5251187849319,0.0089865121473845,0.0027371530659728,0.0033667493520561,0.0028826097293557,-0.00058835398376488,0.00058658845528572,-5.7131303910723e-06,-1.6540067740576e-06,-2.4677200795717e-07,2.4674260033177e-07,-0.00031206662121992,0.0002994090332456,-0.00059181968523972,0.00059059374581741,-0.00059007671674967,0.00060283408228459,-0.00031827196413413,0.00029953035702685,-0.00031254804055145,0.00029892622171327,-0.00059229949426023,0.00059010901916478,-0.00059055684630596,0.00060234907967114,-0.00069623439264845,0.00069399581501559,-0.00069456945853553,0.00069748707561102,-0.00069607251219509,0.00069416116438394,-0.00069440741900127,0.0006976525015121,-0.00058942039145998,0.0005793648064266,-0.00058436782473478,0.00057643261719148,-0.00058958370430593,0.00057920069271596,-0.00058453147083117,0.00057626833719557,-0.00031779321726267,0.0003000108735353,1.9780872241774e-07,-2.8991253975908e-07,-8.6235578784427e-07,7.739926583034e-07,-0.00082026528376256,0.00082017661421814,-0.00078945893031495,0.00079113653137686,-0.00082334545676525,0.00082318832580933,-0.00082284967741619,0.00082173483331926,-0.00082805424813212,0.00082758424830524,-0.00082782416536212,0.00082844514198024,-0.00082809239290643,0.00082729572163205,-0.00082797861099074,0.00082827280392658,-0.00079091888557559,0.00078906553690579,-0.00079084224577871,0.00079219320710136,-0.00082303922056142,0.00082397283229955,-0.00081630841110811,0.00081628408677275,-0.00078975295817798,0.00078822600750178,1.9980856351849e-06,6.3987301742419e-06,-0.00063507723494534,0.00063606809410369,1.4732143629359e-06,-1.6427473135748e-07,-0.00062604766729414,0.0006280210777224,-0.00064057477389567,0.0006268559174724,-0.00064159879047239,0.00063951038231688,-0.00063793100417302,0.0006781663082719,-0.00062444700759016,0.0006296267593875,-0.0006389709447607,0.00062845827303291,-0.00063999711196468,0.00064111476304904,-0.00068919999702582,0.00069042692949323,-0.00068974541414346,0.00068988049629557,-0.00068961269081362,0.00068778144596897,-0.00069015901945068,0.00068723590841303,-0.00067913120377368,0.00069000907155509,-0.00067309679763962,0.0006765440700706,-0.00067255191911701,0.00067709096649616,-0.00067858437613078,0.00069055400808232,-0.00063953629483158,0.00067656486030351,0.75895828850838,128566,2924,0.0024458607582268,0.0034111334781252,0.0026446729529865,19.640465548996,-9.8876275608029e-05,-9.8876275608029e-05,-9.8876275608029e-05,2982837.1880581,0.0085381659144431
26391759,0.53326865978283,0.0091310080063427,0.0027797838707773,0.0034242276678255,0.0029269964677399,-0.00059804278837561,0.0005962285287625,-5.8343022817641e-06,-1.6244457888217e-06,-2.5275621230021e-07,2.6018812844924e-07,-0.00031621610296217,0.00030371652403288,-0.00060235624337843,0.00060108905123921,-0.0006005975895455,0.00061361098918057,-0.00032250100173259,0.00030313215336472,-0.00031671688221196,0.00030321427931445,-0.0006028549549513,0.00060058533558168,-0.00060109686540805,0.0006131067552683,-0.00070784930498957,0.00070556937014929,-0.0007061672891723,0.00070912069851669,-0.00070768108413249,0.00070574114862,-0.00070599883707112,0.00070929264181614,-0.00059944896574403,0.00058923567428801,-0.00059433904970681,0.00058630166127774,-0.00059961857767909,0.00058906522791705,-0.00059450924568482,0.00058613079409637,-0.00032200363144566,0.00030363140033034,2.0644717622299e-07,-3.0053987677456e-07,-8.8392231488291e-07,7.9369423317743e-07,-0.00083471067762866,0.00083462013411918,-0.00080368729919644,0.00080540977082353,-0.00083789200068555,0.00083773830506546,-0.00083741403313563,0.0008362644608184,-0.00084241451542317,0.00084193536879535,-0.00084217707380987,0.00084281630138778,-0.00084245586545774,0.00084163715852755,-0.00084233991703087,0.00084263962910956,-0.00080518308482134,0.00080328091906085,-0.00080506406402544,0.00080644728287248,-0.00083757387410512,0.00083853813816167,-0.00083066582275397,0.00083063448775513,-0.00080399788003145,0.0008024352067912,2.0144502530452e-06,6.546568909047e-06,-0.00064517971072416,0.0006461909481388,1.5111568415092e-06,-1.6813666116792e-07,-0.00063653554917726,0.00063849351947835,-0.00065142418531317,0.00063746974103845,-0.00065250534188391,0.00065035193058231,-0.00064885369263308,0.00068995922074149,-0.00063489362097131,0.00064014056649915,-0.00064977953350724,0.00063911291661649,-0.00065086260384209,0.00065199740032727,-0.00070035489655918,0.00070159132721288,-0.00070091426967535,0.00070103092498603,-0.00070076416848629,0.00069890256291137,-0.00070132438298611,0.00069834314442298,-0.00069051378342242,0.00070163532516087,-0.00068439442813201,0.00068786465529343,-0.00068383551714757,0.00068842564627182,-0.0006899531353247,0.00070219406336104,-0.00065049962754078,0.00068831712659734,0.7842278921057,128566,2924,0.0024860809307738,0.0034710793129732,0.0026866979176013,19.821272025942,-9.742982379246e-05,-9.742982379246e-05,-9.742982379246e-05,2987020.748994,0.0086815899189978
26591759,0.54179149953481,0.0092817543341228,0.0028242288729358,0.0034842560039985,0.0029732694571885,-0.00060919301807447,0.00060732771956208,-5.9646619125487e-06,-1.5845797952132e-06,-2.5026366674206e-07,2.7796710172676e-07,-0.00032127636640247,0.00030901259997877,-0.00061436905334251,0.00061306138863203,-0.0006125971092438,0.00062588217394701,-0.00032763075626054,0.00030754114090722,-0.00032179217218374,0.00030849522708477,-0.00061488261171765,0.00061254270218085,-0.00061311133121686,0.0006253628777595,-0.00072110722577114,0.00071879066240926,-0.00071940954563802,0.00072240443831155,-0.00072093400524091,0.00071896753566766,-0.00071923606093203,0.00072258150714015,-0.00061098853047981,0.00060060887881855,-0.00060582881752046,0.00059763735461709,-0.00061116316574144,0.00060043338084646,-0.00060600409294465,0.00059746135574239,-0.00032711863616636,0.0003080551886437,2.1303382361358e-07,-3.0903217868866e-07,-9.0546452453622e-07,8.1344352459467e-07,-0.00085100652724252,0.00085091418134103,-0.00081978278936334,0.00082154893075011,-0.00085432986375659,0.00085417543293337,-0.00085385919644397,0.00085267915334482,-0.00085858249739698,0.0008580928745832,-0.00085833783542326,0.00085899405368073,-0.00085862455725339,0.00085778525663135,-0.00085850725078107,0.00085881390372151,-0.00082130735197416,0.0008193578824683,-0.00082114208778902,0.00082255897460233,-0.00085399919692534,0.0008549901557056,-0.00084689731045404,0.00084686311011314,-0.00082010816144241,0.00081850834776302,2.0224690825912e-06,6.7038376023948e-06,-0.0006568414229816,0.00065787119651608,1.5480879199757e-06,-1.7297560291201e-07,-0.00064848248213824,0.00065041056173459,-0.00066383103350366,0.00064964031672049,-0.0006649748935544,0.00066275060243863,-0.00066133572714451,0.00070334971803729,-0.00064679960739754,0.00065209875508589,-0.00066214549932546,0.00065132432221332,-0.0006632912394363,0.0006644370478795,-0.00071317779847113,0.00071441804253767,-0.00071375109492656,0.00071384368746814,-0.00071357839831905,0.0007116890570807,-0.00071415252824938,0.00071111573897132,-0.00070358390787527,0.00071498819722562,-0.00069738556821436,0.00070085944802501,-0.00069681272326441,0.00070143444830032,-0.0007030093608871,0.00071556078640789,-0.00066302246748933,0.00070166692585624,0.78231018803568,128566,2924,0.002532376423984,0.0035386999972446,0.0027351958003433,20.595881836221,-9.1232945310229e-05,-9.1232945310229e-05,-9.1232945310229e-05,2994578.5532006,0.0088454376814982
26791759,0.55074254283622,0.0094364244729978,0.0028698283898748,0.0035459520953262,0.0030206439877968,-0.00062083333749823,0.00061891219685756,-6.0927272461948e-06,-1.5372436255689e-06,-2.4527968989524e-07,2.9456223641542e-07,-0.00032655433807531,0.00031449218808156,-0.00062672775701259,0.00062537053628179,-0.00062494513715568,0.0006384909093401,-0.00033296806138916,0.00031217920795408,-0.00032708222070211,0.00031396271060449,-0.00062725235443747,0.00062484069003285,-0.00062547093980389,0.00063795995641242,-0.0007349930043494,0.00073263701409854,-0.00073328340604504,0.00073631205530087,-0.00073481607853024,0.00073281768585156,-0.00073310603138975,0.00073649309716116,-0.00062287627915817,0.00061233515453756,-0.00061767667702166,0.00060930879849357,-0.00062305449005233,0.00061215603476223,-0.00061785603660558,0.0006091286826914,-0.00033244543553942,0.00031270390033362,2.1776586206295e-07,-3.1562909098387e-07,-9.2668125898711e-07,8.3288702585005e-07,-0.00086800803699287,0.00086791391367069,-0.00083651598702892,0.00083832370616684,-0.00087145329387269,0.00087129491301128,-0.00087098859567956,0.00086978178802478,-0.00087553496447162,0.00087503390849869,-0.00087528431582783,0.00087595602126533,-0.0008755769257088,0.00087471843594333,-0.00087545834171815,0.00087577308742676,-0.0008380621583324,0.00083606708118456,-0.00083783297913467,0.00083928439422025,-0.00087111219557518,0.00087212576661548,-0.00086381646483303,0.00086378311595097,-0.00083685123122519,0.00083521389351518,2.031889314798e-06,6.8639655477514e-06,-0.00066901162661328,0.00067006321476362,1.5835369825127e-06,-1.7888833614754e-07,-0.00066071322455574,0.00066261677796718,-0.00067662539782838,0.00066220009979569,-0.00067783681170968,0.00067554137151571,-0.00067411251759592,0.00071718305505885,-0.00065898923942421,0.00066434626645499,-0.00067489960117669,0.00066392430988616,-0.00067611243662503,0.0006772685958964,-0.00072664647065662,0.00072789120276153,-0.00072723363412922,0.00072730295641567,-0.00072703823474509,0.00072511735040016,-0.00072762607510088,0.00072453033986035,-0.00071717811118239,0.00072888550199458,-0.00071089721707249,0.00071437739155049,-0.00071031036037299,0.00071496647987093,-0.00071659001059809,0.0007294716000011,-0.00067583905393928,0.00071546062163062,0.76473034548587,128566,2924,0.0025807006803274,0.0036092427500113,0.0027858108725365,21.456751290305,-8.4345989677559e-05,-8.4345989677559e-05,-8.4345989677559e-05,3004531.6081871,0.0090164454222045
26991759,0.55975305734326,0.0095880946205803,0.0029145538444117,0.0036065386155566,0.0030670021606119,-0.00063127881869445,0.00062930152249019,-6.2160751533992e-06,-1.4676070391524e-06,-2.3774700109028e-07,3.0602910901315e-07,-0.00033087702046928,0.00031895056874018,-0.00063768393626837,0.00063627102850008,-0.00063588831855047,0.00064967334855908,-0.00033735748041972,0.00031593391553497,-0.00033140839201828,0.00031841768749367,-0.0006382125278585,0.00063573710437864,-0.00063641780305383,0.00064913863480196,-0.00074765112235346,0.0007452547983702,-0.00074592849957886,0.00074898999492823,-0.00074747290718057,0.00074543684198498,-0.0007457499275769,0.000749172302571,-0.0006333581952634,0.00062266158355004,-0.00062811817932971,0.00061959090752442,-0.00063353785919524,0.00062248097777929,-0.00062829863197366,0.0006194096585221,-0.00033683065830595,0.00031646284436634,2.189488061984e-07,-3.1843227279331e-07,-9.4732456321216e-07,8.5196533776239e-07,-0.00088365123233461,0.00088355554426069,-0.00085180398209702,0.00085365053195462,-0.0008871680198311,0.00088699857311512,-0.00088670007298448,0.00088547467084492,-0.00089126584920723,0.00089075126576944,-0.00089100988979157,0.00089169462974368,-0.00089130596487014,0.00089043143093967,-0.00089118672226351,0.00089151179322483,-0.00085336616192862,0.00085132948051143,-0.00085305142460873,0.00085453868602571,-0.00088681804185498,0.00088784735739698,-0.00087933342686873,0.0008793076288627,-0.00085214733968367,0.00085047072697551,2.0389325638032e-06,7.0318003369497e-06,-0.0006799021369247,0.00068098290444171,1.6174369720547e-06,-1.8420437212393e-07,-0.00067151102113197,0.00067339669604015,-0.00068799480504396,0.0006733459531412,-0.00068927993897945,0.00068691654999926,-0.00068536938240455,0.00072963764737161,-0.00066974917889136,0.00067516404995913,-0.00068623043553938,0.00067510870219014,-0.00068751734650166,0.00068868199593601,-0.00073890634377237,0.00074015472494007,-0.000739506528035,0.0007395534462954,-0.00073928511562125,0.00073733409693939,-0.00073988609702197,0.0007367339559385,-0.00072936883776072,0.00074137845729189,-0.00072302169451804,0.00072650391719865,-0.00072242194441453,0.00072710593994778,-0.0007287674880434,0.00074197778560989,-0.00068713474843445,0.00072787645312134,0.7455802458246,128566,2924,0.0026240542417817,0.0036741424265648,0.0028311225846261,21.710730168143,-8.2314158654853e-05,-8.2314158654853e-05,-8.2314158654853e-05,3010932.1054045,0.0091714195894506
27191759,0.568680221154,0.0097340881853193,0.0029576469830803,0.0036649109556807,0.0031115302465583,-0.00064102059042737,0.00063899148318742,-6.3327166264096e-06,-1.3883948515639e-06,-2.3468842174667e-07,3.0890550237434e-07,-0.00033471911045362,0.00032278422418127,-0.00064774878491212,0.00064628431117738,-0.00064593417630116,0.0006599340956727,-0.0003412839150668,0.00031932689367659,-0.00033525010806249,0.00032225172116527,-0.00064827723362641,0.00064575048988787,-0.00064646341524998,0.0006593995745545,-0.00075956089567187,0.00075713047838898,-0.00075782237527636,0.00076092321974946,-0.00075938280287807,0.00075731248727776,-0.00075764395031412,0.00076110546379562,-0.00064295742063368,0.00063210820368936,-0.00063766676803298,0.00062902040752764,-0.00064313701908402,0.00063192760748736,-0.00063784708187134,0.00062883926549657,-0.00034075713517146,0.00031985575528882,2.1815096104712e-07,-3.1900831607371e-07,-9.6784735293746e-07,8.711470410794e-07,-0.00089839630970992,0.00089829928417154,-0.00086608556058,0.00086796961702828,-0.00090193067276789,0.00090174641781497,-0.00090145577507058,0.00090021603555681,-0.00090621706367336,0.00090568783091213,-0.00090595662056762,0.00090665320267364,-0.00090625459880274,0.00090536559338589,-0.00090613465224901,0.000906471687275,-0.00086767068607867,0.00086559392285909,-0.00086724431899592,0.00086876915352981,-0.00090157531086926,0.0009026163482612,-0.00089391704428446,0.000893903279968,-0.0008664381348525,0.00086472119399714,2.0514580123623e-06,7.2068907891827e-06,-0.00069004645845918,0.00069116647115127,1.652201580437e-06,-1.8910858055532e-07,-0.00068152179326121,0.00068340267031909,-0.00069848968219288,0.000683618649828,-0.00069984805875614,0.00069742507207506,-0.00069569880758006,0.00074114382947044,-0.0006797212948282,0.00068520869742791,-0.00069668642532997,0.00068542024243587,-0.00069804668623909,0.00069922931316017,-0.0007504489056192,0.00075170626267625,-0.00075106228722973,0.00075109176128256,-0.00075081325563555,0.00074883476560093,-0.00075142748550928,0.00074822138907375,-0.00074068265792411,0.00075297472829485,-0.00073426683799896,0.00073776300722199,-0.0007336539546411,0.00073837825021137,-0.00074006802529886,0.00075358731377625,-0.00069750322087618,0.0007393437041394,0.72510222291515,128566,2924,0.0026644878743181,0.0037353110958982,0.0028733536349113,21.737030566096,-8.2103755471229e-05,-8.2103755471229e-05,-8.2103755471229e-05,3018126.7388937,0.0093165957972597
27391759,0.5775655465952,0.009882612276779,0.0030014555535955,0.003724213695742,0.0031569430274415,-0.00065100268345157,0.00064892710391969,-6.4445238018988e-06,-1.3008100486457e-06,-2.3680518007165e-07,3.0470815669571e-07,-0.00033912909139098,0.00032721735573934,-0.00065823701792468,0.00065671690431432,-0.00065640128135503,0.0006705927134891,-0.00034578517511968,0.00032335677498261,-0.00033965763909315,0.00032668730144848,-0.0006587635290857,0.0006561849867825,-0.00065692835263494,0.00067006032409162,-0.00077162501367935,0.00076916489430397,-0.00076987026316298,0.0007730070226801,-0.00077144770472063,0.00076934625840358,-0.000769692700127,0.0007731885454733,-0.00065286674930548,0.00064185649375114,-0.00064750894345805,0.00063879390224153,-0.00065304572543247,0.00064167647961168,-0.00064768840287458,0.00063861357246872,-0.00034526013857596,0.00032388392818355,2.1644409765355e-07,-3.1853611173578e-07,-9.8894186351911e-07,8.9102521720674e-07,-0.00091334572269839,0.00091324748421663,-0.00088061238534052,0.00088253474462892,-0.00091690698021891,0.00091670563451161,-0.00091642567619103,0.00091517330344175,-0.00092135750484958,0.0009208126480846,-0.00092109255025655,0.00092180089429926,-0.00092139154631106,0.00092048844565473,-0.0009212716590991,0.00092162182391228,-0.00088223278278301,0.00088011553941894,-0.00088167739487534,0.00088324174584491,-0.00091654705704572,0.0009175985347895,-0.00090871941969511,0.00090872009868855,-0.00088097550782933,0.0008792163792848,2.0665395480898e-06,7.3873101740306e-06,-0.00070048375584033,0.0007016502485822,1.6883403188152e-06,-1.9389558745146e-07,-0.00069231981182136,0.00069420208051908,-0.00070950152208818,0.00069441008352722,-0.00071093813169272,0.00070845899262998,-0.00070674404397413,0.00075327480200038,-0.00069047963913954,0.0006960478077423,-0.00070765806289236,0.00069625182134366,-0.0007090968193423,0.00071030318435209,-0.00076217568499373,0.00076344502228151,-0.00076280265799418,0.00076281690123812,-0.00076252558916088,0.00076051981349881,-0.00076315351048325,0.00075989275833079,-0.00075228337325058,0.00076483431502534,-0.00074579925834597,0.00074932200623456,-0.00074517289574119,0.00074995082763531,-0.00075165496972804,0.00076546063752379,-0.00070858892533811,0.00075143431588453,0.74094224801849,128566,2924,0.0027059290899187,0.0037973246423952,0.0029168157284611,21.838576860966,-8.1291385112274e-05,-8.1291385112274e-05,-8.1291385112274e-05,3027133.7433297,0.0094649049008373
27591759,0.58657428544125,0.010035212337934,0.0030464153275156,0.0037851186983277,0.003203678312091,-0.00066168309310224,0.00065955938110689,-6.5479153229866e-06,-1.2115506008794e-06,-2.3939469146021e-07,2.9896737579275e-07,-0.00034401540121367,0.00033211058034171,-0.00066955310848758,0.0006679850749829,-0.00066769610178923,0.00068208093419617,-0.000350767053064,0.0003278511046828,-0.00034454246281522,0.000331582062724,-0.0006700759327785,0.00066745676829861,-0.00066822061591101,0.00068155107002075,-0.00078445751158095,0.00078197300332774,-0.00078268871873522,0.00078586036593214,-0.00078428152539372,0.00078215314621419,-0.00078251210562253,0.000786041035639,-0.00066354020056067,0.00065239234398175,-0.00065812769369176,0.0006493474215427,-0.00066371751949666,0.00065221392878235,-0.0006583066477166,0.00064916760187209,-0.00035024679596619,0.0003283735241382,2.1430531950054e-07,-3.1757475946711e-07,-1.0114073718286e-06,9.123220209263e-07,-0.00092920385106024,0.00092910443949021,-0.0008960987511197,0.00089806119348746,-0.00093282999273587,0.00093261038180598,-0.00093233268017939,0.00093106702439949,-0.00093734556881967,0.00093678409793825,-0.00093707619757549,0.00093779675280332,-0.00093737626860231,0.00093645826039697,-0.00093725653226396,0.00093762135340679,-0.00089775872973614,0.00089559795664156,-0.00089707229332146,0.00089867991410935,-0.00093246681947599,0.00093352807090287,-0.00092445485324065,0.00092447252214023,-0.0008964722763653,0.00089466864537616,2.0890474697828e-06,7.5808493319933e-06,-0.00071170677424106,0.00071292861304661,1.7255131054266e-06,-2.0135870157015e-07,-0.00070413082307534,0.00070601220369384,-0.00072144458872759,0.00070610346713351,-0.00072295514794369,0.00072042081410626,-0.00071881941720952,0.00076645815609225,-0.00070224534288263,0.00070790334126588,-0.00071955798150545,0.00070798830894513,-0.0007210696017769,0.00072230927884547,-0.00077468076789464,0.00077596795050421,-0.00077532279818816,0.00077532475415095,-0.00077502105147977,0.00077298210181183,-0.00077566367289792,0.00077234036123688,-0.00076476865602543,0.00077756567063,-0.00075821593957055,0.00076177354897429,-0.00075757416911792,0.00076241785327434,-0.0007641259117454,0.00077820629888046,-0.00072070637374908,0.00076457568131841,0.75071708449414,128566,2924,0.0027502718804308,0.0038631032058766,0.0029635584763034,22.226670591145,-7.8186635270842e-05,-7.8186635270842e-05,-7.8186635270842e-05,3035569.6194787,0.0096232793347244
27791759,0.59558690461747,0.010190090474693,0.003091980731215,0.0038469275717415,0.0032511821717369,-0.00067209469255705,0.00066993009251648,-6.6447156352909e-06,-1.1040035170134e-06,-2.3943062635559e-07,2.9612499318189e-07,-0.00034848213255286,0.00033660605532069,-0.00068072430328705,0.00067910786363737,-0.0006788379941359,0.00069342244975548,-0.00035536655761498,0.00033209459029636,-0.00034900530300644,0.00033608157443589,-0.0006812447296902,0.00067858188274059,-0.00067935931477612,0.00069289573505311,-0.00079702596448086,0.00079451581662679,-0.00079523632118178,0.00079844934535714,-0.0007968508954155,0.00079469517660314,-0.0007950608747708,0.00079862896310261,-0.00067403557244943,0.00066273841476634,-0.00066854764885875,0.00065967260873654,-0.00067421236846613,0.00066256048221882,-0.00066872518720638,0.00065949415338758,-0.00035484799978304,0.00033261528599478,2.122759182955e-07,-3.1665656732886e-07,-1.0354667367372e-06,9.3528728719447e-07,-0.00094485900845061,0.00094475850306114,-0.00091145515722101,0.00091346201856087,-0.0009485611828006,0.00094832144765569,-0.00094804073013092,0.00094676161304595,-0.00095309048097215,0.00095251114581952,-0.00095281580692318,0.00095355010845146,-0.00095311771643318,0.00095218405157897,-0.00095299837369724,0.00095337862446897,-0.00091315181956499,0.00091094532454043,-0.00091233013653681,0.00091398327368427,-0.00094819439123897,0.00094926775190309,-0.00093998917400319,0.00094002387625587,-0.00091184300551101,0.00090999083205642,2.1134044458576e-06,7.7991348026491e-06,-0.0007226886415628,0.00072398196985044,1.768540255621e-06,-2.0498404309748e-07,-0.00071590610103238,0.00071779884019366,-0.00073326760736207,0.00071765602813186,-0.00073483852440134,0.00073225093610037,-0.00073080481430757,0.00077967755153524,-0.00071397628173186,0.00071973437021705,-0.00073133487368418,0.00071958694168366,-0.00073290778907739,0.00073418463307166,-0.00078692472638547,0.00078823191397558,-0.00078758216292171,0.00078757328244202,-0.00078725311132806,0.00078518626836279,-0.00078791144672399,0.00078452883055281,-0.00077704819610269,0.00079012686845035,-0.00077043881031225,0.00077403092134506,-0.00076978195891681,0.0007746903854433,-0.00077638945392819,0.00079078347192939,-0.00073273867620163,0.00077774831509609,0.7613497021153,128566,2924,0.002793513012244,0.0039280338486427,0.0030093312146228,22.425924429103,-7.6592604567174e-05,-7.6592604567174e-05,-7.6592604567174e-05,3039630.9630255,0.0097787304644489
27991759,0.60458430139991,0.01034713058178,0.0031381267738168,0.0039095912089989,0.0032994125989642,-0.00068253891871775,0.00068032740113649,-6.7537063279576e-06,-1.0054977035339e-06,-2.4377667552758e-07,2.906431747231e-07,-0.0003528881406025,0.0003408592852402,-0.0006920593979756,0.00069039434144891,-0.0006901399585967,0.00070492823002567,-0.00035991656642266,0.00033624340634721,-0.00035340927551876,0.00034033687362431,-0.0006925789472975,0.00068986914995307,-0.00069065981251373,0.00070440293305139,-0.00080962338763428,0.00080708622957737,-0.00080781109633103,0.00081106543704164,-0.00080944867634033,0.00080726533733206,-0.00080763620320933,0.00081124458636856,-0.00068465428579186,0.000673205499683,-0.0006790828785519,0.00067009781581137,-0.00068483095155504,0.00067302765087401,-0.00067925975682177,0.00066992002974716,-0.00035939831440736,0.00033676377707929,2.1110261380063e-07,-3.16582033e-07,-1.0616071992758e-06,9.6034195193646e-07,-0.00096061942563755,0.00096051782733852,-0.00092700039197936,0.00092905616679745,-0.00096440683443023,0.0009641473864292,-0.00096386586395708,0.00096257008698547,-0.00096888596960221,0.0009682879583082,-0.00096860539057921,0.00096935537638129,-0.00096891086274838,0.00096795954298984,-0.00096879214446962,0.0009691887070565,-0.00092874063905064,0.00092648364682365,-0.00092777211955858,0.00092947442974039,-0.0009640369286078,0.00096512526609627,-0.00095563453330025,0.00095568615337792,-0.00092740664801789,0.00092550257205057,2.1445918302719e-06,8.0403540543871e-06,-0.00073374160649807,0.00073511507822136,1.8155845996583e-06,-2.091239632248e-07,-0.00072792981834556,0.0007298342341373,-0.0007452659060348,0.00072936287591827,-0.00074689063377449,0.00074425091110487,-0.00074304200171726,0.00079336206361303,-0.00072595090773496,0.0007318189296507,-0.00074328281547842,0.00073134410877311,-0.00074491011195197,0.00074623444433909,-0.00079921179887765,0.00080054395462405,-0.00079988620294756,0.00079986833977657,-0.00079953214789983,0.00079743447704818,-0.00080020766557801,0.00079675987449665,-0.00078944714372207,0.00080282471525829,-0.00078277776770163,0.00078641320108708,-0.00078210415951811,0.00078708944559146,-0.00078877102108503,0.00080349865448755,-0.00074502688301262,0.00079138192439154,0.77289277767421,128566,2924,0.0028368779465587,0.0039933954532426,0.0030554156095417,22.602790214209,-7.5177678286324e-05,-7.5177678286324e-05,-7.5177678286324e-05,3041459.4187108,0.0099350805585092
28191759,0.61374668105306,0.010509738867763,0.0031858521145508,0.0039744757518573,0.0033494110013553,-0.00069384520260607,0.00069158471621759,-6.8648951055228e-06,-8.963172763541e-07,-2.4933661581213e-07,2.8682127966667e-07,-0.00035784613261549,0.00034564901999731,-0.00070442060636036,0.00070271285609165,-0.00070246421279034,0.00071746308612125,-0.00036504820770847,0.00034096602229409,-0.00035836973144931,0.00034512416102563,-0.00070494149899895,0.0007021862446029,-0.00070298603385264,0.00071693576555264,-0.00082314089388887,0.00082057575264622,-0.00082130401212716,0.0008246025026264,-0.00082296577432449,0.00082075535757526,-0.00082112850661935,0.00082478233392429,-0.00069624070212514,0.00068462943028281,-0.00069057794615035,0.00068147434603705,-0.00069641758733571,0.00068445131376078,-0.00069075570401972,0.00068129568263286,-0.00036452906525088,0.00034148725271292,2.113653342813e-07,-3.1798839526105e-07,-1.0922499386852e-06,9.8986977972988e-07,-0.00097747530701872,0.00097737258476641,-0.00094372498752722,0.00094583881778184,-0.00098136803824318,0.00098108933690058,-0.0009808074168895,0.00097948849099488,-0.00098571180683659,0.00098509326143968,-0.00098542323966635,0.0009861926424036,-0.00098573497123724,0.00098476181600166,-0.00098561591239441,0.00098603097315807,-0.00094551762255558,0.00094319974543667,-0.00094438497998367,0.00094614485055491,-0.00098099391771814,0.00098210248058839,-0.00097239163991086,0.00097246083594886,-0.00094415522254696,0.00094219198007205,2.1779281636993e-06,8.300797666518e-06,-0.00074575006334012,0.00074720753114885,1.8687487949474e-06,-2.1640487058457e-07,-0.00074109101966255,0.0007429979043275,-0.00075834265950121,0.00074212004656051,-0.00076001652079203,0.0007573148409709,-0.00075643909673264,0.00080832796535158,-0.00073905218397482,0.00074504266075254,-0.00075630071616564,0.00074416008882165,-0.00075797655304718,0.00075935786629709,-0.00081245377459382,0.00081381503435271,-0.00081314843413263,0.00081311915210978,-0.00081276645621402,0.00081063773528478,-0.00081346203790368,0.00080994308301514,-0.00080290371655067,0.00081660143865006,-0.00079616784682703,0.00079984920741461,-0.00079547379420728,0.00080054593678089,-0.00080220774295291,0.00081729519137154,-0.00075848228632436,0.00080628962689244,0.78542544067072,128566,2924,0.0028838238942194,0.0040632951926473,0.0031054749523425,23.09414667548,-7.124682659616e-05,-7.124682659616e-05,-7.124682659616e-05,3045064.6580823,0.010103671647613
28391759,0.62282565058039,0.010673733657666,0.0032339108792081,0.0040399336307419,0.0033998891477165,-0.00070444364649066,0.00070214298690228,-6.9670173881919e-06,-7.7098279480173e-07,-2.4867345256206e-07,2.9081865910426e-07,-0.00036191960744144,0.00034963986093533,-0.00071616730110961,0.00071442934123848,-0.00071417443022375,0.00072938212017668,-0.00036930800982932,0.00034493602665437,-0.00036244620634622,0.00034911203831383,-0.00071669149926357,0.00071389934311088,-0.00071469938229959,0.0007288515996897,-0.00083592318580824,0.00083332973792,-0.00083406096915633,0.0008374034909726,-0.0008357469900182,0.00083351049731548,-0.00083388445243178,0.00083758441577584,-0.00070718877777879,0.00069541299020141,-0.0007014317966654,0.00069218871259599,-0.00070736685169181,0.00069523366573801,-0.00070161052887562,0.0006920090474054,-0.00036878539428203,0.00034546067630105,2.1243617425133e-07,-3.202164180752e-07,-1.1251666174429e-06,1.0216714706217e-06,-0.00099363295248867,0.00099352910800509,-0.00095983111571062,0.00096200842099767,-0.00099765769128932,0.00099735942890665,-0.00099707217750863,0.00099572740124998,-0.001001793197338,0.0010011530576741,-0.0010014956884956,0.0010022866571096,-0.0010018144838811,0.0010008175988693,-0.0010016948130935,0.0010021291760162,-0.00096168903558191,0.00095930566337259,-0.00096038192924817,0.00096220287358245,-0.00099727713372175,0.00099840944157167,-0.00098847341766705,0.00098855968023606,-0.00096028869555127,0.00095826195656288,2.2153665984127e-06,8.571916049463e-06,-0.00075706025936931,0.00075860324061218,1.924554130564e-06,-2.2512251129425e-07,-0.00075358761081333,0.00075550815527052,-0.00077079327392156,0.000754234140581,-0.00077250581531093,0.00076973877910243,-0.00076930296850596,0.00082279262961582,-0.00075148584967069,0.00075761592740343,-0.00076868803099932,0.00075633744729614,-0.00077040279736615,0.00077184489583895,-0.00082496604673834,0.00082635996039916,-0.00082568216570583,0.0008256426010998,-0.00082527123857585,0.00082311279930522,-0.0008259883602513,0.00082239661895601,-0.00081569487887239,0.00082972464510411,-0.0008088878297364,0.0008126210368045,-0.00080817238389346,0.00081333921038438,-0.00081497729399641,0.00083043997367324,-0.00077140961298621,0.00082069091422173,0.79904055720743,128566,2924,0.0029278462583093,0.0041302919727547,0.0031526356456007,23.181805393003,-7.0545556855972e-05,-7.0545556855972e-05,-7.0545556855972e-05,3042946.8256463,0.010263476079118
28591759,0.63173732589567,0.010836561115383,0.0032815966012437,0.0041049373789836,0.0034500271351561,-0.00071467813882231,0.00071234413156884,-7.0685401250111e-06,-6.4368613098115e-07,-2.4935383773831e-07,2.9833920513783e-07,-0.00036548993709108,0.00035318457135382,-0.00072759324909962,0.00072582637474232,-0.00072556167515824,0.00074097449912774,-0.00037308507723106,0.00034843933294203,-0.00036602442886219,0.00035264889642498,-0.0007281253970888,0.00072528833077176,-0.00072609454410662,0.00074043597732702,-0.00084831661786893,0.00084569309218971,-0.00084642845841044,0.00084981127568525,-0.00084813773422106,0.0008458766213393,-0.00084624926828201,0.00084999495352544,-0.00071781359287006,0.0007058664976114,-0.0007119602957842,0.0007025671497178,-0.000717994388554,0.00070568442627465,-0.00071214171530434,0.00070238477547852,-0.00037255448760212,0.00034897191734936,2.1580225711483e-07,-3.2488585924785e-07,-1.1597472443553e-06,1.0550122401867e-06,-0.0010093992111249,0.0010092941170635,-0.00097560107666458,0.00097784638211568,-0.0010135791399677,0.0010132648352437,-0.0010129767833349,0.0010116002339568,-0.0010174334037071,0.0010167721007082,-0.0010171259899518,0.0010179410734105,-0.0010174538121053,0.001016430349693,-0.0010173322435113,0.0010177852759632,-0.00097752834581248,0.00097507454870024,-0.00097604767389763,0.00097793119325831,-0.0010131926177523,0.0010143541628021,-0.0010041921003475,0.0010042918097707,-0.00097608821542349,0.00097399638843115,2.2574339695557e-06,8.8487792282741e-06,-0.00076801337657849,0.00076964022775088,1.9839714558968e-06,-2.3397402790355e-07,-0.00076576299617259,0.00076770298360927,-0.00078291288283594,0.00076599756143411,-0.00078465495776527,0.00078182388127456,-0.0007817898281775,0.00083688143443387,-0.00076359453298541,0.00076987758666895,-0.00078074076143959,0.00076816768799275,-0.00078248516160746,0.00078399685219037,-0.00083709264488558,0.0008385236976735,-0.00083783149437288,0.00083778357506259,-0.00083739138833899,0.00083520436105103,-0.00083813128390424,0.00083446543054226,-0.00082815929755611,0.00084251114173152,-0.00082127100594362,0.0008250621948892,-0.00082053286036569,0.00082580315219854,-0.0008274189070495,0.00084324920755163,-0.00078396339067082,0.00083471285780104,0.8078767104668,128566,2924,0.0029703702924146,0.0041956591294472,0.0031983082239218,23.131400231529,-7.094879814777e-05,-7.094879814777e-05,-7.094879814777e-05,3037901.0182193,0.010418641786224
28791759,0.6409035071873,0.01099999653015,0.0033295065801181,0.0041702485165524,0.0035002414334793,-0.00072632484900615,0.00072396957759734,-7.1724727461778e-06,-5.0719892085254e-07,-2.5111223643469e-07,3.1338350610518e-07,-0.00036980942240136,0.00035767929490561,-0.0007402918628993,0.00073850450718508,-0.00073821956282084,0.00075383847486681,-0.00037763200254129,0.00035271298734221,-0.00037035719691581,0.00035713028988031,-0.00074084144305239,0.00073794897306551,-0.00073876771348324,0.00075328457707536,-0.00086231006175743,0.00085965265928495,-0.00086039424141602,0.00086381506123393,-0.00086212527924242,0.00085984219137106,-0.00086020986364469,0.00086400399508402,-0.0007297789756126,0.00071765508620855,-0.00072382606651139,0.0007142749112062,-0.00072996638942064,0.00071746633802295,-0.0007240119497178,0.00071408802360246,-0.00037708205863798,0.0003532648247349,2.2361001665747e-07,-3.3445423649792e-07,-1.1981705354438e-06,1.0917774421762e-06,-0.0010268425263981,0.0010267357736829,-0.00099294776086896,0.0009952719105463,-0.0010311733869567,0.001030848305295,-0.0010305663815504,0.0010291470725843,-0.001034773829982,0.0010340913317456,-0.0010344544551375,0.0010352991315291,-0.0010347958967175,0.0010337402864418,-0.0010346701722255,0.0010351404083495,-0.00099494758007519,0.00099241371617676,-0.00099329662102011,0.0009952452985348,-0.0010307789658516,0.0010319819960502,-0.0010215999540128,0.0010217049176623,-0.0009934679541334,0.00099130564188023,2.2979043673278e-06,9.1338263013456e-06,-0.00078048936319187,0.00078219504683914,2.0446784357906e-06,-2.440644471235e-07,-0.00077927245103052,0.0007812335617757,-0.00079639371328603,0.00077909200926242,-0.0007981641136266,0.00079526580200684,-0.00079545867996291,0.00085214996651062,-0.00077703778864935,0.00078347454709946,-0.00079415121851924,0.00078133244342185,-0.00079592608302014,0.00079750711600029,-0.00085084745455223,0.00085231602603099,-0.0008516095095215,0.00085155263832116,-0.00085113584610293,0.00084892210833907,-0.00085189971782329,0.0008481592337427,-0.00084215715124451,0.00085685555357994,-0.00083518801569607,0.00083903492182717,-0.00083442740183414,0.00083979844418305,-0.00084139205131844,0.00085761821935114,-0.00079770457010714,0.00084990916671406,0.78846979174044,128566,2924,0.0030187907938226,0.004267975033533,0.0032502926440589,23.813015661935,-6.5495874704521e-05,-6.5495874704521e-05,-6.5495874704521e-05,3040363.1511102,0.010593193231005
28991759,0.64974187992524,0.011150739640956,0.0033737393045962,0.0042305994512617,0.0035464008850987,-0.00073551952333668,0.00073315923275895,-7.2504478985067e-06,-3.6503596932877e-07,-2.522671848688e-07,3.3604375835372e-07,-0.00037191067182227,0.00036016926827411,-0.00075012395934331,0.0007483291291322,-0.00074800771121836,0.00076381431565645,-0.00037997979429249,0.00035487008897691,-0.00037248373772678,0.00035959497837741,-0.00075069601100938,0.00074775099635365,-0.00074857988066124,0.00076323626204651,-0.0008737457841264,0.00087105720329405,-0.00087180348909383,0.00087525670435765,-0.0008735534009468,0.00087125442199069,-0.00087161102987345,0.00087545386568943,-0.00073896624046542,0.00072667585005688,-0.00073291382439909,0.00072323178285405,-0.00073916071557286,0.00072648002233099,-0.00073310847344125,0.00072303612966943,-0.00037940861803399,0.00035544323471831,2.3406914293918e-07,-3.4698741938323e-07,-1.2338774297415e-06,1.1255465771761e-06,-0.001041363672249,0.0010412549622499,-0.0010071768792595,0.0010095740182455,-0.0010457445315973,0.0010454177321575,-0.0010451421188834,0.0010436742528808,-0.0010493785565773,0.0010486788851771,-0.0010490492042301,0.0010499225657197,-0.0010494049322664,0.0010483162700343,-0.0010492741866649,0.0010497581790377,-0.0010092303207609,0.0010066180039379,-0.0010074367983777,0.0010094447128608,-0.0010453477372025,0.001046593643434,-0.0010360212700442,0.001036125570984,-0.0010077269067148,0.0010055030332737,2.3406165376637e-06,9.3880538061675e-06,-0.00079036168954961,0.00079213544799326,2.1064966643854e-06,-2.5498289394182e-07,-0.00078967530825122,0.00079165074106825,-0.00080689888968679,0.0007891969603897,-0.00080868797573911,0.00080572348780632,-0.00080588998943394,0.00086395822400835,-0.00078736713168072,0.0007939653666762,-0.0008045859991462,0.00079150776910575,-0.00080637794511893,0.00080803683671429,-0.00086203441508175,0.00086354453792153,-0.0008628209560474,0.00086275665483299,-0.00086231203765683,0.00086007287802319,-0.0008630998734951,0.00085928605249078,-0.00085327881653618,0.00086830856154595,-0.00084623072326143,0.00085013453639142,-0.0008454450659359,0.00085092318511436,-0.00085249027268912,0.0008690946316451,-0.00080820506951705,0.00086164838458965,0.75490511090332,128566,2924,0.0030570467865962,0.0043281677038945,0.0032914406150478,23.508925448851,-6.7928596409192e-05,-6.7928596409192e-05,-6.7928596409192e-05,3036902.3381391,0.010734294215228
29191759,0.65865994312748,0.01129924721921,0.003417363828245,0.0042900789615407,0.0035918044294239,-0.00074592627645734,0.00074357308766966,-7.3277122080639e-06,-2.2526925993034e-07,-2.4853530660334e-07,3.6659499084901e-07,-0.00037534793242643,0.00036415610373817,-0.00076105484256431,0.00075926166749783,-0.00075889472673168,0.00077487368291073,-0.00038366218959973,0.00035844461535598,-0.00037594730386128,0.00036355543940122,-0.00076165305618176,0.00075865721592787,-0.00075949311129537,0.00077426924712679,-0.00088641856369615,0.00088370015142798,-0.00088445018698401,0.00088793244339177,-0.00088621735997813,0.0008839063169768,-0.00088424890404051,0.00088813857241646,-0.00074921835393524,0.00073676610110359,-0.00074306487577313,0.0007332973269684,-0.00074942172840547,0.00073656137211513,-0.00074326839558445,0.0007330927444481,-0.000383064872015,0.0003590437772308,2.4613626824964e-07,-3.6154346039925e-07,-1.2714587282694e-06,1.160796437514e-06,-0.0010571099139078,0.0010569988575294,-0.0010224334110456,0.0010249084597053,-0.0010614815204904,0.0010611542233325,-0.0010608876379722,0.001059366908422,-0.0010652996688725,0.0010645822861814,-0.0010649587882043,0.0010658629741136,-0.0010653311819139,0.0010642070283176,-0.0010651950601044,0.0010656921017733,-0.0010245482577333,0.0010218533874171,-0.0010226306200545,0.0010246986534859,-0.0010610811535564,0.0010623750934288,-0.0010516310842901,0.001051731098356,-0.0010230188407212,0.0010207301783762,2.3830896272199e-06,9.6294356758754e-06,-0.00080154879273744,0.00080338768187314,2.1689613640286e-06,-2.6546251521885e-07,-0.00080127426490125,0.00080324963409677,-0.00081864781188207,0.00080052808168879,-0.00082046047161977,0.00081743372906412,-0.00081745979558678,0.00087684447758493,-0.00079889460078858,0.00080563592139144,-0.00081626343270923,0.00080291030503615,-0.00081807908800331,0.0008198184766444,-0.00087452493145481,0.00087607751399492,-0.0008753357787945,0.00087526529359525,-0.000874789609245,0.00087252787176731,-0.00087560176630314,0.00087171674145213,-0.0008656159868229,0.00088096266965398,-0.0008584906745331,0.00086245332042487,-0.00085768072267669,0.00086326634467752,-0.00086480312815928,0.00088177299255984,-0.00081984623941901,0.00087446330744262,0.7375596820124,128566,2924,0.0031003598127296,0.004393439013088,0.0033380407921936,23.915461932258,-6.4676304541932e-05,-6.4676304541932e-05,-6.4676304541932e-05,3047464.0957988,0.010891172727654
29391759,0.66768667710365,0.011442071983516,0.0034593409734484,0.0043474133460198,0.0036353176640474,-0.00075618983320478,0.00075384086917993,-7.4095873440998e-06,-9.9698419519422e-08,-2.4758529859749e-07,3.9254914112666e-07,-0.000378558479848,0.00036790774833645,-0.00077147611702375,0.00076968227519812,-0.00076927067443107,0.0007854096285648,-0.00038712331586129,0.00036175673340259,-0.00037918243525005,0.00036728253288406,-0.00077209877835677,0.00076905324528399,-0.00076989351632604,0.00078478060099454,-0.00089905766751881,0.00089631498227646,-0.0008970650982665,0.00090056934496936,-0.00089884830440795,0.00089652949006652,-0.00089685564970491,0.00090078382333532,-0.00075906087990311,0.0007464392952623,-0.00075280853032394,0.00074294749925267,-0.00075927252057882,0.00074622625719456,-0.0007530203443356,0.0007427345761941,-0.00038650157125685,0.0003623802806135,2.5712997497512e-07,-3.752210305742e-07,-1.3085716130829e-06,1.1953751923331e-06,-0.0010726965758545,0.001072582976524,-0.0010372702850633,0.0010398212319458,-0.0010770007438272,0.001076671245209,-0.0010764170127646,0.0010748455167117,-0.0010812045488002,0.0010804689830996,-0.0010808530480832,0.001081786806464,-0.0010812423091214,0.0010800835254042,-0.0010811018095822,0.001081611997324,-0.0010394448867149,0.0010366690302942,-0.0010374031979881,0.0010395306877675,-0.0010765993121666,0.0010779387810059,-0.0010670371884844,0.0010671342440503,-0.001037888708263,0.001035535553177,2.4298049720469e-06,9.8607305708725e-06,-0.00081261040894124,0.00081451319509131,2.2316042136988e-06,-2.7516260990506e-07,-0.00081219930950787,0.00081418802698975,-0.0008299851482903,0.00081144936672307,-0.00083182126776378,0.0008287362992972,-0.00082840747170797,0.00088901800973655,-0.00080974882714753,0.00081664527469678,-0.00082752992603952,0.00081390238279353,-0.00082936908439989,0.00083119189963553,-0.00088698624801047,0.00088858563877866,-0.0008878211940647,0.00088774928810168,-0.00088724066710365,0.00088495712078258,-0.00088807693670975,0.00088412189297681,-0.00087765475125164,0.0008933324946255,-0.00087043762887388,0.00087446829654367,-0.00086960357194809,0.00087530548815752,-0.00087681775822717,0.00089416690505416,-0.00083086475427547,0.00088656606721314,0.70228761455762,128566,2924,0.0031430680410549,0.0044580452711922,0.0033841150758427,24.389059200919,-6.0887526392647e-05,-6.0887526392647e-05,-6.0887526392647e-05,3063158.1548794,0.011046261249891
29591759,0.67683892951846,0.011580530864559,0.0035000388843614,0.0044031072207563,0.0036773847594416,-0.00076632957517836,0.00076398502182777,-7.4819840498938e-06,1.4910534979347e-08,-2.4669693171162e-07,4.1498006721314e-07,-0.00038176135158878,0.00037165236321097,-0.00078143079200773,0.00077962838568379,-0.00077917400688811,0.00079545702053388,-0.00039058988933359,0.00036505998853087,-0.00038240639903384,0.00037100606311556,-0.00078207450993669,0.0007789781718969,-0.00077981790790963,0.00079480681040532,-0.00091171034885576,0.00090894285120899,-0.00090969031999053,0.00091321663827514,-0.00091149400004568,0.00090916455410472,-0.00090947388506039,0.00091343831564708,-0.00076852239797194,0.00075571637881636,-0.0007621619330691,0.00075215888197341,-0.00076874116145349,0.00075549617956638,-0.00076238088880381,0.00075193879441933,-0.00038994711540791,0.00036570455991656,2.6636158789408e-07,-3.8729373387449e-07,-1.3455570270435e-06,1.2296559267937e-06,-0.0010881551116701,0.0010880388007401,-0.0010517192231192,0.0010543443532449,-0.0010923771236841,0.001092042085796,-0.0010917988690344,0.0010901799098162,-0.0010971046401589,0.0010963497358268,-0.0010967436135513,0.0010977055325813,-0.0010971486690604,0.0010959563412281,-0.0010970044469145,0.0010975285871945,-0.0010539406734407,0.0010510852192839,-0.0010517797979355,0.0010539672578593,-0.0010919780569368,0.001093359442562,-0.0010823035998171,0.0010824006920924,-0.0010523674241727,0.0010499488981118,2.4780295355633e-06,1.0090177272908e-05,-0.00082358717396517,0.00082555133330329,2.2945663034466e-06,-2.8365865685154e-07,-0.00082262076345074,0.0008246181242988,-0.00084104989356744,0.00082210043613325,-0.00084290611631723,0.00083976285131001,-0.00083878009833151,0.00090063337996343,-0.00082010038651657,0.00082714539860075,-0.00083852468324858,0.00082462338779632,-0.00084038400755721,0.00084228841497842,-0.00089940065561475,0.00090104755654873,-0.00090025941134763,0.00090018736645073,-0.00089964417052473,0.00089734075661381,-0.00090050427107671,0.00089648171550257,-0.00088944834045277,0.00090549076019258,-0.0008821338086433,0.00088624466333765,-0.00088127594907706,0.00088710573396888,-0.00088858749186148,0.0009063489667402,-0.00084130735437551,0.00089811151336833,0.67338132220032,128566,2924,0.0031852562555789,0.0045221186264379,0.0034298301032607,24.909916501428,-5.6720667988579e-05,-5.6720667988579e-05,-5.6720667988579e-05,3086338.0962149,0.011199946353009
29791759,0.68617219434774,0.011729266777184,0.0035436198539345,0.0044627691364779,0.0037228777867717,-0.00077715439160765,0.00077478812099856,-7.5726733553757e-06,9.5714451636924e-08,-2.5111588985484e-07,4.2245914451948e-07,-0.00038604312943097,0.00037637131030528,-0.0007924411606842,0.00079060366515415,-0.00079013190489662,0.00080651685464971,-0.00039513676913167,0.0003694306490346,-0.00038670011818165,0.00037571311075406,-0.00079309644346317,0.00078994174899254,-0.00079078755307058,0.00080585480031744,-0.00092505599262449,0.00092225105689193,-0.00092300286797904,0.00092656407146863,-0.00092483589639996,0.0009224767106507,-0.00092278262053242,0.0009267897381519,-0.00077884229649292,0.00076583242168772,-0.00077236317986601,0.00076209702536565,-0.00077906487450967,0.00076560833655031,-0.00077258614659244,0.00076187293316191,-0.00039448257927982,0.00037008663403611,2.7113016317708e-07,-3.9477289165573e-07,-1.3840820715726e-06,1.2655780768295e-06,-0.0011045469403454,0.0011044280214755,-0.0010671832821575,0.0010698826907523,-0.0011087563342324,0.0011084060006629,-0.0011081708617768,0.001106512271483,-0.0011138195071923,0.0011130412470439,-0.0011134480447438,0.0011144362280424,-0.0011138663978761,0.0011126425740333,-0.0011137225542883,0.0011142649228207,-0.00106944919907,0.0010665140882481,-0.0010672060344451,0.0010694597955976,-0.001108356032114,0.0011097715844264,-0.0010985818674006,0.0010986891254093,-0.001067860900819,0.0010653710523209,2.5266687463771e-06,1.032816992378e-05,-0.00083541872151894,0.00083744358088211,2.3566512310756e-06,-2.9594256277229e-07,-0.00083437680538811,0.00083636488090464,-0.00085348189870804,0.00083408392664511,-0.00085535310859981,0.00085214099273622,-0.0008504944525733,0.00091384034747441,-0.00083178341137232,0.00083896524307307,-0.00085088399826815,0.00083667954991727,-0.00085275817018463,0.00085473939863692,-0.00091246377822142,0.0009141568913005,-0.00091334735911596,0.00091327185043315,-0.00091269932771512,0.00091037381947034,-0.00091358421471846,0.00090948999690394,-0.00090223339015397,0.00091864930284431,-0.00089482357202226,0.00089901081362127,-0.00089394086244797,0.00089989678383784,-0.00090134780505407,0.00091953220581662,-0.00085309413298025,0.00091124603388863,0.70918215160628,128566,2924,0.0032302341110402,0.0045900597241194,0.0034790921053659,25.546118728273,-5.1631050173816e-05,-5.1631050173816e-05,-5.1631050173816e-05,3109245.710661,0.011363973863711
29991759,0.69549569303099,0.011885851000938,0.0035893116747202,0.0045254793390444,0.0037710599871735,-0.00078770194302177,0.00078528494428792,-7.6814464273556e-06,1.5149748219282e-07,-2.591851898745e-07,4.1423768993089e-07,-0.00038991297430813,0.00038062433184756,-0.00080362263986253,0.00080173892155335,-0.00080126225925815,0.00081773073771242,-0.00039928431967163,0.00037331527416373,-0.00039056960231927,0.00037996663423088,-0.00080427784224153,0.00080107696736066,-0.00080191767930254,0.00081706884831167,-0.00093807571717567,0.000935227398118,-0.00093598868421712,0.00093958440673467,-0.00093785578940371,0.00093545303672147,-0.00093576865543366,0.00093980998721299,-0.00078927918281349,0.00077603974692716,-0.0007826789608165,0.00077200857717848,-0.00078950173746456,0.00077581562482847,-0.00078290176566962,0.0007717846599924,-0.00039862997175024,0.0003739715140555,2.7019215650762e-07,-3.9593445726911e-07,-1.4254444591829e-06,1.3048892889788e-06,-0.0011208607919657,0.0011207398160602,-0.0010827944492768,0.0010855709515446,-0.0011251172836922,0.0011247381314743,-0.0011245098758458,0.0011228221243444,-0.0011302855295692,0.0011294783052725,-0.0011299021926635,0.0011309153391765,-0.0011303318863594,0.0011290790601606,-0.0011301890461655,0.0011307562192881,-0.0010851201630269,0.0010821040301174,-0.0010828133033807,0.0010851438308473,-0.0011247129269325,0.0011261536404389,-0.0011148217019931,0.0011149534192218,-0.0010835038874109,0.001080932967593,2.5806125347289e-06,1.0583076234425e-05,-0.00084704308656491,0.00084913273270798,2.4198262554779e-06,-3.141589380583e-07,-0.00084649892415405,0.00084850382626187,-0.00086617037131975,0.00084627160142707,-0.00086806095629693,0.00086477847210655,-0.00086268691362573,0.00092770787100209,-0.00084382626058993,0.00085118352017252,-0.00086349273176754,0.00084894693295261,-0.00086538648274019,0.00086745638516771,-0.0009252082700818,0.00092695232586773,-0.00092611896664018,0.00092604015572351,-0.00092544056491251,0.00092309642621017,-0.00092635263744068,0.00092218541952018,-0.00091496440294541,0.00093177446231834,-0.00090743340366581,0.00091170481556129,-0.00090652367181465,0.00091261784993411,-0.00091405157303466,0.00093268459008227,-0.00086536642883963,0.00092503365960346,0.74657578524726,128566,2924,0.0032740052382345,0.0046576701942287,0.0035275003166905,25.876298849003,-4.8989609207973e-05,-4.8989609207973e-05,-4.8989609207973e-05,3118280.2218719,0.011525608964441
30191759,0.70469200043856,0.012030353303739,0.0036314617393907,0.0045836094520148,0.0038152821123338,-0.0007972571869947,0.00079478521661221,-7.7864331718525e-06,2.0520872129574e-07,-2.6533032897645e-07,3.9621770481221e-07,-0.00039223116326275,0.00038332077160944,-0.00081335410541385,0.00081140053538403,-0.00081093846407752,0.00082747448821963,-0.00040187229775993,0.00037566957726353,-0.00039287629288276,0.000382674610186,-0.00081399768603801,0.00081075015544218,-0.00081158229917958,0.00082682417223552,-0.00095021492643526,0.0009473199045243,-0.00094809202341165,0.00095171718694007,-0.00094999909687887,0.00094754157864965,-0.00094787607630334,0.00095193879520643,-0.00079853504292856,0.00078506405602449,-0.00079180771919782,0.00078074480392499,-0.00079875358286507,0.00078484389775933,-0.00079202658208796,0.00078052485598636,-0.00040122957000921,0.00037631413816961,2.6334829040895e-07,-3.9041445829432e-07,-1.4708323781489e-06,1.3489272903545e-06,-0.0011360473017696,0.0011359249798598,-0.0010971262021987,0.0010999847544588,-0.0011402993543924,0.0011398769564659,-0.0011396636695998,0.00113795685941,-0.0011457522463101,0.0011449097144929,-0.0011453551208858,0.0011463926026544,-0.0011457942690207,0.001144514419191,-0.0011456494830998,0.0011462492811237,-0.001099504035991,0.0010964030980388,-0.0010971358169417,0.0010995566931305,-0.0011398901819951,0.0011413472175894,-0.0011298760436852,0.0011300483371172,-0.0010978759973695,0.0010952120312071,2.6370135444191e-06,1.0843316326237e-05,-0.00085756105260868,0.00085971531366053,2.4882914607567e-06,-3.3506158785869e-07,-0.00085686768095016,0.00085888072501888,-0.00087724886341558,0.0008568177511081,-0.00087915260751927,0.00087579242275847,-0.00087307034713868,0.00093966756629676,-0.00085410754240673,0.00086164791279317,-0.00087448377319069,0.00085958050931866,-0.0008763906463166,0.00087855777758491,-0.00093706880899438,0.00093886815477907,-0.00093800931809419,0.00093792616875394,-0.00093729670162352,0.00093493800321121,-0.00093823857886544,0.00093399718979554,-0.00092645050798488,0.00094365995362862,-0.00091880852035472,0.00092316757521147,-0.00091786898072529,0.00092411043041996,-0.00092550788290533,0.00094459987036422,-0.00087583720612009,0.00093690599617171,0.70019424251253,128566,2924,0.0033136480004405,0.0047206000941692,0.0035713110679002,26.017909684653,-4.7856722522774e-05,-4.7856722522774e-05,-4.7856722522774e-05,3124857.0798849,0.011673709702864
30391759,0.71356645653923,0.012164635498795,0.0036706564115535,0.004637709491912,0.00385626959533,-0.00080564032653746,0.00080312208634923,-7.8868702476957e-06,2.4222212516689e-07,-2.7102394636081e-07,3.7137000026844e-07,-0.00039402590700415,0.00038552858373097,-0.00082163205320712,0.00081960394070787,-0.00081916508431182,0.00083571794780947,-0.00040392710361486,0.00037748140853486,-0.00039465055920909,0.00038490283128678,-0.00082225732865168,0.0008189718777724,-0.00081978965765623,0.00083508689904887,-0.00096104857208524,0.00095811481260181,-0.00095889159888554,0.00096254930397214,-0.0009608390615963,0.00095833027881958,-0.00095868229380204,0.00096276438497512,-0.00080632931468081,0.0007926387337419,-0.00079946795013444,0.00078809544564822,-0.00080654193557682,0.00079242448630592,-0.00079967996264946,0.0007878823560991,-0.00040330152887597,0.00037810858935765,2.5369770644929e-07,-3.8166237141351e-07,-1.5195810604673e-06,1.3967180191099e-06,-0.0011496618488313,0.0011495385761136,-0.00110969766587,0.0011126441474573,-0.0011538605517452,0.0011533865088087,-0.0011532027688294,0.0011514814000113,-0.0011597862140923,0.0011589042669821,-0.0011593724449299,0.0011604351773095,-0.0011598224119158,0.0011585157312342,-0.0011596737289157,0.0011603107126303,-0.0011121328569693,0.0011089430246142,-0.0011097140645957,0.0011122341559022,-0.0011534424984383,0.0011549131376408,-0.0011433619800126,0.0011435830837718,-0.0011104928678415,0.0011077267694722,2.6929441798471e-06,1.1078768741525e-05,-0.00086682447542498,0.0008690329600187,2.55561202868e-06,-3.6364412813894e-07,-0.00086559581826985,0.0008676025537116,-0.00088689158126044,0.00086592268362983,-0.00088880119856096,0.00088535477904866,-0.0008818281006561,0.00094983382571575,-0.00086274328794255,0.00087046212160973,-0.00088403210405481,0.00086877978544908,-0.00088594584744772,0.00088821351106617,-0.00094762851488865,0.00094948377391855,-0.00094860083819289,0.00094850996332697,-0.00094785190682202,0.00094548054564437,-0.00094882592746594,0.00094450759875531,-0.00093651070026236,0.00095408552623513,-0.00092876435869735,0.00093321402821973,-0.0009277933205447,0.00093418839261783,-0.00093553560167858,0.00095505787709948,-0.0008846903065287,0.00094697686483647,0.67548584472478,128566,2924,0.0033484277969154,0.0047770153833931,0.0036098906649773,25.816049702704,-4.947160237837e-05,-4.947160237837e-05,-4.947160237837e-05,3136926.5252854,0.011805025972743
30591759,0.72201266663082,0.012296915205632,0.0037092122582786,0.0046908724404378,0.0038968305069159,-0.00081337978470737,0.00081080210575998,-7.9921469130857e-06,2.5413751445981e-07,-2.8583834378458e-07,3.354520816872e-07,-0.0003958407279638,0.00038766548376141,-0.00082950577518002,0.00082738482055685,-0.00082698814228016,0.0008435113990265,-0.00040601210842144,0.00037929388553836,-0.00039644261764489,0.00038706253855635,-0.00083011102390425,0.00082677280248848,-0.00082759139804807,0.00084290169445711,-0.00097104569380055,0.00096806881980804,-0.00096885115488961,0.00097254908697856,-0.00097084307555449,0.00096827747593713,-0.00096864918216699,0.00097275691207845,-0.0008135391860157,0.0007996314807648,-0.00080652933482457,0.00079490387781435,-0.00081374538406668,0.00079942364283985,-0.0008067337248636,0.00079469844335521,-0.00040540510711132,0.00037990249473403,2.4270017898745e-07,-3.7116862528693e-07,-1.5708632211524e-06,1.447420435147e-06,-0.0011624030057709,0.0011622791538217,-0.0011214605920975,0.0011244998463966,-0.0011665867393804,0.0011660564214465,-0.0011659177278614,0.0011641835485891,-0.0011728690589375,0.0011719451449214,-0.0011724369284957,0.0011735261508319,-0.0011728992701647,0.0011715653963838,-0.0011727483723862,0.0011734257102753,-0.0011239648827415,0.0011206824272017,-0.0011215111915511,0.0011241370604084,-0.0011661570249414,0.0011676405869559,-0.0011560637399373,0.0011563387331509,-0.0011223093032133,0.0011194348979495,2.7457540976152e-06,1.1306247403077e-05,-0.00087546634942563,0.00087772347836763,2.6206069692894e-06,-4.0132861831978e-07,-0.00087402171637505,0.00087601253942288,-0.00089622982814909,0.00087472215425135,-0.0008981436666625,0.00089460151997951,-0.00089030164722401,0.00095979364477789,-0.00087107084505528,0.00087897045008608,-0.00089326919595593,0.00087768039343111,-0.0008951884301483,0.00089756010027496,-0.00095734419388427,0.00095925307595392,-0.00095835053594396,0.00095824524793585,-0.00095756657443558,0.00095518408038161,-0.00095857504124169,0.00095417668778999,-0.00094600523923376,0.0009638877417255,-0.00093816463713129,0.00094270409824604,-0.00093715997973431,0.00094371206884375,-0.00094499527961121,0.00096489493199292,-0.00089326652091068,0.00095683405804541,0.69871028947624,128566,2924,0.003380499358787,0.00482981135156,0.0036458780249222,25.392604065739,-5.2859167474088e-05,-5.2859167474088e-05,-5.2859167474088e-05,3144924.5438262,0.01192733062259
30791759,0.73050430948622,0.012434569924295,0.0037492555260028,0.0047461039060501,0.0039392104922426,-0.00082291481405695,0.00082027417042971,-8.0994152663956e-06,2.8580119207909e-07,-3.0027501697991e-07,2.9930498597797e-07,-0.00039913009818143,0.0003913049375122,-0.000839530580592,0.00083731150507597,-0.00083696060607326,0.00085347053287886,-0.00040958594006761,0.00038261235853102,-0.00039971623290078,0.00039071776118622,-0.00084011288903299,0.00083672245467946,-0.0008375443077406,0.00085288038310508,-0.00098290221938098,0.00097988352378704,-0.00098067203752633,0.000984410825116,-0.00098270745462965,0.0009800843914932,-0.0009804768265766,0.00098461195589694,-0.00082282549172135,0.00080870630394363,-0.0008156760680238,0.00080385696850923,-0.00082302271243069,0.00080850744178056,-0.00081587495052908,0.00080365705855997,-0.00040900560343255,0.00038319423025859,2.3172285660047e-07,-3.6038886461486e-07,-1.6262443503202e-06,1.5025206895083e-06,-0.0011772269641221,0.001177102830971,-0.0011354414295854,0.0011385795677921,-0.0011814365026043,0.0011808494817135,-0.0011807477850056,0.0011789961844733,-0.001187915957372,0.0011869482237369,-0.0011874639342205,0.0011885818670276,-0.001187940743104,0.0011865764974844,-0.0011877853734049,0.0011885070504346,-0.0011380221174245,0.0011346366567004,-0.0011355461528866,0.0011382889127168,-0.0011809934138933,0.0011824904545107,-0.0011708537698622,0.0011711883605628,-0.0011363484294806,0.0011333600159474,2.7977787454555e-06,1.1539056003032e-05,-0.00088606975690567,0.00088837658845832,2.6890921541443e-06,-4.4383030695878e-07,-0.00088494005667526,0.00088690542033107,-0.00090786324327416,0.00088578246962571,-0.00090978878657259,0.00090613892052458,-0.00090128901968516,0.00097235613630957,-0.00088187499181779,0.0008899775046532,-0.00090479571538802,0.00088884757239379,-0.00090672307189652,0.00090920793702262,-0.00096897333250133,0.00097093650504374,-0.00097001723669729,0.0009698911159534,-0.00096919325097881,0.00096680063606635,-0.00097023814864643,0.00096575681670193,-0.00095761824794131,0.00097577004423645,-0.00094970036353435,0.00095431074553058,-0.00094865697615752,0.00095535744191917,-0.00095657302795287,0.00097681246796312,-0.00090435710399297,0.00096929343924843,0.72242423079308,128566,2924,0.0034200301581437,0.0048912343900279,0.003690008510593,25.854818625379,-4.9161450996968e-05,-4.9161450996968e-05,-4.9161450996968e-05,3154895.1479045,0.012074172703929
30991759,0.73948549303441,0.012585291347333,0.0037929666058569,0.004806544506309,0.0039857802351676,-0.00083468433902172,0.00083198072625676,-8.2124320255564e-06,3.3288516030181e-07,-3.1118993696004e-07,2.6708685550109e-07,-0.00040394335393431,0.00039649681514055,-0.00085219125164525,0.00084988183049786,-0.00084956647802949,0.00086610967343361,-0.00041471257898332,0.00038748125647848,-0.0004045064192423,0.00039593297547715,-0.0008527534497516,0.00084931294457027,-0.00085012865449778,0.00086554107890982,-0.00099715803407216,0.00099409505225322,-0.00099489055606703,0.00099867005306839,-0.00099697018924363,0.00099428904780574,-0.00099470272469032,0.00099886386871567,-0.00083466206886085,0.00082032230772329,-0.00082736855771987,0.00081534880320356,-0.00083485298539549,0.00082012975973455,-0.00082755954941297,0.00081515677528825,-0.00041415080466729,0.00038804439514106,2.2108445854134e-07,-3.497535712486e-07,-1.6844508180473e-06,1.5606288389504e-06,-0.001194840842518,0.0011947166284126,-0.0011523404232587,0.0011555860522951,-0.0011990770680158,0.0011984295945169,-0.0011983573891684,0.0011965886094192,-0.0012056616216405,0.0012046477215443,-0.0012051872913592,0.0012063369770765,-0.0012056797265877,0.0012042839829178,-0.0012055180161768,0.001206285225467,-0.0011550054118744,0.0011515137434901,-0.0011525161665136,0.0011553791592315,-0.0011986196448033,0.0012001352083185,-0.0011883577095696,0.0011887511227043,-0.0011533102029367,0.0011501998854156,2.8516987273457e-06,1.1793037163954e-05,-0.00089912482121944,0.00090148826502162,2.7653482998445e-06,-4.8393177517842e-07,-0.00089878527408511,0.0009007259243035,-0.00092229074349792,0.00089959765238078,-0.00092423489232838,0.00092047526615452,-0.00091519934197355,0.00098807511429505,-0.00089560845138908,0.00090390973572805,-0.00091910843282073,0.00090277747437518,-0.00092105607675347,0.00092365733189634,-0.00098308841989369,0.00098510813172294,-0.00098417085987747,0.0009840242105763,-0.00098330411712873,0.00098090267889315,-0.00098438802853001,0.00097981984027405,-0.00097187421042505,0.00099031737461581,-0.0009638698864676,0.00096855740687782,-0.00096278847897794,0.00096964212946052,-0.000970789436574,0.00099139936380267,-0.0009183835051091,0.00098489616416558,0.74699165862856,128566,2924,0.0034688536648763,0.0049642116079445,0.0037443274957884,27.172948870177,-3.8616409038585e-05,-3.8616409038585e-05,-3.8616409038585e-05,3168846.6963263,0.012252452981467
31191759,0.74891717305148,0.012750960720999,0.00384080990812,0.0048729803952404,0.0040371704176388,-0.00084713600240036,0.00084436651108583,-8.3325880524077e-06,3.8352660130981e-07,-3.2008245022518e-07,2.3771228359652e-07,-0.00040881154593372,0.0004017484793127,-0.00086597552737941,0.00086357869415429,-0.00086329489631406,0.00087990323690136,-0.00041991446654515,0.00039239919009928,-0.00040935125628247,0.00040120804506111,-0.00086651880059753,0.00086302874715329,-0.00086383586672971,0.00087935584815508,-0.001012174980474,0.0010090628670853,-0.0010098704817209,0.0010136815759551,-0.0010119936390121,0.0010092504237897,-0.0010096899137356,0.0010138681839658,-0.00084748459913617,0.00083292705068214,-0.00084004932655682,0.00082779788939327,-0.00084766981076288,0.00083274022080152,-0.0008402323812689,0.0008276138012361,-0.00041936942885023,0.00039294556938783,2.1083060934831e-07,-3.394043664919e-07,-1.7428420098336e-06,1.6190402216266e-06,-0.0012136030352992,0.0012134788439478,-0.0011705815771805,0.0011739358760235,-0.001217870076723,0.0012171623823603,-0.0012171125218942,0.0012153262205854,-0.0012244395429801,0.0012233795013007,-0.0012239426871156,0.0012251247997061,-0.0012244494373267,0.0012230220669019,-0.0012242808126048,0.0012250934409587,-0.0011733353116727,0.0011697372404954,-0.0011708292608698,0.0011738124077053,-0.0012173994106272,0.0012189347680263,-0.0012069486361174,0.0012074001103143,-0.0011716171640889,0.0011683844549985,2.9179460919079e-06,1.206850568447e-05,-0.00091300647658611,0.00091543536726042,2.8483210710473e-06,-5.1799243791188e-07,-0.0009139514928565,0.00091592111669472,-0.00093789478572543,0.00091456550020781,-0.00093985796413481,0.00093599970287056,-0.00093044975214087,0.0010053551787884,-0.00091066335039083,0.00091921621257588,-0.0009345967804788,0.00091786098806503,-0.00093656566270578,0.00093929524509766,-0.00099803074821426,0.0010001142364986,-0.00099915181434377,0.00099899169884167,-0.00099824518696075,0.00099583363662965,-0.00099936848446988,0.0009947114115095,-0.00098715043083655,0.0010059075837775,-0.00097905448966414,0.0009838362871192,-0.00097793519434477,0.00098495888424788,-0.00098602551717216,0.001007029687907,-0.00093375179572281,0.0010020583102705,0.78083050197861,128566,2924,0.0035205127224788,0.0050419374461147,0.0038020931173135,28.436969867392,-2.8504241060864e-05,-2.8504241060864e-05,-2.8504241060864e-05,3177330.829033,0.012441933176041
31391759,0.75848539795674,0.012912537541206,0.003887385825182,0.0049380385279393,0.0040871131880846,-0.00085844535836167,0.00085561557603595,-8.4715732491321e-06,4.4221415086394e-07,-3.3001911389601e-07,2.1163510632426e-07,-0.00041173069018272,0.00040503006901833,-0.00087826913381581,0.00087578881311667,-0.00087551937244884,0.00089220142595935,-0.00042318774216793,0.00039530419607355,-0.00041225689631675,0.00040450310202066,-0.00087879578217392,0.00087525555191336,-0.00087604533202997,0.00089166904998084,-0.0010262216821504,0.0010230572310743,-0.0010238747225176,0.0010277251113486,-0.0010260460274465,0.0010232391493293,-0.0010236993057853,0.0010279066146619,-0.00085895826310364,0.00084416052563157,-0.00085136186640192,0.0008388807595494,-0.00085913722700668,0.00084397994926358,-0.00085154041795585,0.00083870118349752,-0.00042266092147245,0.00039583223265611,2.0287682563659e-07,-3.3128292450906e-07,-1.8007594297777e-06,1.677046944632e-06,-0.0012313372181154,0.0012312131187266,-0.0011876926669926,0.0011911543617223,-0.0012356173934364,0.001234856281477,-0.0012348319746317,0.0012330221006248,-0.0012422321654285,0.0012411285033713,-0.0012417136374814,0.0012429288386584,-0.0012422361673047,0.0012407753588334,-0.0012420575112155,0.0012429144554694,-0.0011905275672677,0.0011868205311581,-0.0011880022079942,0.0011911051725399,-0.0012351382000861,0.0012366956053021,-0.0012245223895333,0.0012250292400318,-0.001188784834306,0.0011854341603332,2.9803700158526e-06,1.2359733230342e-05,-0.00092569735928617,0.00092819243119394,2.934940083189e-06,-5.4758361165257e-07,-0.00092748031914158,0.00092946539961631,-0.00095185600562827,0.00092789790022052,-0.00095384198221073,0.00094986531772758,-0.0009440115588006,0.0010208700120949,-0.00092407598388235,0.00093287667280006,-0.00094844510233145,0.0009313062532284,-0.00095043501732709,0.00095327551273075,-0.0010119786294327,0.0010141243231498,-0.0010131387122633,0.0010129627606163,-0.0010121886946847,0.0010097726003729,-0.0010133504512899,0.0010086119234567,-0.001001208256431,0.0010203370374287,-0.00099302419475116,0.00099789038998986,-0.00099186525957898,0.00099905264232157,-0.0010000454977768,0.0010214969439985,-0.00094742503162272,0.0010174619092251,0.75166471148612,128566,2924,0.003567443103787,0.0051153929801061,0.0038549145194789,29.18126980005,-2.2549841599599e-05,-2.2549841599599e-05,-2.2549841599599e-05,3177590.1138425,0.012617332451298
31591759,0.76770176522163,0.013061408183859,0.0039303290896795,0.00499811613676,0.00413296295742,-0.00086761741497069,0.00086473665178248,-8.5992686318013e-06,4.8621658205928e-07,-3.4715641424611e-07,1.8602679681526e-07,-0.00041318793244375,0.00040684881925063,-0.00088796739858689,0.00088541843032172,-0.00088515439662169,0.00090187511806548,-0.00042497668730498,0.00039673454429132,-0.000413705957155,0.00040633012389628,-0.00088848573230869,0.00088489351990547,-0.00088567211617699,0.00090135100476696,-0.0010379689281344,0.0010347521479872,-0.0010355820775828,0.0010394639046353,-0.0010377961565267,0.0010349312363932,-0.001035409539189,0.0010396426028673,-0.00086790215053253,0.00085288449708065,-0.00086015237380692,0.00084747842023483,-0.00086807826619135,0.00085270676250617,-0.00086032811529511,0.0008473016563058,-0.00042445829485786,0.00039725413777293,1.986129651474e-07,-3.2706413246147e-07,-1.8572178015743e-06,1.7334137305221e-06,-0.0012463999001532,0.0012462757176531,-0.0012019469993271,0.0012055162361917,-0.0012506254555581,0.0012498184022419,-0.0012498224041952,0.0012479831959525,-0.0012575222637251,0.0012563781042782,-0.0012569818416045,0.0012582317010384,-0.0012575239446709,0.0012560282905242,-0.0012573338165441,0.0012582310929376,-0.0012048574315762,0.0012010426022611,-0.0012023427446126,0.0012055589769332,-0.0012501364998254,0.001251723056678,-0.0012394231804612,0.0012399758860046,-0.0012030980029598,0.0011996339031995,3.0430349831324e-06,1.2618966960167e-05,-0.00093605020224021,0.00093860173392497,3.0181085858069e-06,-5.774568745049e-07,-0.00093811916007961,0.00094011864339923,-0.00096307025765013,0.00093849940316763,-0.00096506026412814,0.00096097248594089,-0.00095462309293055,0.0010331311674786,-0.00093460393981463,0.00094364078972063,-0.00095954864575319,0.00094201843109056,-0.00096154266356082,0.0009644933143353,-0.0010236043760278,0.0010258128024433,-0.0010248021409652,0.0010246135523568,-0.0010238127315581,0.0010213900416605,-0.0010250121544445,0.0010201916998186,-0.0010126968236164,0.0010321731786531,-0.0010044245084554,0.0010093790609698,-0.0010032278774553,0.0010105790340703,-0.0010114963901893,0.001033370746351,-0.00095814714215332,0.0010296124624215,0.71981900902752,128566,2924,0.0036055025458968,0.0051777774906263,0.0038980097642099,29.085368559167,-2.3317051526666e-05,-2.3317051526666e-05,-2.3317051526666e-05,3177622.4513625,0.012762713657518
31791759,0.77639489463004,0.013194193548066,0.0039687010645287,0.0050518124938403,0.0041736799896968,-0.00087531240706743,0.00087238823009205,-8.7145608061617e-06,5.2344285098395e-07,-3.6422364022847e-07,1.6402278429366e-07,-0.0004139692873354,0.00040804328010451,-0.00089571183668627,0.00089310230093445,-0.00089283746350728,0.00090957117572929,-0.00042608241954815,0.00039752562615316,-0.00041448258760033,0.00040752929849829,-0.00089622533720386,0.00089258226227465,-0.00089335040080341,0.00090905182473609,-0.0010480719973885,0.001044800648147,-0.001045646666472,0.0010495482100131,-0.0010479009278849,0.0010449780740517,-0.0010454758190782,0.001049725281153,-0.0008750168192167,0.00085980047717335,-0.0008671186035829,0.00085429786633852,-0.00087519126066086,0.00085962443563431,-0.00086729273657425,0.00085412270911768,-0.00042556892268715,0.00039804026574908,1.9604236378438e-07,-3.2469097389174e-07,-1.9116654511297e-06,1.7876454477983e-06,-0.0012593961266377,0.0012592717322212,-0.0012139110160562,0.001217584786493,-0.001263536892203,0.0012626886534377,-0.0012627214011519,0.0012608505911441,-0.0012709011643342,0.0012697189495865,-0.0012703391902112,0.0012716233496626,-0.0012709027355586,0.0012693723234971,-0.0012707011454214,0.0012716360725701,-0.0012168927876855,0.0012129729037729,-0.0012144200263217,0.0012177441737002,-0.001263039945039,0.0012646575999277,-0.0012522835561575,0.0012528771440847,-0.0012151228677132,0.001211550480362,3.1008225058729e-06,1.2846160499226e-05,-0.00094475529493483,0.00094735574669148,3.0974799447349e-06,-6.0701917379227e-07,-0.00094654599284331,0.00094854278828534,-0.00097226666196972,0.00094709890152607,-0.00097425424976567,0.00097006029781119,-0.00096300911049076,0.0010429121649943,-0.00094292390318643,0.00095217176696084,-0.00096863842146988,0.00095072454605171,-0.00097062994350186,0.000973687807394,-0.0010335658468356,0.0010358338271239,-0.0010347999351585,0.001034598261025,-0.0010337718239719,0.0010313439313674,-0.0010350075356229,0.0010301092968232,-0.0010222792763428,0.0010420733875423,-0.0010139282943266,0.0010189655713617,-0.0010126952889483,0.0010202018727526,-0.0010210425682515,0.0010433072166793,-0.00096663972140355,0.0010392868956751,0.68197346764356,128566,2924,0.0036374289034316,0.0052316014546624,0.0039342491350715,28.640458839946,-2.6876329280432e-05,-2.6876329280432e-05,-2.6876329280432e-05,3182753.7950316,0.012886287159239
31991759,0.78478006540653,0.013335390151381,0.0040094156470631,0.0051085826343649,0.0042173918699535,-0.00088399874743942,0.00088102759825702,-8.8266779329265e-06,5.5219284173983e-07,-3.8371305407547e-07,1.4253456222652e-07,-0.00041680676212047,0.00041127375957802,-0.00090512595477144,0.00090245711756916,-0.00090219637384341,0.00091895823846958,-0.00042920451538357,0.00040035862058988,-0.00041731804103203,0.00041076181057564,-0.00090563752123173,0.00090193901039542,-0.00090270735625692,0.00091844083833362,-0.0010588625957435,0.0010555393857113,-0.0010564021225197,0.0010603474859148,-0.0010586922102292,0.0010557161511935,-0.0010562319742719,0.0010605238905905,-0.0008835264107345,0.00086811891438672,-0.00087548452997996,0.00086257654763806,-0.00088370020824618,0.00086794352909275,-0.00087565797803206,0.00086240206720389,-0.0004286929040449,0.00040087135381023,1.9485044102598e-07,-3.2386096452216e-07,-1.9645646029104e-06,1.8401834651432e-06,-0.0012733174140621,0.001273192658303,-0.0012270229667222,0.0012307989950197,-0.0012774531321033,0.001276567431764,-0.0012766262989982,0.0012747220040831,-0.0012850411793662,0.0012838228043192,-0.0012844566744922,0.0012857749055288,-0.0012850422877276,0.0012834770907062,-0.0012848323536166,0.0012858027044533,-0.001230077625424,0.0012260548003315,-0.0012276839505506,0.001231111656016,-0.0012769444902051,0.0012785949296631,-0.0012661157773387,0.0012667460738358,-0.0012282958542178,0.0012246191212696,3.1558191185886e-06,1.3060082112833e-05,-0.00095459562837157,0.00095724300208785,3.1726758238818e-06,-6.3747092686482e-07,-0.000957146158957,0.00095913780230672,-0.00098338166380247,0.00095761132877526,-0.00098537161264031,0.00098107090921617,-0.00097358891659865,0.0010549940515641,-0.00095342060013055,0.00096287025147593,-0.00097964997642005,0.00096134041537604,-0.00098164388799848,0.00098480183835317,-0.0010443055401874,0.0010466285458974,-0.0010455748281939,0.0010453577817361,-0.0010445114837791,0.0010420737910741,-0.0010457824022653,0.0010408039456832,-0.0010331279670141,0.0010531561717143,-0.0010247022671441,0.0010298237340321,-0.0010234340520996,0.0010310952304585,-0.0010318560221553,0.0010544252253951,-0.0009773230486247,0.0010512652306139,0.749795249309,128566,2924,0.00367345779872,0.0052892594384283,0.0039751956895779,28.568148226899,-2.7454814184805e-05,-2.7454814184805e-05,-2.7454814184805e-05,3192319.2184328,0.013022679480072
32191759,0.79294255556309,0.013475549567467,0.0040497196012109,0.005164977463141,0.004260852503115,-0.00089275387395217,0.00088972852406095,-8.9483664839713e-06,5.8732002356458e-07,-4.0518432001683e-07,1.2242872800993e-07,-0.00041889025321849,0.00041369054494907,-0.00091478920083312,0.0009120590318611,-0.00091180266375789,0.00092862559830627,-0.0004316232585828,0.00040243813564778,-0.0004194032301988,0.00041317690565943,-0.00091530202168195,0.00091153975721922,-0.00091231509921587,0.00092810673280645,-0.0010698215553675,0.0010664462770677,-0.0010673250544641,0.0010713119281495,-0.0010696513288819,0.0010666234531963,-0.0010671544248835,0.0010714888423065,-0.0008923948036858,0.0008767917230701,-0.00088420718913188,0.00087117044687181,-0.00089256888883817,0.00087661604245373,-0.00088438121617,0.00087099537134831,-0.00043111068825961,0.00040295171420101,1.9527474231099e-07,-3.247112242217e-07,-2.0156599778916e-06,1.8908571024125e-06,-0.0012874734600759,0.0012873482882349,-0.0012405820335596,0.0012444575937474,-0.0012916360171666,0.0012907175449156,-0.0012908079407873,0.0012888679210327,-0.0012992566893931,0.0012980044872945,-0.0012986517417682,0.0013000038128557,-0.001299258549005,0.0012976585415782,-0.0012990393051556,0.0013000427358254,-0.001243717622008,0.0012395940890504,-0.0012413698019006,0.0012448964964069,-0.0012911171949967,0.001292802197531,-0.0012801791607203,0.0012808418396179,-0.0012419154360116,0.0012381391584867,3.211139145285e-06,1.3291531316225e-05,-0.00096454872272264,0.00096724634722631,3.2476755116066e-06,-6.6466817066316e-07,-0.00096805649703422,0.00097005239070687,-0.00099463003887043,0.00096828333547624,-0.00099662683940488,0.00099223201947014,-0.000984532541284,0.0010675056800751,-0.00096423038486538,0.00097388538604225,-0.00099079844394865,0.00097211231545336,-0.00099279890652475,0.00099606316370714,-0.0010552077353518,0.0010575857163604,-0.0010565111058824,0.0010562808315774,-0.001055413154104,0.0010529698971646,-0.0010567180792885,0.0010516660465489,-0.0010442190798554,0.0010645169163956,-0.0010357197581694,0.0010409229255344,-0.0010344173237323,0.0010422286571349,-0.0010429132026213,0.0010658198636006,-0.00098836632376224,0.0010636772068485,0.76436440200353,128566,2924,0.003709770879554,0.0053478782749602,0.0040166148003441,28.656525799192,-2.6747793606463e-05,-2.6747793606463e-05,-2.6747793606463e-05,3189853.6372859,0.013160832860908
32391759,0.800971195299,0.013616561428205,0.0040902103305199,0.0052217170655652,0.0043046340321199,-0.00090183306851012,0.00089875658477985,-9.0670325726821e-06,6.198297522088e-07,-4.2615572150723e-07,1.0965271249184e-07,-0.00042113609718329,0.00041625291847454,-0.00092495275969735,0.00092216965037861,-0.00092191193111955,0.00093882000046572,-0.00043422068830602,0.00040470950763622,-0.00042165671811647,0.0004157316656174,-0.00092547367851835,0.00092164225951574,-0.00092243222997971,0.0009382932308754,-0.0010810758758126,0.0010776484441503,-0.0010785444076115,0.0010825589810794,-0.0010809029905582,0.0010778284051947,-0.0010783711258421,0.001082738610698,-0.00090173137990497,0.00088594342038134,-0.00089340860230375,0.00088021241629448,-0.00090190830642809,0.00088576490407497,-0.00089358521581685,0.0008800347250953,-0.00043369985030056,0.00040523133582089,1.9893079338058e-07,-3.2910290916447e-07,-2.0646563919135e-06,1.9391597408397e-06,-0.0013019955054925,0.0013018696356161,-0.0012546402041824,0.0012586131763167,-0.0013061779209202,0.0013052341477344,-0.0013053529464129,0.0013033720214698,-0.0013137707543241,0.0013124881309882,-0.001313146163379,0.0013145326810289,-0.0013137745787719,0.0013121387928015,-0.0013135462384573,0.0013145786210558,-0.0012578581637833,0.0012536360342432,-0.0012555451496134,0.0012591636530049,-0.0013056483840361,0.0013073730886102,-0.0012945744823373,0.0012952608420875,-0.0012560302576722,0.0012521605452082,3.2681673561602e-06,1.3520532489295e-05,-0.00097485773621203,0.00097760307617529,3.3203501576382e-06,-6.893293892891e-07,-0.00097952563225737,0.00098153778830927,-0.0010063173547006,0.00097941820778165,-0.0010083223230178,0.0010038414409942,-0.00099603253008911,0.0010805261644864,-0.00097560449983612,0.00098546587239892,-0.0010023903209008,0.00098334258089733,-0.001004399230248,0.0010077677818595,-0.0010664535459123,0.0010688868825503,-0.0010677893034428,0.0010675495870064,-0.0010666602212946,0.0010642098866868,-0.0010679976251223,0.0010628735698285,-0.0010557273292996,0.0010763103465785,-0.0010471516914787,0.0010524385038209,-0.0010458169423373,0.0010537766064821,-0.0010543888729493,0.0010776458264765,-0.00099996198628891,0.0010766020688474,0.78118729946516,128566,2924,0.0037474397534529,0.0054080063839547,0.0040595037092413,28.932773235982,-2.4537814112144e-05,-2.4537814112144e-05,-2.4537814112144e-05,3186920.3958002,0.013303397789065
32591759,0.80908029979635,0.013750419902658,0.0041286860246684,0.0052757619476568,0.0043459719303332,-0.00091142834584042,0.00090830438522507,-9.1840480305575e-06,6.5754396007235e-07,-4.4767997891874e-07,1.0064981846596e-07,-0.00042320731699274,0.0004186748857344,-0.00093521278634011,0.00093238653275066,-0.00093211651480955,0.00094909374030451,-0.00043666065516359,0.00040681185497882,-0.00042374083916112,0.0004181405990317,-0.00093574573076611,0.00093184715249105,-0.00093264932462453,0.00094855437925508,-0.0010930648357826,0.0010895854886602,-0.0010904989164004,0.001094542438818,-0.001092888056535,0.0010897695456981,-0.0010903213991194,0.0010947263338839,-0.0009113173763922,0.00089534524143802,-0.00090286021293762,0.00088949603528905,-0.00091149816408782,0.00089516283422984,-0.00090304122109044,0.00088931389649877,-0.00043612824503275,0.00040734499370883,2.0464618799581e-07,-3.3583016323792e-07,-2.1127452670935e-06,1.9862972799948e-06,-0.001317146684137,0.0013170198643923,-0.0012691536671528,0.0012732228515057,-0.0013213241797925,0.0013203602256271,-0.0013205060936954,0.0013184799588122,-0.0013289870834029,0.0013276760501908,-0.0013283442353316,0.0013297655659855,-0.001328995415397,0.00132732272775,-0.0013287571711366,0.0013298162694431,-0.0012724498505176,0.0012681290484496,-0.0012701748286509,0.0012738817955484,-0.0013207862261066,0.0013225536759043,-0.0013096272479273,0.0013103324531453,-0.0012705965137106,0.0012666370321413,3.3254499711352e-06,1.3752533459666e-05,-0.00098568753466305,0.00098848174754397,3.3940263017729e-06,-7.1064191098816e-07,-0.00099090897740264,0.0009929382236209,-0.0010180883651379,0.00099062928708687,-0.001020099013185,0.0010155335031177,-0.0010074603800149,0.0010933831559333,-0.00098689412776264,0.00099696000323699,-0.0010140686418172,0.00099464632195694,-0.0010160826384439,0.0010195531013524,-0.0010784177838101,0.001080906435171,-0.001079785294867,0.0010795373504682,-0.001078624590052,0.0010761673788907,-0.0010799935759691,0.0010747994879126,-0.0010677101411827,0.0010886126729833,-0.0010590558669843,0.0010644245144208,-0.0010576891863522,0.0010657945371317,-0.0010663402816924,0.0010899794882272,-0.0010114819715741,0.0010893668529866,0.73524963717244,128566,2924,0.0037872638171931,0.0054707334495714,0.0041045531841256,29.68249179405,-1.8540065647596e-05,-1.8540065647596e-05,-1.8540065647596e-05,3188226.6650201,0.013452994070768
32791759,0.81659202647444,0.013865314750187,0.0041617765624198,0.0053223057014031,0.0043812324863645,-0.00091748008827649,0.00091431886286717,-9.2881527408429e-06,6.8828879133454e-07,-4.6983015014301e-07,8.7561331505453e-08,-0.00042294833362652,0.00041881062677355,-0.00094128502922459,0.00093840806988443,-0.00093813657073167,0.00095512885959272,-0.00043674807967739,0.00040660186317808,-0.0004234900470835,0.00041826840460609,-0.00094182717705195,0.00093785942946072,-0.00093867802183412,0.00095458089184828,-0.0011012221255,0.0010976922856274,-0.0010986217768536,0.0011026925421016,-0.0011010424660697,0.0010978794476702,-0.0010984414448609,0.0011028793578093,-0.00091682908923055,0.00090068817271826,-0.0009082354074802,0.00089476340473072,-0.00091701320561892,0.000900502435895,-0.00090841915001423,0.00089457858019485,-0.00043620593344788,0.00040714496775906,2.0865765194646e-07,-3.4080769388604e-07,-2.156682113676e-06,2.0293083719451e-06,-0.0013278605796864,0.001327732834338,-0.0012789686548916,0.0012831253148447,-0.0013319461635514,0.0013309609371713,-0.0013311452808009,0.0013290807250904,-0.0013400131027767,0.0013386750224791,-0.0013393535818974,0.0013408060626778,-0.0013400272028577,0.0013383217300284,-0.0013397780264749,0.0013408620945695,-0.0012823268925404,0.0012779173418148,-0.0012801403002102,0.0012839281503722,-0.001331401161764,0.0013332057450811,-0.00132023681424,0.0013209608229006,-0.0012804624955201,0.0012764195692456,3.3764334535888e-06,1.3949098769495e-05,-0.00099262680455673,0.00099546096758234,3.4632362054807e-06,-7.2891469608897e-07,-0.00099754771617342,0.00099958289101978,-0.0010254357522824,0.00099744889738921,-0.0010274420858374,0.0010228010711343,-0.0010141024485363,0.0011011627433012,-0.0009934479813484,0.0010036895606938,-0.0010213300434049,0.0010015519278383,-0.0010233404071875,0.0010269059418627,-0.0010864820557036,0.0010890213006829,-0.0010878786175973,0.0010876231870965,-0.0010866868848292,0.0010842242595915,-0.0010880851217732,0.0010828271059875,-0.0010754290290211,0.0010966235015672,-0.0010667092479586,0.0010721544754247,-0.0010653136738908,0.0010735534216755,-0.0010740296849251,0.0010980198442488,-0.0010182106597831,0.0010970598075801,0.68274153243312,128566,2924,0.0038123713339282,0.0055150860501178,0.004133439482073,28.986175769433,-2.4110593844539e-05,-2.4110593844539e-05,-2.4110593844539e-05,3186998.6144561,0.013552686414372
32991759,0.82367947108132,0.013978789165718,0.004194448850567,0.0053681143783826,0.0044162259367684,-0.00092393911812983,0.00092074079244542,-9.3821163909898e-06,7.110987261455e-07,-4.9406522996109e-07,6.6236243907096e-08,-0.00042434897869326,0.00042059052451904,-0.00094802535090942,0.00094508654827871,-0.00094483142515835,0.00096180668380443,-0.00043845795117581,0.00040806740460554,-0.0004248942966343,0.00042004463915019,-0.00094857023283598,0.00094453519073475,-0.00094537602565925,0.00096125555720794,-0.0011094824698867,0.0011059051886767,-0.0011068505344044,0.0011109640437978,-0.0011093019700342,0.0011060932321794,-0.0011066693369952,0.0011111518760882,-0.00092283558195184,0.00090655085108041,-0.00091410949219432,0.00090059656371572,-0.00092302040518154,0.00090636438176164,-0.00091429436636814,0.00090041057116196,-0.00043791348833441,0.00040861275137975,2.0971796265573e-07,-3.4270331162595e-07,-2.1999684507576e-06,2.0717782706445e-06,-0.001338653773509,0.0013385252171358,-0.0012888994539345,0.0012931400606267,-0.0013426755188174,0.0013416640952537,-0.001341895491543,0.0013397983887249,-0.0013510907868555,0.0013497243261996,-0.0013504135703153,0.0013518946769937,-0.0013511098396841,0.0013493739801492,-0.0013508519916265,0.0013519629560165,-0.0012923209935035,0.0012878254396604,-0.0012902348212707,0.0012941051031388,-0.0013421207966389,0.0013439559552014,-0.0013309747296122,0.0013317237665572,-0.0012904500204561,0.0012863234504717,3.4255597708249e-06,1.4121929225122e-05,-0.0010000016406609,0.0010028725880631,3.5280095872114e-06,-7.5014047665065e-07,-0.0010050786328072,0.0010071130689075,-0.0010335887558461,0.0010050839449862,-0.0010355907599124,0.0010308748112378,-0.0010216128535248,0.0011097560936629,-0.0010008940352023,0.0010113045679198,-0.0010293991100494,0.0010092709361543,-0.0010314046521099,0.0010350640607099,-0.0010947148542446,0.0010973029364897,-0.0010961401535279,0.0010958760774079,-0.0010949189875408,0.0010924477034759,-0.0010963458167241,0.0010910219424225,-0.0010835594386643,0.0011049719091849,-0.0010747879097001,0.0010803128323316,-0.0010733634681194,0.0010817406361353,-0.0010821316503758,0.0011063967000133,-0.0010258046118654,0.001105569633609,0.7139967679314,128566,2924,0.0038391565106796,0.0055597732733579,0.0041641262125639,28.588517972426,-2.729185622059e-05,-2.729185622059e-05,-2.729185622059e-05,3196271.8327556,0.013656249040353
33191759,0.83055309520019,0.014095869766838,0.0042280707970367,0.005415259665414,0.0044525393043868,-0.0009312589139668,0.00092801426534926,-9.4844122235548e-06,7.3608357258099e-07,-5.1652840864702e-07,3.7960855713735e-08,-0.00042632087908349,0.00042290494558983,-0.00095607621379837,0.00095306352995376,-0.00095283667900832,0.00096982321533073,-0.00044074815534812,0.00041009298888272,-0.00042686049299469,0.00042236482764403,-0.00095661541428574,0.00095251783177544,-0.00095337561798751,0.00096927776425984,-0.0011185917318922,0.0011149771163349,-0.0011159278589323,0.0011200950246163,-0.0011184130331964,0.0011151632197985,-0.0011157486321019,0.0011202809155593,-0.0009300610705052,0.00091362670322199,-0.00092120650988795,0.00090763330170096,-0.00093024393232289,0.00091344214860839,-0.00092138942051076,0.00090744926486529,-0.00044020931786128,0.00041063269615996,2.0662014015693e-07,-3.4000396651648e-07,-2.2424807089712e-06,2.1138722585238e-06,-0.001350477225958,0.001350348254617,-0.0013000961499934,0.001304417271077,-0.0013544675184273,0.0013534218082447,-0.0013537039293188,0.0013515839220432,-0.0013630197866414,0.0013616227724624,-0.001362324743871,0.0013638316824507,-0.0013630402413315,0.0013612777277865,-0.0013627740284548,0.0013639147117357,-0.001303582970028,0.0012990060600164,-0.001301578001856,0.0013055326605472,-0.0013539021464752,0.0013557594168495,-0.0013427256809614,0.0013435081569759,-0.0013016994405837,0.0012974876194145,3.4747185646981e-06,1.4307191433263e-05,-0.0010083591664825,0.0010112724332483,3.5920406988042e-06,-7.7092774115161e-07,-0.0010141785441254,0.0010162180732404,-0.0010430884635651,0.0010140714084222,-0.0010450887846323,0.0010402994788779,-0.0010307442318136,0.0011201073700018,-0.0010099108940347,0.001020492603944,-0.0010388157700298,0.0010183414388538,-0.0010408196646188,0.0010445717078422,-0.0011038348894546,0.0011064717821097,-0.0011052884552469,0.0011050166533116,-0.0011040387066918,0.0011015606274993,-0.0011054938061454,0.0011001065912569,-0.0010928579268363,0.0011144816675431,-0.0010840375673939,0.0010896384754753,-0.0010825849056117,0.0010910945618419,-0.0010914018557336,0.0011159347417712,-0.0010350191045829,0.0011158377766492,0.7584844442349,128566,2924,0.00386950548925,0.0056087218710402,0.0041989009147629,28.653425895405,-2.6772592836757e-05,-2.6772592836757e-05,-2.6772592836757e-05,3200332.7805284,0.013771899775211
33391759,0.83738179090954,0.014214213691789,0.0042619912220466,0.0054629355900042,0.0044892868797382,-0.00093930587635672,0.00093601734238865,-9.5877994880279e-06,7.733077478437e-07,-5.3079560930905e-07,1.6689400607348e-08,-0.00042826007907116,0.00042523945553794,-0.00096502467740986,0.0009619489436961,-0.00096173719462394,0.00097875374296875,-0.00044303193265764,0.00041209719997662,-0.00042879253791197,0.00042470656959992,-0.00096555703408941,0.0009614100595603,-0.00096226912236726,0.00097821527807786,-0.0011285388120558,0.0011248835088038,-0.0011258435046856,0.0011300492818141,-0.001128362446553,0.0011250673254871,-0.0011256666993423,0.001130232828457,-0.00093826351423459,0.00092167668159338,-0.00092928241524906,0.0009156179771663,-0.00093844412838092,0.00092149436264082,-0.00092946291039903,0.00091543635554601,-0.00044249975026592,0.00041263019773882,2.0295179013409e-07,-3.3655760937094e-07,-2.2846501620218e-06,2.1557940010157e-06,-0.0013632503954857,0.0013631211758556,-0.0013123871575976,0.0013167881258808,-0.0013672279838015,0.0013661468930686,-0.001366467142412,0.0013643259789358,-0.0013757950080774,0.0013743673596856,-0.0013750828337197,0.00137661523122,-0.0013758150040805,0.0013740265995231,-0.0013755388343268,0.0013767095954794,-0.0013159389628694,0.0013112818787083,-0.0013140054841332,0.0013180445296905,-0.001366654247827,0.0013685323338218,-0.0013554023429447,0.001356219495012,-0.0013140395313555,0.0013097426221736,3.5233407183655e-06,1.4503976874426e-05,-0.0010175155075204,0.0010204739732487,3.6578329458143e-06,-7.8893670597627e-07,-0.0010242615690362,0.0010263100100897,-0.0010534584844969,0.001023921172913,-0.0010554591816655,0.0010506011136959,-0.001040864753412,0.0011315333279615,-0.0010199121370463,0.0010306663537882,-0.0010491036429025,0.0010282732977829,-0.001051108133911,0.0010549552816124,-0.001113819703188,0.0011165043066374,-0.0011153011647045,0.0011150212739573,-0.0011140229406812,0.0011115383851284,-0.0011155060082208,0.0011100563922867,-0.0011030506447064,0.0011249084878449,-0.0010941798218646,0.0010998541658966,-0.0010926993406802,0.0011013381028767,-0.0011015665309993,0.0011263895675882,-0.0010452219881176,0.0011271814203869,0.77139746621392,128566,2924,0.0039028913827002,0.0056615945011766,0.0042369938248617,29.140614031352,-2.2875087749186e-05,-2.2875087749186e-05,-2.2875087749186e-05,3200057.2339811,0.013897988090193
33591759,0.84406471860791,0.014332198081955,0.0042957667117115,0.0055104736210056,0.0045259577492377,-0.00094687088069361,0.0009435407199734,-9.6913172250229e-06,8.0710627344137e-07,-5.4353941020214e-07,1.0853824206117e-09,-0.000429597046743,0.00042699309896722,-0.00097356890982304,0.00097044263266088,-0.00097023462347951,0.00098730093746662,-0.00044472639783875,0.0004135048529596,-0.00043012673318177,0.00042646313812097,-0.00097409836411248,0.00096990661610916,-0.00097076369743672,0.00098676530311112,-0.0011379613962397,0.0011342645812515,-0.0011352351880944,0.0011394746540342,-0.0011377859961732,0.0011344474608398,-0.0011350593506924,0.0011396572829204,-0.00094606050206544,0.00092931688333795,-0.00093695726507011,0.00092317825237878,-0.00094624013664163,0.0009291355415166,-0.00093713685807716,0.0009229975517325,-0.00044419722100676,0.00041403485224304,2.0138781355362e-07,-3.3530969949079e-07,-2.3253325018436e-06,2.1961514727453e-06,-0.0013754962192949,0.0013753666709413,-0.0013242372479177,0.0013287163275644,-0.0013794617501178,0.0013783505634033,-0.00137869710623,0.0013765313959109,-0.0013880014167443,0.0013865455458058,-0.0013872726286863,0.0013888307922743,-0.0013880213865884,0.001386206549763,-0.0013877352657249,0.0013889335955416,-0.0013278533739768,0.0013231174763299,-0.0013259959657837,0.0013301149979831,-0.0013788793432834,0.0013807812327716,-0.001367524550282,0.0013683711501871,-0.001325938559085,0.0013215610145385,3.5731734306408e-06,1.4697491068946e-05,-0.0010261620104429,0.0010291639953671,3.7241827817121e-06,-8.0438969038985e-07,-0.0010339312808536,0.0010359949150949,-0.0010633513559674,0.0010333034338749,-0.0010653508203102,0.0010604307162933,-0.0010505721496395,0.0011425006459262,-0.001029501666018,0.0010404314787684,-0.0010589164272767,0.0010377356005202,-0.0010609196813275,0.0010648649912928,-0.0011232851608035,0.0011260181335718,-0.0011247938818588,0.0011245078380629,-0.0011234893238139,0.0011209986609091,-0.0011249996524216,0.0011194894226356,-0.0011127613698621,0.0011348583221341,-0.0011038291499856,0.0011095780081654,-0.0011023213834057,0.0011110892596573,-0.0011112499923792,0.001136366630395,-0.0010550094933378,0.0011380686847443,0.78538558104818,128566,2924,0.0039342823520528,0.0057122783445963,0.0042729666974761,29.396521099216,-2.0827831206268e-05,-2.0827831206268e-05,-2.0827831206268e-05,3195339.3724202,0.014017699820047
33791759,0.85062047048528,0.014447706451206,0.0043288305828005,0.0055570443623132,0.004561831506092,-0.00095438067566109,0.00095101115085652,-9.7947437256744e-06,8.4082630668029e-07,-5.5793262803064e-07,-9.7588908144226e-09,-0.00043066144429872,0.00042851050600075,-0.00098201840415092,0.00097885187569079,-0.00097863791888747,0.0009957621260401,-0.00044616370966354,0.00041464169896235,-0.00043119458546187,0.00042797707744392,-0.00098255128243497,0.00097831241270755,-0.0009791704374131,0.00099522300546269,-0.0011473437727261,0.0011436048348184,-0.001144587319634,0.0011488579348519,-0.0011471672310377,0.0011437889077204,-0.001144410327896,0.0011490417649943,-0.00095380084441112,0.00093690219795768,-0.00094457779616537,0.00093067787067514,-0.00095398163116765,0.00093671968490492,-0.00094475856238349,0.000930495973914,-0.00044563112417627,0.00041517498133913,2.0277776463616e-07,-3.3724296344422e-07,-2.3654297396446e-06,2.2357274839794e-06,-0.0013876705737032,0.0013875405023179,-0.0013360322870975,0.0013405899905689,-0.0013916328694579,0.0013904978924263,-0.001390867857432,0.0013886718011018,-0.0014001102093261,0.0013986284164563,-0.0013993652476318,0.0014009505513559,-0.0014001318624579,0.0013982888302677,-0.00139983560515,0.0014010588270014,-0.0013397127226123,0.0013348971128866,-0.0013379334153525,0.0013421288892639,-0.0013910422159181,0.0013929733590697,-0.0013795881058062,0.0013804574709209,-0.0013377801622334,0.0013333251708309,3.6235630169681e-06,1.4889648943775e-05,-0.0010347371669561,0.00103778364321,3.7905703634577e-06,-8.1775426439846e-07,-0.0010434702935357,0.0010455529703448,-0.0010731125708659,0.0010425567317259,-0.0010751078633868,0.0010701298501266,-0.0010601586177105,0.0011533071720921,-0.0010389625720765,0.0010500677176578,-0.001068599556135,0.0010470669238225,-0.001070598654781,0.0010746422269783,-0.0011327038132637,0.0011354850668637,-0.0011342391107575,0.001133948173796,-0.0011329096869058,0.0011304122897106,-0.0011344465970387,0.0011288764812687,-0.0011224160572675,0.0011447553571347,-0.0011134170799182,0.001119241562441,-0.0011118827481564,0.0011207794174011,-0.0011208780937653,0.0011462901997559,-0.0010646740429689,0.0011487971994117,0.78367913207223,128566,2924,0.0039654509711384,0.0057626613867348,0.0043086441400926,29.711215344534,-1.8310277243728e-05,-1.8310277243728e-05,-1.8310277243728e-05,3189476.7427419,0.014136596286562
33991759,0.85709864655379,0.014557871645577,0.0043604028846072,0.0056015317935068,0.0045959369674625,-0.00096190754812597,0.00095850175970057,-9.8969291159458e-06,8.728461965148e-07,-5.7505669921829e-07,-1.9441772821717e-08,-0.00043171139408768,0.00043002630604601,-0.00099025428788533,0.00098704989764596,-0.00098682464722527,0.0010039945930622,-0.00044757011983934,0.00041574370184382,-0.00043225181033521,0.00042948560112317,-0.00099079443662586,0.00098650310977862,-0.00098736444426192,0.0010034481471799,-0.0011567775307163,0.0011529952901121,-0.0011539897817892,0.0011582907309486,-0.0011565985665978,0.0011531818450342,-0.0011538103705012,0.0011584770457533,-0.0009613978664024,0.00094434497959397,-0.00095205102430779,0.00093803794375347,-0.00096158111413788,0.00094415999084879,-0.00095223424645249,0.00093785357768665,-0.00044703023698179,0.00041628423881216,2.0614221065697e-07,-3.413428871861e-07,-2.405128768954e-06,2.2747326506564e-06,-0.0013997785909389,0.0013996478208318,-0.0013476520354079,0.0013522886243875,-0.0014037200371933,0.0014025654966299,-0.0014029635543433,0.0014007332240438,-0.0014122072281642,0.0014107009990534,-0.0014114467370096,0.0014130600597893,-0.0014122322360541,0.0014103597931068,-0.0014119250862458,0.001413171347301,-0.0013513966309534,0.0013465007445635,-0.001349709929186,0.0013539793123612,-0.0014031231757028,0.0014050871596303,-0.0013916066106788,0.0013924941328493,-0.0013494501182622,0.0013449198161013,3.6737817731624e-06,1.5080356375173e-05,-0.0010432889914649,0.0010463823774364,3.8583609338977e-06,-8.293610108473e-07,-0.0010526511699202,0.0010547465313771,-0.0010826386650767,0.0010515730202443,-0.0010846241367362,0.0010795844927711,-0.001069380043236,0.0011637012347146,-0.0010480656378539,0.0010593390655958,-0.0010780479081321,0.0010561609128435,-0.0010800372245193,0.0010841745910812,-0.0011421610600449,0.0011449911824187,-0.0011437228206398,0.0011434278199968,-0.00114236742016,0.0011398653226532,-0.0011439307969217,0.0011383030482465,-0.001131981600517,0.0011545737711534,-0.0011229167749491,0.0011288181146315,-0.0011213559934298,0.0011303824430191,-0.0011304171629244,0.0011561350676733,-0.0010739732434073,0.0011591135601061,0.75679231195559,128566,2924,0.0039966951905188,0.005812767276729,0.0043442279221187,30.174077266013,-1.4607381871898e-05,-1.4607381871898e-05,-1.4607381871898e-05,3186993.413493,0.014255208099892
34191759,0.86337256559252,0.014662370460282,0.0043903753984132,0.0056437621842379,0.0046282328776312,-0.00096860092536588,0.00096516307106289,-9.9905299822499e-06,8.9448620144305e-07,-5.9378023066463e-07,-2.9764986302457e-08,-0.00043263057892152,0.00043135114404442,-0.00099747610940215,0.00099423462460127,-0.00099399608783551,0.0010111944864367,-0.00044876375479884,0.00041667085395001,-0.00043317910864125,0.00043080231188692,-0.00099802451501674,0.00099367954400974,-0.00099454409803813,0.001010639795744,-0.0011652369902876,0.0011614124494465,-0.0011624193948558,0.0011667477974781,-0.0011650552873147,0.0011616018176941,-0.0011622372524191,0.0011669369022503,-0.00096798030639859,0.00095078747804714,-0.00095851194242532,0.00094441053780444,-0.0009681663428004,0.00095059966357051,-0.00095869792727232,0.00094422341239011,-0.00044821554554668,0.00041721966215571,2.098356943721e-07,-3.458898229511e-07,-2.4443975208499e-06,2.3131941797145e-06,-0.0014107252727129,0.0014105936946591,-0.001358023941104,0.0013627386360029,-0.0014146045304468,0.0014134313655196,-0.0014138598995741,0.001411594766903,-0.0014232357782557,0.0014217055771475,-0.0014224587804997,0.0014240999483951,-0.0014232649338338,0.0014213630584469,-0.0014229463961727,0.0014242150073079,-0.0013618212731015,0.0013568457031019,-0.0013602495186384,0.0013645914612602,-0.0014140040405471,0.0014160012255169,-0.001402456987188,0.0014033614434424,-0.0013598654349538,0.0013552609037816,3.7242397556015e-06,1.5254483089673e-05,-0.0010509054711945,0.00105404364879,3.9245970664573e-06,-8.4041244117181e-07,-0.0010606455499091,0.0010627809557037,-0.0010910841784944,0.0010595269521247,-0.0010930599679819,0.0010879439930791,-0.0010774008806518,0.0011727873173429,-0.0010559844366171,0.001067449082634,-0.0010864177558416,0.0010641905107772,-0.0010883974416852,0.0010926097256309,-0.0011506439174774,0.0011535220830546,-0.0011522314292652,0.0011519329554951,-0.0011508512030253,0.0011483441815928,-0.0011524403546138,0.0011467561332926,-0.0011404816406008,0.0011633105279089,-0.0011313574499508,0.0011373360603034,-0.0011297709372574,0.0011389261399071,-0.0011388914054929,0.0011648976014842,-0.0010820698089349,0.0011681238965388,0.74153925527397,128566,2924,0.0040244764209679,0.0058580667136765,0.0043759259149613,30.313341155982,-1.3493270752146e-05,-1.3493270752146e-05,-1.3493270752146e-05,3187724.6083093,0.014361502022447
34391759,0.86947710776635,0.01476320219067,0.0044193028071709,0.0056845193031013,0.004659380080398,-0.00097527352996433,0.00097180514804439,-1.0085003256183e-05,9.1429516116863e-07,-6.1251682470566e-07,-4.1346554426074e-08,-0.00043394549747295,0.00043305879662575,-0.0010046177762788,0.0010013396145772,-0.0010010889571157,0.0010183050451183,-0.00045036487983962,0.00041798101201135,-0.00043450105645271,0.00043250295936057,-0.0010051732042028,0.0010007774906647,-0.0010016439806357,0.0010177433062377,-0.0011735940400464,0.0011697267201654,-0.0011707465220984,0.0011751019775779,-0.0011734100323605,0.0011699184734695,-0.0011705620791204,0.0011752934668257,-0.00097447830552133,0.00095715919178799,-0.00096489225019758,0.00095073039352262,-0.00097466669063808,0.00095696900063472,-0.0009650806040906,0.00095054089278141,-0.00044980967185762,0.00041853689395318,2.1295653917917e-07,-3.4988680697695e-07,-2.4833774153147e-06,2.351321696427e-06,-0.0014214829346095,0.0014213505031925,-0.0013681724645689,0.0013729641981697,-0.001425287692007,0.0014240949888944,-0.0014245518309549,0.0014222531671663,-0.0014341092094494,0.001432554825863,-0.0014333156249253,0.0014349839941082,-0.0014341423895702,0.0014322116186406,-0.0014338122540322,0.0014351033428087,-0.0013720176982723,0.0013669633933477,-0.0013705620978999,0.0013749763336254,-0.0014246822256872,0.0014267112143828,-0.0014131224804879,0.0014140447557106,-0.0013700603721533,0.0013653818179503,3.772031729005e-06,1.542126978314e-05,-0.0010584806045666,0.0010616634154557,3.9898793034059e-06,-8.5253344292349e-07,-0.0010685499603005,0.0010707264670317,-0.0010994494253387,0.001067409537014,-0.0011014039650031,0.0010962154841187,-0.0010852949293042,0.0011817188168927,-0.0010638130537188,0.0010754703874891,-0.0010947072471486,0.0010721488630397,-0.001096665675395,0.0011009569702975,-0.0011590426298183,0.0011619670012416,-0.0011606559349235,0.0011603520726583,-0.0011592505016157,0.001156739822576,-0.0011608654530736,0.0011551259728519,-0.0011488799942553,0.0011719315037166,-0.0011397093827876,0.0011457584386719,-0.0011380970815257,0.0011473743359365,-0.0011472639533279,0.0011735443761047,-0.0010900396787108,0.0011769795893941,0.73560443821421,128566,2924,0.0040521685802251,0.0059025842059004,0.0044074508616419,30.547597832277,-1.1619217341781e-05,-1.1619217341781e-05,-1.1619217341781e-05,3192717.2355258,0.014466746967387
34591759,0.87574527004507,0.014870563247651,0.0044500580532069,0.005727852866816,0.0046926523276276,-0.00098401125691102,0.00098051210512597,-1.0183168506318e-05,9.3781620686889e-07,-6.3048748763944e-07,-5.4641983452862e-08,-0.00043712874001243,0.00043666556697496,-0.0010141093487807,0.0010107925071216,-0.0010105328513811,0.0010277711966801,-0.00045386026839574,0.00042118685671705,-0.00043768812892004,0.00043610606349792,-0.0010146695996651,0.0010102254737714,-0.0010110922212243,0.0010272051473152,-0.0011840882943185,0.001180178701591,-0.0011812105546579,0.001185601204401,-0.0011839027795718,0.0011803721065048,-0.0011810247678064,0.0011857941625425,-0.00098322935097874,0.000965776495679,-0.00097352838227627,0.00095930509824557,-0.00098341952457443,0.00096558448024472,-0.00097371815467914,0.00095911433321445,-0.00045329971128332,0.00042174820290391,2.1480777252459e-07,-3.5267904762604e-07,-2.5236674461305e-06,2.3907069272179e-06,-0.0014346245576106,0.0014344912125865,-0.0013807650829779,0.0013856357671749,-0.0014383678193721,0.0014371519521923,-0.0014376339136394,0.0014353035119,-0.0014472970370546,0.001445716626258,-0.0014464857448798,0.0014481813996666,-0.0014473324054777,0.0014453727372279,-0.0014469921679227,0.001448307268396,-0.0013846722341809,0.0013795377044183,-0.0013833193827969,0.0013878088910849,-0.0014377536515959,0.0014398129539853,-0.001426171851999,0.0014271148188277,-0.0013827085021257,0.0013779522463051,3.8167126571589e-06,1.5596498533581e-05,-0.0010683188944672,0.0010715483592784,4.0551574816793e-06,-8.6676539028045e-07,-0.0010791451229346,0.0010813462863141,-0.0011103452420002,0.0010778204579726,-0.0011122873105622,0.0011070266564517,-0.0010958741722613,0.0011934141875346,-0.0010743311263645,0.0010861672753812,-0.0011055249874097,0.001082637934657,-0.0011074714743206,0.0011118456944109,-0.0011696620427667,0.0011726301074377,-0.0011713017491079,0.0011709888040255,-0.0011698671240037,0.0011673546098683,-0.0011715086610888,0.0011657141707055,-0.0011596690071489,0.0011829415295938,-0.0011504620560465,0.0011565723235296,-0.0011488234409649,0.0011582145387739,-0.0011580261866607,0.0011845812153748,-0.0011006976041345,0.001188596216292,0.76226513113056,128566,2924,0.0040884384314616,0.0059569683798905,0.0044483665178137,31.750931323458,-1.9925494123329e-06,-1.9925494123329e-06,-1.9925494123329e-06,3207525.2123524,0.014600244677545
34791759,0.88231493028382,0.014987505209619,0.004483456127018,0.0057750409930132,0.0047290080895878,-0.00099400503795591,0.000990470643294,-1.0286216463276e-05,9.5873618210058e-07,-6.4676309321719e-07,-6.7714388052141e-08,-0.00044074395238291,0.0004407363858315,-0.0010251574115246,0.0010218059317175,-0.0010215322334736,0.0010388133543373,-0.00045781054511889,0.00042483619032583,-0.00044130692533289,0.00044017318551957,-0.0010257206010074,0.0010212359160606,-0.0010220948006521,0.0010382439430131,-0.0011960034034581,0.0011920536745263,-0.0011930961249875,0.0011975200373007,-0.0011958168988522,0.001192248111478,-0.0011929092390738,0.0011977141241008,-0.00099347658076626,0.00097589140165094,-0.00098366669341174,0.00096935022889044,-0.00099366765008985,0.00097569849514235,-0.00098385761212681,0.00096915821273177,-0.00045724737408683,0.00042540011111938,2.1594139696276e-07,-3.5464813003686e-07,-2.5646716038476e-06,2.4309191147707e-06,-0.0014495049323846,0.0014493707886807,-0.0013952145370239,0.0014001649040678,-0.0014532150489799,0.0014519744915753,-0.0014524752247643,0.0014501137109589,-0.0014621038763872,0.001460496711875,-0.0014612750761692,0.0014629979789073,-0.0014621404049932,0.001460151777339,-0.0014617911560633,0.0014631315421106,-0.0013991893429493,0.0013939732528101,-0.0013979330548018,0.0014025004982838,-0.0014525930027971,0.001454681492805,-0.0014409520979803,0.00144191848441,-0.0013972108700861,0.0013923754852761,3.870637409947e-06,1.578512894047e-05,-0.0010795939912644,0.0010828764468657,4.1237568100627e-06,-8.8045391275978e-07,-0.0010915868074563,0.0010938418777792,-0.001122935187146,0.0010898995963072,-0.0011248683500599,0.0011195360735037,-0.0011083495859859,0.0012071235395762,-0.0010866918022756,0.0010987440002531,-0.0011180345667084,0.0010947973757013,-0.0011199718093101,0.0011244358349399,-0.0011817463218455,0.0011847637722536,-0.0011834135221531,0.0011830949619495,-0.0011819513500534,0.0011794337206213,-0.0011836202713457,0.0011777659053648,-0.0011720849101295,0.0011955885765481,-0.0011628321011336,0.0011690153486264,-0.0011611659441983,0.0011706850433108,-0.0011704148392618,0.001197255444557,-0.0011132530978086,0.0012022255862288,0.79180579816203,128566,2924,0.0041299259497462,0.0060185417721775,0.0044952535322706,33.403113596349,1.1224908770796e-05,1.1224908770796e-05,1.1224908770796e-05,3220307.8128278,0.014752411486745
34991759,0.88893950189484,0.01509976290484,0.0045154930624181,0.005820494239229,0.0047637756031924,-0.0010026882252139,0.00099911569464774,-1.0392620062565e-05,9.7740719322233e-07,-6.6196275297247e-07,-8.0607578637934e-08,-0.00044249098415558,0.00044289137030833,-0.0010345615714257,0.001031170194592,-0.0010308835376145,0.0010482055060566,-0.00045988906496833,0.00042658314341023,-0.00044305624817691,0.00044232582825101,-0.0010351269286335,0.0010305979691482,-0.0010314483502508,0.001047633794102,-0.0012067378154542,0.0012027463518512,-0.0012037991868429,0.0012082563952964,-0.0012065505925651,0.001202941558463,-0.0012036115385913,0.0012084512766987,-0.0010022391295724,0.00098450776224422,-0.00099231048164504,0.00097788150081234,-0.0010024309211838,0.00098431412058794,-0.00099250220755225,0.00097768868324391,-0.00045932374573571,0.00042714914473608,2.1677109633583e-07,-3.562137001543e-07,-2.6064438815074e-06,2.4719826687293e-06,-0.0014630884090476,0.0014629535500663,-0.0014082662856776,0.0014132978421168,-0.0014667653169636,0.0014654988350676,-0.0014660267463232,0.0014636345041235,-0.0014756576434318,0.0014740229824849,-0.0014748117547529,0.0014765623594041,-0.0014756965378128,0.001473678758528,-0.00147533538544,0.0014767018639712,-0.0014122997452322,0.0014070009580992,-0.0014111595908646,0.00141580668122,-0.0014661374945569,0.0014682551456358,-0.0014544500208664,0.0014554409611347,-0.0014103106923988,0.0014053942878501,3.9236853326018e-06,1.5979284895123e-05,-0.0010894697219351,0.00109280356814,4.1937374656474e-06,-8.9181100551733e-07,-0.0011021580731705,0.001104433728127,-0.0011337937166051,0.0011002298334845,-0.0011357099206996,0.0011303035010293,-0.0011189604095228,0.0012189483414648,-0.0010971833022746,0.0011094156845927,-0.0011288135041302,0.001105207156464,-0.001130733765029,0.0011352828970732,-0.0011925844224563,0.0011956516938862,-0.0011942787533106,0.0011939557511468,-0.0011927904628886,0.001190267715406,-0.0011944864945459,0.0011885727973173,-0.0011830381870441,0.0012068089176514,-0.0011737303431147,0.0011799911535608,-0.0011720370481243,0.0011816879992534,-0.0011813410383337,0.0012085028386419,-0.00112394347219,0.001213970969058,0.75495090105594,128566,2924,0.004165970942221,0.0060747387042174,0.0045363307864576,34.468199250642,1.9745594005134e-05,1.9745594005134e-05,1.9745594005134e-05,3222205.5032537,0.014887727088486
35191759,0.89549469949805,0.015207918003352,0.0045463736001879,0.0058643359872583,0.0047972084159061,-0.0010107524083672,0.0010071440074304,-1.049465306933e-05,9.8946612205589e-07,-6.7912991251205e-07,-9.5392933569917e-08,-0.00044436126871778,0.00044511001280362,-0.001043146465903,0.0010397102770362,-0.0010394120809437,0.0010567533166609,-0.00046206901434777,0.00042840732014809,-0.00044492782797499,0.00044454331343881,-0.0010437144715878,0.0010391353201213,-0.001039978871293,0.0010561796092144,-0.0012167345905588,0.0012126989100886,-0.0012137627575157,0.0012182548648099,-0.0012165464933507,0.0012128950429063,-0.0012135744706419,0.0012184504260155,-0.0010101532387697,0.0009922767261999,-0.0010001022024807,0.0009855968181886,-0.0010103461780311,0.00099208191392632,-0.0010002943824842,0.0009854035779792,-0.00046150038759104,0.00042897672554101,2.1714272009987e-07,-3.5736244537116e-07,-2.6467212560611e-06,2.5115103474446e-06,-0.0014757867068257,0.0014756510973308,-0.001420307974671,0.0014254178261513,-0.0014793840194093,0.001478091324132,-0.0014786494244315,0.0014762287088344,-0.0014884396072006,0.0014867779798507,-0.0014875767670711,0.0014893538674322,-0.0014884807628956,0.0014864352380993,-0.0014881088276807,0.0014895005375903,-0.0014243956550487,0.0014190177949515,-0.0014233816464095,0.0014281052830364,-0.0014787521732398,0.0014808974674363,-0.0014670634289457,0.0014680783390992,-0.0014224011224745,0.0014174059618339,3.9684359763558e-06,1.6161390762128e-05,-0.0010986464476122,0.0011020266247572,4.264329020028e-06,-9.0829808125028e-07,-0.0011117574873261,0.0011140458053469,-0.0011438022098093,0.0011097379386319,-0.0011457089206321,0.0011402082967684,-0.0011286012702983,0.001229674860908,-0.0011066984526716,0.0011191120462969,-0.0011387364021288,0.0011148008515231,-0.0011406478963903,0.0011452725797154,-0.0012026933123442,0.001205805893672,-0.001204416538132,0.0012040810529574,-0.0012028966357643,0.0012003723596945,-0.0012046218078136,0.0011986483069263,-0.0011931554846704,0.0012171902399087,-0.0011838147898086,0.0011901329729678,-0.0011820927987155,0.0011918584868395,-0.0011914289410123,0.0012189135241337,-0.0011336706519327,0.001224611114958,0.73557131725138,128566,2924,0.0041994378267498,0.0061272742678061,0.0045744968879399,35.265493107603,2.6123944860822e-05,2.6123944860822e-05,2.6123944860822e-05,3229823.0266658,0.015013770603748
35391759,0.90188069874524,0.01531021607803,0.0045755815592474,0.005905864973268,0.0048287695455142,-0.0010181159786377,0.0010144709637895,-1.0586860538409e-05,9.8937884386881e-07,-7.0111658077621e-07,-1.1789797905268e-07,-0.00044604789503818,0.00044705357165391,-0.0010508311941811,0.0010473410630311,-0.001047042982996,0.0010643686210567,-0.00046401173921836,0.00043006433586659,-0.00044661359002374,0.00044648754872157,-0.0010513987555745,0.0010467664842212,-0.0010476091955795,0.0010637954787454,-0.0012259511395853,0.0012218735012895,-0.0012229488821884,0.0012274797220041,-0.0012257631492994,0.0012220695008848,-0.0012227607680404,0.001227675064586,-0.0010171851092304,0.0009991671369744,-0.0010070181706183,0.00099245372174436,-0.0010173779419053,0.00099897244805895,-0.0010072101154074,0.00099226072769361,-0.00046344319970658,0.0004306334288512,2.1658798243131e-07,-3.5749845262449e-07,-2.6886373946257e-06,2.5527456291563e-06,-0.0014875388925408,0.0014874026019486,-0.0014313035887846,0.0014364941833147,-0.0014910282723285,0.0014897067053844,-0.0014903068815663,0.0014878582487946,-0.0015003514858894,0.0014986613075222,-0.0014994698301901,0.0015012738144406,-0.0015003951371105,0.0014983214516198,-0.001500011546157,0.0015014303958762,-0.001435445554355,0.0014299857864197,-0.0014345313247508,0.0014393357400527,-0.0014903927676461,0.0014925647317901,-0.0014787570870914,0.0014797992889618,-0.0014334488003377,0.0014283712608196,4.0127890324413e-06,1.6327981156907e-05,-0.0011070562365677,0.0011104784939278,4.3302987123022e-06,-9.2537640335073e-07,-0.0011203434954574,0.0011226650688988,-0.0011528616087596,0.0011183494295504,-0.0011547652447913,0.0011491652692796,-0.0011372622254847,0.0012392723275464,-0.0011152033996265,0.0011278123959001,-0.0011477144348934,0.0011234937141902,-0.0011496229844686,0.0011543108188402,-0.0012120110261481,0.001215167345398,-0.0012137619086271,0.0012134148567627,-0.0012122126798823,0.0012096828371098,-0.0012139655624046,0.0012079310732599,-0.0012023974762383,0.001226679076313,-0.001193026754545,0.0011994037788533,-0.0011912771412336,0.0012011568821583,-0.0012006431786702,0.0012284301152963,-0.0011424133796769,0.0012341270334984,0.71497358387299,128566,2924,0.0042299853172849,0.0061758951949244,0.0046094720116252,35.835596574331,3.0684772594646e-05,3.0684772594646e-05,3.0684772594646e-05,3239383.6360563,0.01512965189287
35591759,0.90814383338317,0.015405558593958,0.0046028150932423,0.0059446661575118,0.0048580773432038,-0.0010254398902729,0.0010217595737202,-1.0675104684541e-05,9.8395096601599e-07,-7.2493457752484e-07,-1.468465565689e-07,-0.0004480142942576,0.00044924554210744,-0.0010582108653485,0.0010546488148582,-0.0010543714730751,0.0010716580263358,-0.00046625305238024,0.00043202771176383,-0.00044857477021819,0.00044868475119201,-0.001058773519436,0.0010540791376225,-0.0010549325879724,0.0010710899293183,-0.0012351489698498,0.0012310249193951,-0.0012321176500804,0.0012366799682701,-0.0012349626279244,0.0012312192332597,-0.0012319312714702,0.0012368735597946,-0.0010239582609696,0.0010057892693018,-0.0010136774629394,0.00099907593104327,-0.0010241494861065,0.0010055962310041,-0.0010138676241165,0.00099888470350454,-0.00046568925044644,0.00043259203145831,2.1390610475733e-07,-3.5531510222938e-07,-2.7305621344264e-06,2.5941597145332e-06,-0.0014991042025808,0.0014989674042203,-0.0014419667191454,0.0014472368996505,-0.0015024695682794,0.0015011148953405,-0.0015017729250939,0.0014993009025503,-0.0015121564042858,0.001510436304659,-0.0015112558632145,0.0015130854441115,-0.001512201968155,0.001510101747971,-0.0015118067578563,0.0015132544472628,-0.0014461546419758,0.0014406144843749,-0.0014453413583888,0.0014502284058633,-0.0015018308655291,0.0015040253412963,-0.0014902873793146,0.0014913614735457,-0.0014441641810021,0.0014390027980351,4.0546040481805e-06,1.6489594813615e-05,-0.0011154049932194,0.0011188658220124,4.3921902296944e-06,-9.4507666450945e-07,-0.0011285345454081,0.0011308909148484,-0.001161644441759,0.0011266965306312,-0.0011635358258658,0.0011578388972978,-0.0011454979949987,0.001248378411786,-0.0011233148238233,0.0011361178226682,-0.0011564173373506,0.0011319207966913,-0.0011583137750856,0.0011630642267915,-0.0012212839514566,0.0012244819810259,-0.0012230620224879,0.0012227023220812,-0.0012214821148441,0.0012189486603667,-0.0012232622302762,0.0012171696536061,-0.0012114874783148,0.0012360003299867,-0.0012020824786854,0.0012085123154977,-0.0012003057028889,0.0012102925126972,-0.0012097059078719,0.0012377786661037,-0.0011507292920269,0.0012431529874733,0.68077661300622,128566,2924,0.0042603637612489,0.006223744228803,0.0046441849730171,36.579978521756,3.6639828174052e-05,3.6639828174052e-05,3.6639828174052e-05,3255022.0010805,0.015244324958351
35791759,0.91435616783666,0.015505695312506,0.0046313382525332,0.0059853063564111,0.0048890507035613,-0.0010334646148408,0.0010297483673878,-1.0755997181627e-05,9.6163355434607e-07,-7.4531203422802e-07,-1.763958036684e-07,-0.0004511825406611,0.00045268671285818,-0.0010666144606805,0.0010629838891252,-0.0010627338709863,0.0010799959322725,-0.00046970071853012,0.00043524447553565,-0.00045173544221026,0.00045213373255644,-0.0010671677534173,0.0010624235768624,-0.0010632863769884,0.001079436417729,-0.0012449351661336,0.0012407743318897,-0.001241879978203,0.0012464625325144,-0.0012447520244593,0.0012409654680276,-0.0012416965600007,0.0012466531940445,-0.0010315461017043,0.0010132253191552,-0.0010211684512436,0.0010065411396838,-0.0010317339166792,0.0010130357360029,-0.001021355979979,0.0010063525608883,-0.00046914727681876,0.00043579864920801,2.0920078212291e-07,-3.509369852005e-07,-2.7716533105606e-06,2.6349062036543e-06,-0.0015114083233988,0.0015112711790635,-0.0014534801440949,0.0014588267234434,-0.001514661058405,0.0015132702516013,-0.0015139719292208,0.00151148085931,-0.0015246539214326,0.0015229033168126,-0.0015237343308441,0.0015255876427608,-0.0015246997427869,0.001522574852481,-0.0015242960077535,0.0015257737483421,-0.001457714188912,0.0014520961617776,-0.0014569749945628,0.001461945261276,-0.0015140135896707,0.0015162256383329,-0.0015025210873754,0.0015036313837057,-0.001455722851184,0.0014504783240949,4.0962118711427e-06,1.6634018897244e-05,-0.0011245808440018,0.0011280731719143,4.4479417387669e-06,-9.7017902311157e-07,-0.0011381506919449,0.0011405253961891,-0.0011716151718406,0.0011362446628132,-0.0011734918970062,0.0011676997588953,-0.0011550958170316,0.0012587758426857,-0.0011328506094819,0.0011458327176793,-0.0011663093154251,0.0011415476783106,-0.0011681903052069,0.0011730046301272,-0.0012312156933746,0.0012344561362912,-0.0012330208556757,0.0012326494015803,-0.0012314145436002,0.0012288718537898,-0.0012332214869811,0.001227066019582,-0.0012215113365994,0.0012461885466508,-0.0012120414032927,0.0012185219204702,-0.001210237234494,0.0012203294081706,-0.001219703201722,0.0012479934419153,-0.001160404970765,0.0012534725329758,0.72027650907354,128566,2924,0.0042936428125909,0.0062746533277714,0.0046823127733441,37.602133676136,4.4817069409092e-05,4.4817069409092e-05,4.4817069409092e-05,3277067.3731861,0.015368527849406
35991759,0.92028884435043,0.015607354056919,0.0046601716726206,0.0060265039345947,0.0049206784497033,-0.0010402589175985,0.0010365026443753,-1.084176396815e-05,9.4870236474092e-07,-7.5689715186525e-07,-1.9656964880656e-07,-0.00045282562534959,0.00045464653332746,-0.0010741187643226,0.001070440924243,-0.0010701890805604,0.0010874852776666,-0.00047160259605377,0.00043692373740417,-0.00045337002808369,0.00045410209191175,-0.0010746635449493,0.0010698890899966,-0.0010707331297832,0.0010869341856324,-0.0012534027418673,0.0012492076847819,-0.0012503199151475,0.0012549204641156,-0.0012532224819571,0.0012493959726084,-0.0012501393495342,0.0012551082958049,-0.0010382208536974,0.0010197498743006,-0.0010277560858691,0.0010131034402987,-0.0010384058366591,0.0010195631557685,-0.0010279408067272,0.0010129176955331,-0.00047105760720614,0.00043746950478413,2.0478584134618e-07,-3.4671494790216e-07,-2.8104458422873e-06,2.6734791556274e-06,-0.0015224441788394,0.0015223068103524,-0.0014639707930601,0.0014693900467003,-0.0015256070459985,0.0015241817201076,-0.0015248976371139,0.0015223890807768,-0.0015357414661763,0.0015339620225915,-0.0015348046577205,0.0015366806533243,-0.0015357863483523,0.0015336383088394,-0.0015353740912278,0.0015368802327846,-0.0014682493168651,0.0014625581360364,-0.0014675841751136,0.0014726329027405,-0.0015249516261453,0.0015271806335651,-0.0015134210105589,0.001514565373707,-0.0014662542772313,0.0014609308967165,4.1366593820338e-06,1.6790933484939e-05,-0.001132492481976,0.0011360239247406,4.5042591885387e-06,-9.9136710191889e-07,-0.001146988412277,0.0011493284177759,-0.0011805805490832,0.0011447905480828,-0.0011824501186614,0.001176569609267,-0.0011639327236862,0.0012685101799035,-0.0011416122987761,0.0011547118021472,-0.0011751988010863,0.0011501694066418,-0.0011770726836806,0.0011819503599818,-0.0012398200775358,0.0012431009277661,-0.0012416510844859,0.0012412683602594,-0.0012400202382204,0.0012374699580559,-0.0012418530139169,0.0012356383046778,-0.0012303638565101,0.0012551958418344,-0.0012208239178503,0.0012273603818851,-0.0012189938689229,0.0012291936814637,-0.0012285298843773,0.0012570265289232,-0.0011693176771872,0.0012631310224152,0.76500084008374,128566,2924,0.0043218136169637,0.0063203054013495,0.0047152130788623,37.990880062797,4.7927040502377e-05,4.7927040502377e-05,4.7927040502377e-05,3281508.0531282,0.015476911641116
36191759,0.92582409522366,0.015699468690294,0.0046862807125535,0.0060639218569796,0.0049492661207605,-0.0010457170596076,0.0010419185820711,-1.0929744029519e-05,9.3915802067988e-07,-7.6858078620916e-07,-2.119875928434e-07,-0.00045282487651368,0.00045491579440975,-0.0010801063758515,0.001076391550049,-0.0010761290116649,0.0010934631851731,-0.00047187812823156,0.00043687146853285,-0.00045336698546847,0.00045437370222505,-0.0010806469427726,0.0010758438921651,-0.0010766698706598,0.0010929153040971,-0.0012605235103134,0.0012562945353,-0.0012574150774582,0.0012620274898838,-0.0012603446382583,0.0012564814169715,-0.0012572355636646,0.0012622142595918,-0.0010435963996422,0.0010249809735757,-0.0010330474873109,0.0010183564626628,-0.0010437796524507,0.001024795977738,-0.0010332315026945,0.0010181714738638,-0.00047133829085922,0.00043741211267525,2.0254595744103e-07,-3.4470536526097e-07,-2.8464671906219e-06,2.7092607523037e-06,-0.0015319112385082,0.0015317736322969,-0.0014729139952408,0.0014784014550326,-0.0015349931892112,0.0015335400011791,-0.0015342734857821,0.0015317444977998,-0.0015452298300641,0.0015434250175711,-0.0015442784108176,0.0015461765267271,-0.0015452764004419,0.0015431054356917,-0.0015448520109679,0.0015463833965658,-0.001477237240231,0.0014714763849776,-0.0014766674688837,0.0014817882006937,-0.0015343360915244,0.0015365840240373,-0.001522762657373,0.0015239353603885,-0.0014752386866069,0.0014698438004679,4.1823246323077e-06,1.6947653396925e-05,-0.0011389133976615,0.0011424868734329,4.5628022366188e-06,-1.007229587134e-06,-0.0011539521980961,0.0011562914563748,-0.0011878322045295,0.0011516163081265,-0.001189685701236,0.0011837311806446,-0.0011710077624771,0.0012765043856405,-0.0011485017992019,0.0011617491997353,-0.0011823780873969,0.0011570675120687,-0.0011842349718697,0.0011891852970997,-0.0012470161017997,0.0012503390634233,-0.0012488720624698,0.001248481535996,-0.0012472196569562,0.0012446641541306,-0.0012490770605454,0.0012428078918876,-0.0012376690727967,0.0012626449622852,-0.001228047706425,0.0012346353089111,-0.001226192348183,0.0012364938973334,-0.0012358107577685,0.0012644999403743,-0.0011764642391488,0.001271053726543,0.74361145639022,128566,2924,0.004344440868662,0.0063594570945776,0.0047419358334179,37.9739467461,4.7791573968798e-05,4.7791573968798e-05,4.7791573968798e-05,3273771.218593,0.01556680364682
36391759,0.93075529503117,0.015780482037603,0.0047092649030048,0.0060968396622328,0.0049743774723656,-0.0010490168779745,0.0010451790494319,-1.1010231449736e-05,9.1549645158836e-07,-7.8559767337847e-07,-2.2856677297356e-07,-0.00045190859097989,0.0004540741846286,-0.0010837505803964,0.0010800001464663,-0.0010797262262247,0.0010970945229766,-0.00047112794697148,0.00043582393748085,-0.00045244952266094,0.00045353293718937,-0.0010842920278738,0.0010794515852968,-0.0010802669759521,0.0010965466652923,-0.0012651679422351,0.0012609002550674,-0.0012620332387963,0.0012666626810563,-0.0012649887297974,0.0012610874480983,-0.0012618537382339,0.0012668494453618,-0.0010466888638891,0.0010279480084857,-0.001036075582682,0.0010213439334316,-0.0010468728054158,0.0010277623622062,-0.0010362591985169,0.0010211592876922,-0.00047058624120937,0.00043636639220168,2.0272123081273e-07,-3.4526605117749e-07,-2.8796877718633e-06,2.7421000322912e-06,-0.0015385332076372,0.0015383952066339,-0.0014790164236613,0.0014845689611482,-0.0015415181078221,0.0015400427252657,-0.0015407943381314,0.0015382427288719,-0.0015519503687773,0.001550123267676,-0.0015509841599862,0.0015529042691503,-0.0015519997847572,0.0015498063627332,-0.0015515639005377,0.0015531164560061,-0.0014833855165773,0.0014775597802012,-0.0014829134558935,0.0014880977691371,-0.0015408592198023,0.001543129940958,-0.0015292650452092,0.0015304581432294,-0.0014813894069946,0.001475929177332,4.2206853348435e-06,1.7079049833692e-05,-0.0011429348280681,0.0011465422896234,4.6147875269607e-06,-1.0195476170137e-06,-0.0011582492814184,0.0011605667786908,-0.0011925017469152,0.0011559302597152,-0.0011943406741726,0.0011883072236428,-0.00117540202531,0.0012816588863508,-0.0011527372658866,0.0011660862125023,-0.0011869841330216,0.0011614449328743,-0.0011888275116073,0.0011938237820734,-0.001251702936876,0.0012550595855732,-0.0012535801643618,0.0012531807998144,-0.0012519078622099,0.0012493491620428,-0.0012537868656739,0.0012474713005368,-0.0012423790974795,0.0012674636423928,-0.0012326727128126,0.0012393272828517,-0.0012307964375889,0.0012412067144444,-0.0012404988587456,0.0012693405452399,-0.0011809228814385,0.0012761437806057,0.73413663546345,128566,2924,0.0043580989008704,0.0063868401486787,0.0047586910588851,37.086585610857,4.0692684886854e-05,4.0692684886854e-05,4.0692684886854e-05,3262952.8040362,0.015625513846798
36591759,0.9352155470713,0.015849377115989,0.0047288626607057,0.0061248948910506,0.0049956195642322,-0.0010520898057652,0.0010482183108859,-1.1075092984513e-05,8.90366204635e-07,-8.0438342531248e-07,-2.4426471068848e-07,-0.00045129613569591,0.00045345708656807,-0.0010869016952927,0.0010831205295604,-0.0010828364390514,0.0011002211670956,-0.00047066121051666,0.00043511569942116,-0.00045184081079533,0.00045291215516946,-0.0010874459370166,0.0010825691523047,-0.0010833804422265,0.0010996700040162,-0.0012694980243022,0.001265195387298,-0.0012663419192813,0.0012709816653294,-0.0012693178531321,0.0012653835261769,-0.0012661613146565,0.0012711695411995,-0.0010494168436612,0.0010305690759694,-0.0010387406280427,0.0010239783655157,-0.0010496016040848,0.0010303826351121,-0.0010389255445272,0.0010237924362924,-0.0004701171314184,0.0004356604975034,2.0399189410548e-07,-3.4707502107279e-07,-2.9095459534076e-06,2.77145192797e-06,-0.001544538955828,0.0015444004420963,-0.0014844268474708,0.0014900376567652,-0.0015474275068574,0.0015459351567935,-0.0015467097619329,0.001544134653871,-0.0015581098888042,0.0015562636699458,-0.0015571304116729,0.001559070644676,-0.0015581634772778,0.0015559487516087,-0.0015577163608479,0.001559287178924,-0.0014888326980962,0.0014829471963646,-0.0014884616510129,0.0014937026631022,-0.0015467677556312,0.0015490604133422,-0.0015351937035417,0.0015364031909606,-0.0014868409979962,0.001481323537929,4.256732800332e-06,1.7190155697465e-05,-0.0011466311377615,0.0011502651795236,4.6612985076118e-06,-1.0323333098989e-06,-0.0011618450470463,0.0011641550635787,-0.0011965737080639,0.0011596844946973,-0.0011984028269144,0.0011922915294807,-0.0011790842848188,0.0012860082293634,-0.0011562742113224,0.0011697333112344,-0.0011909983360925,0.0011652569726744,-0.0011928313418403,0.0011978664166044,-0.0012560418199934,0.0012594308335237,-0.0012579388921846,0.0012575322104902,-0.0012562497161745,0.0012536865878418,-0.0012581483930898,0.0012517890494017,-0.0012466368999325,0.001271797989448,-0.0012368587635255,0.0012435656377134,-0.0012349624325102,0.0012454650556573,-0.0012447371588896,0.0012736944068134,-0.0011846625505336,0.0012804357485783,0.6911487775233,128566,2924,0.0043708196585968,0.006411675789648,0.0047740814147222,36.437930643863,3.5503445150901e-05,3.5503445150901e-05,3.5503445150901e-05,3257889.0908105,0.015679301232552
36791759,0.93938944642861,0.015911970293324,0.0047466941578844,0.006150400179978,0.005014875955462,-0.0010559406960424,0.0010520449360304,-1.1128929887179e-05,8.6340402104966e-07,-8.2171326231397e-07,-2.578192427934e-07,-0.00045226961113164,0.00045439333436712,-0.0010907240499763,0.0010869297973872,-0.0010866228453137,0.0011040284362868,-0.00047174736320353,0.00043603307020763,-0.00045281787705785,0.00045384478673893,-0.001091272013796,0.0010863746818679,-0.0010871705021513,0.0011034735692388,-0.0012745030712643,0.0012701643378904,-0.0012713263432314,0.0012759701421722,-0.001274321625134,0.0012703537415938,-0.0012711444951051,0.0012761592660082,-0.0010528107116718,0.0010338612941325,-0.0010420624868141,0.001027316276318,-0.0010529967894418,0.001033673548143,-0.0010422486340746,0.0010271291284802,-0.00047119948746153,0.00043658186310892,2.0555786070896e-07,-3.4925756106616e-07,-2.9363497137461e-06,2.7976713777517e-06,-0.0015510745961775,0.001550935492829,-0.0014903148125529,0.0014959782620577,-0.0015538667122326,0.0015523597379418,-0.0015531461457529,0.0015505491476368,-0.0015648699817561,0.0015630067421325,-0.0015638780103251,0.0015658365749984,-0.0015649266002812,0.0015626923961809,-0.0015644713211638,0.0015660579604671,-0.0014947500784845,0.0014888108537433,-0.0014944582540007,0.0014997493315575,-0.0015532040739332,0.0015555174996472,-0.0015416630484812,0.0015428858644511,-0.0014927592238329,0.0014871904496672,4.2847236124202e-06,1.7282804686209e-05,-0.0011511192730309,0.0011547723905118,4.6993418296675e-06,-1.047245460158e-06,-0.0011661652123891,0.001168474510505,-0.0012013456822444,0.0011642043687186,-0.0012031789571093,0.0011969803394927,-0.0011834544963267,0.0012908917163056,-0.0011605426074513,0.0011741045754494,-0.0011957184561068,0.0011698287297282,-0.001197555703229,0.0012026070100599,-0.0012610910080628,0.001264504252028,-0.0012630057224923,0.0012625879945834,-0.0012612991550172,0.0012587312530533,-0.0012632154966482,0.0012568160467248,-0.0012515850421987,0.0012768028819002,-0.0012417671418668,0.001248508922656,-0.0012398531838224,0.0012504259170016,-0.001249667618266,0.0012787169904748,-0.0011890847054855,0.0012852672707652,0.67162772296512,128566,2924,0.0043867766496312,0.0064387107110476,0.0047927385502403,36.394453561475,3.5155628491801e-05,3.5155628491801e-05,3.5155628491801e-05,3268083.94501,0.015741928630565
36991759,0.94335871885437,0.015975060802908,0.0047646264167618,0.006176032148818,0.0050344022373283,-0.0010603054319828,0.0010563886116666,-1.1175586631378e-05,8.3107892274181e-07,-8.3402366262518e-07,-2.6523491718549e-07,-0.00045410010686317,0.00045622619114082,-0.0010952700371253,0.0010915005060473,-0.0010911398796899,0.0011085964792325,-0.00047367118557292,0.0004378401132621,-0.00045465261601417,0.00045567335085159,-0.0010958228788893,0.0010909404384662,-0.0010916920983291,0.0011080369376387,-0.0012799315218081,0.0012755577422367,-0.0012767329326708,0.0012813743699352,-0.0012797482812544,0.0012757488402737,-0.0012765489480721,0.0012815650951665,-0.0010568468122778,0.0010377954936777,-0.0010460369566693,0.0010312889081835,-0.0010570346826722,0.0010376059617642,-0.0010462246089001,0.0010311002671713,-0.00047311809725929,0.00043839421255281,2.0761500243369e-07,-3.5206777286777e-07,-2.9608988988944e-06,2.8215257358621e-06,-0.0015580755592999,0.001557935749317,-0.0014967757555227,0.001502487712718,-0.0015607882352044,0.0015592690297393,-0.0015600320495051,0.0015574135486181,-0.0015720504308588,0.0015701719635937,-0.0015710462282684,0.0015730219185733,-0.0015721073603807,0.001569854730914,-0.0015716476048067,0.0015732480059713,-0.0015012358628783,0.0014952470403975,-0.0015010001204576,0.0015063361454397,-0.0015601189410106,0.0015624525857283,-0.0015485678150327,0.0015498011170666,-0.0014992475768254,0.0014936321932702,4.3135316997029e-06,1.736162785347e-05,-0.0011562014735412,0.0011598679337839,4.7306163160644e-06,-1.0646379922885e-06,-0.0011714653633819,0.0011737805382,-0.0012069109400309,0.0011695453638228,-0.0012087481542685,0.0012024705754092,-0.0011887987150847,0.001296667909904,-0.0011657955677119,0.0011794578751308,-0.0012012359574995,0.0011752174690235,-0.0012030774374099,0.0012081447512927,-0.0012666063190982,0.001270044583401,-0.0012685372211638,0.0012681121527735,-0.0012668186065496,0.0012642453072386,-0.0012687512215949,0.0012623138371146,-0.0012571627626684,0.0012824095009331,-0.0012472969093843,0.0012540789296918,-0.0012453668447959,0.0012560120068889,-0.0012552289780279,0.0012843399515641,-0.0011944769805138,0.0012909953881646,0.71099831298319,128566,2924,0.0044048689034341,0.0064676730152257,0.0048138467972607,36.657641768045,3.7261134144359e-05,3.7261134144359e-05,3.7261134144359e-05,3282386.7004699,0.015811174799484
37191759,0.9472319615023,0.016040426056231,0.0047831434145827,0.0062025385259769,0.0050547441156719,-0.0010655660557953,0.0010616255336486,-1.1235226357477e-05,8.1201220924039e-07,-8.4420438724582e-07,-2.6834521706542e-07,-0.00045598533107378,0.00045818704248389,-0.0011010198929299,0.0010972766649781,-0.0010968564399011,0.0011143940207053,-0.0004757121542237,0.00043971712157656,-0.00045654513278687,0.00045762690318418,-0.0011015794762361,0.001096709787058,-0.0010974157067617,0.0011138274070058,-0.0012863584542784,0.0012819568877542,-0.001283135021633,0.0012877872099994,-0.0012861727245486,0.001282150315417,-0.0012829488464044,0.001287980344207,-0.0010620928616926,0.0010429241407503,-0.0010512109143314,0.0010364644947302,-0.0010622829313822,0.0010427323657353,-0.0010514010558133,0.0010362733765325,-0.00047515261818697,0.00044027768410643,2.1070976064245e-07,-3.5591069015931e-07,-2.9847424027241e-06,2.8446763520718e-06,-0.0015662337358562,0.0015660932293844,-0.0015045411751814,0.0015103006731787,-0.0015688906012401,0.0015673619506736,-0.0015680969215123,0.0015654550992612,-0.0015802379794482,0.0015783455194227,-0.0015792225687968,0.0015812155307423,-0.001580296445743,0.001578025083287,-0.001579831267221,0.0015814443650029,-0.0015090334520391,0.0015029954555743,-0.0015088674122675,0.0015142465862216,-0.0015682150205666,0.0015705703262988,-0.0015566104405679,0.0015578519985363,-0.0015070411576338,0.0015013814943695,4.3421352816168e-06,1.7460408006697e-05,-0.001162295139922,0.0011659825098207,4.7654362620792e-06,-1.0769047375648e-06,-0.0011781545158133,0.0011804680425551,-0.0012137287416434,0.0011761003700297,-0.0012155676475844,0.0012092236476963,-0.0011955624702727,0.0013040524370069,-0.0011724382689056,0.0011861919128333,-0.0012080078318662,0.0011818183848319,-0.0012098507381069,0.0012149440384044,-0.0012731504129199,0.0012766147143146,-0.0012750970617833,0.0012746665353087,-0.001273365394286,0.0012707923826118,-0.0012753136740871,0.0012688452573257,-0.0012639085170371,0.0012891693155863,-0.0012539952705208,0.0012608171040801,-0.0012520494031888,0.0012627660047277,-0.0012619591683783,0.0012911153104416,-0.001201286431065,0.0012983342724503,0.75399799081283,128566,2924,0.004426690112969,0.0065014144272681,0.004839164122821,37.435338571955,4.3482708575642e-05,4.3482708575642e-05,4.3482708575642e-05,3290473.9088821,0.015893347738804
37391759,0.95093368559536,0.016100169953448,0.0048000607719376,0.0062268390663832,0.0050732701151272,-0.0010698566915677,0.001065888756853,-1.1298050775133e-05,7.9585703916985e-07,-8.5620437926498e-07,-2.7359189826437e-07,-0.00045623152502697,0.00045849062267697,-0.0011056470327215,0.0011019009841914,-0.0011014469565749,0.0011190492346269,-0.00047611269586245,0.00043991310296474,-0.00045679823937453,0.00045792365407727,-0.0011062131076221,0.0011013275777092,-0.0011020129860643,0.0011184758945548,-0.0012918996418049,0.0012874701840003,-0.0012886534895371,0.0012933196795997,-0.0012917116802408,0.0012876658306764,-0.0012884650132069,0.00129351509964,-0.0010663753093938,0.0010470955938351,-0.0010554220935467,0.0010406496922288,-0.0010665674888786,0.0010469016572849,-0.001055614595882,0.0010404562463234,-0.00047554689271907,0.00044048008067642,2.1372717336344e-07,-3.5957335162066e-07,-3.0077873342173e-06,2.8671130243013e-06,-0.0015733836128632,0.0015732425021061,-0.0015112816794028,0.0015170872371772,-0.0015759931180227,0.0015744553887102,-0.0015751895113719,0.0015725252591187,-0.0015873807759641,0.00158547480536,-0.0015863556433041,0.0015883653746244,-0.0015874431282105,0.0015851537289277,-0.0015869693211192,0.0015885948054543,-0.0015158040136735,0.0015097185198531,-0.0015157314554213,0.0015211524523438,-0.001575316412836,0.0015776927314893,-0.0015636728456894,0.0015649224630124,-0.0015138071973757,0.0015081046976893,4.3734712411164e-06,1.7566581133485e-05,-0.0011673257680856,0.0011710366781331,4.8040870802268e-06,-1.084078167308e-06,-0.0011834688010945,0.0011858047477041,-0.0012193060232716,0.0011813882735488,-0.0012211412837448,0.0012147351479297,-0.0012009925190682,0.0013102011087207,-0.0011777074454959,0.0011915738021901,-0.0012135403943471,0.0011871510107542,-0.0012153794776347,0.001220500490793,-0.0012787475494446,0.0012822391350191,-0.0012807095080537,0.0012802756349574,-0.0012789657511383,0.0012763930866677,-0.0012809292762836,0.0012744307227308,-0.0012695797255267,0.0012948574544053,-0.0012596167399812,0.0012664831937549,-0.0012576554988761,0.0012684475125755,-0.0012676151872677,0.0012968186212128,-0.0012067610526749,0.0013044383551965,0.72209868173214,128566,2924,0.0044444879698584,0.0065309761252008,0.0048600781026535,37.881984552816,4.7055876422529e-05,4.7055876422529e-05,4.7055876422529e-05,3286691.8268075,0.015962722414892
37591759,0.95439221369741,0.016153724689119,0.0048152458839566,0.0062486585334107,0.0050898202717516,-0.0010731714692939,0.0010691784748871,-1.1347628283561e-05,7.6128646620806e-07,-8.7238108392628e-07,-2.8485849235801e-07,-0.0004564537852579,0.0004586137873911,-0.0011090970745956,0.0011053404695363,-0.0011048690878995,0.0011225135111068,-0.00047642888631078,0.00044009885364181,-0.0004570247398508,0.00045804254745629,-0.0011096681534444,0.0011047620359608,-0.0011054397084347,0.0011219355139222,-0.0012962761246819,0.0012918219964486,-0.0012930126160741,0.0012976884006361,-0.0012960864564904,0.0012920193468299,-0.001292822564884,0.0012978853928898,-0.0010694874011359,0.0010501154204474,-0.0010584762488926,0.0010436893758506,-0.0010696814329529,0.0010499196504853,-0.0010586701544697,0.0010434944930197,-0.00047585772001609,0.00044067124497947,2.1585708024031e-07,-3.6232055623613e-07,-3.0298829381346e-06,2.8886270658126e-06,-0.0015791529272049,0.001579011229144,-0.0015165882758585,0.0015224378135202,-0.0015816964693115,0.0015801482049261,-0.0015808910311251,0.0015782070655149,-0.001593243931305,0.0015913244026736,-0.0015922082306476,0.0015942335928093,-0.0015933103595637,0.0015910042966777,-0.0015928277014993,0.0015944654300804,-0.0015211385788812,0.001515008358908,-0.0015211590069278,0.0015266203089233,-0.0015810166040553,0.001583411867323,-0.0015693635476905,0.0015706220898332,-0.0015191404726553,0.0015133960896529,4.4003252326918e-06,1.7643855574764e-05,-0.0011712480837498,0.0011749678721628,4.8357361766539e-06,-1.0958263957533e-06,-0.0011874318313277,0.0011897689128135,-0.0012235967757036,0.0011854411205091,-0.0012254255954341,0.0012189557634889,-0.0012050219651892,0.0013147803960778,-0.0011816285697636,0.0011955798967712,-0.0012177884602787,0.0011912465452321,-0.0012196215267067,0.0012247633620379,-0.0012831747489785,0.0012866900615883,-0.0012851511109835,0.0012847121625674,-0.001283397532706,0.0012808216920919,-0.0012853755959378,0.0012788447879006,-0.0012739889334351,0.0012992437811588,-0.0012639766151893,0.0012708840781339,-0.0012620011213997,0.001272862636794,-0.0012720097310443,0.0013012195949958,-0.0012108335741098,0.0013089745407491,0.6934580054182,128566,2924,0.0044582259692307,0.0065548317004839,0.0048763654065685,37.934446746336,4.7475573970686e-05,4.7475573970686e-05,4.7475573970686e-05,3287116.2961018,0.016017475423881
37791759,0.9575342391643,0.016200656842135,0.0048285657037779,0.0062678074800659,0.0051042836582911,-0.0010752260794551,0.0010712086331125,-1.1390352537194e-05,7.2132515348711e-07,-8.9002201675026e-07,-3.0026171760877e-07,-0.00045639950800971,0.00045837242533574,-0.0011111146480632,0.0011073527138248,-0.0011068636074167,0.0011245341498019,-0.0004764383187049,0.00043999415399811,-0.00045697202643463,0.00045779960551016,-0.0011116881141891,0.0011067718698208,-0.0011074361922143,0.0011239541458737,-0.001299181717654,0.0012947035763841,-0.0012959017129503,0.001300587305276,-0.0012989911662339,0.0012949017420821,-0.0012957109674399,0.0013007849787241,-0.0010711955663905,0.0010517336252711,-0.0010601286438633,0.0010453571779441,-0.001071390552322,0.0010515369098379,-0.0010603230925344,0.0010451617332756,-0.00047586436912389,0.00044056939202171,2.1672555541575e-07,-3.6373693140198e-07,-3.049842770692e-06,2.9080635310655e-06,-0.0015832103834555,0.0015830681547661,-0.0015201534853028,0.0015260420718485,-0.001585679438898,0.0015841195696318,-0.0015848652389576,0.0015821655657289,-0.0015974765387639,0.001595544063453,-0.0015964304562245,0.0015984692444648,-0.0015975460071278,0.001595225610948,-0.0015970564798007,0.0015987059683351,-0.0015247268376059,0.0015185569479326,-0.0015248234992932,0.0015303218855544,-0.0015849936381862,0.0015874039172437,-0.0015733545901563,0.0015746232467215,-0.0015227309872286,0.0015169480424673,4.422012519655e-06,1.7701727782776e-05,-0.0011737691161504,0.0011774913910745,4.8609292269463e-06,-1.1102617027049e-06,-0.0011898064812746,0.001192141498433,-0.0012263235541703,0.0011879874586483,-0.0012281479623143,0.0012216131329181,-0.0012074457513219,0.0013175879964546,-0.0011839650670548,0.0011979906555786,-0.0012204762538734,0.001193831875349,-0.0012223053097686,0.0012274593292771,-0.001286110175723,0.0012896444257444,-0.0012880996784738,0.0012876533913618,-0.0012863366907765,0.0012837561700431,-0.0012883280287689,0.0012817659927869,-0.0012768438427733,0.0013020680919631,-0.0012667909817515,0.0012737267636232,-0.0012648024677642,0.0012757183257424,-0.0012748512295859,0.0013040572786644,-0.0012132968588545,0.0013117426532569,0.66962302644644,128566,2924,0.0044667198576646,0.0065716113578498,0.0048868291088088,37.460406210193,4.3683249681541e-05,4.3683249681541e-05,4.3683249681541e-05,3288964.9528635,0.016053792906267
37991759,0.96030923937708,0.016243387664721,0.004840683952561,0.006285208252368,0.0051174954597924,-0.0010760364868685,0.0010719968182701,-1.143185998231e-05,6.8549149326984e-07,-9.0355027160773e-07,-3.1256282200328e-07,-0.00045600808460368,0.00045787920615444,-0.001111904347693,0.0011081485294536,-0.0011076292793987,0.001125338714973,-0.00047611059936871,0.00043958240330057,-0.00045658801274852,0.00045729887902363,-0.0011124771056263,0.001107568391631,-0.0011082049294487,0.0011247555767037,-0.0013005923473137,0.0012960881863711,-0.0012972951469127,0.0013019842390109,-0.0013004019580647,0.0012962861285208,-0.0012971033383695,0.001302182970944,-0.0010716497415611,0.0010520890658639,-0.0010605257288636,0.0010458112404785,-0.0010718432525981,0.0010518938593434,-0.0010607224878009,0.0010456134636504,-0.00047554168761214,0.00044015254952888,2.1672013880935e-07,-3.6419829201985e-07,-3.0674087884513e-06,2.9251799615914e-06,-0.0015856023588694,0.001585459674438,-0.0015221305947589,0.0015280509043977,-0.0015880022287899,0.0015864326967671,-0.0015871634798052,0.0015844494352521,-0.0016000661937779,0.0015981225323697,-0.0015990110311799,0.001601060429491,-0.0016001374022875,0.0015978042122767,-0.0015996434052463,0.0016013044440198,-0.0015267223470049,0.0015205158894572,-0.0015268639835709,0.0015323977091307,-0.0015873117501919,0.0015897316488247,-0.0015756742930407,0.001576955513862,-0.0015247277653033,0.0015189125176676,4.4365040836276e-06,1.7746708964247e-05,-0.0011749358758117,0.0011786573382924,4.8790802640288e-06,-1.1258526607423e-06,-0.0011909483363764,0.0011932684911881,-0.0012276987106722,0.0011892384287327,-0.0012295269482553,0.0012229287737299,-0.0012086011398119,0.0013189562133223,-0.0011850676959773,0.001199156955732,-0.0012218203786831,0.0011951138617249,-0.0012236492848703,0.0012288100006003,-0.0012875479069931,0.0012910960298342,-0.0012895492988699,0.0012890931069538,-0.0012877768073707,0.0012851942054017,-0.0012897787644916,0.0012831934188675,-0.0012782451498609,0.001303447233286,-0.0012681596991136,0.0012751083288256,-0.0012661580048277,0.0012771130487366,-0.0012762432086067,0.0013054457093773,-0.0012144790823696,0.0013130841435859,0.68978729271792,128566,2924,0.0044700411755163,0.0065815065865253,0.0048916710420424,36.424089122289,3.539271297831e-05,3.539271297831e-05,3.539271297831e-05,3288965.8952639,0.016072144714128
38191759,0.96283458586351,0.016282635573041,0.0048518103134729,0.0063011802875776,0.0051296449719902,-0.0010774704908211,0.0010734118703485,-1.1467421042962e-05,6.5449850285507e-07,-9.1096683254818e-07,-3.1710643769053e-07,-0.00045587782690829,0.00045772376931482,-0.0011134022869463,0.0011096733748748,-0.0011091132569549,0.0011268628015382,-0.00047604807072411,0.00043941853027241,-0.0004564518205048,0.00045715015455107,-0.0011139806440797,0.0011090876489748,-0.0011096888867924,0.0011262798305686,-0.0013026679986414,0.0012981447310698,-0.0012993578565623,0.0013040299211693,-0.0013024756313621,0.0012983445899548,-0.0012991660200069,0.0013042286544714,-0.0010728472612075,0.0010532140166232,-0.001061688444054,0.0010470015555722,-0.0010730446531444,0.0010530149416158,-0.0010618832370209,0.0010468057630227,-0.00047546717990301,0.00044000083404746,2.1820822093619e-07,-3.6614977576436e-07,-3.0829663485649e-06,2.940265424597e-06,-0.0015886352592686,0.0015884921238085,-0.0015248174352182,0.0015307709270168,-0.001590996811616,0.0015894170040216,-0.0015901241729493,0.0015873990345293,-0.0016032181125992,0.0016012639563441,-0.0016021541779614,0.0016042153690434,-0.0016032894310476,0.0016009453446071,-0.0016027918531941,0.0016044605148662,-0.0015294264568641,0.0015231912913537,-0.0015296232837349,0.0015351824997483,-0.0015902981841193,0.0015927341458307,-0.0015786492024567,0.0015799338880454,-0.0015274348789855,0.0015215873613894,4.4609185929929e-06,1.7789848720981e-05,-0.0011767582860476,0.0011804869979908,4.8988554724851e-06,-1.1377709669198e-06,-0.0011928485065671,0.0011951934084029,-0.0012297899518416,0.0011911678429455,-0.0012316068344434,0.0012249672577283,-0.0012105558318696,0.0013211724422477,-0.0011869461138615,0.0012011036782145,-0.001223877539284,0.0011970773651351,-0.0012257012726612,0.0012308757854672,-0.0012896436063437,0.0012932112024832,-0.0012916545751586,0.0012911987069364,-0.0012898796561152,0.0012872935615252,-0.001291893125655,0.0012852812636857,-0.0012803801207894,0.0013055469830337,-0.0012702354976373,0.0012772233855655,-0.0012682262059492,0.0012792356786866,-0.0012783646570197,0.0013075589599048,-0.001216474093855,0.0013152597106404,0.69608026197824,128566,2924,0.0044759653394706,0.0065940495015966,0.0048992476450131,35.891836925365,3.1134695402917e-05,3.1134695402917e-05,3.1134695402917e-05,3288245.2829575,0.016098612385124
38391759,0.96556117306589,0.016327069638477,0.0048643898845883,0.0063192207857187,0.0051434589681697,-0.0010848616263103,0.0010807927278645,-1.1510353169564e-05,6.5453506316616e-07,-9.1427456571952e-07,-3.1165539507259e-07,-0.00046039754053391,0.0004624309660573,-0.0011212486121529,0.0011175454920108,-0.0011169362259993,0.0011347524176948,-0.0004806856561703,0.0004439271018061,-0.00046098317312051,0.00046184587568967,-0.001121834600392,0.0011169520528893,-0.0011175213181111,0.0011341599826635,-0.0013110955222517,0.0013065420374983,-0.001307770601421,0.0013124289623303,-0.0013109005096569,0.0013067445188472,-0.0013075755393314,0.0013126309183489,-0.0010803251353494,0.0010606160446217,-0.0010691146272742,0.0010544631384789,-0.0010805244951142,0.0010604149943862,-0.0010693132948268,0.0010542634760988,-0.00048009906375776,0.00044451498740873,2.2211397637299e-07,-3.7081265961352e-07,-3.100730836238e-06,2.9573179261157e-06,-0.0015984512262216,0.0015983073771135,-0.0015343147933705,0.0015403035379303,-0.0016007929877632,0.0015992102164079,-0.0015998957225645,0.0015971488573284,-0.001613015839786,0.0016110525291649,-0.001611944119205,0.0016140187605868,-0.0016130902576065,0.0016107307051001,-0.001612586186872,0.0016142631700192,-0.001538950034164,0.0015326763115534,-0.0015391913901793,0.001544782004546,-0.0016000912637992,0.0016025455573321,-0.0015884037624553,0.0015896918424854,-0.0015369502815841,0.0015310716606588,4.4800582168088e-06,1.7862081869308e-05,-0.0011850196289805,0.0011887696064048,4.9239914057124e-06,-1.1473534375441e-06,-0.0012017003576169,0.0012040449420998,-0.0012386693864312,0.0011998487834927,-0.001240485843947,0.0012337972361973,-0.0012194705190371,0.0013305216801022,-0.001195761185897,0.0012099920661253,-0.0012327240666572,0.0012057912141133,-0.0012345452488629,0.0012397406383238,-0.0012982633059317,0.0013018486023253,-0.0013002861463914,0.001299824231622,-0.0012985000183649,0.0012959163779246,-0.0013005247510737,0.0012938928237932,-0.0012892298285952,0.0013144085915201,-0.0012790555377538,0.001286068004713,-0.0012770336618576,0.0012880928622415,-0.0012872038022314,0.0013164311280082,-0.0012254199823124,0.0013245781163419,0.72890351166997,128566,2924,0.0045066546186665,0.0066346465483386,0.0049335469639717,38.580017664214,5.264014131371e-05,5.264014131371e-05,5.264014131371e-05,3316063.454696,0.016205914877852
38591759,0.96824470653973,0.016371511949375,0.0048769235170884,0.006337288045369,0.0051573003869175,-0.001089429404921,0.0010853410176057,-1.1562395519736e-05,6.4337580406691e-07,-9.1971298224278e-07,-3.0810976879377e-07,-0.0004617065642155,0.00046384829815725,-0.0011262011015569,0.001122523099451,-0.0011218634076716,0.0011397580390375,-0.00048212342546011,0.00044516165698539,-0.00046230080182522,0.00046325477147865,-0.0011267959619226,0.0011219207311058,-0.0011224571374518,0.0011391569310285,-0.0013166808677671,0.0013120872410394,-0.001313339114849,0.0013179900511989,-0.0013164827507442,0.0013122927764472,-0.0013131410928189,0.0013181949625272,-0.0010849830259638,0.0010651911086666,-0.0010737172287623,0.0010590770307426,-0.0010851855093764,0.0010649869238597,-0.0010739187662955,0.0010588745234513,-0.00048152784481165,0.0004457586117583,2.26180014087e-07,-3.7558981904928e-07,-3.1156399314965e-06,2.9715690635958e-06,-0.0016053277316215,0.0016051832202075,-0.0015409093934831,0.00154692907833,-0.0016076424494666,0.0016060578132643,-0.0016067161946683,0.0016039503884787,-0.0016198530927962,0.0016178823048154,-0.0016187758940284,0.0016208626278806,-0.0016199301590041,0.0016175572952441,-0.0016194200372888,0.0016211030851773,-0.0015455650613293,0.0015392592708771,-0.0015458732058782,0.0015514886654467,-0.001606940285037,0.0016094124357146,-0.0015951946501029,0.0015964829374516,-0.0015435572179492,0.0015376522180982,4.5041394112015e-06,1.7938505731762e-05,-0.001190300047591,0.0011940706958522,4.950168811626e-06,-1.1500401620776e-06,-0.0012073884616313,0.0012097501286245,-0.001244477901408,0.0012054547915942,-0.0012462870245201,0.0012395607823272,-0.0012252832635306,0.0013368399572586,-0.0012014213901814,0.0012157252294989,-0.0012385042153561,0.0012114255803213,-0.0012403183848549,0.0012455322225482,-0.001303955845225,0.0013075602014431,-0.0013059882677042,0.0013055262422922,-0.0013041976047187,0.001301612661153,-0.001306232016063,0.0012995794368017,-0.0012950716848364,0.0013202699652433,-0.0012848520813179,0.0012919012902133,-0.0012828207068753,0.001293935645616,-0.0012930358947754,0.0013223022301687,-0.0012312612844588,0.0013308678421168,0.74097076189096,128566,2924,0.004525610932756,0.0066630773391485,0.0049554864174386,39.724426705773,6.1795413646187e-05,6.1795413646187e-05,6.1795413646187e-05,3320431.7239154,0.016276378901103
38791759,0.97072649065214,0.016412719170799,0.0048885368162942,0.0063540454038562,0.0051701369506487,-0.0010918028511641,0.0010876913318555,-1.1612400743772e-05,6.2117257473275e-07,-9.2800246815563e-07,-3.0624257615235e-07,-0.00046114107399213,0.00046330559208827,-0.0011288866115656,0.00112522272876,-0.0011245243488783,0.0011425016098553,-0.00048167066450667,0.00044456064035905,-0.00046174711687401,0.00046270038968115,-0.0011294907525114,0.0011246110127681,-0.0011251286250751,0.0011418899338361,-0.001319914748474,0.0013152902286277,-0.00131655693369,0.0013212077374018,-0.0013197134107664,0.0013154989502467,-0.0013163554505223,0.0013214162454067,-0.001087405476365,0.0010675312321907,-0.0010760887077531,0.0010614508893587,-0.0010876107248637,0.0010673242752351,-0.0010762942471445,0.0010612443937084,-0.0004810670566516,0.00044516575074309,2.3084665487298e-07,-3.8098185023996e-07,-3.1289177766226e-06,2.9841771618423e-06,-0.0016096963992663,0.0016095512133724,-0.0015450398420502,0.0015510869238223,-0.0016119859129707,0.0016104024411509,-0.0016110430481849,0.001608257430882,-0.0016241824339657,0.0016222059077403,-0.0016231006882978,0.0016251985438978,-0.0016242633702477,0.0016218776270788,-0.0016237466783989,0.0016254345307294,-0.0015497162004425,0.0015433804146055,-0.0015500949603812,0.0015557323663899,-0.0016112846036705,0.0016137739659457,-0.0015994729357606,0.0016007598809686,-0.0015476994812424,0.0015417724197988,4.5284636263826e-06,1.8006629526464e-05,-0.0011931946521852,0.0011969805124192,4.9750051014408e-06,-1.1513166639424e-06,-0.0012105719394132,0.001212947283503,-0.0012478224823883,0.001208618578852,-0.0012496219016124,0.0012428622865053,-0.0012285720929668,0.0013406134781414,-0.001204577580748,0.001218949761493,-0.0012418238730211,0.0012146142828054,-0.0012436271287865,0.0012488598480613,-0.0013072316382323,0.0013108550495579,-0.0013092729741322,0.0013088121702279,-0.0013074811156277,0.0013048921988177,-0.0013095240319604,0.0013028504780036,-0.0012984574942484,0.0013236663733833,-0.0012881866466418,0.0012952734429762,-0.0012861459329765,0.0012973171301181,-0.0012964136123698,0.0013257066977232,-0.0012345739047365,0.0013346176196742,0.74288655380855,128566,2924,0.0045354488171487,0.0066811326549387,0.0049675233587126,39.754734635254,6.2037877082034e-05,6.2037877082034e-05,6.2037877082034e-05,3311356.132569,0.016316969460022
38880000,0.97178271664116,0.016430282799403,0.0048934908589752,0.0063611848097703,0.0051756071306578,-0.0010927707450883,0.0010886461264099,-1.1635182978397e-05,6.017194083837e-07,-9.34038936309e-07,-3.0623864817909e-07,-0.00046081005055153,0.00046289402424172,-0.0011300036710289,0.0011263463369493,-0.0011256314647457,0.0011436535582162,-0.00048139130614578,0.00044419775051018,-0.00046142197860588,0.00046228292417549,-0.0011306136944407,0.0011257287090111,-0.0011262416590234,0.0011430359611461,-0.0013212604255791,0.0013166230202384,-0.0013178959024594,0.001322548349547,-0.0013210570545484,0.0013168337582271,-0.0013176924054882,0.0013227588725199,-0.0010883952786843,0.0010684845906962,-0.0010770578555354,0.0010624247688065,-0.0010886025632051,0.0010682756018506,-0.0010772653738115,0.0010622162986968,-0.00048078176186695,0.00044480888176313,2.3365415319427e-07,-3.8418322943576e-07,-3.1344311389757e-06,2.9893286351526e-06,-0.0016115423469089,0.0016113967958206,-0.001546783329012,0.0015528424909783,-0.0016138239921697,0.0016122424639703,-0.0016128759786289,0.0016100805560162,-0.0016260012653051,0.0016240228281096,-0.0016249174414055,0.0016270204947863,-0.0016260846487734,0.0016236929857385,-0.0016255644542759,0.0016272534818622,-0.0015514698713426,0.0015451212634565,-0.0015518901017854,0.0015575355891998,-0.0016131225794362,0.0016156210560399,-0.0016012754272053,0.0016025596297665,-0.0015494490559219,0.0015435131809563,4.5368005540814e-06,1.8036537552807e-05,-0.0011943813490373,0.0011981706858691,4.9855332167387e-06,-1.1516972132133e-06,-0.0012118721637573,0.0012142477701458,-0.0012492223207128,0.0012099481532424,-0.0012510163357504,0.0012442408551187,-0.0012299211013427,0.0013421931183419,-0.0012058670719743,0.0012202610286398,-0.001243212989116,0.0012159545899227,-0.001245010942189,0.0012502490362718,-0.0013085923241515,0.0013122223260375,-0.001310637289072,0.0013101758122605,-0.0013088450030094,0.0013062545068192,-0.0013108915553985,0.0013042091516482,-0.0012998818204705,0.0013250860239011,-0.0012895883371954,0.0012966868001213,-0.0012875440090913,0.0012987341108415,-0.0012978342797592,0.0013271299887953,-0.0012359335375984,0.0013361865508427,0.74370269992762,128566,2924,0.0045394549594902,0.0066887605198257,0.0049724527071241,39.755886911234,6.2047095289875e-05,6.2047095289875e-05,6.2047095289875e-05,3306441.1995259,0.016333807540745
