time,ASR_ext,ASR_strain,ASR_strain_xx,ASR_strain_yy,ASR_strain_zz,disp_x_101,disp_x_102,disp_x_103,disp_x_104,disp_x_105,disp_x_106,disp_x_p10_neg,disp_x_p10_pos,disp_x_p11_neg,disp_x_p11_pos,disp_x_p12_neg,disp_x_p12_pos,disp_x_p13_neg,disp_x_p13_pos,disp_x_p14_neg,disp_x_p14_pos,disp_x_p15_neg,disp_x_p15_pos,disp_x_p16_neg,disp_x_p16_pos,disp_x_p1_neg,disp_x_p1_pos,disp_x_p2_neg,disp_x_p2_pos,disp_x_p3_neg,disp_x_p3_pos,disp_x_p4_neg,disp_x_p4_pos,disp_x_p5_neg,disp_x_p5_pos,disp_x_p6_neg,disp_x_p6_pos,disp_x_p7_neg,disp_x_p7_pos,disp_x_p8_neg,disp_x_p8_pos,disp_x_p9_neg,disp_x_p9_pos,disp_y_101,disp_y_102,disp_y_103,disp_y_104,disp_y_105,disp_y_106,disp_y_p10_neg,disp_y_p10_pos,disp_y_p11_neg,disp_y_p11_pos,disp_y_p12_neg,disp_y_p12_pos,disp_y_p1_neg,disp_y_p1_pos,disp_y_p2_neg,disp_y_p2_pos,disp_y_p3_neg,disp_y_p3_pos,disp_y_p4_neg,disp_y_p4_pos,disp_y_p5_neg,disp_y_p5_pos,disp_y_p6_neg,disp_y_p6_pos,disp_y_p7_neg,disp_y_p7_pos,disp_y_p8_neg,disp_y_p8_pos,disp_y_p9_neg,disp_y_p9_pos,disp_z_101,disp_z_102,disp_z_103,disp_z_104,disp_z_105,disp_z_106,disp_z_p10_neg,disp_z_p10_pos,disp_z_p11_neg,disp_z_p11_pos,disp_z_p12_neg,disp_z_p12_pos,disp_z_p13_neg,disp_z_p13_pos,disp_z_p14_neg,disp_z_p14_pos,disp_z_p15_neg,disp_z_p15_pos,disp_z_p16_neg,disp_z_p16_pos,disp_z_p1_neg,disp_z_p1_pos,disp_z_p2_neg,disp_z_p2_pos,disp_z_p3_neg,disp_z_p3_pos,disp_z_p4_neg,disp_z_p4_pos,disp_z_p5_neg,disp_z_p5_pos,disp_z_p6_neg,disp_z_p6_pos,disp_z_p7_neg,disp_z_p7_pos,disp_z_p8_neg,disp_z_p8_pos,disp_z_p9_neg,disp_z_p9_pos,humidity,ndof,nelem,strain_xx,strain_yy,strain_zz,temp,thermal_strain_xx,thermal_strain_yy,thermal_strain_zz,vonmises,vstrain
14391759,0,0,0,0,0,0,0,0,0,0,0,0,0,0,0,0,0,0,0,0,0,0,0,0,0,0,0,0,0,0,0,0,0,0,0,0,0,0,0,0,0,0,0,0,0,0,0,0,0,0,0,0,0,0,0,0,0,0,0,0,0,0,0,0,0,0,0,0,0,0,0,0,0,0,0,0,0,0,0,0,0,0,0,0,0,0,0,0,0,0,0,0,0,0,0,0,0,0,0,0,0,0,0,0,0,0,0,0,0,0,0,0,0,0,0,0,0,0,0,0,0,0,0
14891759,0.063482540838559,0.0010188694526598,0.00033962315088659,0.00033962315088659,0.00033962315088659,-0.00011475604239166,0.00011469442726211,-8.6460292313934e-08,-9.0051657618118e-08,-1.6559026793099e-08,-1.7369087715415e-08,-0.00010187903214647,0.00010148790548308,-0.00011194671085663,0.00011190894045261,-0.00011193910816992,0.00011208335003275,-0.00010191102703655,0.00010159620175086,-0.00010187835429169,0.00010148882987167,-0.00011194585930051,0.00011190968212823,-0.00011193838474453,0.00011208421972484,-0.00012097912894281,0.00012093623343435,-0.00012097168917437,0.00012098612814163,-0.00012097941758189,0.00012093599137777,-0.00012097192006176,0.00012098582836192,-0.0001116517525927,0.00011149266153863,-0.00011162548498219,0.00011138481207907,-0.0001116514264122,0.00011149287344534,-0.00011162527681817,0.00011138514205348,-0.00010191194070062,0.00010159551331079,-2.6360118800472e-10,5.4183979662019e-10,-4.2772360927153e-09,4.5433318602531e-09,-0.00012162144423546,0.00012162171176446,-0.00011787096318853,0.00011787953820193,-0.00011876431670139,0.00011876080615385,-0.00011874174839645,0.00011873982598106,-0.00012502076657517,0.00012501766960747,-0.00012502464153898,0.00012502773697242,-0.00012502056481334,0.00012501799876364,-0.00012502992623913,0.00012503355259044,-0.00011787829352981,0.00011787024811301,-0.00011789823377211,0.00011790734669315,-0.00011876494519465,0.00011876741816862,-0.00011864675167451,0.00011865081271781,-0.00011785355037744,0.00011784496707865,1.4075140645402e-09,1.4515783637593e-07,-0.00011775897997609,0.00011776894315759,1.2444799234702e-08,3.3321351211145e-09,-0.000112581046642,0.00011256933313765,-0.0001149029242118,0.00011465802698529,-0.00011494310835629,0.00011489903073359,-0.00011272257561365,0.00011348328547049,-0.0001125725189805,0.00011257785327707,-0.00011489417273886,0.00011466677638924,-0.00011493435520801,0.00011490777830512,-0.00012218428824109,0.00012217413381039,-0.00012218737387931,0.00012217105007492,-0.00012216846602499,0.00012214478048784,-0.00012217155076486,0.00012214169582763,-0.00011558659133939,0.000115855707233,-0.00011553860561376,0.00011553921540159,-0.00011553560741339,0.00011554220985817,-0.00011558359524591,0.0001158587037206,-0.00011273109953474,0.00011347476194676,0.64373504832551,122718,2924,0.00047790695330728,0.0005066265385874,0.0004905614373354,30.462880881948,0.00015890304705559,0.00015890304705559,0.00015890304705559,1312995.3629667,0.0014761891105577
15391759,0.11459660422402,0.0018509819806908,0.0006094945403114,0.00062563083898266,0.00061585660139675,-0.00016845979465488,0.00016835764782202,-2.1547122922263e-07,-1.4659083762183e-07,-2.9441068774653e-08,-1.9548592427617e-08,-0.00014636716739647,0.00014567888851612,-0.00016555096103088,0.00016548061844389,-0.00016550993954402,0.00016588930553864,-0.00014651972932503,0.00014580528540419,-0.00014637689244109,0.00014566942600981,-0.00016556040869984,0.00016547075528502,-0.00016551958533418,0.00016587964046886,-0.00018020326656586,0.00018009805233383,-0.00018016344037844,0.00018025022301407,-0.00018020011651298,0.00018010143123594,-0.00018016019809376,0.0001802535097839,-0.00016411677371104,0.00016372055974099,-0.00016399080345347,0.00016355858169995,-0.00016411992306406,0.00016371717834589,-0.00016399413935069,0.0001635553865725,-0.00014651039834371,0.00014581513990375,3.0153579298593e-09,-6.6770745613783e-09,-2.7876358400746e-08,2.4360997629943e-08,-0.00018529293921354,0.00018528940851864,-0.00017894686486902,0.00017899772081559,-0.0001803783973374,0.00018036683489817,-0.00018033227347746,0.00018030165499783,-0.00019202016513982,0.00019200231278089,-0.00019201859627148,0.00019203599337568,-0.00019201816693915,0.00019199378181566,-0.00019203946140046,0.00019205032479812,-0.00017899681064566,0.00017893895633465,-0.00017894311599136,0.00017898745012237,-0.00018036877939969,0.00018039214632398,-0.00018014326216979,0.00018014757254328,-0.00017894415807308,0.00017889282402716,3.4325314819974e-08,3.2334158010402e-07,-0.00017546454155001,0.00017549025141373,4.8293312030695e-08,-4.4212225600165e-09,-0.00016845335143095,0.00016845815058557,-0.00017240505650686,0.00017181462048991,-0.00017249239277215,0.00017238070800386,-0.00016872094692848,0.00017037995677701,-0.00016840236762913,0.00016850935844483,-0.00017235358059421,0.00017186605165006,-0.00017244100001757,0.00017243222494301,-0.00018368832286341,0.00018369326140872,-0.00018370595203342,0.00018367558350662,-0.00018365293360247,0.00018357744728994,-0.0001836706013628,0.00018355980847908,-0.00017263186623217,0.00017323096435242,-0.0001725114783478,0.00017256365417957,-0.00017249402743712,0.00017258121223519,-0.0001726143276081,0.00017324843421651,-0.00016877211369317,0.00017032893123247,0.66498198186136,122718,2924,0.00070145702323702,0.0007717446150974,0.00073088576638226,27.264469382914,0.00013331575506331,0.00013331575506331,0.00013331575506331,1805405.6793434,0.0022065307073226
15891759,0.16083512092605,0.0026889969116722,0.00087271827022925,0.00092288239992272,0.00089339624152024,-0.00022385003117234,0.00022365774535142,-4.4299580576346e-07,-2.414313329125e-07,-6.2194035203516e-08,-2.889424096716e-08,-0.0001897936016993,0.00018864120570241,-0.0002235038894083,0.00022337071654247,-0.00022340564794219,0.00022413250807714,-0.00019016012300509,0.00018870207315647,-0.00018982601563316,0.00018860895305683,-0.0002235358976884,0.0002233376813407,-0.00022343796904719,0.00022409978519714,-0.00024005443104839,0.00023983215471983,-0.00023995623685933,0.00024014549283139,-0.00024004370519361,0.0002398434451452,-0.00023994536868161,0.00024015664084967,-0.00022043634899317,0.00021963238680012,-0.00022013128662936,0.00021939628098194,-0.00022044713698805,0.00021962116642479,-0.00022014235959787,0.00021938534523049,-0.00019012829349141,0.00018873491132449,9.8401912970575e-09,-2.2811277390182e-08,-6.5488476630683e-08,5.2996613651537e-08,-0.00025558886678205,0.0002555763253219,-0.00024859287307361,0.00024870735576746,-0.00025032703955795,0.00025030668720379,-0.00025024952971466,0.000250165004797,-0.00026277357951488,0.00026273233958956,-0.00026276384617538,0.00026280219960731,-0.00026277099911892,0.00026270781136352,-0.00026280772465882,0.00026282412918544,-0.0002487133355821,0.00024857397804726,-0.0002487350640214,0.0002488275957555,-0.00025030045757696,0.00025035926148073,-0.00024989862039896,0.00024989325119792,-0.00024860235462311,0.00024848494477684,9.5925109606063e-08,5.9557668858578e-07,-0.00023675299558635,0.00023680780526762,1.0291206566131e-07,-1.6329179118e-08,-0.0002327942621372,0.00023284411466125,-0.00023571683416358,0.00023444546553979,-0.00023586288056335,0.00023564390409624,-0.00023336266519991,0.0002366196880105,-0.00023267870518237,0.00023296036942995,-0.00023560025407936,0.00023456190491551,-0.00023574656106252,0.00023576060627852,-0.00024671310702702,0.00024674880667617,-0.00024675291051596,0.00024670885630897,-0.00024666333883063,0.00024651582822381,-0.00024670326269804,0.00024647599908598,-0.00023592307545347,0.00023700113817107,-0.00023564070593681,0.00023579453728816,-0.00023560122683743,0.00023583434166429,-0.00023588332783128,0.00023704067295629,-0.0002334787910388,0.0002365040005688,0.7444907159995,122718,2924,0.00093187938680564,0.0010643539779391,0.00098609534348803,25.412305065891,0.00011849844052713,0.00011849844052713,0.00011849844052713,1828647.8315092,0.0029867926117567
16391759,0.20592232879361,0.0035150405024317,0.0011228924871737,0.0012270207012825,0.0011651273139754,-0.00027730999839364,0.00027696720088431,-7.9114619737609e-07,-3.8487426073184e-07,-1.1133015280112e-07,-3.928805029575e-08,-0.00022381420166734,0.0002219134218372,-0.00027968467368312,0.00027944375236417,-0.00027949319155721,0.00028072019547541,-0.00022452265624851,0.0002219571099275,-0.00022388423246117,0.00022184302468116,-0.00027975417092993,0.00027937236572814,-0.00027956299281035,0.00028064911213727,-0.00029959964447495,0.00029920156376771,-0.00029940704383839,0.00029972770156025,-0.00029957634582446,0.00029922587541509,-0.00029938361213904,0.00029975188062034,-0.00027440493499037,0.00027296934843075,-0.00027381420146556,0.00027260483955203,-0.00027442848222056,0.00027294521525407,-0.00027383801617208,0.00027258097272611,-0.00022445318151177,0.00022202806181607,2.1378914222412e-08,-4.9427969643677e-08,-1.4393540562569e-07,1.1692893858657e-07,-0.00032921940081045,0.00032919228000496,-0.00032076964275519,0.00032102195178453,-0.00032322387472395,0.00032317863857178,-0.00032310204075176,0.00032291760214512,-0.00033662502989583,0.0003365347086548,-0.00033659073789969,0.00033667471110202,-0.00033662108558648,0.00033648341827806,-0.00033665948107937,0.00033669610634547,-0.00032106521068124,0.00032075914060734,-0.00032122588804374,0.00032143064718728,-0.0003231585354449,0.00032328733270941,-0.00032246953217346,0.0003224591266952,-0.00032084852738804,0.00032058999326461,1.9698318921103e-07,9.7662104683247e-07,-0.00029767315714462,0.0002977483039214,1.9389619109738e-07,-6.772429993561e-08,-0.00029721901604611,0.00029731071935925,-0.0002995425692786,0.00029714262499016,-0.00029978604626989,0.00029938038024666,-0.00029824734864876,0.00030389871601606,-0.0002969642990019,0.00029756674063205,-0.00029928642976534,0.00029739853652324,-0.00029953040224775,0.00029963679705224,-0.00030993922016724,0.0003100377033364,-0.00031002643055894,0.00030995023256259,-0.00030989892052229,0.00030964911498173,-0.00030998634816578,0.00030956186380409,-0.00029912861890372,0.00030086662385861,-0.00029854556638309,0.00029885299009116,-0.00029845875806881,0.00029894038604107,-0.00029904132749299,0.00030095353378818,-0.00029850310611584,0.00030364373363241,0.75197985070181,122718,2924,0.0011540966482944,0.0013707374977662,0.0012396888636968,24.448059688688,0.0001107844775095,0.0001107844775095,0.0001107844775095,2098264.3477553,0.0037716314164502
16891759,0.25059338915429,0.0043844389718089,0.0013775916155304,0.0015567089234928,0.0014501384327857,-0.0003328850831168,0.00033234642567714,-1.2312789200841e-06,-5.5622057082106e-07,-1.6944362190534e-07,-4.7706687932704e-08,-0.00025810802321189,0.00025552016537134,-0.00033935122458518,0.0003389383812634,-0.00033903169023805,0.00034082731248556,-0.00025929031929222,0.00025537716873912,-0.00025822614317627,0.00025540101157463,-0.00033946860149415,0.00033881781599974,-0.00033914938202117,0.00034070705775709,-0.00036153769805667,0.00036090826807982,-0.00036121862818496,0.00036169831112262,-0.00036149828113362,0.0003609493197698,-0.00036117906377305,0.00036173921708051,-0.00033050962523546,0.0003282528071456,-0.00032953283362028,0.00032766112328438,-0.00033054947147517,0.00032821209843651,-0.00032957297853704,0.00032762071118506,-0.00025917276569471,0.00025549689049138,3.5378925556948e-08,-8.419055920042e-08,-2.4815214147977e-07,2.0115859830393e-07,-0.00040926916122415,0.00040922195792298,-0.00039971733119219,0.00040015063797134,-0.00040252634222311,0.00040244552859153,-0.00040235347696549,0.00040203769992065,-0.0004162856807775,0.00041612895219097,-0.00041621866920119,0.00041636196330471,-0.00041628185876049,0.00041604515974346,-0.00041633042244597,0.00041639373758052,-0.00040023349771305,0.00039970665164213,-0.00040072568539663,0.00040107869450355,-0.00040241015064039,0.00040262899171763,-0.00040139816647378,0.0004013820420436,-0.00039988243177613,0.00039943585737382,3.3755069800012e-07,1.4679104128943e-06,-0.00036210618423668,0.00036219563239205,3.029418856202e-07,-1.4725092273215e-07,-0.00036622082841352,0.00036638571602157,-0.00036809065846751,0.00036418937044459,-0.00036846848980287,0.0003678128317913,-0.00036776386641588,0.00037628080335337,-0.00036578203229598,0.0003668267613292,-0.00036764982858412,0.00036462980232008,-0.00036802851089222,0.00036825412874635,-0.00037661743251429,0.00037680721595025,-0.0003767674357053,0.00037665678902365,-0.00037658780098808,0.00037621186179195,-0.00037673816463359,0.00037606179832317,-0.0003670509298363,0.00036971993114256,-0.00036609374081257,0.0003666168914526,-0.00036594429020535,0.00036676732271269,-0.00036690067124531,0.00036986954921399,-0.00036820445833655,0.00037584155586292,0.80138220899585,122718,2924,0.0013849797500857,0.0017037125821148,0.0015078212334467,23.81514636045,0.0001057211708836,0.0001057211708836,0.0001057211708836,2452187.0337185,0.0046071080860806
17391759,0.29077034918558,0.0050747527219352,0.001574484303811,0.0018269452863735,0.0016733231317508,-0.00037269579024334,0.00037194045500158,-1.6931348983208e-06,-7.3674483537119e-07,-2.2472279304479e-07,-7.5579793172492e-08,-0.00027596714391244,0.0002726081698697,-0.00038119212952842,0.00038058052323047,-0.00038073049054672,0.00038308668045119,-0.00027764453094894,0.00027238411459421,-0.00027611141485001,0.00027246245173124,-0.00038133578632905,0.00038043295667985,-0.00038087443018228,0.00038293939171588,-0.00040925182156697,0.00040835499307665,-0.00040880008347253,0.00040941620769523,-0.00040920341171293,0.00040840531155188,-0.00040875154064199,0.00040946639600951,-0.00036833790308679,0.00036519833638115,-0.00036695803765871,0.0003643996885084,-0.00036838671704289,0.00036514854544085,-0.00036700712267519,0.00036435016685474,-0.00027750075240635,0.00027253033162653,4.1227391739857e-08,-1.0488877661598e-07,-3.5100370306215e-07,2.8960377975181e-07,-0.00047318875635263,0.00047312710100882,-0.0004613246324105,0.00046193987242966,-0.00046385922235749,0.00046372584024446,-0.00046358855726141,0.00046316823402857,-0.00048166990327021,0.00048144409651101,-0.00048156895957602,0.00048177061796148,-0.0004816616436108,0.00048133799746758,-0.00048173049841542,0.0004818343096475,-0.00046204467467252,0.00046130719910294,-0.00046280013376389,0.00046331717922896,-0.00046369419567259,0.00046398794914839,-0.00046233115202691,0.00046233796778362,-0.00046158087281031,0.00046094155658431,4.8643980971704e-07,1.956310641358e-06,-0.00040972486124588,0.00040982651251372,4.1764819960006e-07,-2.2389962941656e-07,-0.00041443565879208,0.0004146912903229,-0.00041705077494801,0.00041172324934811,-0.00041753813824779,0.00041662915953543,-0.00041651835113202,0.00042785174730823,-0.00041380980292706,0.00041532016292719,-0.00041642241745741,0.00041235094467132,-0.00041691094604948,0.00041725803337202,-0.00042831203957595,0.00042859474746864,-0.00042852577023337,0.00042838050297113,-0.00042829341386133,0.0004277731861928,-0.00042850762478389,0.00042755942350952,-0.00041698826541881,0.00042061761914781,-0.00041561648591244,0.00041636705845756,-0.00041540340797633,0.00041658142180915,-0.0004167741035609,0.0004208308913511,-0.00041714667960889,0.00042722535343132,0.7107781577386,122718,2924,0.0015501904028554,0.001969509678536,0.0017059395274175,22.122934280167,9.2183474241335e-05,9.2183474241335e-05,9.2183474241335e-05,2692523.0519329,0.0052393390057914
17891759,0.32445500397357,0.0055541966140981,0.0017100384969774,0.0020178716647803,0.0018262864523403,-0.00039824516841322,0.00039736651037595,-1.9633011509812e-06,-8.2296028987944e-07,-2.6085184241959e-07,-1.0546949250827e-07,-0.00029094042584636,0.00028724526289273,-0.00040797290058248,0.00040721179088278,-0.00040742327428673,0.00041006248940328,-0.00029290966886535,0.0002869382202371,-0.00029109068897881,0.00028709361063656,-0.00040812244853555,0.00040705794548947,-0.00040757322592372,0.00040990903995844,-0.00044027513290368,0.00043920013653986,-0.00043974150897078,0.00044045900239199,-0.00044022465137037,0.00043925263882027,-0.00043969083706602,0.00044051131826906,-0.00039102543705471,0.00038734336147924,-0.00038939794031125,0.00038648314658169,-0.00039107621724563,0.00038729143051768,-0.00038944911220132,0.00038643160547676,-0.00029276012199921,0.00028709060018223,3.934370548101e-08,-1.1264745763759e-07,-4.141448409939e-07,3.4323290708737e-07,-0.00051493318409963,0.000514862021597,-0.00049945063549499,0.00050017265417529,-0.00050078444072148,0.00050060808235318,-0.0005004363028377,0.00049996164375361,-0.00052798229573233,0.00052770992347902,-0.00052786167565316,0.0005280949483553,-0.00052796383584399,0.00052758975992131,-0.00052807142979591,0.00052820299111545,-0.00050027117260382,0.0004994079607045,-0.00050111319047221,0.0005017330705006,-0.00050058825860762,0.00050091697185114,-0.00049908352495593,0.00049911394313787,-0.00049976894600564,0.00049900783150385,5.7091722438817e-07,2.2652463909306e-06,-0.00044008723011924,0.00044017448256356,4.7888670199915e-07,-2.7982789253191e-07,-0.00044285878394757,0.00044315408121483,-0.00044829989998102,0.00044215486268555,-0.00044888157802124,0.00044780341168993,-0.00044507310039868,0.00045779203400531,-0.00044211879616159,0.00044389740584577,-0.00044755692588233,0.00044289700741122,-0.00044813988385171,0.00044854684968788,-0.00046276120212031,0.00046308915390686,-0.00046301404916141,0.0004628358138667,-0.00046271298584919,0.00046209042583424,-0.00046296634588485,0.00046183759948448,-0.00044635085772981,0.00045062304093527,-0.00044483405694997,0.00044571172300604,-0.00044458202133251,0.00044596513517272,-0.00044609765479085,0.00045087527759876,-0.00044581582998843,0.00045705146173116,0.59260256382937,122718,2924,0.0016562338703267,0.0021430555908714,0.0018321954605119,19.639121212853,7.2312969702824e-05,7.2312969702824e-05,7.2312969702824e-05,2998662.3651045,0.0056474034953134
18391759,0.35341263790678,0.005964622048846,0.0018251157204692,0.0021820927149408,0.001957413613436,-0.00042051245816645,0.00041952995199322,-2.1758342201453e-06,-8.9355551072484e-07,-2.9029454834237e-07,-1.3844360546086e-07,-0.00030587780101437,0.00030194777291572,-0.00043250982317999,0.00043160211560456,-0.00043189295111607,0.0004347195686952,-0.00030806018344905,0.00030154042189813,-0.00030602454844085,0.00030179965587719,-0.0004326558918582,0.00043145173478817,-0.00043203944558751,0.00043456960269395,-0.00046618253680695,0.00046496213977867,-0.00046558387878023,0.00046638592894109,-0.00046613309470831,0.00046501350085913,-0.00046553423492374,0.00046643709309658,-0.0004116291340554,0.0004075134756762,-0.00040980637117917,0.00040660415950994,-0.0004116787335446,0.00040746270619608,-0.00040985638333256,0.00040655380077661,-0.00030791419319931,0.00030168931112078,3.5453167059729e-08,-1.1290450877183e-07,-4.7612583565069e-07,4.0100990593393e-07,-0.00055028792792859,0.00055021258667103,-0.00053204653536097,0.00053288041264969,-0.00053201289063518,0.00053178874285583,-0.00053160289435969,0.00053108776183871,-0.00056726247767297,0.00056694481360262,-0.00056711685115119,0.00056738468937544,-0.00056723271240036,0.00056681580115856,-0.00056737318382224,0.00056754176664119,-0.00053299250822849,0.00053200904739123,-0.00053392750833291,0.00053466169574046,-0.00053178042831863,0.00053214118007161,-0.00053018207212829,0.00053025184638098,-0.00053245125668295,0.0005315674356752,6.3250344947263e-07,2.5063198060287e-06,-0.00046644097887329,0.00046651026382174,5.3454892935449e-07,-3.4407149406021e-07,-0.00046924047814087,0.00046952981016064,-0.0004766848556119,0.00046983587306766,-0.0004773658263206,0.00047612274607965,-0.00047149525347464,0.00048534984282614,-0.00046838316767966,0.00047039049921898,-0.00047582444437796,0.00047069536562465,-0.0004765067024143,0.00047698354164163,-0.00049177576653345,0.00049213951727608,-0.00049206861831679,0.00049184622643469,-0.00049169302785315,0.00049100282844983,-0.00049198638423089,0.00049071004259041,-0.00047204543563244,0.00047682072153499,-0.00047044999860319,0.00047140969323173,-0.00047015800525743,0.00047170304117003,-0.00047175228630235,0.00047711290421222,-0.00047235534795444,0.00048449194976639,0.59387052420227,122718,2924,0.0017486518463415,0.0022900221988322,0.0019417581788927,17.515533846472,5.5324270771776e-05,5.5324270771776e-05,5.5324270771776e-05,3256071.2291269,0.0059983895688962
18891759,0.38140410874403,0.0063989028177433,0.0019454306410117,0.0023566763724658,0.0020967958042659,-0.00044583983883632,0.00044468051363988,-2.5274682899238e-06,-1.0446485447526e-06,-3.4791665018907e-07,-1.6356868860261e-07,-0.00031606989892509,0.00031154371494511,-0.0004607724312445,0.000459689512034,-0.00046005029159929,0.00046329521136958,-0.0003186265546989,0.00031106984818039,-0.00031624808800792,0.000311363648554,-0.00046094995033824,0.00045950702971578,-0.00046022816853022,0.00046311307273425,-0.00049649630583376,0.00049506095310883,-0.00049579708250435,0.00049670219669725,-0.00049643630710056,0.00049512323137953,-0.00049573690883862,0.00049676430609102,-0.00043620556451741,0.00043141731557545,-0.00043408167843733,0.00043036817376643,-0.00043626586812371,0.00043135575398194,-0.00043414233631001,0.00043030696479547,-0.00031844898249327,0.00031125055068008,4.4380534315626e-08,-1.3591272453553e-07,-5.6776514979285e-07,4.7901576654973e-07,-0.00059282955734508,0.0005927405472951,-0.00057279166639309,0.00057378882604607,-0.00057244041685114,0.00057217713355384,-0.00057197998381371,0.00057136296010465,-0.00061137279352487,0.00061099580805157,-0.0006111923670085,0.00061151380777981,-0.00061134105911802,0.00061084350483981,-0.00061150128414291,0.00061170214291048,-0.00057394389438753,0.00057277000051782,-0.00057509984532635,0.00057597591780523,-0.00057216060510813,0.00057259524271313,-0.00057032170764225,0.00057040261814922,-0.00057330411980193,0.0005722512490643,7.3940595720773e-07,2.853430028127e-06,-0.00049718970268136,0.00049726428010648,6.2193226545111e-07,-4.2631798522698e-07,-0.00050208306992121,0.0005024046224821,-0.00051026367359218,0.00050228789311315,-0.00051105378626579,0.00050959362822278,-0.00050470146022072,0.00052077435613375,-0.00050105975497513,0.00050343184171456,-0.00050923704624471,0.0005033134966477,-0.00051002863333502,0.00051062072260685,-0.00052491560452593,0.00052534930447241,-0.00052526493039777,0.00052499944306273,-0.00052483624521826,0.00052406044493918,-0.00052518616379087,0.00052371117559167,-0.00050454026501891,0.00050997706191497,-0.00050266192341368,0.00050377470391269,-0.00050231350345304,0.00050412472752057,-0.00050419048910825,0.00051032571719519,-0.00050572797991513,0.00051975035876917,0.65137566946256,122718,2924,0.0018536506527669,0.0024668131349745,0.0020696331940066,16.908316409068,5.0466531272545e-05,5.0466531272545e-05,5.0466531272545e-05,3347926.1387712,0.0064106020687254
19391759,0.41090707003442,0.0069025453082443,0.0020831324647633,0.0025616077156058,0.0022578051278752,-0.00047656733488131,0.00047517100569486,-3.001018972543e-06,-1.246280746339e-06,-4.1864714773796e-07,-1.8805143038061e-07,-0.00032661000513061,0.00032124571356894,-0.00049519997307712,0.00049389852461546,-0.00049433254245443,0.00049814910641409,-0.00032968648978453,0.00032072579005747,-0.00032683295979216,0.00032102039860951,-0.00049542213535973,0.00049367034968758,-0.00049455507264932,0.000497921278839,-0.00053339046695679,0.00053167308003231,-0.00053255622397743,0.00053358564384097,-0.00053331545866945,0.00053175091742602,-0.00053248102949183,0.00053366330263114,-0.00046634962486913,0.00046066338745674,-0.00046382059835833,0.00045941237270015,-0.00046642508915808,0.00046058643158151,-0.00046389643958315,0.00045933579328421,-0.00032946416121492,0.00032095175919986,5.7741097948637e-08,-1.6790057081971e-07,-6.7345410439715e-07,5.6673325217917e-07,-0.00064553042225741,0.00064542337748016,-0.00062432428038671,0.00062550813741933,-0.00062362583009183,0.00062332413660851,-0.00062309525607804,0.00062235071042254,-0.00066438918906582,0.0006639450327705,-0.00066417370428577,0.00066455697379619,-0.00066435963224805,0.0006637645773134,-0.00066454838057806,0.00066478073444495,-0.0006257153768761,0.00062431900204625,-0.0006272518995542,0.00062828425610956,-0.00062329711293642,0.00062382225542126,-0.00062110268281626,0.00062118499337764,-0.00062494062247193,0.00062369566753113,8.9143688392499e-07,3.3249841908493e-06,-0.00053444037783756,0.00053453188296354,7.2944071198121e-07,-5.1246298139139e-07,-0.00054221600046732,0.00054263398269619,-0.00055074912739893,0.00054128040717762,-0.0005516625500733,0.00054995676064646,-0.0005454240221585,0.00056457487371574,-0.00054100356519958,0.0005438511297347,-0.00054953284969312,0.00054249547441294,-0.00055044804524638,0.00055117361330681,-0.00056487174929503,0.00056540050320099,-0.00056528556083607,0.00056498600800001,-0.00056481803060307,0.00056391511566557,-0.00056523257233988,0.00056350134824359,-0.00054527838131152,0.0005516142774188,-0.00054296703192113,0.00054431168147285,-0.00054255427228094,0.00054472642529352,-0.00054486395062757,0.00055202733355948,-0.00054664033215479,0.00056336162632303,0.71635337683096,122718,2924,0.0019809837967949,0.0026857731965199,0.0022245493443898,17.474277820136,5.499422256109e-05,5.499422256109e-05,5.499422256109e-05,3406069.5827538,0.0069151560657276
19891759,0.44329477249752,0.007416402483102,0.0022222750052786,0.0027746093156736,0.0024195181621498,-0.00050834062722279,0.00050667933372023,-3.5282763381904e-06,-1.4636788122207e-06,-4.9332699376989e-07,-2.1963422101024e-07,-0.00033736373165633,0.00033102150443514,-0.00052987680309863,0.00052834157210879,-0.00052884247235332,0.00053328586757473,-0.00034102862338532,0.00033055884194064,-0.00033762813310935,0.00033075425333404,-0.00053014048665704,0.00052807090561907,-0.00052910649802433,0.00053301551740362,-0.00057247200280459,0.00057042266343801,-0.00057148691305833,0.00057264023898255,-0.00057238295309684,0.00057051502084622,-0.000571397684961,0.00057273242807781,-0.00049637230223146,0.00048967455635465,-0.00049339096301873,0.00048821638205144,-0.00049646188267656,0.00048958330328134,-0.00049348090501344,0.00048812549054798,-0.00034076479075146,0.00033082669843927,6.9177959009206e-08,-1.9845678786584e-07,-7.9700407906788e-07,6.7180326588975e-07,-0.00070153358837958,0.00070140800328232,-0.00067805640598475,0.00067945985951059,-0.00067687663512073,0.0006765209543546,-0.00067623624685517,0.00067535528891805,-0.00072194153526711,0.00072141697016504,-0.00072168297324883,0.00072213818930004,-0.00072190965563719,0.00072120598929519,-0.00072212718664237,0.00072240327989589,-0.00067969770066932,0.00067804493073616,-0.0006815771603613,0.00068280089069173,-0.00067649155091791,0.00067711505298971,-0.00067389677173523,0.00067399502695441,-0.0006787963965839,0.00067732324813872,1.0597788657276e-06,3.8530966028393e-06,-0.0005725275471347,0.00057262709043279,8.5622761787834e-07,-6.145211288011e-07,-0.00058114271726413,0.00058165308733225,-0.00059114042493655,0.00058006252011165,-0.00059217381361843,0.00059017169913417,-0.00058495686267073,0.00060739141714089,-0.00057970665052446,0.00058309480057541,-0.00058969993804165,0.0005815015054729,-0.00059073546280547,0.00059161282676485,-0.00060698205789452,0.00060761766734428,-0.00060747207392361,0.00060712682894641,-0.00060695186503535,0.00060588581987544,-0.00060744276942938,0.00060539586442276,-0.00058620210896065,0.00059356221367949,-0.00058340811317427,0.00058500285478879,-0.00058291929497573,0.00058549407732149,-0.00058571125278359,0.00059405137590311,-0.00058639761558136,0.00060595442610106,0.66678161365177,122718,2924,0.0021125980351435,0.0029183977865651,0.0023829014236132,18.684645103869,6.4677160830955e-05,6.4677160830955e-05,6.4677160830955e-05,3486729.5782515,0.0074415085445408
20391759,0.47534175048229,0.0079735440427182,0.0023725697860851,0.0030068976811782,0.0025940765754548,-0.00054166480291477,0.00053975796561802,-4.0050351950597e-06,-1.6462201997973e-06,-5.5976002571094e-07,-2.4642340316778e-07,-0.00035497417135595,0.00034796399770687,-0.00056794319587346,0.00056617534395616,-0.00056675419790218,0.00057168409939261,-0.00035918181203709,0.00034740374718238,-0.00035527679776484,0.00034765800086385,-0.00056824503676472,0.0005658654381286,-0.00056705639147092,0.00057137451641845,-0.00061118612521532,0.00060881086099576,-0.00061006259669448,0.00061131457800468,-0.00061108417057615,0.00060891658768389,-0.00060996045454332,0.00061142012991381,-0.00052833107597653,0.00052069697523988,-0.00052493356339653,0.00051904400889877,-0.00052843361328121,0.00052059253053083,-0.00052503648426321,0.00051893994771421,-0.00035887977260732,0.00034771037822907,7.7705125559753e-08,-2.2853468014881e-07,-9.2310484300472e-07,7.7701133540004e-07,-0.00075836019580653,0.00075821365961495,-0.00073340468624732,0.0007350268070967,-0.00073024351439728,0.00072982712732541,-0.00072949084295672,0.00072847342949237,-0.00078045597197162,0.00077984644010707,-0.00078015215889695,0.00078067665703196,-0.00078041554499165,0.00077960117931598,-0.00078067562200057,0.00078099526017713,-0.00073530166518049,0.00073338862508322,-0.00073757346703009,0.00073898995232621,-0.00072979751087929,0.00073051446983485,-0.00072691774934309,0.00072703372421196,-0.00073428737392983,0.0007325798434813,1.2083754357748e-06,4.3561867819371e-06,-0.00061193708493751,0.00061202244710665,9.7360296284847e-07,-7.2880981105208e-07,-0.000623292237426,0.00062385506969609,-0.00063427247921361,0.00062164333546161,-0.00063544942811812,0.00063314060688846,-0.00062747882022597,0.00065282919854448,-0.0006216299015876,0.00062552397761408,-0.00063260508704074,0.00062330895204888,-0.0006337845022284,0.00063480869027591,-0.00064917172860813,0.00064990131942768,-0.00064973892027966,0.00064933321192435,-0.00064913963003588,0.00064791778814108,-0.00064970784198561,0.00064735069230723,-0.00062864433842523,0.00063704705179313,-0.00062547005332546,0.00062727591569691,-0.00062490423571349,0.00062784451313857,-0.00062807616813176,0.00063761326965587,-0.00062914659441405,0.00065116577665772,0.7310461920672,122718,2924,0.0022506783602919,0.0031543842305804,0.0025466791085281,18.606952379608,6.4055619036865e-05,6.4055619036865e-05,6.4055619036865e-05,3652943.0158387,0.007983505102173
20891759,0.50442596726409,0.0084455178701611,0.0024983497858518,0.0032070247130361,0.0027401433712731,-0.00056525488645636,0.000563046894723,-4.5944233453237e-06,-1.902755072757e-06,-6.451431379432e-07,-2.7064178227069e-07,-0.00035653609150979,0.00034840479264427,-0.00059418961120569,0.00059217723284838,-0.00059280948560767,0.00059846319977706,-0.00036142673895226,0.00034795594456318,-0.00035689781375778,0.00034803916969657,-0.00059455047559741,0.00059180695438911,-0.00059317072107897,0.00059809325426669,-0.00064240910573586,0.0006396591791743,-0.00064111773412915,0.00064249606482784,-0.00064228728848686,0.00063978548594554,-0.00064099571703177,0.00064262218677365,-0.00055012009191495,0.00054136449705659,-0.00054622259203357,0.00053946693406128,-0.00055024266053306,0.0005412397327942,-0.00054634557076344,0.00053934258038784,-0.00036106562445473,0.00034832223341994,9.5170571745729e-08,-2.7082622291819e-07,-1.0490123117889e-06,8.7898643987877e-07,-0.00080694569608951,0.00080677513946506,-0.00077978737278662,0.00078162886564782,-0.00077645390454536,0.00077599562507459,-0.00077558651546052,0.00077440978283706,-0.00083022707057688,0.00082953780746164,-0.00082988242600494,0.00083047915850679,-0.00083018646405381,0.00082925236496349,-0.00083047222983696,0.00083082409441207,-0.0007819456569632,0.00077976559227118,-0.00078457622728038,0.00078617197413121,-0.00077595672267026,0.00077678366166775,-0.0007726156597122,0.00077272420276115,-0.00078078340635238,0.00077884893370447,1.4012832447784e-06,4.9155539278179e-06,-0.00064120236504322,0.00064131420350662,1.1064479065925e-06,-8.2426881935937e-07,-0.00065337571037681,0.00065408206364745,-0.00066564984388908,0.0006513436412992,-0.00066693657619088,0.00066433467887573,-0.00065831399678616,0.00068722954046105,-0.00065149052879672,0.00065597498558348,-0.00066375883082306,0.00065323255822218,-0.00066504848316731,0.00066622650686884,-0.00068260191033384,0.00068345015893859,-0.00068324511469429,0.00068280584755835,-0.00068261318339516,0.00068121259502405,-0.00068325760982414,0.00068056949281805,-0.00066123461884026,0.00067075961837427,-0.00065747745375531,0.00065957851458128,-0.00065683583458572,0.0006602234567859,-0.00066059017836465,0.00067140170496306,-0.00066020562150509,0.0006853431238379,0.68432815189094,122718,2924,0.0023481786715881,0.0033560770577927,0.0026683624410059,17.403167164148,5.4425337313186e-05,5.4425337313186e-05,5.4425337313186e-05,3705014.7101389,0.0084078437617272
21391759,0.52917796174609,0.0088383315702512,0.0026030871440341,0.0033745710206714,0.0028606734055456,-0.00058409314212822,0.0005816855804037,-4.9778297330032e-06,-2.0462546366482e-06,-6.9132392689211e-07,-3.0097959837241e-07,-0.00036419971663209,0.00035556073964868,-0.00061611534298662,0.0006138996638701,-0.00061460599197218,0.00062063542016286,-0.00036952224180429,0.00035505031164422,-0.00036457636616818,0.00035518015856801,-0.00061649119183316,0.00061351373532911,-0.00061498234224652,0.00062024994757293,-0.00066582176754178,0.0006628054410597,-0.00066441887038856,0.00066588572663317,-0.00066569473441973,0.00066293719748668,-0.00066429157527677,0.00066601723816598,-0.00056708711971176,0.0005575666161499,-0.0005628550283824,0.00055553045318792,-0.0005672147479718,0.00055743656345263,-0.00056298319494652,0.00055540093844903,-0.0003691464266289,0.00035543179501055,9.5271483200674e-08,-2.8564697848993e-07,-1.1359975127306e-06,9.5156469280123e-07,-0.00084418421167763,0.00084399923281098,-0.0008148986250183,0.00081688702351696,-0.00081004555535804,0.00080953381962234,-0.00080905922028595,0.00080779999463791,-0.00087003258027862,0.00086928077421405,-0.00086965897596529,0.00087029986942313,-0.00086997763426191,0.0008689708631258,-0.00087030408986145,0.00087068998377178,-0.00081721820354793,0.00081486253063563,-0.00082008335669399,0.0008218159082847,-0.00080950936267575,0.00081038927775288,-0.0008059300796525,0.0008060625730226,-0.0008159854729268,0.00081388547148588,1.5230710858137e-06,5.3116711804199e-06,-0.00066412113643853,0.00066422675208662,1.1908469963958e-06,-9.0006655252515e-07,-0.00067717510018681,0.00067795387612783,-0.00069098644752021,0.00067556196745858,-0.00069238086329747,0.00068955988212207,-0.00068239563018411,0.00071339386936582,-0.00067513392142436,0.0006800035441426,-0.0006889386376666,0.00067760735234542,-0.0006903362557059,0.00069160845405697,-0.00070831014086242,0.00070922750144994,-0.00070900677230015,0.00070852972470099,-0.00070831426266949,0.00070677815927776,-0.00070901222327703,0.00070608169548209,-0.00068565185710416,0.0006960406379892,-0.00068160122834751,0.0006838844319619,-0.00068090641838815,0.00068458283665966,-0.00068495396933006,0.00069673592687092,-0.00068444390961251,0.00071135137703479,0.67004884739747,122718,2924,0.0024261056114628,0.0035106486930951,0.0027635907713065,15.325473927608,3.7803791420865e-05,3.7803791420865e-05,3.7803791420865e-05,3837537.0363219,0.008738387002688
21891759,0.55131520259664,0.0091785222390914,0.0026931798447241,0.0035207718979422,0.0029645704964252,-0.00060055792862571,0.00059793814953795,-5.3773234435378e-06,-2.2171447947604e-06,-7.4496042467211e-07,-3.3009529487768e-07,-0.00036794925177758,0.00035864488076843,-0.00063500800013999,0.00063259401218549,-0.00063336745300036,0.00063982256172506,-0.00037371969712649,0.00035816329924878,-0.00036834913658106,0.00035824058118267,-0.0006354074515836,0.00063218403131083,-0.00063376727073068,0.00063941289504189,-0.00068710385635663,0.00068381634994533,-0.00068558728864946,0.00068713909757271,-0.0006869687422916,0.00068395637863137,-0.00068545197372515,0.00068727894472708,-0.00058191734106118,0.00057161413010118,-0.00057734707956388,0.00056942712822483,-0.00058205302812552,0.00057147603664325,-0.00057748317780796,0.00056928944524154,-0.00037332039989794,0.00035856826078764,9.9812781196593e-08,-3.0469689654348e-07,-1.2444997123959e-06,1.0459305267424e-06,-0.00087811627892867,0.00087791713985428,-0.00084674563271669,0.00084892663288387,-0.00084118280708161,0.00084061213162776,-0.00084009039675735,0.00083872605252407,-0.00090597893496569,0.00090515366130949,-0.00090556196580227,0.00090626422178694,-0.00090591379060625,0.00090481765192912,-0.00090625512374313,0.00090668647615351,-0.00084927601344317,0.00084669957521427,-0.00085232967478839,0.00085423893783335,-0.00084059490427205,0.00084155095044236,-0.00083673527353395,0.00083689773299244,-0.00084796195993628,0.00084565705739589,1.644506490515e-06,5.6893029595292e-06,-0.00068426678967923,0.00068437129165438,1.2948441540173e-06,-9.9896918032438e-07,-0.00069803372402322,0.00069884207735816,-0.00071311880948181,0.00069652428766613,-0.00071460332325648,0.00071151705828762,-0.00070360615782519,0.0007368702711108,-0.00069579382910532,0.00070109117582815,-0.00071087203261267,0.00069876834513337,-0.00071236003310857,0.00071376457927357,-0.00073129092159319,0.00073228717560551,-0.00073205509046648,0.00073152179002833,-0.0007313048611133,0.00072964899588258,-0.0007320704766305,0.00072888503734637,-0.00070748574559585,0.00071866116059948,-0.00070308779701379,0.00070553692205902,-0.00070232548585636,0.00070630312370799,-0.00070672008063921,0.00071942396424824,-0.00070585379680567,0.00073462900254366,0.65030596713663,122718,2924,0.0024941399418741,0.0036514687892978,0.002847299586691,13.951222960018,2.680978368014e-05,2.680978368014e-05,2.680978368014e-05,3914426.0899905,0.0090335588284243
22391759,0.57444114426595,0.0095437166725758,0.0027895213159914,0.0036783274071193,0.0030758679494651,-0.00062292112417788,0.00062007102787101,-5.8040165918461e-06,-2.4040636397165e-06,-8.1016268745575e-07,-3.4843414421678e-07,-0.00037714540604059,0.00036716990697051,-0.00066032192993142,0.0006577151158828,-0.00065854105794099,0.0006654596909959,-0.00038341590740791,0.0003666858578215,-0.00037759076423737,0.00036671965353571,-0.00066076668147675,0.00065725874953859,-0.00065898618342728,0.0006650036375173,-0.00071429647339638,0.00071071208489248,-0.00071265973585102,0.00071429021322954,-0.00071414616508427,0.00071086786813502,-0.00071250921893411,0.00071444580948015,-0.00060272524443797,0.00059158956510974,-0.00059779722434429,0.0005892218867072,-0.00060287629818533,0.00059143587918917,-0.00059794870717752,0.00058906862914939,-0.00038297114884198,0.00036713679590129,1.1139414271727e-07,-3.3898190269812e-07,-1.3485746557693e-06,1.1280108023693e-06,-0.00091902289775609,0.00091880170451136,-0.00088576754746808,0.00088812430390586,-0.0008792049998614,0.00087859476089182,-0.00087801639407157,0.00087652234273019,-0.00094874689378744,0.00094785295791511,-0.00094829349829168,0.00094905122281853,-0.00094867626354357,0.0009474810352764,-0.00094904440235531,0.00094950079045158,-0.00088850387925491,0.00088570787954536,-0.00089182125749456,0.0008938755636074,-0.00087857237950221,0.00087961290996498,-0.00087443274136219,0.00087458955505653,-0.00088709360276592,0.00088459982523739,1.7758449296142e-06,6.10299377994e-06,-0.00071039356309203,0.00071050356598745,1.3938761650326e-06,-1.0864855237291e-06,-0.0007253121176491,0.00072618651096806,-0.00074163906160189,0.00072380825819227,-0.00074322483155193,0.00073989026076665,-0.00073128476070964,0.00076698711253726,-0.00072289006712242,0.00072861858638128,-0.00073920958609179,0.00072623479950483,-0.0007407991382473,0.00074232055171169,-0.00076019878817648,0.00076127466879296,-0.00076102509222253,0.00076044705027165,-0.00076022230530033,0.00075843736185471,-0.000761050179911,0.0007576112904995,-0.00073571290553882,0.00074777121865862,-0.00073094134987258,0.00073358061133022,-0.00073011706281026,0.00073440913916149,-0.0007348849733114,0.00074859605145449,-0.00073371521760547,0.00076456354432413,0.66901198509521,122718,2924,0.0025866498035645,0.0038211992543868,0.0029558642709237,14.801033806613,3.3608270452904e-05,3.3608270452904e-05,3.3608270452904e-05,3980254.7771519,0.009407791306325
22891759,0.59794741201925,0.0098724559688609,0.002876252789775,0.003821260642287,0.003174942536799,-0.00064146315613053,0.00063836839556837,-6.2722156242765e-06,-2.6125590444479e-06,-8.8065773333421e-07,-3.7633010518424e-07,-0.00038045244161057,0.00036957560852095,-0.00068071559959351,0.00067790293293537,-0.00067878021885477,0.0006862584132726,-0.00038726538840145,0.00036923127479977,-0.00038093885514198,0.00036908393979628,-0.00068120147913561,0.00067740456906217,-0.00067926645893724,0.00068576034024556,-0.00073873464406988,0.00073483549331854,-0.00073696571631742,0.00073869201805882,-0.0007385704605458,0.00073500562780687,-0.00073680132744586,0.00073886197145846,-0.00061929121495134,0.00060725150427381,-0.00061397151017152,0.00060471340760666,-0.0006194562297934,0.00060708369306123,-0.00061413695062655,0.0006045460213669,-0.0003867795471726,0.00036972361082496,1.2187861375416e-07,-3.699455948573e-07,-1.4553390166252e-06,1.2149067999714e-06,-0.00095659387372685,0.00095635276545604,-0.00092057154233608,0.00092311207697893,-0.00091389573133929,0.0009132412645902,-0.00091259729980628,0.00091097765352844,-0.00098867606538706,0.00098771176632183,-0.00098818441038343,0.00098900084815979,-0.00098860089842294,0.00098730755428098,-0.00098898831058637,0.00098947565219053,-0.000923511982243,0.00092049262706694,-0.00092702334807174,0.00092923361087977,-0.00091321895914332,0.00091434428807754,-0.0009087219920979,0.00090888225624577,-0.00092200421625433,0.00091931487323036,1.9234577662412e-06,6.5403615954487e-06,-0.00073228932680507,0.00073241651422029,1.502015937887e-06,-1.1723915493124e-06,-0.00074688595855323,0.00074784969602575,-0.00076524819594372,0.00074614267722138,-0.00076692357292534,0.00076333383774697,-0.00075337319625205,0.00079171881717802,-0.00074427437208848,0.00075047217781141,-0.00076262862311849,0.00074875902468322,-0.00076430811697041,0.0007659542613493,-0.00078582727376457,0.00078699278905619,-0.00078671820034621,0.00078610043617884,-0.0007858715688939,0.00078394749309252,-0.00078676421381614,0.00078305683054383,-0.00075921486937053,0.00077216132013492,-0.00075401442012899,0.00075687237085425,-0.00075312566608832,0.00075776575199779,-0.00075832212486225,0.00077305065312949,-0.00075599395564942,0.00078910562476357,0.59348875359801,122718,2924,0.0026632504186726,0.0039770570165504,0.0030468678407252,15.341191408244,3.792953126595e-05,3.792953126595e-05,3.792953126595e-05,4009322.2563858,0.0097343628885351
23391759,0.62131399822654,0.010216969334531,0.0029672496993328,0.0039707874211893,0.0032789322140089,-0.00066224567849682,0.00065896224806442,-6.6076674990068e-06,-2.7455495163482e-06,-9.1957927707702e-07,-4.0963035312745e-07,-0.00039351648295928,0.00038227389777824,-0.00070494297580108,0.00070192864685442,-0.00070289383636838,0.00071063577262905,-0.00040069598182898,0.00038183698153317,-0.00039400811015239,0.00038177758731243,-0.00070543381864692,0.00070142460913638,-0.00070338545769268,0.0007101324347036,-0.0007629806746335,0.00075882741294333,-0.0007611170629881,0.00076290593965685,-0.00076281460271799,0.00075899964174505,-0.00076095058859939,0.00076307779256969,-0.00063822251573512,0.00062549321312537,-0.00063261868993888,0.0006228236861372,-0.00063838909585018,0.00062532338683527,-0.00063278609872823,0.00062265468719962,-0.00040020565926764,0.00038233470058932,1.1779717713164e-07,-3.7884337388851e-07,-1.5040129767657e-06,1.2507435470119e-06,-0.00099347507498299,0.00099322114202951,-0.00095525284797481,0.00095786483036823,-0.00094669300358682,0.00094600169931394,-0.00094526892324451,0.00094360333969359,-0.001028678463252,0.001027674443707,-0.0010281777677104,0.0010290119313882,-0.0010285824270967,0.0010272459902725,-0.0010290331792351,0.0010295348724042,-0.00095828053172651,0.00095516413472064,-0.00096205102514505,0.00096432942434035,-0.00094599928123138,0.00094714440570188,-0.00094132235157301,0.00094149331905352,-0.00095672179906609,0.00095393870620786,2.0290245782054e-06,6.8973148884548e-06,-0.00075620822112036,0.00075633978896149,1.5526508238856e-06,-1.2076117404079e-06,-0.00077208678244463,0.00077316715340228,-0.00079189046316028,0.00077189956927093,-0.00079367742208177,0.00078995539452915,-0.00077877623831156,0.00081877026818052,-0.00076939287842863,0.00077587256350112,-0.00078918728025807,0.00077459919585163,-0.00079097857772608,0.00079265931275301,-0.00081197580522267,0.00081318709574393,-0.0008128955204741,0.00081226596164774,-0.00081199556433358,0.0008099495178843,-0.0008129170776644,0.00080903015060906,-0.0007841415698552,0.00079793485101282,-0.00077872329408726,0.00078175701641165,-0.00077780619042227,0.00078267893410077,-0.00078322028144434,0.00079885252310868,-0.00078147986647623,0.00081607471112228,0.62584069172871,122718,2924,0.0027492501398849,0.004130053450842,0.0031462372353715,15.634100745129,4.027280596103e-05,4.027280596103e-05,4.027280596103e-05,4124199.57557,0.010076085223956
23891759,0.64603072103095,0.010635982794954,0.0030768136276993,0.0041532533861172,0.0034059157811375,-0.00068714564318014,0.00068350767731694,-7.2669098383627e-06,-3.0647261743098e-06,-1.0130272688348e-06,-4.3221674362868e-07,-0.00039684594281743,0.00038426993367371,-0.00073347446379965,0.00073018225787027,-0.00073121030434584,0.0007397298143082,-0.00040479671558908,0.0003840532797899,-0.00039740546158908,0.00038370463850719,-0.00073403377094835,0.00072960863810296,-0.00073177007893491,0.00073915657061289,-0.00079462690721357,0.00079004764553234,-0.0007925798547088,0.00079448256086163,-0.00079443770127435,0.00079024365029386,-0.00079239039479209,0.00079467834227093,-0.00066215233277163,0.00064816073189593,-0.00065600701009604,0.00064517478385992,-0.0006623422643981,0.00064796759808801,-0.0006561974572005,0.00064498216484427,-0.00040423790127561,0.00038461939464499,1.3846574988411e-07,-4.2716709232698e-07,-1.6749902866577e-06,1.3950548172822e-06,-0.0010428327379189,0.0010425520422466,-0.0010032642377623,0.0010061817728831,-0.00099458567155799,0.00099382975150547,-0.00099302940368349,0.00099116367865901,-0.001078090021078,0.0010769781535031,-0.0010775222395808,0.0010784576999289,-0.0010779902184553,0.0010764995517922,-0.0010784368088223,0.0010789934108526,-0.0010066577246909,0.0010031826723698,-0.0010108289935897,0.0010133665853033,-0.00099381755453594,0.0009951078634244,-0.00098860664003303,0.00098878730061709,-0.0010049261903565,0.0010018307426492,2.2344577090823e-06,7.484148320212e-06,-0.00078536066557283,0.00078552487456481,1.7230932697765e-06,-1.3523335122751e-06,-0.00080334212122848,0.00080450764229129,-0.00082419567026429,0.00080227241647852,-0.00082609520397263,0.00082197918638083,-0.00081083718709027,0.00085490400115137,-0.00080033931620569,0.00080752334988234,-0.00082118332261291,0.00080528077717682,-0.00082308776282946,0.00082499239135961,-0.00084461937544953,0.00084597259613872,-0.00084564386289469,0.00084494643489615,-0.00084470096501813,0.00084248915511151,-0.00084572751568082,0.0008414650180905,-0.00081773347010514,0.0008327152200804,-0.00081162234635064,0.0008149428866204,-0.00081060046635067,0.00081597025155887,-0.00081670680161751,0.00083373771913975,-0.00081385096830077,0.00085189941939006,0.72029407872103,122718,2924,0.0028520553389943,0.0043347296618776,0.0032673986192947,16.931084137782,5.0648673102252e-05,5.0648673102252e-05,5.0648673102252e-05,4112634.5181207,0.010509154206676
24391759,0.67130227767171,0.011050361555904,0.003185530469368,0.0043351000092363,0.0035297310772993,-0.00070934803452226,0.00070531409053146,-8.0488854808203e-06,-3.4237204156018e-06,-1.1256787725448e-06,-4.4887532606712e-07,-0.00039337283600976,0.00037911203643944,-0.00075828006393117,0.00075470443778539,-0.00075575185460408,0.00076531900037803,-0.00040228508482318,0.00037926234335732,-0.00039402502961596,0.00037845340716989,-0.00075893211230143,0.00075403629752173,-0.00075640431850561,0.00076465116979213,-0.0008253705253541,0.0008202970292459,-0.00082310108502597,0.00082513435799439,-0.00082515015714702,0.00082052527465432,-0.00082288047981163,0.0008253624049408,-0.00068297083957355,0.00066750409059534,-0.00067616867393487,0.00066416369311457,-0.00068319225120951,0.00066727916628172,-0.00067639057086092,0.00066393925309558,-0.00040163349595822,0.00037992170656003,1.686325100571e-07,-4.9064384147713e-07,-1.8386492149809e-06,1.5267459655705e-06,-0.0010925234104481,0.0010922106092611,-0.0010508459931697,0.0010540524025085,-0.0010428548327255,0.0010420596109698,-0.0010411493763878,0.001039060212584,-0.0011279270827821,0.0011267165100877,-0.0011273035403311,0.001128337017137,-0.0011278346232511,0.0011261824673135,-0.0011282842017861,0.0011288760217791,-0.001054587062954,0.0010507594985781,-0.0010591717799412,0.0010619353913366,-0.0010420281680178,0.0010434758525469,-0.0010361172993048,0.0010362712412713,-0.0010526545546765,0.0010492693880817,2.4999042405758e-06,8.1953120663845e-06,-0.00081118376642141,0.00081141150955103,1.9038084477458e-06,-1.46762030937e-06,-0.0008291535378788,0.00083054140167221,-0.00085261615510585,0.00082854287534603,-0.00085462237700366,0.00085014631111473,-0.00083777488995476,0.00088660151379927,-0.00082586159209242,0.00083384789440176,-0.0008493137643013,0.00083184081788128,-0.00085132557119774,0.00085344975358937,-0.00087553219863083,0.00087705575752561,-0.0008766551697679,0.00087593079627069,-0.00087570282172127,0.00087327274414319,-0.00087682817174347,0.00087215011407341,-0.00084807959953535,0.00086446652524875,-0.00084111398996436,0.00084484192271854,-0.00083999385774633,0.00084596833581182,-0.0008469539633117,0.00086558734059222,-0.00084107927822646,0.00088330764409883,0.6966732932835,122718,2924,0.0029435806682175,0.0045407171265915,0.0033747907003104,17.854570506045,5.8036564048359e-05,5.8036564048359e-05,5.8036564048359e-05,4057086.7660174,0.01091841893809
24891759,0.69618215242043,0.011409824470331,0.0032809933347314,0.0044932905974397,0.0036355405381602,-0.00072939349044135,0.00072510439749914,-8.5528449911209e-06,-3.6187816924601e-06,-1.189356406304e-06,-4.7716912232525e-07,-0.00040112781657986,0.00038611535363466,-0.00078116153057388,0.00077736041323467,-0.00077845466398922,0.00078859885816906,-0.00041064878061255,0.00038629971200976,-0.00040181402451036,0.00038542321848535,-0.00078184727440447,0.0007766571624025,-0.00077914135095951,0.00078789643370898,-0.00085096324034781,0.00084552842301749,-0.00084854935963435,0.00085066835426037,-0.00085073144349583,0.00084576880950544,-0.0008483170716084,0.00085090829495652,-0.000700442627991,0.00068397653512712,-0.00069320800149513,0.00068045642631679,-0.00070067529470047,0.00068373967958359,-0.00069344167134744,0.00068022057093311,-0.00040996405158514,0.00038699346881279,1.733001963284e-07,-5.1971526318822e-07,-1.9070565431561e-06,1.5713730674147e-06,-0.0011333724871983,0.0011330358720608,-0.0010883607848305,0.0010916653262531,-0.0010794288068157,0.0010786043244333,-0.0010775583391947,0.0010753739051952,-0.0011722736924296,0.0011710125324172,-0.0011716392954227,0.0011726990429537,-0.0011721677488162,0.0011704422456889,-0.0011726822206127,0.0011732775502382,-0.0010922115718723,0.0010882385121494,-0.0010970220683437,0.0010998610785627,-0.001078587338941,0.0010800814905187,-0.0010723129838809,0.0010724474061784,-0.001090196860655,0.0010866888971291,2.6704017860545e-06,8.7157595611479e-06,-0.00083374570185063,0.0008339979726178,1.9829379132771e-06,-1.5034190353401e-06,-0.00085162417176318,0.00085322443352833,-0.00087786633654779,0.00085255534360598,-0.00087999283026724,0.00087534537957368,-0.00086072833035996,0.00091205428925486,-0.00084822229862589,0.00085664208915731,-0.00087445205358047,0.00085596468037891,-0.00087658459686363,0.00087876066898473,-0.00090192647591112,0.00090352779939389,-0.00090308793015937,0.00090236425868451,-0.00090209359190538,0.00089947189822815,-0.00090325761300102,0.00089831087120386,-0.00087190743591213,0.00088946101680602,-0.00086453558951658,0.00086855348347229,-0.00086337760642609,0.00086971821376687,-0.00087074350660042,0.00089061970188235,-0.00086414372941847,0.00090865036497203,0.61363158009265,122718,2924,0.0030263837918502,0.004710037762559,0.0034685440488202,18.325730457644,6.1805843661154e-05,6.1805843661154e-05,6.1805843661154e-05,4114469.8982123,0.011268145338858
25391759,0.72213944898241,0.011847469723321,0.0033968232397896,0.0046851724776252,0.003765474005906,-0.00075746258790232,0.00075288434611505,-9.0705364282726e-06,-3.8456032784018e-06,-1.2577966033274e-06,-4.9459400722977e-07,-0.00041830366955003,0.00040265829365884,-0.0008143234902722,0.00081028460770887,-0.00081143864055017,0.00082207552972054,-0.00042844394734523,0.00040276725705577,-0.00041903859943924,0.00040191610938733,-0.00081505857627787,0.00080953110584141,-0.00081217426993607,0.00082132244668682,-0.00088325005595474,0.00087741600883989,-0.0008806919971781,0.0008828609920628,-0.00088300152749646,0.00087767351569232,-0.00088044317099426,0.00088311825479257,-0.00072669915674512,0.00070918806205554,-0.00071903466487039,0.00070541529774411,-0.00072694870896321,0.00070893449927264,-0.00071928481844216,0.00070516233137216,-0.00042770979364836,0.00040351036265912,1.8157060166799e-07,-5.6078624985471e-07,-2.0903009011041e-06,1.722669035155e-06,-0.0011833827497858,0.0011830141271705,-0.0011361021066253,0.0011397192722181,-0.0011251853962048,0.0011242652415941,-0.0011231490056653,0.0011207721473508,-0.0012250143545821,0.0012236271145174,-0.0012242995759021,0.0012254548992876,-0.0012248877469741,0.0012230033650799,-0.0012254069767885,0.0012260650770257,-0.0011403063241628,0.0011359570013368,-0.0011453268193309,0.0011484453401209,-0.0011242537655561,0.0011258747636108,-0.0011176707640188,0.0011178353227162,-0.0011381902673256,0.0011343390844364,2.8157517005848e-06,9.229062188505e-06,-0.00086504543211136,0.00086528507421271,2.1457798915214e-06,-1.6748880837884e-06,-0.00088613160537345,0.00088767774454192,-0.00091352499797957,0.00088663152618712,-0.00091579809142568,0.00091071179804663,-0.0008954368044203,0.00094954225855681,-0.00088240171284533,0.00089142470223897,-0.00090978264047361,0.00089036850667017,-0.00091206223305497,0.0009144551672712,-0.00093549896430278,0.0009372045632435,-0.00093677160155236,0.00093592975545717,-0.00093565338866742,0.00093288262752497,-0.00093692876814384,0.0009316105003017,-0.00090576328325275,0.00092450618614798,-0.00089798062590932,0.00090216512105658,-0.00089671137933624,0.0009034415618018,-0.00090448767761869,0.0009257761556054,-0.00089918128379991,0.00094581010647,0.71638642109267,122718,2924,0.0031424338908875,0.0049172976408591,0.0035984874189176,19.82989699395,7.3839175951602e-05,7.3839175951602e-05,7.3839175951602e-05,4217306.780304,0.011726616983648
25891759,0.74791086302784,0.012287941330757,0.0035124873207102,0.0048801566995089,0.0038952973105379,-0.00078004077087151,0.00077495115121437,-1.0079801234791e-05,-4.3406273616819e-06,-1.4063816167196e-06,-5.1234354625937e-07,-0.00040917968887062,0.00039112502926437,-0.00083945648075465,0.00083506857092951,-0.00083622933261673,0.00084829256689542,-0.00042057543939034,0.0003919149723367,-0.00041004100963849,0.00039025586390731,-0.0008403180372987,0.0008341864043954,-0.00083709137754848,0.00084741074542527,-0.00091590974676537,0.00090945057980086,-0.00091306511257178,0.00091539759443839,-0.00091561871835487,0.00090975200589039,-0.00091277380303075,0.00091569880184298,-0.00074819823814096,0.00072879710056187,-0.00073969420454665,0.00072455420015347,-0.00074849072601197,0.00072850023244829,-0.00073998726523276,0.00072425790010405,-0.00041971478934103,0.00039278497233569,2.2475088063986e-07,-6.4527283852751e-07,-2.2841034194066e-06,1.8768846790562e-06,-0.0012376665839294,0.0012372581875976,-0.0011882145826178,0.0011921760214619,-0.0011791151473739,0.001178163781476,-0.0011768971188421,0.0011742379725372,-0.0012784368251673,0.0012769372121844,-0.0012776573801589,0.0012789321025558,-0.0012783244615313,0.0012762420208388,-0.0012788279650755,0.0012795197595372,-0.0011928445368562,0.0011880721244656,-0.0011984286076979,0.0012018057424702,-0.001178121668168,0.0011799431280707,-0.0011705654027,0.0011706794194667,-0.001190460746826,0.0011862720424972,3.1637646120285e-06,1.0098373244766e-05,-0.00089028698037709,0.00089063644770696,2.369500284344e-06,-1.8001758957515e-06,-0.00091099686914333,0.00091287864621543,-0.00094167095173183,0.00091210200733624,-0.00094404917409126,0.00093855004858253,-0.00092191537433449,0.00098220221575833,-0.00090692603329992,0.00091696851095283,-0.00093758661207727,0.00091618039685785,-0.00093997219592802,0.00094263565026791,-0.00096692033899943,0.00096884686935077,-0.00096830906628292,0.00096745554267242,-0.00096721306727834,0.00096418249591171,-0.0009686049543152,0.00096279425468254,-0.00093678288208383,0.00095724396523,-0.00092784032957154,0.00093256859278303,-0.00092645526871845,0.0009339618538454,-0.0009353905265776,0.00095862979355564,-0.00092600263472201,0.00097812903793971,0.72745708413827,122718,2924,0.0032352971777314,0.0051421572604434,0.0037035395926841,20.751278230751,8.121022584601e-05,8.121022584601e-05,8.121022584601e-05,4105781.5611383,0.012154473066859
26391759,0.77137917477709,0.01272252759559,0.003628245416317,0.0050716162069251,0.0040226659723474,-0.00080168544328864,0.00079620663929647,-1.085943169226e-05,-4.6722834776797e-06,-1.5118856874952e-06,-5.122518504682e-07,-0.00041105186486257,0.00039163029463956,-0.00086529049771271,0.00086063063262475,-0.00086178437460381,0.00087487169104991,-0.00042346135126195,0.0003926000197734,-0.00041201524466477,0.00039065831146478,-0.00086625405219785,0.0008596442940599,-0.00086274839544148,0.00087388566260564,-0.00094446738755384,0.00093748782744123,-0.00094139746916769,0.00094383972912431,-0.0009441421542584,0.00093782474065355,-0.00094107195540941,0.00094417643238202,-0.00076844373969198,0.00074754437118921,-0.00075927168851546,0.00074292162753959,-0.00076877082905599,0.00074721250791405,-0.00075959935994162,0.00074259033922855,-0.00042249860988216,0.0003935728265932,2.5405554146936e-07,-7.1871247709205e-07,-2.459377430556e-06,2.0096420995962e-06,-0.0012864692136121,0.0012860181423136,-0.001234958442394,0.0012392137341449,-0.0012254798087446,0.001224483010313,-0.0012230702517762,0.0012201636636056,-0.0013280553443089,0.0013264452500402,-0.0013272148703435,0.0013285843557666,-0.0013279451401713,0.0013256835838432,-0.0013284557550652,0.0013291736711972,-0.0012399417696806,0.001234790869915,-0.0012459056487154,0.0012495077245579,-0.0012244245818076,0.0012264056889614,-0.0012161984529728,0.0012162701767416,-0.0012373730562748,0.0012328746929728,3.4323367103171e-06,1.0843586036512e-05,-0.00091402878050804,0.00091443569884879,2.555650514165e-06,-1.9231174526843e-06,-0.00093607143038798,0.00093816997872486,-0.00096950414397652,0.00093779661490514,-0.00097201397084638,0.0009661344689181,-0.00094791730718815,0.0010126440498553,-0.00093169894605894,0.0009425634511724,-0.00096511697811687,0.00094217728600789,-0.00096763492852349,0.00097052307739802,-0.0009949317866281,0.00099702758464191,-0.0009964233742223,0.00099553311529651,-0.00099528540113687,0.0009920191887304,-0.00099678047746166,0.00099052812276747,-0.00096483294126118,0.00098689914849641,-0.00095509023581598,0.00096022682913407,-0.0009536026182252,0.00096172347373687,-0.00096333727508653,0.00098838759033808,-0.00095230789007923,0.0010082689775597,0.78667634666428,122718,2924,0.0033244880662014,0.0053442611540079,0.0038022417264604,20.418259742301,7.8546077938404e-05,7.8546077938404e-05,7.8546077938404e-05,4112166.1536203,0.012549307565888
26891759,0.79419792942815,0.013125535044427,0.0037360489529603,0.0052499498471573,0.0041395362443098,-0.00082248334442497,0.00081656268605071,-1.1761477205361e-05,-5.0782631605593e-06,-1.6343822203276e-06,-5.3248719340804e-07,-0.00040761829214564,0.00038623833663997,-0.00088883744748807,0.0008838501952644,-0.00088501104379194,0.00089938246174542,-0.00042118073118273,0.0003877170097764,-0.00040868008763114,0.00038516755905043,-0.00088989972583068,0.00088276337192537,-0.00088607375381754,0.00089829589016331,-0.00097366690766439,0.00096611704888688,-0.00097033650203047,0.00097294333826499,-0.00097330843159037,0.00096648835690644,-0.00096997775247301,0.00097331445226741,-0.00078765830475875,0.000765048069986,-0.00077771921681884,0.00076002534972614,-0.00078801889007276,0.00076468241008001,-0.00077808038084103,0.00075966026050128,-0.0004201195227493,0.00038878858138195,2.8497569759567e-07,-7.8692718199814e-07,-2.6439433580467e-06,2.1583576900397e-06,-0.0013356840925423,0.0013351970284519,-0.0012814260766019,0.0012860054186248,-0.0012730704167722,0.0012720230540484,-0.0012704436799286,0.0012672917265694,-0.0013778529996925,0.0013761296829785,-0.0013769469254327,0.0013784252063867,-0.0013777509846758,0.0013753095031173,-0.0013782511920168,0.0013790111746189,-0.0012867821863635,0.0012812358749627,-0.0012931176930917,0.0012969772275996,-0.0012719539683624,0.0012741063489683,-0.0012628413559205,0.0012628896351368,-0.0012840051459615,0.0012791778643026,3.7478127463804e-06,1.1663396313773e-05,-0.0009358008484286,0.00093628872365008,2.76518483716e-06,-2.0480325660784e-06,-0.00095712355188353,0.00095950663918588,-0.00099453200609206,0.00096044197881172,-0.00099715641895863,0.00099087454286968,-0.00097024289416675,0.0010402184376812,-0.00095242446404426,0.00096422857928447,-0.00098981714044378,0.00096514972995713,-0.00099245046770055,0.00099559097895347,-0.001022411639068,0.0010247058941556,-0.0010240145272389,0.0010230998169112,-0.0010228590964282,0.0010193293444317,-0.0010244658335175,0.0010177270178966,-0.00099084329433321,0.0010145781019036,-0.00098013806622486,0.00098576141257312,-0.00097853944211156,0.00098736992564077,-0.0009892357970915,0.0010161775608683,-0.00097496180549542,0.001035516672179,0.750276560455,122718,2924,0.003410070913841,0.0055480295466459,0.0038928183815745,21.226456367982,8.5011650943854e-05,8.5011650943854e-05,8.5011650943854e-05,4046106.1688578,0.012934105714326
27391759,0.81639579037443,0.013504496477241,0.0038385344140277,0.0054171918771328,0.0042487701860808,-0.0008439006860531,0.0008376534223539,-1.2414780136967e-05,-5.3470045115956e-06,-1.721684057835e-06,-5.5154781957612e-07,-0.00041572079070008,0.00039332329736761,-0.00091393159817573,0.00090868880382923,-0.00090986725879536,0.00092505435830121,-0.00043011597373491,0.00039490289578042,-0.00041684809679037,0.00039218649731689,-0.00091505968025794,0.00090753467836967,-0.0009109957736881,0.00092390046771848,-0.0010008017785265,0.00099278795061959,-0.00099728474616448,0.00099999618969836,-0.0010004211428679,0.00099318231332538,-0.00099690382764877,0.0010003903563104,-0.00080673180248871,0.00078283800573245,-0.00079623801031165,0.00077754673371278,-0.0008071146903025,0.00078244976514538,-0.00079662151054351,0.0007771590923283,-0.00042898927277705,0.00039604052299871,2.9793332355621e-07,-8.3966717615761e-07,-2.799336623501e-06,2.2751069659112e-06,-0.0013805501291716,0.0013800243419374,-0.0013228289975341,0.0013276585063442,-0.0013141915959999,0.0013130783514064,-0.0013113508391413,0.0013080041188255,-0.0014257090237582,0.0014238787144887,-0.0014247450684568,0.001426297780698,-0.0014255976652352,0.0014230052015675,-0.0014261113075652,0.0014269017122151,-0.0013284600117625,0.0013225865802825,-0.0013349441486871,0.0013390097156198,-0.0013130174953058,0.0013152852000638,-0.0013033721567802,0.0013034069440839,-0.001325569375914,0.0013204590269504,3.9620233908205e-06,1.2309363993421e-05,-0.00095817838125153,0.00095870023681426,2.9240350127281e-06,-2.1624915301214e-06,-0.00098069443827355,0.00098321791666101,-0.0010208734212219,0.00098509188508435,-0.0010236318125643,0.0010169925805018,-0.00099437800492945,0.0010676732659001,-0.00097572880700588,0.00098820812925868,-0.0010158908114188,0.00099006678138168,-0.0010186587551464,0.0010219767666389,-0.0010485989571617,0.0010510196073691,-0.0010502928579945,0.0010493223752799,-0.0010490526305973,0.0010453089713678,-0.0010507506385385,0.0010436157380768,-0.001015424568259,0.0010406202837055,-0.0010041594207918,0.0010101005776458,-0.0010024701052244,0.0010118004287129,-0.0010137257653765,0.0010423104534863,-0.00099936494403256,0.0010627047522697,0.72451637575547,122718,2924,0.0034984086416661,0.0057337621183209,0.003985792569783,22.213100384034,9.2904803072269e-05,9.2904803072269e-05,9.2904803072269e-05,4070128.0395538,0.01330598239082
27891759,0.83735003945545,0.01388094526087,0.0039402795283707,0.0055832949188703,0.0043573708136289,-0.00086433513377285,0.00085771416456653,-1.3146963147788e-05,-5.6813853094699e-06,-1.8257254076208e-06,-5.7277176477884e-07,-0.00041995186096614,0.00039618608225103,-0.00093798622384686,0.00093246353769026,-0.00093366187938056,0.00094980128856102,-0.00043526900432475,0.00039803806693344,-0.0004211589791557,0.00039496904942427,-0.0009391943144797,0.00093122786694406,-0.00093487039114019,0.00094856582220739,-0.0010272369351079,0.0010187195308504,-0.0010235114896332,0.0010263435087644,-0.0010268293395048,0.0010191417854208,-0.0010231036090178,0.0010267655738114,-0.0008254535495545,0.00080013925802066,-0.00081434677341402,0.00079452628097122,-0.0008258635845919,0.00079972361360283,-0.00081475743583933,0.00079411124784751,-0.00043406248520731,0.00039925593918232,3.1778999428802e-07,-9.0000599929704e-07,-2.958221253366e-06,2.3947133751077e-06,-0.001425046961839,0.0014244818010594,-0.0013644011966023,0.0013694912873304,-0.0013560730677865,0.0013549054995357,-0.0013530222888988,0.0013494637857522,-0.0014720460143098,0.0014701108106566,-0.0014710239073349,0.0014726572858445,-0.0014719291334435,0.0014691781111576,-0.0014724441926859,0.0014732615836305,-0.0013703341278178,0.0013641218798831,-0.001377100016992,0.0013813723688595,-0.00135484284129,0.0013572416038859,-0.0013445476371012,0.0013445561004683,-0.0013672974815152,0.001361902022595,4.2052480363259e-06,1.2985694132489e-05,-0.00097932424594168,0.0009799065569641,3.0929711799784e-06,-2.2732318577055e-06,-0.0010032359495509,0.0010059535769167,-0.0010459493938498,0.0010082991830885,-0.0010488289833105,0.0010418352946842,-0.0010177370594536,0.0010949541058385,-0.00099799734572042,0.0010112183631265,-0.0010406927902899,0.001013547522371,-0.0010435825589068,0.0010470935146779,-0.0010735800294338,0.0010761456795943,-0.001075367038705,0.0010743551654837,-0.0010740684199868,0.0010701104504257,-0.0010758598040208,0.0010683241916058,-0.0010396165331075,0.0010663151529046,-0.0010276581242287,0.0010339680922101,-0.0010258759764015,0.001035761413814,-0.0010378242761275,0.0010680981503238,-0.001022998397,0.0010897124901656,0.76282598426134,122718,2924,0.003582576047408,0.0059179195471503,0.0040737056136858,22.881252872784,9.8250022982272e-05,9.8250022982272e-05,9.8250022982272e-05,4068485.5863619,0.01366704661326
28391759,0.85679587435465,0.014257508215085,0.0040422014828108,0.0057493802891543,0.0044659264431202,-0.0008831550166066,0.00087606623910736,-1.4099567971817e-05,-6.1257029678908e-06,-1.9629208852059e-06,-5.9186170415818e-07,-0.00041473849643131,0.00038882143189417,-0.00095971624971697,0.00095385897707078,-0.00095505198756998,0.0009725945486325,-0.00043128915577308,0.00039128306577357,-0.00041605977741175,0.00038748998841259,-0.00096103859096475,0.00095250722788818,-0.00095637471402405,0.00097124295114159,-0.0010538922594766,0.0010447759505322,-0.0010498901732217,0.0010529105726171,-0.0010534462616792,0.0010452378500228,-0.0010494438985051,0.0010533723004133,-0.0008433576644107,0.00081624512451819,-0.00083144373219973,0.00081019830345101,-0.00084380646753636,0.00081579041379692,-0.00083189315936567,0.00080974420157758,-0.0004299684319278,0.00039261532941957,3.5493704602991e-07,-9.77756270833e-07,-3.1422502825352e-06,2.5396921012671e-06,-0.0014711010414078,0.001470496675924,-0.0014082717080563,0.0014136837089344,-0.0014015212402323,0.0014003168933167,-0.0013982521872888,0.0013944309631929,-0.0015177867115952,0.0015157417072655,-0.0015166998032294,0.0015184424753467,-0.001517683048794,0.0015147451906613,-0.0015181752764674,0.0015190249022818,-0.001414588019978,0.0014079761080852,-0.0014218099743686,0.0014263272014401,-0.0014002351958413,0.0014028160759534,-0.0013889571644361,0.0013889219128967,-0.0014113235187492,0.001405605314406,4.5440783677131e-06,1.3820746492056e-05,-0.00099770161013916,0.00099839016097254,3.3074285461528e-06,-2.3891535360149e-06,-0.0010211988128898,0.0010242540764609,-0.0010678514325314,0.0010277361619823,-0.001070835314744,0.0010634566516565,-0.0010371388116411,0.0011199161893141,-0.0010156374133245,0.0010298433014992,-0.0010622711608722,0.0010333076475386,-0.0010652659511027,0.001069038692718,-0.00109738021276,0.0011001595564462,-0.0010992771543605,0.0010982588008469,-0.0010979749975569,0.0010937564567679,-0.0010998766599402,0.0010918602879641,-0.0010627033644316,0.001091097858761,-0.0010497088942127,0.001056548485067,-0.0010478170735714,0.0010584522933561,-0.0010608006516267,0.0010929905229104,-0.0010427244963983,0.0011143517465428,0.82233028262121,122718,2924,0.0036598859623624,0.0061084575650081,0.0041502342421003,23.414586319234,0.00010251669055387,0.00010251669055387,0.00010251669055387,3985733.6955801,0.014016225215605
28891759,0.87468402151759,0.014594919232941,0.0041346280529086,0.0058977699583198,0.0045625212217132,-0.0008990999132379,0.00089156757958968,-1.5057549338371e-05,-6.5405198880008e-06,-2.1144931323973e-06,-5.9264765863951e-07,-0.00040703525389427,0.00037895632910421,-0.00097784200171265,0.00097168408590559,-0.00097282445609431,0.00099189867488056,-0.00042489949400011,0.00038203917499553,-0.00040850346698891,0.00037747778946356,-0.00097931055765546,0.00097018363375711,-0.0009742935156579,0.00099039847629377,-0.0010779165159468,0.0010682053269014,-0.0010736301309547,0.0010768693871891,-0.0010774217737473,0.0010687177621142,-0.0010731350408053,0.0010773815878047,-0.00085814100637956,0.00082924325026043,-0.0008453970770992,0.00082280041055806,-0.00085863932435025,0.00082873844281141,-0.00084589617826543,0.00082229637449777,-0.00042343202914618,0.00038351875674762,4.0441187640445e-07,-1.0758014293219e-06,-3.3123529367543e-06,2.6632473851703e-06,-0.0015134076208558,0.0015127565117327,-0.0014480591591071,0.0014537617312915,-0.0014432237894726,0.0014420188607277,-0.0014397742340199,0.0014356619346332,-0.0015600256549801,0.0015578855622566,-0.0015588852435707,0.0015607288725515,-0.0015599556961607,0.001556824452381,-0.0015604339404171,0.001561286195718,-0.0014547258182121,0.0014477306873451,-0.0014623323988015,0.0014670415136268,-0.0014418983472327,0.0014446740882524,-0.0014296320702387,0.0014295012938633,-0.0014512250537276,0.0014452221980865,4.9011372593045e-06,1.468012935348e-05,-0.001011973815536,0.0010127724035332,3.5129156835053e-06,-2.4791961355995e-06,-0.0010334917834904,0.0010369553427119,-0.0010852342577436,0.0010426859226489,-0.0010883190960326,0.0010806059936054,-0.0010509572748413,0.0011392995225073,-0.0010276423238789,0.0010428342102426,-0.0010793647938259,0.0010485462264071,-0.0010824612262884,0.0010864774814325,-0.0011178229800222,0.0011208225429997,-0.0011198183148111,0.0011188230709547,-0.0011185251666934,0.0011140200554345,-0.0011205255538795,0.0011120254875835,-0.001081199467615,0.0011112764545577,-0.0010671700368033,0.0010745852863582,-0.0010651802322443,0.0010765879298912,-0.0010791980195069,0.0011132671648823,-0.0010568324298984,0.0011334469174582,0.79975737494462,122718,2924,0.0037253113787169,0.0062834181969408,0.0042097419847687,23.939498071827,0.00010671598457461,0.00010671598457461,0.00010671598457461,3877803.1240075,0.014320404741485
29391759,0.89124750502078,0.014855057225037,0.0042070482020343,0.0060119145008738,0.0046360945221286,-0.00091226555826177,0.00090445206733284,-1.5663036837478e-05,-6.7669018059216e-06,-2.1926886521686e-06,-6.3657650099617e-07,-0.00040918236151223,0.00038004079126813,-0.00099323831941575,0.00098680407642019,-0.00098799003021032,0.0010078665661499,-0.0004278200803221,0.00038335343585226,-0.00041068260116152,0.00037852994096189,-0.00099473984452233,0.00098527019728021,-0.00098949190174791,0.0010063327684266,-0.0010963985899914,0.0010862739320558,-0.0010919347490267,0.001095333029247,-0.0010958925339944,0.001086798042562,-0.001091428413575,0.0010958569806018,-0.00086881094972089,0.00083872374204247,-0.0008555435449769,0.00083211571973846,-0.00086932047735034,0.0008382077655661,-0.00085605373510704,0.00083160039000124,-0.00042632038515281,0.00038486514511098,4.0654594222465e-07,-1.1056305447316e-06,-3.4641145329716e-06,2.7879191585091e-06,-0.0015457783552123,0.0015451001513635,-0.0014764206272492,0.0014823779232752,-0.0014725536425924,0.0014712602548305,-0.0014689012425083,0.0014646380846154,-0.0015956941648889,0.0015934463718446,-0.0015944888093728,0.0015964084915816,-0.0015956187732979,0.0015923578960669,-0.0015960877877918,0.0015969941396821,-0.0014833320754241,0.0014760282592408,-0.0014908588553031,0.0014958010664775,-0.0014711716158546,0.0014740427587289,-0.0014583814846442,0.0014582837986057,-0.0014797577255254,0.0014734677198948,5.1085280376936e-06,1.527149774947e-05,-0.0010239311842253,0.0010247651543689,3.6776654227408e-06,-2.5917987532296e-06,-0.0010453240015082,0.001048907803177,-0.0011004250852257,0.0010563820259078,-0.0011036178023122,0.0010955584847066,-0.0010632990534648,0.0011546045349234,-0.0010392032381882,0.0010550592645905,-0.0010942836955774,0.001062513683637,-0.0010974884806599,0.0011017017636158,-0.0011338223041209,0.0011369552426465,-0.0011359099678337,0.001134863384458,-0.0011345189363823,0.0011298161981758,-0.0011366118496055,0.0011277294306996,-0.0010943606722652,0.0011256820620353,-0.0010798500467431,0.0010875679278503,-0.0010777680782693,0.0010896632314153,-0.0010922665671295,0.0011277649165755,-0.0010694466730459,0.0011484805453304,0.66449988364994,122718,2924,0.003779461033491,0.006417304727943,0.0042594698777563,24.733816619524,0.00011307053295619,0.00011307053295619,0.00011307053295619,3847809.5478805,0.014561619368489
29891759,0.90634282936788,0.015099346188529,0.004275214176519,0.0061184752273647,0.0047056567846458,-0.00092683751683028,0.00091888475219418,-1.5879048864675e-05,-6.8405096013224e-06,-2.2258539634461e-06,-6.7236363556444e-07,-0.00042628645886161,0.00039741901301662,-0.0010119470663813,0.0010053649276627,-0.0010066201832893,0.0010264825053616,-0.00044513715492407,0.00040037269842583,-0.00042778387206659,0.00039591086267731,-0.0010134458486739,0.0010038331813485,-0.0010081195521726,0.001024951083454,-0.0011120534647381,0.0011016782755399,-0.0011075381969752,0.0011109482825563,-0.0011115481344054,0.0011022017772784,-0.001107032461832,0.0011114715032742,-0.00088076332706684,0.00085016708037874,-0.00086733381790012,0.00084352595698957,-0.00088127185153876,0.00084965184002338,-0.00086784326767167,0.00084301161652808,-0.0004436406672717,0.00040188209967449,3.8805278021144e-07,-1.1205811122314e-06,-3.5169168638099e-06,2.8074755445551e-06,-0.0015726783515357,0.0015719669709387,-0.0014993899428768,0.0015053837710403,-0.0014943262623547,0.0014929711378828,-0.0014905126290994,0.0014861953213495,-0.001627845186005,0.001625538639102,-0.0016266202058116,0.0016285302002179,-0.0016277348664435,0.001624417953835,-0.0016282540080254,0.0016291533915619,-0.0015063256062844,0.001498918958082,-0.0015137350658758,0.0015187161627362,-0.0014929207860143,0.0014957786412001,-0.0014801673377817,0.0014800639826852,-0.0015027978596644,0.0014964026394798,5.148515165679e-06,1.556175005519e-05,-0.0010394911662159,0.0010403214930607,3.7166998691973e-06,-2.6265398351976e-06,-0.0010658922519784,0.0010694648455823,-0.0011203903736388,0.0010760357162515,-0.0011237048323514,0.00111549219956,-0.0010834831933702,0.0011749228044185,-0.0010597009536648,0.0010756877706878,-0.0011141770581256,0.0010822388685675,-0.0011175037735946,0.0011217071580986,-0.0011492441710869,0.0011523662376066,-0.0011513566076618,0.001150249801487,-0.0011498209520638,0.0011450155178834,-0.0011519386465521,0.0011429041800147,-0.0011094027909578,0.0011416697414913,-0.0010949756539313,0.0011027524733872,-0.0010928693315045,0.0011048721862141,-0.0011072842484955,0.0011437769331089,-0.0010897020154421,0.001168728041614,0.68461390406998,122718,2924,0.0038396556485691,0.0065285770473749,0.0043240254131732,25.429796141594,0.00011863836913275,0.00011863836913275,0.00011863836913275,3950231.9691901,0.014801103227233
30391759,0.9199309446944,0.015288979379819,0.0043278757105272,0.0062018463791453,0.0047592572901465,-0.00093532596110128,0.00092700477737825,-1.6638302805812e-05,-7.2217297284463e-06,-2.3605460583269e-06,-7.213994364446e-07,-0.00041541848465113,0.00038438981958324,-0.0010205422278289,0.0010136550502691,-0.00101495166773,0.0010360246844972,-0.00043521690966513,0.00038818404335743,-0.00041699887797894,0.00038279862249395,-0.0010221243503442,0.0010120394939739,-0.0010165341112869,0.0010344091682082,-0.0011269387991538,0.0011160994488753,-0.0011222019387558,0.0011258286275379,-0.0011264054174355,0.0011166515976879,-0.0011216682790326,0.0011263806297271,-0.00088826419445563,0.0008562525475061,-0.00087420172305211,0.00084937309706398,-0.00088880107756241,0.00085570908031591,-0.00087473928298495,0.00084883028809898,-0.00043363705465108,0.00038977611794341,4.1787766935657e-07,-1.1744981530578e-06,-3.668437570561e-06,2.935689418453e-06,-0.0015988069957089,0.0015980722362139,-0.0015228430703191,0.0015291157783029,-0.0015207965460909,0.0015194070044329,-0.0015168710801021,0.0015123546429022,-0.0016542926007566,0.0016518981912771,-0.0016530033062924,0.0016550109680384,-0.0016542021179698,0.0016507411261195,-0.0016546708117758,0.0016556116183363,-0.0015300837399322,0.0015223517342256,-0.001537726700641,0.0015429306582346,-0.0015193412257846,0.0015223505477291,-0.0015058029193099,0.0015056864120109,-0.0015263900087911,0.0015197253488147,5.4160236043281e-06,1.6136611507996e-05,-0.0010456557730905,0.0010465739878589,3.8944961763578e-06,-2.7289299367996e-06,-0.0010692058634512,0.0010730245608925,-0.0011277880039206,0.001081584732327,-0.0011311492391031,0.0011226221426908,-0.0010880740967435,0.0011839440764674,-0.0010627394426702,0.0010795230839222,-0.0011212999632912,0.0010880623953187,-0.001124673778893,0.0011291118883082,-0.0011604781760286,0.0011637794430358,-0.0011626837816249,0.0011615696467679,-0.0011611428174663,0.0011561609810103,-0.0011633538747014,0.0011539564633459,-0.0011180172568021,0.0011512749659072,-0.0011027729247156,0.0011109582402555,-0.0011005733513885,0.0011131716330815,-0.0011158050369129,0.0011534753648771,-0.0010945686644505,0.0011774743931536,0.59098872163378,122718,2924,0.0038742496979409,0.0066365841508394,0.0043498343632712,26.075399301268,0.00012380319441014,0.00012380319441014,0.00012380319441014,3829232.9718794,0.014972053524176
30891759,0.93226913502666,0.015489377247545,0.0043839069411465,0.006288870305281,0.0048166000011178,-0.00094758355214266,0.00093910072097384,-1.6908821929335e-05,-7.3261103337637e-06,-2.4038401104463e-06,-7.5222966084111e-07,-0.00042680736706695,0.00039571204730459,-0.0010361806001213,0.0010291413372674,-0.0010304918090078,0.0010517198287467,-0.00044691419502639,0.0003993175840077,-0.00042839977356074,0.00039410864355733,-0.0010377747642884,0.0010275132663082,-0.0010320863567741,0.0010500918607236,-0.00114065452129,0.0011295650098619,-0.0011358469588479,0.0011395031309915,-0.0011401169382524,0.0011301214578852,-0.0011353090567976,0.0011400593968495,-0.00089892445299873,0.00086633229023112,-0.0008846488389033,0.00085936115162194,-0.00089946541262514,0.00086578463453923,-0.00088519056458666,0.00085881423664901,-0.00044532244080482,0.00040092199369586,4.096756115401e-07,-1.1943075939072e-06,-3.7338905597496e-06,2.9734124478566e-06,-0.0016223154392666,0.0016215529824266,-0.0015436946608004,0.0015500447025323,-0.0015410122653393,0.0015395714263002,-0.0015369488081038,0.0015323585881147,-0.0016810166353916,0.0016785639709664,-0.0016797005271416,0.0016817189454681,-0.001680905725053,0.0016773790719196,-0.0016813970872522,0.0016823412387259,-0.0015510150558166,0.0015431504161227,-0.0015586353435082,0.0015639088920168,-0.0015395309960961,0.0015425577817177,-0.0015258780165778,0.0015257565325483,-0.0015473231712714,0.0015405335798078,5.487643107978e-06,1.6450260425673e-05,-0.0010580612215122,0.0010589967486732,3.9572325948081e-06,-2.7703501867581e-06,-0.0010850962351759,0.001088941565756,-0.0011438639064668,0.001097120602344,-0.0011473211685365,0.0011386332099199,-0.0011038906861631,0.0012005933641464,-0.0010785286264504,0.0010955419013714,-0.0011372739758259,0.0011036998775201,-0.0011407439560149,0.0011452246925188,-0.0011733164564168,0.0011766436088022,-0.0011755568472658,0.0011743991530203,-0.0011739097271102,0.0011688357129248,-0.0011761555796446,0.0011665965439836,-0.0011309476203211,0.0011650663336318,-0.0011156237777187,0.001123914505066,-0.0011133896251436,0.0011261625202622,-0.0011287007564961,0.0011673012925835,-0.0011104868895408,0.0011940223401908,0.68714590328657,122718,2924,0.0039248075359852,0.0067337930473997,0.0044013471888023,27.063956618365,0.00013171165294692,0.00013171165294692,0.00013171165294692,3874619.2207799,0.015174338870103
31391759,0.94350143899392,0.015679395158168,0.0044368159275543,0.0063716301848505,0.0048709490457636,-0.00095656764377264,0.00094760578682196,-1.7965868905034e-05,-7.829201916581e-06,-2.574263849908e-06,-7.8288944474176e-07,-0.0004069390792139,0.00037262544953572,-0.0010445359457408,0.0010371187519088,-0.0010384630728724,0.0010615904908009,-0.00042846874362634,0.00037753313599484,-0.00040866723546099,0.0003708867801648,-0.0010462657812022,0.0010353537968198,-0.0010401932068173,0.0010598255234738,-0.0011579555876417,0.0011462877934108,-0.0011528255752948,0.0011567946732469,-0.0011573725136854,0.0011468909690975,-0.0011522422176042,0.0011573977114075,-0.00090841509917139,0.00087390490075447,-0.00089322129254068,0.00086652356558973,-0.00090900209212956,0.00087331102580577,-0.00089380899314549,0.00086593038735811,-0.00042674113236352,0.00037927273083601,4.6727568958391e-07,-1.273567353697e-06,-3.8986360075885e-06,3.1178857550293e-06,-0.0016519435827592,0.0016511606779951,-0.0015726839336249,0.0015793624421996,-0.0015739959687865,0.0015725661161469,-0.001569812040911,0.0015649632278589,-0.0017072548580565,0.0017047251560056,-0.001705880732614,0.0017080277513125,-0.0017071968049014,0.0017035010283093,-0.0017076199314672,0.0017086005569651,-0.0015803972990086,0.0015721638403672,-0.0015885685455179,0.001594078969366,-0.0015724827456338,0.0015757259493908,-0.0015575466869469,0.0015573721705896,-0.0015764076157201,0.0015693406580489,5.9051992904672e-06,1.724702439356e-05,-0.0010622887865413,0.0010633736424716,4.1818502259321e-06,-2.8562455869873e-06,-0.0010830464616535,0.0010874160975737,-0.0011485887271807,0.0010991386869736,-0.0011520701273631,0.0011430885182996,-0.0011040657165154,0.0012075250235801,-0.0010761745055306,0.0010943213156675,-0.0011416946276917,0.0011060219728552,-0.0011451892373042,0.0011499844259154,-0.0011849767889685,0.0011885880917374,-0.0011873204429028,0.0011862399495289,-0.0011857749720355,0.0011804404517685,-0.0011881244178966,0.0011780979071945,-0.0011400994807719,0.0011754568436063,-0.0011234498264927,0.0011324166540444,-0.0011211124841845,0.0011347685904804,-0.0011377487325678,0.001177794958564,-0.0011109670661777,0.0012006500004573,0.71628541114011,122718,2924,0.0039612932104107,0.0068562082938825,0.0044192782399388,28.357433968381,0.00014205947174705,0.00014205947174705,0.00014205947174705,3653822.7493973,0.015353922660482
31891759,0.95336909567741,0.015849309181828,0.0044851560923503,0.0064446006840434,0.0049195524054346,-0.00096459883683222,0.00095536073025161,-1.8623910334116e-05,-8.0558632120108e-06,-2.6653937880474e-06,-7.9762629931796e-07,-0.00040144753125124,0.00036568257278903,-0.0010538996944929,0.0010462304229143,-0.0010475625691675,0.0010717739914059,-0.00042392510596699,0.00037104360469287,-0.00040324971399497,0.00036386994323861,-0.0010557035752749,0.0010443903953511,-0.001049366731724,0.0010699339210767,-0.0011709518669263,0.0011588919431608,-0.0011656153926141,0.0011697831358981,-0.0011703440096913,0.0011595207441077,-0.0011650072472825,0.0011704118007561,-0.00091575223702877,0.00088000757177748,-0.00089995767659732,0.00087241124441891,-0.00091636430087982,0.00087938840845603,-0.00090057047816997,0.00087179280938552,-0.00042212347697096,0.00037285719816762,4.9250705951737e-07,-1.3224926112172e-06,-4.0206001889471e-06,3.2172035226298e-06,-0.0016755945077511,0.0016747888723208,-0.001594778750277,0.0016016763462396,-0.0015975850272614,0.0015961311924264,-0.0015932599532259,0.0015882411496262,-0.0017308235533549,0.0017282226153444,-0.0017294057213872,0.0017316288887809,-0.0017307939602153,0.0017269771308459,-0.0017311982217027,0.0017322051516874,-0.0016027289532131,0.0015942313597348,-0.0016109994739946,0.0016166792946548,-0.0015960461360944,0.0015994124406711,-0.0015804043423205,0.0015802070174425,-0.0015985982947196,0.0015913167928101,6.1743112647816e-06,1.7856340542091e-05,-0.0010668523458381,0.0010680127981552,4.3411309929233e-06,-2.9196163884972e-06,-0.0010853479797844,0.0010900254423926,-0.0011553936328791,0.0011042637673277,-0.0011589371046045,0.0011497297450519,-0.0011073867918537,0.0012145935441933,-0.0010782584493549,0.0010971490604654,-0.0011482815129282,0.0011113648184661,-0.0011518385715347,0.0011568437462337,-0.0011941023088542,0.0011978948134453,-0.0011965200835048,0.0011954723778233,-0.001194969669449,0.0011894234662196,-0.0011973934325189,0.0011870068138411,-0.001147333608319,0.0011838002663116,-0.0011299855766896,0.0011393857873212,-0.001127574315392,0.0011418121495321,-0.00114490848827,0.0011862123216067,-0.0011145064754447,0.0012075009467178,0.72644232686627,122718,2924,0.0039941536090775,0.0069539224259669,0.0044384271287908,29.266044243265,0.00014932835394612,0.00014932835394612,0.00014932835394612,3547374.8079675,0.015505981813305
32391759,0.96157095185756,0.016003562645335,0.0045294211548499,0.0065102633518959,0.0049638781385897,-0.00097054375270739,0.00096107295744753,-1.9179143472225e-05,-8.2484036266568e-06,-2.7516948083618e-06,-8.0332519826439e-07,-0.00039711565919807,0.00036018675764625,-0.0010614392062188,0.0010535693079438,-0.0010548798099208,0.0010799916661312,-0.0004203992814208,0.00036589925273678,-0.00039899640638097,0.00035829550839949,-0.0010633213545536,0.0010516498068271,-0.0010567622659796,0.0010780721387752,-0.0011807108299399,0.0011683041723831,-0.0011752011963636,0.0011795368626988,-0.0011800769071986,0.0011689599901317,-0.0011745669624948,0.0011801925258671,-0.00092102227331733,0.0008842334601639,-0.00090472247953808,0.00087647941339733,-0.00092166083137405,0.00088358753047798,-0.00090536183783831,0.00087583427659062,-0.00041851914738938,0.00036779154950239,5.1798170062437e-07,-1.375700103581e-06,-4.1229529513567e-06,3.2929399801241e-06,-0.0016949593570642,0.0016941270199458,-0.001612630405709,0.0016197022783962,-0.0016167028565337,0.0016152398127527,-0.0016122728215033,0.0016070898463965,-0.0017503750448198,0.0017477145931502,-0.0017489219956768,0.0017512043924367,-0.001750371278245,0.0017464424503301,-0.0017507655840163,0.0017517792352996,-0.0016207736043678,0.0016120487703063,-0.00162910940947,0.0016349108853699,-0.0016151427859213,0.0016186182899889,-0.0015989673909834,0.0015987243837567,-0.0016165295467394,0.0016090733424308,6.3983835209437e-06,1.836403895067e-05,-0.0010700083650208,0.0010712318381036,4.4700430836581e-06,-2.9700665379229e-06,-0.0010878337413547,0.0010927723104222,-0.0011609384176548,0.0011084451238204,-0.0011645380591749,0.0011551447163472,-0.0011106619695272,0.0012208809495815,-0.0010805691771544,0.0011000717426668,-0.0011536507532311,0.0011157215263605,-0.001157264303838,0.0011624343526173,-0.0012005619032778,0.0012044998719569,-0.0012030394012658,0.0012020175787793,-0.0012014752142504,0.0011957428772209,-0.0012039588622308,0.0011932665199882,-0.0011526902595192,0.0011901322116951,-0.0011347885700366,0.0011445529911534,-0.0011323178084721,0.0011470392978592,-0.0011502052644237,0.001192603809273,-0.0011179573546938,0.0012136132623569,0.79219730183482,122718,2924,0.0040184210349151,0.0070339055222504,0.004451700913211,29.297808273989,0.00014958246619191,0.00014958246619191,0.00014958246619191,3474677.827046,0.015625356637256
32891759,0.96832245446193,0.016110964421872,0.0045605331601013,0.0065559820107001,0.0049944492510705,-0.00097303073311645,0.00096328860121521,-1.9858457181247e-05,-8.4993459677577e-06,-2.84600606446e-06,-8.2890806017602e-07,-0.00038444329419413,0.00034563926377254,-0.0010638488515545,0.0010557015954411,-0.0010570193981266,0.0010833643097775,-0.00040869142922257,0.00035210493155116,-0.00038639039274371,0.00034368201090094,-0.001065797664779,0.0010537149685353,-0.0010589684441427,0.0010813775602144,-0.0011881936531074,0.0011754137708903,-0.0011824654805463,0.0011870481651255,-0.001187537322981,0.0011760926091382,-0.0011818088684131,0.0011877268839415,-0.00092321450005371,0.00088517336045889,-0.00090628645336813,0.0008772383212334,-0.0009238756545566,0.0008845047689098,-0.00090694836755408,0.00087657048860122,-0.00040674487426688,0.00035406318932162,5.4668189794166e-07,-1.4137030491663e-06,-4.2365770459568e-06,3.3979930058461e-06,-0.0017105720629393,0.0017097310849283,-0.0016271180785754,0.0016344180169566,-0.0016334622975697,0.0016319832832718,-0.0016289257439932,0.0016235954710024,-0.0017650145479784,0.0017622955031716,-0.0017635182274136,0.0017658874358235,-0.0017650462132822,0.0017610135527292,-0.0017654047646491,0.0017664599564419,-0.0016355065659192,0.0016265366518398,-0.0016439840819131,0.0016499688971445,-0.0016318794697657,0.0016354842300892,-0.0016149149681651,0.0016146699882415,-0.0016311019373513,0.0016234452757702,6.6873901561789e-06,1.8911198862893e-05,-0.00106804978621,0.0010693536947824,4.6289008292463e-06,-3.0309742321186e-06,-0.0010815061075359,0.0010867995836148,-0.0011598079019825,0.0011055856938876,-0.001163437221526,0.0011538448368877,-0.0011056046192909,0.0012198998450292,-0.0010740261894113,0.0010943147241736,-0.0011523049534473,0.0011130772246949,-0.0011559484634464,0.0011613498282914,-0.0012037065877059,0.001207845318996,-0.0012062572138761,0.0012052896966896,-0.0012047286028692,0.0011987856464303,-0.0012072855663649,0.001196236134084,-0.0011531836239526,0.0011914886365679,-0.001134495374187,0.0011447289296936,-0.00113195156207,0.001147288722424,-0.0011506251678507,0.0011940332650931,-0.0011131158364478,0.0012124169959796,0.66888370250489,122718,2924,0.0040282898600599,0.0070983753200588,0.0044438138058089,29.182774698349,0.0001486621975868,0.0001486621975868,0.0001486621975868,3341768.1782835,0.015692879752602
33391759,0.97393365296056,0.016213486791256,0.0045904794636212,0.0065990252631614,0.0050239820644737,-0.0009781719066655,0.00096846633576375,-1.9726819242306e-05,-8.3874471726776e-06,-2.8385974268034e-06,-8.3768699175115e-07,-0.00040041989472566,0.00036294569521213,-0.0010726842370816,0.0010645609453444,-0.0010658960493829,0.0010916317608141,-0.00042447019261392,0.00036862912343167,-0.00040235159564911,0.00036100303543412,-0.0010746174287903,0.0010625893262864,-0.0010678295131219,0.0010896600746473,-0.001191742713004,0.0011789232637676,-0.0011860682884318,0.0011905750015322,-0.0011910918193705,0.0011795968371745,-0.0011854170877148,0.0011912484295491,-0.00092619140593168,0.00088830319953646,-0.00090939754922832,0.00088050203387417,-0.00092684723380152,0.00088763981976327,-0.00091005419574368,0.00087983945724277,-0.00042253909995693,0.00037057285926919,5.2163529757561e-07,-1.4225193044486e-06,-4.2568601885773e-06,3.3847017342471e-06,-0.0017194530348494,0.001718578547726,-0.0016329559739534,0.0016402239739636,-0.0016380011232085,0.0016364693812044,-0.0016334009114505,0.0016280501589779,-0.0017786264505166,0.0017758658818696,-0.0017771184477647,0.0017794510641402,-0.0017786284860372,0.00177456610668,-0.0017790347130629,0.0017800651275113,-0.0016412711894783,0.0016322663034893,-0.0016493014956939,0.0016552653067198,-0.0016363995052703,0.0016399564449127,-0.0016199480282858,0.0016196874694202,-0.001637008109276,0.0016293055508927,6.5982964045318e-06,1.894952432267e-05,-0.0010750070111826,0.0010762698741054,4.6184398144015e-06,-3.0489011388799e-06,-0.0010962703145055,0.001101357959929,-0.0011710125525107,0.0011173521483584,-0.0011747229221479,0.0011650475087766,-0.001119283726933,0.0012315908718169,-0.0010887841661657,0.0011088802537637,-0.0011635023975356,0.0011248506324493,-0.0011672270127654,0.0011725595358946,-0.0012077647635988,0.0012118221220699,-0.0012103179674667,0.001209264171716,-0.0012086154541805,0.0012026645654955,-0.0012111749193906,0.0012001126565064,-0.0011588890377759,0.0011976666496713,-0.0011406898336169,0.0011507647573068,-0.0011381436699267,0.0011533268682798,-0.0011563283176797,0.0012002137155702,-0.0011268016191118,0.0012241013142676,0.76703045550565,122718,2924,0.0040496339091347,0.0071350783429896,0.0044725674802401,29.274766833644,0.00014939813466915,0.00014939813466915,0.00014939813466915,3444030.9710565,0.01578102600871
33891759,0.97873721142681,0.016300508710139,0.004615669370178,0.0066358656462787,0.0050489736936819,-0.00098210483529139,0.00097204016120754,-2.0546210142315e-05,-8.7866701757244e-06,-2.9426847896265e-06,-9.0337902106508e-07,-0.00038273061577865,0.00034232658271386,-0.0010751350848529,0.0010666252864995,-0.0010680486834287,0.0010953422391816,-0.00040782329128328,0.00034936762186286,-0.00038469828819275,0.0003403498126879,-0.0010771048818343,0.0010646171773189,-0.001070019250233,0.0010933345188278,-0.0012012535594529,0.001188031001047,-0.0011953221900766,0.0012001325438692,-0.0012005897954902,0.0011887176309455,-0.0011946578508746,0.0012008187696794,-0.00093119994776206,0.00089182113461056,-0.00091368298154016,0.00088372702302469,-0.00093186802857589,0.00089114507417054,-0.00091435242413761,0.00088305232419223,-0.00040585686411396,0.00035134613474155,5.4967943887469e-07,-1.4309084156513e-06,-4.2783216703353e-06,3.4257088284141e-06,-0.0017354346227577,0.0017345796414412,-0.0016494784483935,0.0016568389854913,-0.0016576880069892,0.0016561910741605,-0.0016529730042297,0.001647585625142,-0.0017909180936105,0.0017881683207648,-0.0017894197866105,0.0017918064874169,-0.0017909498109729,0.0017868719178773,-0.0017913393244293,0.0017923974867967,-0.0016579256543586,0.0016488671647373,-0.0016666164108926,0.0016726481131229,-0.0016561213393259,0.0016597547200456,-0.0016385246114539,0.0016382691275896,-0.0016534303563846,0.0016456987619315,6.9466887103097e-06,1.949718866529e-05,-0.0010734857012514,0.0010748815708882,4.7156666637242e-06,-3.0165262662948e-06,-0.0010872947708396,0.0010930223699298,-0.0011684447500265,0.001112843665697,-0.001172150134988,0.0011624732426176,-0.0011124086797211,0.0012300408631506,-0.001079746835289,0.0011006061371707,-0.0011608719426872,0.0011204046572093,-0.0011645918056276,0.0011700479421343,-0.0012123406715938,0.0012166000677742,-0.0012149156666036,0.0012140200282969,-0.0012133843026937,0.0012071979893627,-0.0012159657863456,0.0012046242026263,-0.0011608080683837,0.0012003354455695,-0.0011415194073442,0.0011522202706227,-0.0011389519288695,0.001154804048918,-0.0011582255711792,0.0012029036588478,-0.0011199886173798,0.0012224901723065,0.76172156471974,122718,2924,0.0040653609224073,0.0072011072810134,0.0044666133223044,30.027104727853,0.00015541683782283,0.00015541683782283,0.00015541683782283,3263779.3195505,0.015858073352645
34391759,0.98292851509687,0.016372450243248,0.0046368360909641,0.0066659933647532,0.0050696207875311,-0.00098713263630499,0.00097697191101538,-2.0791850118519e-05,-8.837976963684e-06,-2.9971041076889e-06,-8.9335744169621e-07,-0.00038516332034356,0.00034448758699028,-0.0010812828021732,0.0010727049029832,-0.0010740873031042,0.0011017600040033,-0.0004106736572668,0.00035151908088852,-0.00038719432624198,0.00034244646065633,-0.0010833157532078,0.0010706330334668,-0.0010761204824536,0.001099687985765,-0.0012079154477674,0.001194514404892,-0.0012019060512389,0.0012067878050607,-0.0012072308951441,0.0011952224085258,-0.0012012212064742,0.0012074956890965,-0.00093540205354477,0.00089555499335052,-0.00091765435559582,0.00088741611165992,-0.00093609169760714,0.00089485771016705,-0.00091834480359162,0.00088671963263283,-0.00040864322460946,0.00035356127641501,5.6728967339676e-07,-1.476864933406e-06,-4.4152763062574e-06,3.5353209486808e-06,-0.0017469550215264,0.0017460726302566,-0.0016595732197564,0.0016671696473726,-0.0016683449656663,0.0016668008063231,-0.001663596109624,0.0016580360602697,-0.0018034968356698,0.0018006596248255,-0.0018019293523823,0.0018043909368999,-0.001803551383656,0.0017993443982462,-0.0018038958115371,0.0018049871803421,-0.0016682541947388,0.0016589053926306,-0.0016766820850243,0.0016829073012749,-0.0016667172118993,0.0016704669527009,-0.0016489773279266,0.0016487128357627,-0.0016637242998131,0.0016557446908705,7.0382070822967e-06,1.9764164226053e-05,-0.0010765210092041,0.0010779210907881,4.8486901056482e-06,-3.1293245534033e-06,-0.0010906086410211,0.0010962648809546,-0.0011733280268276,0.0011169793337869,-0.0011770761248842,0.0011671232365331,-0.0011157663115561,0.0012346429625505,-0.0010828180044942,0.0011040918246276,-0.0011655136307542,0.001124781909169,-0.0011692763306833,0.0011749396258765,-0.0012168806177616,0.0012212374197086,-0.0012195372122359,0.0012185757519364,-0.0012179134155247,0.0012116626385771,-0.0012205765431735,0.0012090072604529,-0.0011645714389795,0.0012045904913072,-0.0011451016322387,0.0011558943303105,-0.0011424521716216,0.0011585603071503,-0.0011619068478312,0.0012072407672709,-0.0011235892009018,0.0012268493606731,0.71950148343769,122718,2924,0.004086050621107,0.00724866435304,0.0044792422135328,31.389517161825,0.0001663161372946,0.0001663161372946,0.0001663161372946,3223055.8876261,0.015940240556006
34891759,0.98663263836649,0.01643996323179,0.0046567332583757,0.006694133823533,0.0050890961498816,-0.00099404906409107,0.00098382774298577,-2.0889210849444e-05,-8.8775548207596e-06,-3.0191493428733e-06,-9.1566850329449e-07,-0.00039340669886073,0.00035276514616413,-0.0010897294241601,0.0010810828859511,-0.0010824981267468,0.0011101685932679,-0.00041901668607706,0.00035971506649055,-0.0003954374439727,0.00035072433682106,-0.0010917620693275,0.0010790110586428,-0.0010845311401158,0.0011080967586258,-0.0012150895174749,0.0012015843809877,-0.0012090605855751,0.0012139612165274,-0.0012144050609733,0.0012022924166219,-0.0012083757530035,0.0012146690489154,-0.00094135416261579,0.0009012859250823,-0.0009235438394613,0.00089314463109432,-0.00094204363387008,0.0009005886353372,-0.00092423429981016,0.0008924483232429,-0.00041698672083288,0.00036175717531491,5.6012293177474e-07,-1.4833570760413e-06,-4.4271913114854e-06,3.5336787692885e-06,-0.0017580111012601,0.0017571151829595,-0.0016690699728606,0.001676662696062,-0.001677961958955,0.0016763997965826,-0.0016731589296057,0.0016675823992227,-0.001816288475704,0.0018134338689226,-0.0018147183057757,0.0018171699197726,-0.0018163347277388,0.0018121109209079,-0.001816702203149,0.0018177841747705,-0.0016777310975806,0.0016683589697996,-0.001686053787221,0.0016922757594489,-0.0016763344050663,0.001680073109751,-0.0016586316155176,0.0016583576247682,-0.001673230053073,0.0016652266460944,7.0556602509706e-06,1.9910557661594e-05,-0.0010829364105325,0.0010843451427589,4.8617571752272e-06,-3.1274916329199e-06,-0.0010995729604176,0.0011052443428606,-0.0011817454720674,0.0011253074020946,-0.0011855388645779,0.0011755427184166,-0.001124594307878,0.0012435577269856,-0.0010917723168969,0.0011130816541571,-0.0011739203638726,0.0011331205434441,-0.0011777284148953,0.0011833697280534,-0.0012230308226601,0.0012273792997324,-0.0012256912612673,0.0012247138652339,-0.0012240052646845,0.0012177070448869,-0.001226672235054,0.0012150479019133,-0.0011709911488403,0.0012114352784841,-0.0011515728075743,0.0011623979402856,-0.0011489197430057,0.0011650675531704,-0.0011683229238822,0.0012140891718131,-0.0011324274435698,0.0012357540300534,0.76368749739881,122718,2924,0.0041146183411138,0.0072943609332321,0.0045058781210068,33.428521876033,0.00018262817500826,0.00018262817500826,0.00018262817500826,3224874.4204219,0.016042752914174
35391759,0.98986338041497,0.016492378965678,0.004672204311236,0.0067160401185187,0.0051041345359235,-0.0010004524193837,0.0009900396545673,-2.1323360055354e-05,-9.0862807179807e-06,-3.0758999479742e-06,-9.5545252593128e-07,-0.00038966154812341,0.00034751073988638,-0.0010955777129567,0.001086713878697,-0.0010881851579586,0.0011166697892202,-0.00041582925031111,0.00035516219475221,-0.00039170808326557,0.00034545512146825,-0.0010976264801986,0.0010846259763195,-0.0010902345918657,0.0011145821544823,-0.0012243024877271,0.0012105745243153,-0.0012181393414305,0.0012232039620646,-0.0012236123202261,0.0012112883688894,-0.0012174486365682,0.0012239174476994,-0.00094801736342152,0.00090714900295774,-0.00092982934305105,0.00089885067683837,-0.00094871219987004,0.00090644608935964,-0.00093052549419166,0.00089814907831209,-0.0004137838650398,0.00035721949762232,5.7211104565653e-07,-1.4872935176913e-06,-4.4392547838982e-06,3.553726178176e-06,-0.0017709267764527,0.0017700388336305,-0.0016818921273168,0.0016895294011076,-0.0016923413020293,0.0016907921617435,-0.0016874669942043,0.0016818723234803,-0.0018278395214864,0.0018249873951616,-0.0018262743221231,0.001828750846366,-0.0018279013912737,0.0018236684372142,-0.0018282667016296,0.0018293619410674,-0.0016906123667106,0.00168121158915,-0.0016992337443935,0.0017054894791023,-0.0016907343617451,0.0016945075175247,-0.0016724439073565,0.0016721732438142,-0.0016860000574122,0.001677978745196,7.2364173141696e-06,2.0234575699585e-05,-0.0010857906296234,0.0010872679418475,4.9150708724766e-06,-3.1077384549564e-06,-0.0010985261591476,0.0011045288578861,-0.0011843738001934,0.0011269199641137,-0.0011881811901974,0.001178177820456,-0.0011245878467149,0.0012463118322103,-0.0010906937783399,0.0011123977283532,-0.0011765163618575,0.0011347653580762,-0.0011803385068312,0.001186037143732,-0.0012291950454471,0.0012336447107316,-0.0012318668023638,0.0012309678346097,-0.0012302497560762,0.0012238199117313,-0.0012329281484266,0.0012211494220552,-0.0011754047928818,0.0012163304036847,-0.0011554550540445,0.0011666044435413,-0.0011527909753522,0.0011692852285961,-0.001172725339732,0.0012189952241682,-0.0011324528157816,0.001238476717399,0.67947291040117,122718,2924,0.0041408647774701,0.0073477318351165,0.0045179077044489,35.837080761358,0.00020189664609086,0.00020189664609086,0.00020189664609086,3122523.5951758,0.016135897160425
35891759,0.99248927121801,0.016537169716621,0.0046855090096282,0.0067345937049337,0.0051170670020593,-0.0010058252580416,0.00099546467009653,-2.1153329911755e-05,-8.9975316388669e-06,-3.0728377639651e-06,-9.5227662948619e-07,-0.00040348146510918,0.00036238846721475,-0.0011031185463555,0.0010943269222935,-0.0010957898484057,0.0011237395386827,-0.00042941116774132,0.00036945903889294,-0.00040552888844526,0.00036033113641442,-0.0011051678008105,0.0010922381324039,-0.0010978396314013,0.0011216508948928,-0.001228171817162,0.0012144603479987,-0.001222074835818,0.0012270530351037,-0.0012274817636736,0.0012151742120771,-0.0012213843231473,0.0012277666168471,-0.00095194404385856,0.00091133943486622,-0.00093393390859212,0.00090313700481276,-0.00095263909026045,0.00091063639758969,-0.00093463011142256,0.00090243511670679,-0.0004273647299992,0.00037151787854948,5.5880658427914e-07,-1.5010573019278e-06,-4.4670584895541e-06,3.5547682440151e-06,-0.0017770015181676,0.001776086846755,-0.0016859306441591,0.0016935697870498,-0.0016955492749093,0.0016939637246004,-0.0016906661575249,0.0016850342076716,-0.0018371452475882,0.0018342568692002,-0.0018355604502774,0.0018380194718301,-0.0018371909270133,0.0018329225290851,-0.0018375742150874,0.0018386527662492,-0.0016946249408764,0.0016851689488827,-0.0017028728932675,0.0017091303536295,-0.0016939165907148,0.0016976725978558,-0.0016760747860719,0.0016757860956026,-0.0016901209153477,0.0016820445417955,7.1348059541416e-06,2.0209333164044e-05,-0.0010926453613288,0.0010940881558273,4.9143574732185e-06,-3.1369145659858e-06,-0.0011108725622925,0.0011166304231243,-0.0011938504334923,0.0011369302439986,-0.0011977088898671,0.0011876163328364,-0.001136039334636,0.0012560733835914,-0.0011030121695019,0.0011245277946319,-0.0011859648808504,0.0011448036762643,-0.001189838063957,0.0011955036937005,-0.0012336223966152,0.0012380031344887,-0.001236303610389,0.0012353169907982,-0.0012345444586562,0.0012281580195374,-0.0012372322178716,0.0012254781771151,-0.001181158896067,0.0012222856936579,-0.001161634250037,0.0011725900605458,-0.0011589606690548,0.0011752802557062,-0.001178470092619,0.0012249600940036,-0.0011439324552453,0.0012482098844069,0.71348599053829,122718,2924,0.0041632104350607,0.0073728363566809,0.0045462456243763,37.445759703146,0.00021476607762517,0.00021476607762517,0.00021476607762517,3185139.5162308,0.016212893617357
36391759,0.99444404261232,0.016570055555811,0.0046952263091386,0.0067482780465959,0.0051265512000766,-0.0010069951295702,0.00099647087878065,-2.1524749539439e-05,-9.1863250799835e-06,-3.121924039929e-06,-9.8565207374772e-07,-0.00039494051783595,0.00035245033328102,-0.0011034552499478,0.0010944807455724,-0.0010959939025979,0.0011246656657274,-0.00042133025091319,0.00036018484869976,-0.00039700251027126,0.00035037922432889,-0.0011055195005675,0.0010923771957204,-0.0010980588299627,0.0011225623898994,-0.0012317091142424,0.0012178166258859,-0.0012254944820687,0.0012306189296565,-0.0012310137051728,0.0012185358246588,-0.001224798528251,0.001231337764629,-0.00095369969713198,0.00091241937717107,-0.00093536255465569,0.00090408912582426,-0.00095439978552936,0.00091171119078721,-0.00093606397763863,0.00090338227349578,-0.00041926943139262,0.00036225767065289,5.7142345541044e-07,-1.5033181058576e-06,-4.4792280277704e-06,3.5771482610551e-06,-0.0017829569925724,0.0017820525172869,-0.0016922309890128,0.0016999189959294,-0.0017033299622147,0.0017017579777876,-0.0016984053934404,0.0016927578752307,-0.0018413334656325,0.0018384488282462,-0.0018397495356547,0.0018422358275857,-0.001841391446363,0.0018371158940499,-0.0018417596840751,0.0018428545967174,-0.001700994519114,0.0016915099811604,-0.001709563972421,0.0017158602394653,-0.0017017097386752,0.0017055022429232,-0.0016833432189933,0.0016830619265637,-0.0016963830904393,0.0016882881897946,7.2927812590513e-06,2.0430663708842e-05,-0.0010912035464005,0.0010927080192524,4.9601970455561e-06,-3.1265246431282e-06,-0.0011057288346167,0.0011117722034595,-0.0011916925104559,0.0011338950635518,-0.001195544485657,0.0011854495919815,-0.001131871861079,0.0012543414498203,-0.001097834132581,0.0011197036224402,-0.0011837725291026,0.0011418028947508,-0.0011876393065579,0.0011933713930876,-0.0012348913730241,0.001239367693923,-0.001237584445761,0.0012366695513779,-0.0012359042340815,0.0012294224492328,-0.0012386039502643,0.0012267306988718,-0.0011811791237031,0.0012225763881663,-0.0011611515238974,0.0011723883540268,-0.0011584662170383,0.0011750904054105,-0.0011784784024677,0.0012252624261918,-0.0011397993286968,0.0012464439831149,0.70433655235509,122718,2924,0.0041677938089129,0.0073974332066172,0.0045404305880339,37.533459235761,0.00021546767388609,0.00021546767388609,0.00021546767388609,3107696.7878833,0.016236660108081
36891759,0.9958486105875,0.016591420037719,0.0047015878859467,0.0067571380666081,0.0051326940851641,-0.0010060055833451,0.00099544973348707,-2.1620181253973e-05,-9.1929663111118e-06,-3.1537256967596e-06,-9.6814240799978e-07,-0.00039288842606027,0.00035035400151203,-0.00110284869745,0.0010938728011584,-0.0010953426374834,0.0011241807944104,-0.00041947032993785,0.00035803334359366,-0.00039499921011229,0.00034823331498949,-0.0011049613682021,0.0010917204169466,-0.0010974555701703,0.0011220282770559,-0.0012313671244065,0.0012173988447675,-0.0012251182167301,0.0012302702353726,-0.001230655822713,0.0012181343441373,-0.0012244065890689,0.0012310055888883,-0.0009524206831963,0.00091096631153161,-0.00093398307927406,0.00090263817343464,-0.00095313732832584,0.00091024183862558,-0.00093470062476612,0.00090191460131053,-0.00041736020650013,0.00036015522887818,5.8592136786976e-07,-1.5378909252051e-06,-4.5605151878079e-06,3.6390543789927e-06,-0.0017843697182148,0.0017834458085828,-0.0016930553195351,0.0017008808951889,-0.0017044274760922,0.0017028365636801,-0.0016995167115621,0.0016937533665338,-0.001843158363873,0.0018402235046673,-0.0018415316737909,0.0018440616411738,-0.0018432329922158,0.0018388752765015,-0.0018435674288009,0.001844674062094,-0.0017019627384214,0.0016923020365312,-0.0017103786959404,0.0017167798919081,-0.0017027670206878,0.0017066355258726,-0.0016843772361577,0.0016840750866309,-0.0016973316989964,0.0016890932320582,7.3318547858005e-06,2.0517036667557e-05,-0.0010895323881501,0.0010910346815272,5.0326192557912e-06,-3.1964581166653e-06,-0.0011041808105617,0.0011101557019995,-0.0011907289227032,0.001132603855427,-0.0011945908152223,0.0011843434696827,-0.0011303049031844,0.0012532454598996,-0.0010961450327992,0.0011182283327528,-0.0011826689058269,0.0011406518080927,-0.0011865456222784,0.0011924054072024,-0.0012337526035971,0.0012382829274599,-0.0012364928722864,0.0012355375785677,-0.0012347649888255,0.0012282694825543,-0.0012375119017908,0.00122553052356,-0.0011798109417715,0.0012213430858865,-0.001159702598679,0.0011709668197709,-0.0011569697382721,0.0011737164953902,-0.0011770626744949,0.0012240767438145,-0.0011383734392671,0.0012452067772269,0.6357490455962,122718,2924,0.004163633086223,0.0074032195839378,0.0045335055222975,36.818338537428,0.00020974670829942,0.00020974670829942,0.00020974670829942,3096914.198159,0.016231277025206
37391759,0.99693469161867,0.016608759387758,0.0047067465469692,0.0067643090035476,0.0051377038372417,-0.0010087914135098,0.00099829479809582,-2.1424546913331e-05,-9.1173727871349e-06,-3.139909176952e-06,-9.7140027589501e-07,-0.00040282953357513,0.00036116500321611,-0.0011070235758698,0.00109811659839,-0.0010995980359383,0.0011279153008361,-0.00042910968262961,0.00036840877021512,-0.00040492414375979,0.00035905990135688,-0.0011091199240559,0.0010959805840611,-0.0011016944987798,0.0011257790216955,-0.0012325483364374,0.0012186349535341,-0.0012263725576525,0.0012314328788075,-0.0012318426213792,0.0012193647114459,-0.001225666590483,0.0012321625615515,-0.00095430223715796,0.00091317380871652,-0.00093606730499392,0.00090493024241794,-0.00095501340880212,0.00091245495748667,-0.00093677923503531,0.00090421214078164,-0.00042701555614791,0.00037051489852792,5.7066368154066e-07,-1.5366470422604e-06,-4.5664989659085e-06,3.6309746175482e-06,-0.0017860635042455,0.0017851255764671,-0.0016934980307757,0.0017013021148864,-0.0017041113260057,0.0017024906252482,-0.0016992043671361,0.0016934438031295,-0.0018470976573646,0.0018441439215464,-0.0018454610117768,0.0018479702677399,-0.0018471532658651,0.0018427884520597,-0.001847500431385,0.0018485981399924,-0.0017023644452159,0.0016926971716892,-0.001710527741741,0.0017169185984436,-0.0017024333122204,0.0017062706603093,-0.0016844286156748,0.0016841278665022,-0.0016978258136704,0.0016895696406789,7.2222377284642e-06,2.0421463578642e-05,-0.0010940847177854,0.0010955500642934,5.0122852082378e-06,-3.2142752048671e-06,-0.0011129754559801,0.0011187254304183,-0.0011968420968951,0.0011392821620945,-0.0012007334781358,0.0011904396533012,-0.0011383520837732,0.001259695136958,-0.0011049418230601,0.0011267960843054,-0.0011887843567825,0.001147327818347,-0.0011926904733948,0.0011984992267807,-0.0012359793907414,0.0012404335212581,-0.0012387187932746,0.0012376892114275,-0.0012368903714055,0.0012304530421977,-0.0012396363186727,0.0012277150301905,-0.001183314592236,0.0012248491314491,-0.0011635880868442,0.0011746510753095,-0.0011608559833248,0.0011773998170925,-0.0011805672755352,0.0012275820741682,-0.0011464184248132,0.0012516583716204,0.66747126441366,122718,2924,0.0041752650420577,0.0074102345731821,0.0045522846064874,37.627363642894,0.00021621890914315,0.00021621890914315,0.00021621890914315,3157870.2802164,0.016269296357597
37891759,0.99773969080082,0.016620490895494,0.0047102251438062,0.0067691880289867,0.0051410777227009,-0.0010092668993464,0.00099864940530353,-2.1700288327146e-05,-9.2648901150161e-06,-3.1701424077826e-06,-9.9938150990815e-07,-0.00039511455400703,0.00035228392013021,-0.001106425502491,0.0010973754609593,-0.0010989028035822,0.0011277945899844,-0.00042172846388795,0.00036010590710964,-0.00039721056775401,0.00035017824427868,-0.0011085237198487,0.0010952379230177,-0.0011010013073084,0.0011256569407006,-0.0012348690216752,0.0012208378732081,-0.0012286043454409,0.0012337766338143,-0.0012341623320255,0.0012215684692074,-0.0012278973093315,0.0012345070636025,-0.00095550045902259,0.00091387822681428,-0.00093702099648921,0.00090552361852767,-0.00095621220655233,0.00091315869658066,-0.0009377336969413,0.00090480503821803,-0.00041963316236925,0.00036221285040638,5.7951401121069e-07,-1.5294490484688e-06,-4.5624598432902e-06,3.6426993179885e-06,-0.0017892898089493,0.0017883676364652,-0.0016974424581577,0.0017052702152994,-0.0017091892411234,0.0017075836837383,-0.0017042518332211,0.0016985032958533,-0.001848431024148,0.0018454910857641,-0.0018468015710062,0.0018493303067682,-0.0018484952872521,0.0018441421387537,-0.0018488299668411,0.0018499450137193,-0.0017063496280933,0.0016966900723119,-0.0017148237729248,0.0017212370609749,-0.0017075274365971,0.0017113850059716,-0.0016890737928566,0.0016887901721778,-0.0017017191847275,0.0016934719459161,7.3443934965477e-06,2.0566827839398e-05,-0.0010925142338162,0.0010940286380808,5.0382044229704e-06,-3.1968076009222e-06,-0.0011076593028308,0.0011136516909281,-0.0011941407006953,0.0011359075957185,-0.001198017075203,0.001187749850764,-0.0011338793843519,0.0012571747179848,-0.0010996177972385,0.0011217299232126,-0.0011860749458232,0.0011439612462456,-0.0011899661127519,0.001195817446771,-0.001236713237178,0.0012412414299056,-0.0012394555144611,0.0012384941095054,-0.0012377121441814,0.0012312075893416,-0.001240461052693,0.0012284666473865,-0.0011829125209507,0.0012245688883397,-0.0011627668481203,0.001174052016563,-0.0011600320008926,0.0011768036011895,-0.001180162292701,0.0012273044846907,-0.0011419536060705,0.0012491304144423,0.60954457296434,122718,2924,0.0041770449287224,0.007423566816359,0.0045459013368822,37.709293813808,0.00021687435051046,0.00021687435051046,0.00021687435051046,3092892.8467126,0.016278185625045
38391759,0.99832104728878,0.016629955569364,0.004713039043742,0.0067730971890022,0.0051438193366197,-0.0010089236729777,0.00099837866299633,-2.1513055050205e-05,-9.1637422511657e-06,-3.1518231222748e-06,-9.8987295225423e-07,-0.00040112575933857,0.00035919083186253,-0.0011072735297465,0.0010983060170656,-0.0010998194455441,0.001128247295583,-0.00042748975666956,0.00036654630210149,-0.00040321369983555,0.00035709259824389,-0.0011093634377784,0.0010961766609025,-0.0011019095012286,0.0011261177032998,-0.0012331778377061,0.001219210254426,-0.0012269758970014,0.0012320674723431,-0.0012324741072414,0.0012199378556387,-0.001226271896364,0.0012327949814063,-0.00095442627219803,0.00091312413238805,-0.00093611886437345,0.00090485735881874,-0.00095513525715145,0.00091240748611235,-0.00093682864521098,0.00090414149996232,-0.00042540234422645,0.00036864560917281,5.6833207712722e-07,-1.5323338750644e-06,-4.5694782508562e-06,3.6357468112574e-06,-0.0017878265923354,0.0017868904733727,-0.0016950409113222,0.0017028521326668,-0.0017059618317874,0.0017043338874347,-0.001701031680722,0.0016952770855278,-0.0018488357487688,0.0018458790395429,-0.0018471975117954,0.0018497090704129,-0.0018488872008352,0.0018445235941925,-0.0018492332027334,0.0018503373925105,-0.0017039149589859,0.0016942440851239,-0.0017121457010242,0.001718548103809,-0.0017042844218521,0.0017081196852539,-0.0016861800059871,0.0016858903931784,-0.0016993643425563,0.0016911001524626,7.2548043943091e-06,2.0475297610595e-05,-0.0010938467817272,0.001095328600649,5.0227415468806e-06,-3.2117780331738e-06,-0.0011124972483554,0.001118303735686,-0.0011967796882051,0.0011390533658287,-0.0012006755838035,0.0011903770708309,-0.001138047863635,0.0012598481191619,-0.0011044559104265,0.0011263820207932,-0.0011887142042289,0.0011471067337655,-0.001192624834989,0.0011984443497987,-0.0012361104618084,0.0012405818473602,-0.0012388525360056,0.0012378348660215,-0.0012370284261754,0.0012305747891865,-0.001239777050776,0.0012278341101299,-0.0011833750742034,0.0012250063153753,-0.001163555861137,0.0011746775484799,-0.0011608211096228,0.0011774289189992,-0.0011806250951413,0.0012277418677826,-0.001146121909941,0.0012518037313485,0.68081525693754,122718,2924,0.0041757284218964,0.007417518224107,0.0045513379277453,37.199128399839,0.00021279302719871,0.00021279302719871,0.00021279302719871,3151730.6680821,0.016276211825968
38880000,0.99874528649113,0.016637242824719,0.0047151941572485,0.0067761186468273,0.0051459300206434,-0.0010087095592134,0.0009980064687095,-2.1919941359157e-05,-9.350162553855e-06,-3.207081625806e-06,-9.9485077926358e-07,-0.00038853751105036,0.00034496234315217,-0.0011053175155776,0.0010961975238292,-0.0010977081751335,0.0011270858979592,-0.00041548807391987,0.00035310754308308,-0.00039067421921685,0.00034281611658956,-0.0011074561216354,0.0010940192699968,-0.0010998470464556,0.0011249075065187,-0.0012358421963355,0.0012217032347616,-0.0012295018011328,0.0012347527796952,-0.0012351220589675,0.0012224476277171,-0.0012287813264835,0.001235497016436,-0.0009554132908105,0.00091340644658298,-0.00093672139938301,0.00090497487414168,-0.00095613874354167,0.00091267314509275,-0.00093744778985948,0.00090424251332013,-0.00041335205549187,0.00035525502184547,5.9824036992373e-07,-1.5517279351691e-06,-4.5920635969844e-06,3.6691341221471e-06,-0.0017915328211595,0.0017906074252321,-0.0017001252041821,0.0017080183527837,-0.00171256331183,0.0017109762871112,-0.001707625323177,0.0017018144038942,-0.0018493910803724,0.0018464429987846,-0.0018477524808532,0.0018503102922625,-0.00184947614837,0.0018450875229404,-0.0018497922531178,0.0018509090293939,-0.0017091210277292,0.0016993897833503,-0.0017177523237499,0.0017242036487505,-0.0017108994763309,0.0017148127222949,-0.0016921324199905,0.0016918235912862,-0.0017044094349617,0.0016961178289166,7.4481732170276e-06,2.070496363411e-05,-0.0010902813947841,0.0010918268122834,5.082685178479e-06,-3.2086192165904e-06,-0.0011026830473008,0.0011088299025003,-0.0011913928843509,0.0011325587408839,-0.0011952615840979,0.0011849636537088,-0.0011294861505196,0.0012542998865443,-0.0010945861465535,0.0011169633697281,-0.0011832720149464,0.0011406675905076,-0.0011871555440477,0.0011930864651956,-0.0012363800574617,0.0012409833111745,-0.0012391410528748,0.0012382171745954,-0.0012374449862614,0.0012308825292942,-0.0012402126624061,0.0012281228157699,-0.0011816762273307,0.001223470307747,-0.0011612023652152,0.0011726614764188,-0.0011584487686289,0.0011754319052464,-0.0011789071728236,0.0012262246524171,-0.0011376156995746,0.0012462003009005,0.71913113407407,122718,2924,0.0041745999614216,0.0074327975731118,0.00453673044118,37.193701503417,0.00021274961202734,0.00021274961202734,0.00021274961202734,3045988.1647292,0.016275775137113
