time,ASR_ext,ASR_strain,ASR_strain_xx,ASR_strain_yy,ASR_strain_zz,disp_x_101,disp_x_102,disp_x_103,disp_x_104,disp_x_105,disp_x_106,disp_x_p1_neg,disp_x_p1_pos,disp_x_p2_neg,disp_x_p2_pos,disp_x_p3_neg,disp_x_p3_pos,disp_x_p4_neg,disp_x_p4_pos,disp_x_p5_neg,disp_x_p5_pos,disp_x_p6_neg,disp_x_p6_pos,disp_y_101,disp_y_102,disp_y_103,disp_y_104,disp_y_105,disp_y_106,disp_y_p1_neg,disp_y_p1_pos,disp_y_p2_neg,disp_y_p2_pos,disp_y_p3_neg,disp_y_p3_pos,disp_y_p4_neg,disp_y_p4_pos,disp_y_p5_neg,disp_y_p5_pos,disp_y_p6_neg,disp_y_p6_pos,disp_y_p7_neg,disp_y_p7_pos,disp_y_p8_neg,disp_y_p8_pos,disp_z_101,disp_z_102,disp_z_103,disp_z_104,disp_z_105,disp_z_106,disp_z_p1_neg,disp_z_p1_pos,disp_z_p2_neg,disp_z_p2_pos,disp_z_p3_neg,disp_z_p3_pos,disp_z_p4_neg,disp_z_p4_pos,disp_z_p5_neg,disp_z_p5_pos,disp_z_p6_neg,disp_z_p6_pos,humidity,ndof,nelem,strain_xx,strain_yy,strain_zz,temp,thermal_strain_xx,thermal_strain_yy,thermal_strain_zz,vonmises,vstrain
2419200,0,0,0,0,0,0,0,0,0,0,0,0,0,0,0,0,0,0,0,0,0,0,0,0,0,0,0,0,0,0,0,0,0,0,0,0,0,0,0,0,0,0,0,0,0,0,0,0,0,0,0,0,0,0,0,0,0,0,0,0,0,0,0,0,0,0,0,0,0,0,0,0,0,0,0
2619200,0.021300071859735,0.00043665770869583,0.00014555256956528,0.00014555256956528,0.00014555256956528,-3.8400951093538e-05,3.8400278783498e-05,-3.334984357984e-10,-3.3193761499511e-10,1.333380478535e-09,-2.0640444547852e-09,-3.8811917026731e-05,3.8812367469986e-05,-3.8811910303152e-05,3.8812361832942e-05,-3.8812994421081e-05,3.8811233408839e-05,-3.8812992533253e-05,3.8811232651569e-05,-3.9611430574189e-05,3.9609642535394e-05,-3.961142292873e-05,3.9609638641132e-05,-1.5945878762074e-09,2.574428342692e-09,-7.6915255119094e-10,1.6744517697694e-09,-3.9255868492076e-05,3.9256780368764e-05,-3.9589457638664e-05,3.9588193503753e-05,-3.9588674136449e-05,3.9589011935056e-05,-3.9588136963582e-05,3.9589583522386e-05,-3.9587353404257e-05,3.959040192695e-05,-4.0272265441959e-05,4.0272154914422e-05,-4.0269898179576e-05,4.0274584387835e-05,-3.9756841146165e-05,3.9754489964089e-05,-3.9752783068647e-05,3.9758675524973e-05,-3.9186251534892e-10,-3.941458635317e-10,-4.0714637510808e-05,4.0713846698732e-05,1.08488679868e-09,-1.9212202045866e-09,-4.0881893958361e-05,4.0882113331452e-05,-4.0882895630816e-05,4.0881121554222e-05,-4.0881891268239e-05,4.0882109155787e-05,-4.0882895164788e-05,4.08811196491e-05,-4.0856667220653e-05,4.0854877672132e-05,-4.0856666498846e-05,4.0854880776752e-05,0.81993057767301,131329,3014,0.00015998979076538,0.00016355462545657,0.00016962822488037,32.69631262657,2.3970501012562e-05,2.3970501012562e-05,2.3970501012562e-05,546307.82477316,0.00049329439054849
2819200,0.043210080963389,0.0008745813596207,0.00028826485361692,0.00029092307472895,0.00029539343127483,-7.1140345576088e-05,7.1139950071377e-05,-1.2703992748065e-10,-2.7038979621483e-10,1.1182384099445e-09,-1.5638220565008e-09,-7.2459335135271e-05,7.2459866661599e-05,-7.2459374322064e-05,7.2459821368393e-05,-7.2460167945779e-05,7.2458980987597e-05,-7.2460220948741e-05,7.2458925213057e-05,-7.400915888054e-05,7.4008024727195e-05,-7.4009322050374e-05,7.4007851896637e-05,1.2269306599975e-10,-4.5247143830126e-10,-1.0081174237323e-09,6.7870230236505e-10,-7.330536651068e-05,7.3305038145657e-05,-7.4450556075969e-05,7.4449857138077e-05,-7.4450014838576e-05,7.4450425920806e-05,-7.4450735219978e-05,7.4449679491841e-05,-7.4450205341742e-05,7.4450235396235e-05,-7.5714940465825e-05,7.5712777955948e-05,-7.5713343218593e-05,7.5714432224058e-05,-7.4307424953675e-05,7.43082445502e-05,-7.4308014518093e-05,7.4307649168796e-05,-1.4536093700698e-10,-2.9793064487184e-10,-7.709055372557e-05,7.7090108354411e-05,8.1987367318677e-10,-1.30030941185e-09,-7.7869570997034e-05,7.7869890213099e-05,-7.7870271802135e-05,7.7869185069795e-05,-7.7869616589734e-05,7.7869845195156e-05,-7.7870321359162e-05,7.7869119798513e-05,-7.7208531681635e-05,7.7207205189963e-05,-7.7208393413789e-05,7.7207421268228e-05,0.82138593793642,131329,3014,0.00029637361728388,0.00030539168506567,0.00032115781587964,32.941381958398,2.5931055667183e-05,2.5931055667183e-05,2.5931055667183e-05,909216.00275852,0.00092334973342605
3019200,0.065202820080416,0.0013044363576394,0.00042589279632539,0.00043299386242016,0.00044554969889388,-0.00010209177009398,0.0001020918646917,8.7025769065874e-11,4.718756870952e-12,3.438397607328e-10,-2.6267640985716e-10,-0.00010469948004173,0.00010469980942262,-0.00010469950314525,0.00010469978313184,-0.0001046996711046,0.00010469960482226,-0.0001046997015229,0.00010469957027182,-0.00010700969857204,0.00010700967545664,-0.00010700979238948,0.0001070095702614,5.6455906553365e-10,-1.0706019438758e-09,-6.1484040359183e-10,1.3281036849461e-10,-0.00010592364051127,0.00010592315682361,-0.00010825506382986,0.00010825488925381,-0.00010825482692223,0.00010825513936822,-0.0001082555975393,0.00010825433627428,-0.0001082553675582,0.00010825457772658,-0.00011007099969768,0.00011006925072596,-0.00011007030038318,0.00011006997839398,-0.00010744497561511,0.000107446354234,-0.00010744658277163,0.00010744469933092,-2.5609405473771e-11,-1.225341797458e-10,-0.0001128505797426,0.00011285043114585,5.140735392114e-10,-6.8445602296333e-10,-0.0001146069869104,0.00011460728247953,-0.00011460738497614,0.00011460687829429,-0.00011460702069462,0.00011460725283224,-0.00011460741906845,0.00011460683208348,-0.00011281803560628,0.00011281737384586,-0.00011281794355462,0.00011281750755576,0.82013449332933,131329,3014,0.00042529301510928,0.00044125016873951,0.00047009900268247,32.856754522063,2.5254036176504e-05,2.5254036176504e-05,2.5254036176504e-05,1228438.2562751,0.001337537524546
3219200,0.086509612015806,0.0017065787490113,0.00055265195158316,0.00056530322495168,0.0005886235724765,-0.00012965115842842,0.00012965130864024,1.603998673243e-10,-1.4843553811679e-11,1.7264085877483e-10,-2.3446609464822e-11,-0.00013396247702804,0.00013396275755656,-0.00013396252928714,0.00013396270551731,-0.00013396254611125,0.0001339626897223,-0.00013396261030854,0.00013396261998364,-0.00013665504248983,0.00013665529996863,-0.00013665523211134,0.00013665509803633,1.2029790215839e-09,-2.1163033996998e-09,-2.6306853843587e-10,-5.8868109331507e-10,-0.00013532306550729,0.0001353222103572,-0.00013927441667277,0.00013927477555005,-0.00013927451900743,0.00013927466783678,-0.00013927547204149,0.00013927365894193,-0.00013927558876095,0.00013927353616109,-0.00014122566655882,0.00014122404708551,-0.00014122600930309,0.00014122369902949,-0.00013714092511561,0.00013714321928741,-0.00013714416573141,0.00013713986163091,1.7981374668112e-10,-1.5461748073327e-11,-0.00014593475567999,0.0001459349219623,1.318367476433e-10,2.9852997092313e-11,-0.00014914385398711,0.00014914412696386,-0.00014914388139431,0.00014914408392524,-0.00014914391427156,0.00014914406508233,-0.00014914394442992,0.00014914399436256,-0.0001454312557155,0.00014543116954279,-0.00014543107655682,0.00014543141864111,0.80676032696703,131329,3014,0.00054006978888374,0.00056368570733784,0.00060787511042092,32.290369484196,2.0722955873564e-05,2.0722955873564e-05,2.0722955873564e-05,1466327.5472249,0.0017130993797686
3419200,0.10523622508215,0.002045364594894,0.00065805897003761,0.00067628523480463,0.00071102039005171,-0.0001498620750209,0.00014986206098247,3.6289385065079e-10,-3.8704799378771e-10,3.6748686180804e-10,-3.8675690348179e-10,-0.00015607258577626,0.0001560730703194,-0.00015607282740536,0.00015607284624625,-0.00015607282573532,0.00015607282213,-0.00015607309985944,0.00015607255243658,-0.00015859601460549,0.00015859649677035,-0.00015859680803107,0.00015859569992296,3.0236626192676e-09,-4.8550593926809e-09,2.4949197393393e-10,-1.9453696317675e-09,-0.00015723372384856,0.00015723202360543,-0.0001630451417486,0.0001630467612844,-0.00016304583526939,0.0001630460452157,-0.00016304763464206,0.00016304413631289,-0.00016304836575066,0.00016304338017411,-0.00016455868009537,0.00016455656083678,-0.00016456087050399,0.00016455431632729,-0.00015903724562907,0.00015904256870582,-0.00015904495220525,0.00015903459142697,7.2727593055043e-10,-4.8436734893939e-11,-0.00017146133627251,0.00017146202111018,-5.6240817383105e-10,1.2731141001462e-09,-0.00017646554827349,0.00017646587140983,-0.00017646490920617,0.00017646647059507,-0.00017646579175132,0.00017646562706171,-0.00017646516870627,0.00017646616321484,-0.00017015675714834,0.00017015722274995,-0.00017015603360816,0.00017015813633816,0.78590063037479,131329,3014,0.0006242345368584,0.00065492324956971,0.0007141653792167,30.388759407195,5.5100752575611e-06,5.5100752575611e-06,5.5100752575611e-06,1615207.3540598,0.0019953156798818
3619200,0.12314966739958,0.0023589963426641,0.00075501685443515,0.00077878191253081,0.00082519757569816,-0.00017029285804473,0.000170292459214,5.4681873741587e-11,-4.7022232542044e-10,1.0523347987251e-09,-1.4979423783739e-09,-0.00017849171538435,0.00017849241918249,-0.00017849192211797,0.00017849224859713,-0.00017849259543043,0.00017849151719157,-0.00017849278870734,0.00017849135025491,-0.00018073766091014,0.00018073684577822,-0.00018073816264284,0.00018073632941353,2.7192865636251e-09,-4.4705590748033e-09,3.6564193204265e-10,-1.9744509265267e-09,-0.00017935144013737,0.00017934983418102,-0.00018716452829729,0.00018716612254912,-0.00018716529703753,0.00018716534393082,-0.00018716686804487,0.00018716369034861,-0.00018716762615798,0.00018716292119866,-0.00018809962824343,0.00018809789201468,-0.00018810187383467,0.00018809555629921,-0.00018095404636503,0.00018095862457748,-0.00018096098488158,0.00018095141922888,6.2989747008673e-10,7.4132892033682e-11,-0.00019728476245741,0.00019728547553671,-5.2469511834709e-10,1.2665044506437e-09,-0.00020435571283315,0.00020435604258447,-0.00020435511308502,0.00020435660401474,-0.0002043559380751,0.00020435585515346,-0.00020435528744052,0.00020435638384474,-0.00019496342290718,0.00019496417430966,-0.00019496301337054,0.00019496483998248,0.77012035317527,131329,3014,0.00070930804000707,0.00074701680099106,0.00082167869453064,29.682056965938,-1.4354427249266e-07,-1.4354427249266e-07,-1.4354427249266e-07,1792026.3443303,0.0022806062794309
3819200,0.140589481336,0.0026609736196195,0.00084790004631586,0.00087728650795166,0.00093578706535199,-0.00019025117705829,0.00019025069776376,5.8357745009478e-10,-1.0806092466955e-09,1.1141655616319e-09,-1.6553077244559e-09,-0.00020042001644264,0.00020042102497076,-0.00020042047967529,0.00020042056338171,-0.00020042089637342,0.00020042013127654,-0.00020042155313672,0.0002004194673652,-0.00020258080285471,0.00020258126293714,-0.00020258273391089,0.00020257930431539,1.8206274218215e-09,-3.1026494148997e-09,2.085923474281e-10,-1.3687642453252e-09,-0.00020098414120073,0.00020098298922976,-0.00021084008959535,0.0002108410759286,-0.00021084048733154,0.00021084063192316,-0.00021084161339408,0.00021083945376826,-0.00021084221138688,0.00021083881670505,-0.000211377238381,0.00021137623776673,-0.00021137904670632,0.00021137434247989,-0.00020240275343323,0.00020240610958021,-0.00020240780005834,0.00020240086718835,1.1684415767134e-09,-5.3187152247684e-10,-0.00022270331162573,0.00022270395818061,-5.6134055317039e-10,1.2381861835635e-09,-0.00023202630683032,0.00023202685194028,-0.00023202562134448,0.00023202753525912,-0.00023202680425297,0.00023202637767992,-0.00023202625315383,0.00023202679815758,-0.00021930991988167,0.00021930916838295,-0.00021930805036056,0.00021931128166163,0.77140880088317,131329,3014,0.0007924088690808,0.00083708366701371,0.00092749412244422,29.233318887936,-3.7334488965115e-06,-3.7334488965115e-06,-3.7334488965115e-06,1969027.0799188,0.0025602667265407
4019200,0.15983362639521,0.0029914106754662,0.00094903411735947,0.00098484154518848,0.0010575350129183,-0.00021527028147729,0.00021526988175786,4.7970298195465e-10,-8.9390468505341e-10,1.0201066800882e-09,-1.4836721717159e-09,-0.00022772445863998,0.0002277253223011,-0.00022772477334948,0.00022772499739325,-0.00022772518906539,0.0002277245775807,-0.00022772582757163,0.00022772392429882,-0.00022993472602421,0.0002299352764374,-0.00022993657610837,0.00022993341384526,-4.6649386627279e-10,2.2389832085043e-11,-3.1974746991658e-10,-5.6023059264909e-11,-0.00022793256429405,0.00022793219968486,-0.00024017003767628,0.00024016935449613,-0.00024016976307249,0.00024016959579036,-0.00024016975916447,0.0002401695932787,-0.00024016980790002,0.00024016950560774,-0.00024039596950133,0.00024039593631036,-0.00024039616649642,0.00024039565259176,-0.0002292271845159,0.00022922682913463,-0.00022922713042511,0.00022922676760483,8.7955691058866e-10,-5.3134056584426e-10,-0.00025411371542728,0.00025411407161328,4.8773521208289e-11,3.2557797480165e-10,-0.00026610200912894,0.00026610262720003,-0.00026610176044658,0.00026610287797094,-0.00026610236199568,0.000266102283268,-0.00026610239524046,0.00026610215906986,-0.00024953411021553,0.00024953266047424,-0.00024953227094219,0.00024953461206841,0.77300335782678,131329,3014,0.00089657285207857,0.00094927168997994,0.001058236571821,30.538087574225,6.7047005937989e-06,6.7047005937989e-06,6.7047005937989e-06,2194031.6340511,0.0029083133263141
4219200,0.1808889929198,0.0033494829552583,0.0010577413741686,0.0011010067864213,0.0011907347946684,-0.00024189604310025,0.00024189560372349,3.94710047004e-10,-8.4635963602938e-10,1.5525427396497e-09,-2.0618944796419e-09,-0.00025705586621427,0.00025705696924107,-0.00025705612908117,0.00025705670163798,-0.00025705690537818,0.00025705588516578,-0.00025705752014688,0.00025705526539574,-0.00025929321138847,0.00025929327918433,-0.00025929498999064,0.00025929150243326,-1.0983562032411e-09,1.1111233324058e-09,-7.861658676632e-10,8.3354522538261e-10,-0.00025671840017612,0.00025671845990174,-0.00027176558014038,0.00027176425108676,-0.00027176485214434,0.00027176496782256,-0.00027176470751737,0.00027176510338945,-0.00027176432761633,0.00027176546866611,-0.00027162697966761,0.00027162665972456,-0.00027162589122032,0.00027162767665674,-0.00025791711921327,0.00025791600097209,-0.0002579154028042,0.00025791760754704,6.6650316584461e-10,-6.1213268553135e-10,-0.00028808420879258,0.00028808426858303,5.7368546392787e-10,-5.1099147309067e-10,-0.00030321009422651,0.00030321081948043,-0.00030321027110346,0.00030321063394008,-0.00030321039929331,0.00030321051389894,-0.00030321089893154,0.00030320994573631,-0.00028220994940631,0.00028220786886717,-0.00028220822562677,0.00028220968672417,0.77489565361841,131329,3014,0.0010074158244915,0.0010690948817773,0.0011996145724883,31.781261764509,1.6650094116073e-05,1.6650094116073e-05,1.6650094116073e-05,2415703.9266712,0.0032815133186454
4419200,0.20227019037256,0.0037092883758772,0.0011660951259732,0.0012172998744369,0.0013258933754671,-0.00026653100767799,0.00026653050000627,6.9736025779928e-10,-1.21489016591e-09,1.8288915607285e-09,-2.4136385114856e-09,-0.00028467088514323,0.00028467230168625,-0.00028467136445846,0.00028467183293193,-0.00028467207492801,0.00028467104379865,-0.00028467293745523,0.00028467019343144,-0.00028681600477023,0.00028681649709491,-0.00028681849576142,0.00028681402837644,-1.1279696527043e-10,8.5750369605199e-11,-9.1647324551885e-10,9.2501317236486e-10,-0.00028354639884724,0.00028354641907086,-0.00030166437830437,0.00030166356112629,-0.00030166357786622,0.00030166437958833,-0.00030166413786113,0.00030166378883252,-0.00030166370994777,0.00030166422577344,-0.00030105309069653,0.00030105188458406,-0.00030105183045662,0.0003010530937388,-0.00028467751955395,0.00028467845346029,-0.00028467779768557,0.00028467804549814,9.3422114047955e-10,-1.0178595875589e-09,-0.0003204592262745,0.00032045914434847,6.6798003447729e-10,-7.5303599945095e-10,-0.00033899287818895,0.00033899378076749,-0.00033899313600239,0.0003389934899032,-0.00033899339523734,0.00033899325661225,-0.0003389940195505,0.00033899257686655,-0.00031328488751702,0.00031328187794528,-0.00031328249008975,0.00031328436342314,0.77613010233016,131329,3014,0.0011099631036499,0.0011807555619885,0.0013343323652314,31.98107640083,1.8248611206643e-05,1.8248611206643e-05,1.8248611206643e-05,2597300.0937455,0.003631650772872
4619200,0.22519118925288,0.0040914120540878,0.001280542380647,0.0013403882547954,0.0014704814186453,-0.0002940752465671,0.0002940747727856,5.5504999201551e-10,-1.0432435955949e-09,1.4648060996791e-09,-2.0218025873923e-09,-0.0003156480605695,0.00031564916435704,-0.00031564842751181,0.00031564879886574,-0.00031564899500647,0.00031564816418659,-0.00031564976950663,0.00031564739553975,-0.0003175909480423,0.00031759147615306,-0.00031759316398817,0.00031758927162992,-2.3206912380986e-10,2.0114057695245e-10,-1.2332935118403e-09,1.2320622239363e-09,-0.00031344803127171,0.00031344804409908,-0.00033505303745003,0.00033505192392124,-0.00033505202281511,0.00033505295610568,-0.00033505271350437,0.00033505223455002,-0.00033505209316498,0.00033505286580329,-0.00033388094992409,0.0003338792473229,-0.00033387910483704,0.00033388103795814,-0.00031458236005735,0.00031458328125145,-0.00031458241422755,0.00031458307806947,7.1812050880845e-10,-9.202540445618e-10,-0.00035661439545274,0.0003566141949044,8.3973589069643e-10,-1.0519969224441e-09,-0.00037898931204271,0.00037899015452855,-0.00037898972550956,0.00037898972854545,-0.00037898973086418,0.00037898973727462,-0.0003789905134497,0.00037898888555907,-0.00034808866094973,0.0003480856725391,-0.00034808657856584,0.00034808788853736,0.77694609474648,131329,3014,0.0012246110267194,0.0013051951725659,0.0014847568549378,33.013117599961,2.6504940799686e-05,2.6504940799686e-05,2.6504940799686e-05,2797059.4465948,0.0040226611448032
4819200,0.25040500372999,0.0045074367377715,0.0014044064542557,0.0014738847187955,0.0016291455647204,-0.00032461845599245,0.0003246179919287,7.1267509519151e-10,-1.1915410685765e-09,1.6346991615333e-09,-2.1849478623867e-09,-0.00035025022138393,0.00035025154455796,-0.00035025069532459,0.00035025107155939,-0.00035025126208995,0.00035025043109862,-0.00035025213181851,0.00035024956688343,-0.00035179096770253,0.00035179166590123,-0.00035179346260802,0.00035178918605754,3.3418996970316e-11,-8.5192561540613e-11,-1.5001741623989e-09,1.4749311510843e-09,-0.00034655907765398,0.0003465590664479,-0.00037223915169228,0.00037223803393154,-0.00037223797895479,0.00037223922913462,-0.00037223901508318,0.00037223815036376,-0.00037223822208451,0.00037223896436826,-0.00037032696121018,0.00037032452336485,-0.00037032460430879,0.00037032684975517,-0.0003477922093925,0.00034779379486937,-0.00034779278656382,0.00034779307941075,8.2444852822221e-10,-1.1191625319117e-09,-0.00039691429804242,0.00039691400456415,1.1101486634189e-09,-1.4247050232174e-09,-0.00042376556411456,0.00042376664184454,-0.00042376619672306,0.00042376599548573,-0.0004237660961741,0.00042376610701844,-0.00042376708117786,0.00042376505317529,-0.00038694141888097,0.00038693785862732,-0.000386939069695,0.00038694033802829,0.77793123207072,131329,3014,0.0013517300706143,0.0014429743429296,0.0016523962806802,34.501367902298,3.8410943218386e-05,3.8410943218386e-05,3.8410943218386e-05,3007451.7181757,0.0044570431798099
5019200,0.27767604841864,0.0049510590485668,0.0015357336716386,0.0016156615376689,0.0017996638392592,-0.00035656445592934,0.00035656394074731,1.1691626801033e-09,-1.6973675669536e-09,1.9219222889022e-09,-2.5283775827563e-09,-0.00038690494017065,0.00038690673944355,-0.00038690573668126,0.0003869059422675,-0.00038690618341518,0.00038690541764262,-0.00038690737726624,0.00038690422665563,-0.00038769227267,0.0003876936553919,-0.00038769570617778,0.00038769023074031,6.8482112268932e-10,-8.1621079848766e-10,-1.5922852673245e-09,1.4925534352669e-09,-0.00038120033786091,0.00038120025110671,-0.00041158633937159,0.00041158556924628,-0.00041158513614831,0.00041158679928084,-0.00041158665432339,0.00041158522002633,-0.00041158582643955,0.00041158606993525,-0.00040862581693483,0.00040862273200773,-0.00040862334225032,0.00040862517523814,-0.00038260850901415,0.00038261140091534,-0.00038261040814975,0.00038260931889608,1.2763603042747e-09,-1.6285962464291e-09,-0.00043958826537247,0.00043958791365188,1.3297311132008e-09,-1.7100927533182e-09,-0.00047161317476333,0.00047161469197589,-0.00047161397997103,0.00047161387740041,-0.000471614030886,0.00047161382617334,-0.00047161517542292,0.00047161260163223,-0.0004280760347647,0.00042807131945014,-0.00042807277428523,0.00042807474971306,0.77678229377194,131329,3014,0.0014846761235158,0.0015871024299853,0.0018298764135367,35.811040298213,4.8888322385707e-05,4.8888322385707e-05,4.8888322385707e-05,3209633.0554835,0.0049137411934299
5219200,0.30637510964536,0.0054133569602255,0.0016721463439304,0.0017628948894025,0.0019783157268925,-0.00038904007247489,0.00038903940727013,2.7908910153423e-09,-3.4669406526223e-09,2.9102522522473e-09,-3.6807897854281e-09,-0.00042463148704957,0.00042463495370614,-0.00042463338693667,0.00042463305121058,-0.00042463340947725,0.0004246329468603,-0.00042463577166854,0.00042463058042886,-0.00042439235453371,0.00042439630806175,-0.00042439921086028,0.00042438944195794,2.2353398680341e-09,-2.5579233055757e-09,-1.318505485042e-09,1.0448377507219e-09,-0.00041637191783944,0.0004163716553055,-0.00045200548397145,0.00045200584699944,-0.00045200449558906,0.0004520068681554,-0.00045200684864411,0.00045200441700713,-0.000452006290923,0.00045200498585639,-0.00044776816609288,0.00044776461150678,-0.00044776645869818,0.00044776624013797,-0.00041809038416428,0.00041809618024649,-0.00041809553861949,0.00041809071163404,2.9402304108763e-09,-3.3479429348179e-09,-0.00048336630338506,0.00048336589651579,1.6765306684992e-09,-2.1208012644992e-09,-0.00052117739701873,0.00052118022871359,-0.00052117843011498,0.00052117919384552,-0.00052117935396861,0.00052117824328645,-0.00052118077005012,0.00052117671613432,-0.00047030521808719,0.00047029677419641,-0.00047029857265695,0.00047030367120195,0.77856400203543,131329,3014,0.001619815944562,0.0017334181051058,0.0020119093886277,36.763446966147,5.6507575729178e-05,5.6507575729178e-05,5.6507575729178e-05,3405855.3680823,0.0053796334900957
5419200,0.33618283965067,0.005882152872929,0.0018102377855951,0.0019116971132242,0.0021602179741097,-0.00042163136639482,0.00042163069788441,2.085949287137e-09,-2.7708186130257e-09,1.9726780751713e-09,-2.7531979684713e-09,-0.00046303583659437,0.00046303833101591,-0.0004630373376541,0.000463036835378,-0.00046303720415729,0.00046303689708126,-0.00046303912476754,0.00046303496792343,-0.00046111832088968,0.00046112160154641,-0.00046112384522875,0.00046111605446724,1.9123122958687e-09,-2.3114396971361e-09,-1.4204392147539e-09,1.0757482930034e-09,-0.00045156886590819,0.00045156853289131,-0.00049303997272557,0.00049304010330936,-0.00049303899614558,0.00049304115953828,-0.00049304122777544,0.00049303883887938,-0.00049304060259747,0.00049303943827474,-0.00048689371021926,0.00048689017105379,-0.00048689180827516,0.00048689192387298,-0.00045359638807328,0.00045360157852557,-0.0004536008618778,0.00045359660340643,2.1777405869023e-09,-2.685570012356e-09,-0.00052762859484024,0.00052762808936723,1.417063800203e-09,-1.9639741757238e-09,-0.00057189930331741,0.00057190153512088,-0.00057190024900033,0.00057190062693042,-0.00057190089800443,0.00057189995167176,-0.00057190215332597,0.00057189854212864,-0.0005128082751116,0.00051280124647842,-0.00051280298043112,0.00051280679338769,0.7695875375338,131329,3014,0.0017554286960686,0.0018798216497876,0.0021959140681866,37.574611392746,6.2996891141965e-05,6.2996891141965e-05,6.2996891141965e-05,3576592.4979596,0.0058482930214371
5619200,0.3658401348955,0.0063220211618265,0.0019395656492488,0.0020507473840678,0.0023317081285099,-0.0004509694922586,0.0004509688772784,2.0175135296848e-09,-2.6488925395188e-09,1.4420899169223e-09,-2.1615963053931e-09,-0.00049853268294665,0.00049853476756585,-0.00049853409167598,0.00049853336206447,-0.00049853367855592,0.00049853370940538,-0.00049853551819355,0.00049853186429935,-0.00049376851236915,0.0004937719952504,-0.00049377385096974,0.00049376664604624,2.0737810473352e-09,-2.5044342284979e-09,-1.2616853110071e-09,8.8980640135048e-10,-0.0004832144007307,0.00048321403927168,-0.00053091836189244,0.0005309186939631,-0.00053091747371463,0.0005309196255959,-0.00053091972204656,0.00053091729305524,-0.00053091922382172,0.0005309177975318,-0.00052174900132815,0.00052174562536999,-0.00052174748257629,0.00052174708400064,-0.00048505296525754,0.00048505834624062,-0.0004850578394315,0.00048505308942283,2.0668992054128e-09,-2.5800791134718e-09,-0.0005686026414961,0.00056860213146168,1.2756355068285e-09,-1.8264273368692e-09,-0.00061990046637414,0.00061990252713486,-0.000619901300516,0.00061990169471589,-0.00061990197176031,0.00061990099852329,-0.00061990314960029,0.00061989970212602,-0.00055134914302526,0.00055134245426976,-0.00055134406332297,0.00055134769373435,0.73637637827106,131329,3014,0.001877502577943,0.0020114402428574,0.0023662080497714,37.741667942424,6.4333343539392e-05,6.4333343539392e-05,6.4333343539392e-05,3707324.5066577,0.006274871626037
5819200,0.39297160823101,0.0067063214680705,0.0020525276973498,0.0021715647662864,0.0024822290044343,-0.00047402281372397,0.00047402224841656,1.9388722786651e-09,-2.5213500964706e-09,1.0559176470583e-09,-1.7204067209321e-09,-0.00052733123174838,0.00052733301764117,-0.00052733257351101,0.00052733167833756,-0.00052733195385013,0.0005273322365412,-0.00052733371731995,0.00052733046932064,-0.00051947465842702,0.00051947824231744,-0.0005194797836268,0.00051947311004295,2.574755071048e-09,-3.0539074690733e-09,-1.0264485574737e-09,6.1313958200857e-10,-0.00050809378806689,0.00050809338453282,-0.0005616767529602,0.00056167756386763,-0.00056167603402451,0.00056167830997641,-0.00056167845242082,0.00056167580707449,-0.00056167812870602,0.00056167615074796,-0.00054924389418085,0.0005492406089457,-0.00054924288117884,0.00054924159237198,-0.00050940182345695,0.00050940800580523,-0.00050940771955551,0.00050940173926247,1.9698918635675e-09,-2.4602886371357e-09,-0.00060217383852418,0.00060217335234267,9.4759473276372e-10,-1.4727687624253e-09,-0.00066039321125413,0.00066039499942748,-0.0006603938165611,0.00066039437952019,-0.00066039463842389,0.00066039353510464,-0.00066039559381393,0.00066039247668798,-0.00058212747080842,0.00058212126831797,-0.00058212260983962,0.00058212625479014,0.71318193458737,131329,3014,0.0019734301826559,0.0021149127029816,0.0025056998720252,36.554309980611,5.4834479844891e-05,5.4834479844891e-05,5.4834479844891e-05,3807434.0673091,0.0066159692225268
6019200,0.41856490246456,0.0070598108146685,0.0021566714277507,0.0022821754304561,0.0026209639564617,-0.00049595086356756,0.00049595033904047,1.7585201747687e-09,-2.2984353641567e-09,8.4045466028998e-10,-1.4580804217616e-09,-0.00055492563711192,0.00055492716511962,-0.00055492684263664,0.00055492595785188,-0.00055492620281782,0.00055492654288665,-0.00055492782544707,0.00055492491746698,-0.00054366129101164,0.0005436646870838,-0.00054366602645314,0.0005436599498056,2.8594600136461e-09,-3.3769128775083e-09,-8.6940796969871e-10,4.2327187685456e-10,-0.00053160588473672,0.00053160544737072,-0.00059090978736196,0.0005909108812142,-0.00059090917410878,0.00059091150103292,-0.00059091167945416,0.00059090891369306,-0.0005909114729683,0.00059090915289526,-0.00057491311796618,0.00057490994713979,-0.00057491246669624,0.00057491059931569,-0.00053242730516699,0.00053243394535718,-0.00053243382379422,0.00053242708233173,1.780367140653e-09,-2.235565774059e-09,-0.00063417338381379,0.0006341729323222,6.7932998914103e-10,-1.1663394657182e-09,-0.00069900998661274,0.00069901147186214,-0.00069901039623113,0.00069901104107955,-0.00069901126949685,0.00069901014631209,-0.00069901203553359,0.00069900928722917,-0.00061134322159971,0.00061133766363438,-0.00061133876682352,0.00061134222588264,0.70262235539787,131329,3014,0.0020646721693301,0.0022126937593399,0.0026386361413182,35.890462762968,4.9523702103743e-05,4.9523702103743e-05,4.9523702103743e-05,3894081.6116365,0.0069401339871307
6219200,0.44348267702361,0.0074050768177155,0.0022585609062046,0.0023898164501301,0.0027566994613809,-0.00051822854231147,0.0005182280414095,1.9073577748969e-09,-2.4240175695301e-09,7.566288275234e-10,-1.3475551970108e-09,-0.00058315242399518,0.00058315399510707,-0.00058315371501012,0.00058315270323617,-0.00058315293589521,0.0005831534310794,-0.00058315462864713,0.000583151735302,-0.00056826814540977,0.00056827187488043,-0.00056827312446183,0.00056826689704672,2.8775030638436e-09,-3.4220440135321e-09,-6.8995305987063e-10,2.2038591888329e-10,-0.00055536775719604,0.0005553672960696,-0.00062067651964717,0.00062067774276333,-0.00062067603321165,0.00062067822925681,-0.00062067843645679,0.00062067574142864,-0.00062067834716562,0.00062067586606542,-0.0006007864922732,0.00060078363191534,-0.0006007862009065,0.00060078394520757,-0.00055581381235868,0.00055582033837972,-0.00055582037562859,0.00055581344026326,1.9346453083844e-09,-2.3534421119295e-09,-0.0006667278821793,0.00066672746761493,5.7938512822616e-10,-1.0281038216487e-09,-0.00073803249659902,0.00073803401303477,-0.00073803282828056,0.00073803365655227,-0.00073803385570321,0.00073803260767065,-0.00073803453235548,0.00073803184256916,-0.00064127287938633,0.00064126720403712,-0.00064126819949172,0.00064127199776534,0.70746296891742,131329,3014,0.0021573633296132,0.0023115073135525,0.0027738569717321,35.770982915531,4.8567863324252e-05,4.8567863324252e-05,4.8567863324252e-05,3966406.1534698,0.0072692080711684
6419200,0.468145793914,0.0077434281970048,0.0023580524544733,0.0024946923216521,0.0028906834208794,-0.00054047524763809,0.00054047476311028,1.8730534806195e-09,-2.3722585642763e-09,8.5232275030151e-10,-1.4246417266438e-09,-0.00061161749208579,0.00061161910216468,-0.00061161875429771,0.00061161784102037,-0.00061161805569571,0.00061161848871961,-0.00061161972630169,0.00061161681601577,-0.00059275784594084,0.00059276145500424,-0.00059276274838166,0.00059275655369172,2.7895593035978e-09,-3.3472039618508e-09,-5.9772300875018e-10,1.1738069364542e-10,-0.00057901330371701,0.0005790128318342,-0.00065061442989776,0.00065061564505292,-0.00065061400493125,0.00065061607253084,-0.00065061628612001,0.00065061370881544,-0.00065061626175372,0.00065061376451613,-0.00062642343694326,0.00062642082104486,-0.0006264233506632,0.00062642093176444,-0.00057901488928253,0.00057902118731844,-0.00057902129789625,0.00057901443859616,1.9088434173792e-09,-2.2908000176319e-09,-0.0006996014294374,0.00069960105144645,4.8629462707707e-10,-8.9625915613329e-10,-0.000777452952976,0.00077745439604665,-0.00077745320459539,0.00077745411099662,-0.00077745427674202,0.00077745302149953,-0.00077745488336572,0.00077745233499616,-0.00067145588803236,0.00067145041126033,-0.00067145128082389,0.00067145510787089,0.70211761054291,131329,3014,0.0022499223785159,0.0024098312658898,0.0029103804653094,35.95764055163,5.0061124413041e-05,5.0061124413041e-05,5.0061124413041e-05,4036981.917863,0.0075990789416958
6619200,0.4933476300219,0.0081113591932156,0.0024665968143454,0.0026086030520635,0.0030361593268067,-0.00056535212327658,0.00056535163646284,1.8183207894598e-09,-2.3191938385143e-09,1.121360420503e-09,-1.6961610043868e-09,-0.00064256757988507,0.00064256932628037,-0.00064256879952983,0.0006425681077101,-0.00064256831896119,0.00064256853971395,-0.00064256996082853,0.00064256689564468,-0.00062120677243363,0.00062121010415512,-0.00062121158321748,0.00062120529781888,2.5260739165315e-09,-3.0829745840956e-09,-5.8140125554983e-10,1.0213333354552e-10,-0.00060534173053674,0.00060534125945022,-0.00068306456547748,0.00068306560801082,-0.0006830641448015,0.0006830660339697,-0.00068306624073763,0.00068306385752744,-0.00068306622893575,0.00068306389397632,-0.0006560856424428,0.00065608324862675,-0.00065608561047307,0.00065608332510611,-0.00060535814342527,0.00060536391734742,-0.00060536404284983,0.00060535768648674,1.8679870026323e-09,-2.2194604521537e-09,-0.00073581258313787,0.00073581223585346,4.6528063258429e-10,-8.4356129617851e-10,-0.00082048219171566,0.00082048359596962,-0.00082048241317381,0.00082048333720804,-0.00082048346831216,0.00082048226443266,-0.00082048405611165,0.00082048160174806,-0.00070529135711033,0.00070528602705017,-0.00070528684232027,0.00070529062875568,0.74071518052612,131329,3014,0.0023534156184891,0.0025193019751604,0.0030607414639746,36.730429794828,5.624343835862e-05,5.624343835862e-05,5.624343835862e-05,4120201.1336174,0.0079652697864227
6819200,0.51998188055825,0.0085324913565654,0.0025909711385055,0.0027389593913558,0.0032025608267041,-0.00059445928321212,0.00059445878068966,1.7900903407336e-09,-2.3067299736886e-09,1.5289193856505e-09,-2.1223855569016e-09,-0.00067729681918266,0.00067729881367769,-0.00067729802239913,0.00067729761109544,-0.00067729783699482,0.00067729774852723,-0.0006772994659237,0.00067729611853313,-0.00065603942195063,0.00065604240891579,-0.00065604418778718,0.00065603764807168,2.1148343354883e-09,-2.6576732417579e-09,-6.3516413651928e-10,1.6812410713654e-10,-0.00063614002281503,0.00063613956472197,-0.0007194124751001,0.00071941321037923,-0.00071941201175063,0.000719413675839,-0.00071941387020887,0.00071941174052494,-0.00071941381890994,0.00071941181749506,-0.00069242046555251,0.0006924182402815,-0.0006924203233938,0.00069241844951323,-0.00063686968457173,0.00063687468167864,-0.00063687476419569,0.00063686928758635,1.8571683778397e-09,-2.1856728356952e-09,-0.00077729901706735,0.0007772986920916,5.2706784154218e-10,-8.8200536403274e-10,-0.00086943958083565,0.00086944101860276,-0.00086943983363073,0.0008694407245536,-0.00086944083486395,0.00086943970558424,-0.00086944145638894,0.00086943901369245,-0.00074476431233033,0.00074475902319052,-0.00074475984170965,0.00074476356382239,0.79222279326867,131329,3014,0.0024744956259351,0.0026473448689313,0.0032329739193337,38.16281972736,6.7702557818883e-05,6.7702557818883e-05,6.7702557818883e-05,4261940.5008584,0.0083901206028029
7019200,0.54839119653515,0.0089434905231869,0.0027103206364359,0.0028648055416766,0.0033683643450744,-0.0006236810051377,0.00062368048025496,1.8395881752852e-09,-2.3781784937206e-09,1.9428324498611e-09,-2.5623933485245e-09,-0.00071337887083253,0.00071338116784928,-0.00071338011386914,0.00071337992586041,-0.00071338017337959,0.00071337981721238,-0.00071338184151864,0.00071337814857563,-0.00068948529725389,0.00068948808049066,-0.00068949016882033,0.00068948321468155,1.6355588693062e-09,-2.1528982457195e-09,-6.9256262618027e-10,2.4746491258384e-10,-0.00066724659236487,0.00066724615690735,-0.00075724664752289,0.00075724703186337,-0.00075724613913748,0.0007572475428249,-0.00075724771665888,0.0007572458914561,-0.00075724761797954,0.00075724601490983,-0.00072752697257302,0.00072752495580945,-0.00072752669657342,0.00072752530867881,-0.00066803767907773,0.00066804177210593,-0.00066804179137846,0.00066803735504204,1.9219776527844e-09,-2.2383828002949e-09,-0.00082029978851868,0.00082029947560175,6.50219071239e-10,-9.9346930492997e-10,-0.00092057963791126,0.00092058120251363,-0.00092057996837809,0.00092058082541703,-0.00092058092635813,0.00092057984912985,-0.00092058162533103,0.00092057908563045,-0.00078484308236177,0.00078483762094055,-0.00078483850090546,0.00078484226281088,0.73336568073714,131329,3014,0.0025960511015051,0.0027766631908681,0.003411447776655,39.89034409232,8.1522752738556e-05,8.1522752738556e-05,8.1522752738556e-05,4324116.9703778,0.0088232162174241
7219200,0.57700893481881,0.0093394400666837,0.0028243517569726,0.0029853958797986,0.0035296924299125,-0.00065029193907972,0.00065029140068341,2.1425244098794e-09,-2.6941870593171e-09,2.1165693393772e-09,-2.7514493259353e-09,-0.00074710297177575,0.00074710559937116,-0.0007471044366009,0.00074710413822474,-0.00074710440984514,0.00074710411564383,-0.00074710627071618,0.00074710225292844,-0.00071951918253151,0.00071952240006342,-0.00071952462350215,0.00071951696711239,1.3143638259169e-09,-1.8034469166607e-09,-5.7451952744321e-10,1.5490236251e-10,-0.00069582086649712,0.00069582045544954,-0.00079277724128674,0.00079277750761384,-0.00079277682097181,0.0007927779400052,-0.00079277810851209,0.00079277658733619,-0.00079277806071936,0.00079277665085631,-0.00075944585128923,0.00075944425861216,-0.00075944575135889,0.00075944444076439,-0.0006962216965263,0.00069622505660423,-0.00069622511343377,0.00069622132977182,2.2329714820187e-09,-2.5462597294543e-09,-0.00086085899061156,0.00086085868183784,7.6247010289997e-10,-1.1040408214137e-09,-0.0009694841191342,0.00096948598367517,-0.00096948453603857,0.00096948551252174,-0.00096948562621835,0.00096948440822121,-0.0009694863876026,0.00096948359268732,-0.00082214772561909,0.00082214160994152,-0.00082214255289503,0.00082214682510541,0.70719547513343,131329,3014,0.0027067487664664,0.0028954508453427,0.0035797453243863,40.741674892002,8.8333399136017e-05,8.8333399136017e-05,8.8333399136017e-05,4378904.741156,0.0092246417850892
7419200,0.60517527823877,0.0097137295682743,0.0029315295634263,0.0030990543414203,0.0036831456634278,-0.00067483638696125,0.00067483583326222,2.0883424506305e-09,-2.6539359232263e-09,2.2719830869468e-09,-2.9242890784466e-09,-0.00077878018439134,0.00077878289079749,-0.00077878164407469,0.00077878144210749,-0.00077878172929341,0.0007787813062497,-0.00077878357939292,0.00077877944623889,-0.00074679018389431,0.00074679320589626,-0.00074679555287931,0.0007467878405083,1.179411442604e-09,-1.6521498150234e-09,-5.5078407088013e-10,1.4552062657641e-10,-0.00072231270154968,0.0007223123049006,-0.00082626374320102,0.00082626394224579,-0.00082626335729695,0.0008262643727071,-0.00082626452817126,0.00082626313857475,-0.00082626448226251,0.00082626316646807,-0.00078872471915016,0.00078872327290032,-0.00078872465580375,0.00078872340442109,-0.00072205065314629,0.00072205373776296,-0.00072205376051986,0.00072205026576663,2.1851565811429e-09,-2.4935608789856e-09,-0.0008991119766475,0.00089911167246137,7.1974255169733e-10,-1.0562028956824e-09,-0.0010161023816788,0.0010161042206232,-0.0010161027746644,0.0010161037613937,-0.0010161038752083,0.0010161026466763,-0.0010161046165005,0.0010161018640576,-0.00085694699637745,0.00085694098616233,-0.00085694188720667,0.00085694612931867,0.68502083610049,131329,3014,0.002808850380916,0.0030055768624439,0.0037384387313769,41.272883736321,9.2583069890565e-05,9.2583069890565e-05,9.2583069890565e-05,4431781.7492426,0.009599106662692
7619200,0.63169804573843,0.010057005353026,0.0030295053936613,0.0032030847918218,0.0038244151675431,-0.00069592467604647,0.00069592411499539,2.1684893674325e-09,-2.7405166025401e-09,2.2334120738825e-09,-2.8934595764432e-09,-0.00080683697079957,0.00080683971717557,-0.00080683850035908,0.0008068381983876,-0.00080683850533627,0.00080683814272781,-0.00080684040046668,0.00080683623838696,-0.00076996719873162,0.0007699703645268,-0.00076997269536014,0.00076996487280168,1.1908731706241e-09,-1.6552781239484e-09,-4.276639368533e-10,3.0383064362558e-11,-0.00074522599607415,0.00074522560584114,-0.00085589492278844,0.00085589522563599,-0.00085589462945493,0.00085589556193362,-0.00085589572639301,0.00085589440320224,-0.0008558957481163,0.00085589436477172,-0.00081384703138441,0.00081384578058895,-0.0008138471602184,0.0008138457212037,-0.00074405419420786,0.00074405717823686,-0.00074405727423209,0.00074405373597137,2.2720621293557e-09,-2.5709734596138e-09,-0.00093322066362344,0.00093322037006646,6.4254483312288e-10,-9.6939096460968e-10,-0.0010581626237572,0.0010581644990109,-0.0010581629775009,0.0010581640740401,-0.0010581641906053,0.0010581628462959,-0.0010581648665263,0.0010581621335022,-0.00088769555114641,0.00088768946588013,-0.0008876903102738,0.00088769474943611,0.67223853476068,131329,3014,0.0028965790565147,0.003100826137041,0.0038799113029577,41.070664191608,9.0965313532865e-05,9.0965313532865e-05,9.0965313532865e-05,4458033.8593321,0.009926776647901
7819200,0.65675944206325,0.010377213699871,0.0031207819052545,0.0032999613732144,0.003956470421402,-0.0007155784575733,0.00071557789040772,2.1245061902648e-09,-2.7033453147445e-09,2.2035838254973e-09,-2.8717017233365e-09,-0.00083343834123499,0.00083344104417484,-0.00083343985013652,0.00083343954638471,-0.00083343985559461,0.00083343948960689,-0.00083344173505059,0.00083343760063033,-0.0007914194239338,0.00079142252728589,-0.00079142484669878,0.00079141710317747,1.2154903091713e-09,-1.6792781909172e-09,-3.5328862249614e-10,-4.3731613473821e-11,-0.0007666972021183,0.00076669681390001,-0.00088406886458123,0.00088406923548605,-0.00088406862301532,0.00088406952418755,-0.00088406968460983,0.00088406840275948,-0.00088406975583007,0.00088406830832353,-0.00083717219900553,0.00083717108075596,-0.00083717247079034,0.00083717085767104,-0.00076467420861291,0.00076467719253705,-0.00076467733584071,0.00076467369463271,2.2384851396685e-09,-2.5214820086319e-09,-0.00096555610191918,0.00096555582335088,5.5862575867535e-10,-8.6792982028094e-10,-0.0010980412774467,0.0010980430921327,-0.0010980415729916,0.0010980427219736,-0.0010980428272062,0.001098041452476,-0.0010980434440529,0.0010980408021126,-0.00091684558368117,0.00091683964518918,-0.00091684040808962,0.00091684486215874,0.66655683998789,131329,3014,0.0029783392145595,0.0031900769264804,0.0040140108542017,40.971900279788,9.0175202238303e-05,9.0175202238303e-05,9.0175202238303e-05,4468430.1821609,0.010235016786581
8019200,0.68051861902568,0.010677487783327,0.0032060915223991,0.0033906224524794,0.0040807738084481,-0.0007340440113144,0.000734043443274,2.0932608853756e-09,-2.6730305717509e-09,2.1777633510304e-09,-2.8477593255544e-09,-0.000858659277621,0.00085866194303957,-0.00085866076565335,0.00085866046620285,-0.00085866077209132,0.00085866040841625,-0.00085866263785486,0.00085865853393272,-0.00081151637340996,0.0008115194402941,-0.00081152174623595,0.00081151406515358,1.2350878540866e-09,-1.6977556495226e-09,-2.9505965072901e-10,-1.013047154469e-10,-0.00078696447154078,0.00078696408473467,-0.00091083963159884,0.00091084005221459,-0.0009108394262365,0.00091084030489553,-0.00091084046112159,0.00091083921202756,-0.00091084057403277,0.00091083907473222,-0.00085911745121586,0.00085911644338059,-0.00085911784414538,0.0008591160920242,-0.00078416569061162,0.00078416868621625,-0.0007841688700829,0.00078416514039573,2.2161312716226e-09,-2.4828047626952e-09,-0.00099633836774337,0.00099633810514708,4.9670572052531e-10,-7.8846139541324e-10,-0.0011360297394888,0.0011360315064385,-0.0011360299866439,0.001136031182598,-0.0011360312712003,0.0011360298830057,-0.0011360318450587,0.0011360292779407,-0.00094453911127823,0.00094453327852288,-0.00094453397833452,0.00094453845429952,0.66097842343518,131329,3014,0.0030551552179048,0.003274320402611,0.0041416524465012,40.977140914585,9.0217127316681e-05,9.0217127316681e-05,9.0217127316681e-05,4477730.6383494,0.010526770234746
8219200,0.70309425908814,0.010959959507897,0.0032860412925679,0.0034757587107594,0.0041981595045693,-0.00075145767588516,0.00075145710649075,2.083149332159e-09,-2.6644691021802e-09,2.1516127442076e-09,-2.8237341680359e-09,-0.00088257815556993,0.00088258079917328,-0.00088257963858538,0.00088257932681091,-0.00088257963414879,0.00088257928028899,-0.0008825814952775,0.00088257741115482,-0.00083044959363858,0.00083045265720076,-0.00083045494930026,0.00083044730024567,1.2492444875479e-09,-1.7114441938984e-09,-2.5191319859511e-10,-1.4385983403451e-10,-0.00080616007803651,0.00080615969173521,-0.00093629008659632,0.00093629054640893,-0.00093628990995419,0.00093629076933127,-0.00093629092604708,0.00093628969616712,-0.00093629106704834,0.00093628953043695,-0.00087985133044957,0.0008798503957356,-0.00087985180602517,0.00087984996260733,-0.00080262987560661,0.00080263286839779,-0.00080263307826775,0.00080262929538347,2.2141487196588e-09,-2.4656661936491e-09,-0.0010256669303717,0.0010256666832391,4.5795423960645e-10,-7.3380650577378e-10,-0.001172283199153,0.0011722849469396,-0.0011722834167124,0.0011722846526461,-0.0011722847259487,0.0011722833277938,-0.0011722852686401,0.0011722827536829,-0.00097085925957107,0.00097085348553354,-0.00097085414334467,0.00097085865200013,0.65549730643675,131329,3014,0.0031275939075472,0.0033541070738918,0.0042632504044898,41.071308072936,9.0970464583491e-05,9.0970464583491e-05,9.0970464583491e-05,4489197.0355222,0.010803570038527
8419200,0.72456584860534,0.011227863324631,0.0033616573862994,0.0035564413492595,0.0043097645890717,-0.00076798982438717,0.0007679892540247,2.072568254286e-09,-2.6552498185877e-09,2.1283946862386e-09,-2.8025627873071e-09,-0.00090532197646617,0.00090532460148243,-0.00090532345525998,0.00090532313301621,-0.0009053234414034,0.00090532309619166,-0.00090532529861792,0.00090532123156337,-0.00084846782853654,0.00084847088601402,-0.00084847316517267,0.00084846554716255,1.2590294660962e-09,-1.7222368660077e-09,-2.2655766118983e-10,-1.7016380230483e-10,-0.00082444293875336,0.00082444255182002,-0.00096052899780913,0.00096052948284397,-0.00096052883860431,0.00096052968738123,-0.00096052984538824,0.00096052862463713,-0.0009605300031228,0.00096052844170969,-0.00089963522576774,0.00089963433067372,-0.00089963574864974,0.00089963384678406,-0.00082021316988982,0.00082021616356449,-0.00082021639241506,0.00082021257182397,2.2120003355846e-09,-2.4485539686511e-09,-0.0010536911308304,0.0010536908986376,4.3647141862718e-10,-6.9663426996301e-10,-0.0012069389105472,0.0012069406484033,-0.0012069391096211,0.0012069403729066,-0.0012069404318751,0.0012069390346251,-0.0012069409548027,0.0012069384799477,-0.00099600179349568,0.00099599606776488,-0.00099599669449243,0.00099600122404378,0.65381527611092,131329,3014,0.0031963645290559,0.0034300969544112,0.0043794259248969,41.234160579445,9.2273284635559e-05,9.2273284635559e-05,9.2273284635559e-05,4501409.6158373,0.011067415721347
8619200,0.74542468401037,0.011487667931598,0.0034348086405916,0.0036346380094667,0.0044182212815401,-0.00078475301176359,0.00078475244054232,1.9968789220138e-09,-2.5799921215117e-09,2.1773700508396e-09,-2.8545755114129e-09,-0.00092813523946923,0.00092813783451953,-0.00092813665722401,0.00092813642611043,-0.00092813672377238,0.00092813630961856,-0.00092813854675792,0.00092813447874693,-0.0008667278553679,0.00086673076756358,-0.00086673308117007,0.00086672553670988,1.2016309979926e-09,-1.663499434247e-09,-2.5753724478574e-10,-1.3903478871204e-10,-0.00084298204569472,0.00084298166070418,-0.00098485636443835,0.00098485678074629,-0.0009848561716323,0.00098485701778095,-0.00098485715908766,0.0009848559733041,-0.00098485730856512,0.00098485579629568,-0.000919730857935,0.00091972996799366,-0.00091973135098686,0.00091972950393011,-0.00083811669279887,0.0008381196247949,-0.00083811983473673,0.00083811611250179,2.1436039333713e-09,-2.3668874555365e-09,-0.0010817937264129,0.0010817935061047,4.5246066588724e-10,-6.9824515079582e-10,-0.0012414859891881,0.0012414876816601,-0.0012414861818299,0.0012414874135415,-0.0012414874476471,0.0012414861279573,-0.0012414879901722,0.0012414855532682,-0.0010213227122373,0.0010213170996998,-0.0010213177240688,0.001021322156058,0.6526145098702,131329,3014,0.0032660915162067,0.0035071458678917,0.0044959123587327,41.856384321979,9.7251074575834e-05,9.7251074575834e-05,9.7251074575834e-05,4522693.0066581,0.011333684288389
8819200,0.76509537629902,0.011722233911303,0.0035002507484999,0.0037049128889077,0.0045170702738958,-0.00079915071754082,0.00079915014857383,2.0349463882553e-09,-2.6157455793269e-09,2.1326946828473e-09,-2.807114067945e-09,-0.00094840861284653,0.00094841121109691,-0.0009484100598569,0.00094840977337708,-0.00094841007620325,0.0009484097078031,-0.00094841191174699,0.00094840786530966,-0.0008821087062015,0.00088211170134607,-0.00088211398432203,0.00088210642743214,1.2374805775025e-09,-1.6966433642301e-09,-2.4236747373756e-10,-1.5043162522378e-10,-0.00085905220343158,0.00085905181943767,-0.0010065755963291,0.0010065760514069,-0.001006575418672,0.0010065762713865,-0.0010065764225102,0.0010065752121629,-0.0010065765730565,0.0010065750365295,-0.00093683932320548,0.00093683842292341,-0.00093683982329153,0.00093683796629259,-0.00085341221042984,0.00085341519551631,-0.00085341540056711,0.00085341162593532,2.1861824691556e-09,-2.4027811154216e-09,-0.0011068873552108,0.0011068871434356,4.5200313140872e-10,-6.9226383468269e-10,-0.0012727290293549,0.0012727307575562,-0.0012727292261044,0.0012727304870192,-0.0012727305160521,0.0012727291786661,-0.0012727310482902,0.0012727286117256,-0.0010436144078832,0.0010436087443303,-0.0010436093670683,0.0010436138634744,0.62942560803342,131329,3014,0.0033259853206449,0.0035739360007774,0.0045999101575337,41.997088637434,9.8376709099475e-05,9.8376709099475e-05,9.8376709099475e-05,4539346.5429078,0.011567062634774
9019200,0.78350960186062,0.011941963759851,0.0035615128205518,0.0037707618557469,0.0046096890835526,-0.00081237018996221,0.00081236962452866,2.0313109729912e-09,-2.6089908691198e-09,2.0727548024695e-09,-2.7440806027212e-09,-0.00096715381789938,0.00096715637908506,-0.00096715526519568,0.00096715494102086,-0.00096715524282029,0.00096715491449577,-0.00096715707321861,0.00096715307743777,-0.00089638204330687,0.00089638506646032,-0.00089638730389422,0.00089637980699874,1.2891248224621e-09,-1.7527026673462e-09,-2.3870815604145e-10,-1.5752688641187e-10,-0.00087388976811797,0.00087388938105755,-0.0010267094858258,0.0010267099813753,-0.0010267093143943,0.0010267101951794,-0.0010267103519478,0.0010267091034021,-0.0010267105022245,0.0010267089264883,-0.00095274960272852,0.00095274866395669,-0.00095275010224619,0.00095274820210643,-0.00086755211304228,0.00086755518810641,-0.0008675554039679,0.00086755152426628,2.187301379856e-09,-2.394025807802e-09,-0.0011302061700515,0.0011302059681748,4.5017960599852e-10,-6.8003796010123e-10,-0.0013018432221682,0.0013018449545942,-0.0013018434176247,0.0013018446869655,-0.0013018447093105,0.001301843376756,-0.0013018452333779,0.0013018428164669,-0.001064297733061,0.0010642921004537,-0.0010642927091858,0.0010642972059887,0.62978085798541,131329,3014,0.0033809772824869,0.0036356017864943,0.0046965421523742,42.046797639548,9.8774381116386e-05,9.8774381116386e-05,9.8774381116386e-05,4549221.7261943,0.011782895762572
9219200,0.80053441607104,0.012142578970785,0.003617276731705,0.0038308202176133,0.004694482021467,-0.00082403379484648,0.00082403323438549,2.0270675355076e-09,-2.5992792042457e-09,1.9885134142802e-09,-2.6543200761378e-09,-0.00098401324313992,0.00098401574772885,-0.00098401468736296,0.00098401431251272,-0.00098401461075069,0.00098401434128858,-0.00098401643757237,0.00098401250766234,-0.00090898625954749,0.00090898933884666,-0.00090899151425744,0.00090898408717501,1.3677077460258e-09,-1.8356390196332e-09,-2.2974105785009e-10,-1.6941385564737e-10,-0.00088705421367025,0.00088705382284455,-0.0010448142854518,0.0010448148390189,-0.0010448141220939,0.0010448150464524,-0.0010448152077096,0.0010448139068953,-0.0010448153629818,0.001044813721581,-0.00096687402492944,0.00096687304974264,-0.00096687454452545,0.00096687256846102,-0.00087995331300497,0.000879956530984,-0.00087995675707783,0.00087995271367345,2.1861638007848e-09,-2.3845760911902e-09,-0.0011512122735855,0.0011512120801393,4.4198438744506e-10,-6.6351629253272e-10,-0.0013282375123291,0.0013282392418497,-0.0013282377004421,0.0013282389832703,-0.0013282389966803,0.0013282376680555,-0.0013282395112374,0.0013282371150905,-0.0010828265581134,0.0010828209512323,-0.0010828215491769,0.0010828260505633,0.62301124858429,131329,3014,0.0034295004742345,0.0036903155655687,0.0047835786741903,41.896613734719,9.7572909877752e-05,9.7572909877752e-05,9.7572909877752e-05,4553991.6836612,0.011975480218578
9419200,0.81598851510122,0.012322431828331,0.0036671644170022,0.0038846179038105,0.0047706495075178,-0.00083383141721557,0.0008338308622823,2.0163385657409e-09,-2.5837463428522e-09,1.8661880377953e-09,-2.5260304734147e-09,-0.00099854292303598,0.00099854534019883,-0.00099854435525656,0.00099854391635389,-0.00099854420714891,0.00099854401798495,-0.00099854602613114,0.00099854219145873,-0.00091958475358883,0.00091958790645393,-0.00091958999219658,0.00091958267081274,1.4770645494442e-09,-1.9517241221292e-09,-2.094455818749e-10,-1.9479145240155e-10,-0.00089817872781068,0.00089817833133352,-0.001060372265767,0.0010603729056661,-0.0010603721150194,0.001060373098537,-0.0010603732637527,0.0010603718960106,-0.001060373436872,0.001060371692826,-0.00097881838504579,0.00097881738383242,-0.0009788189584219,0.00097881685032286,-0.00089037150815133,0.00089037493245994,-0.00089037517991223,0.00089037088984653,2.178173883636e-09,-2.3688114780236e-09,-0.0011694180413851,0.0011694178558253,4.2049659355888e-10,-6.3426780931851e-10,-0.0013513369522378,0.0013513386634211,-0.0013513371223191,0.0013513384251744,-0.0013513384273922,0.0013513371001129,-0.0013513389259124,0.0013513365602407,-0.0010987494193872,0.0010987438521656,-0.0010987444299967,0.0010987489423943,0.61621359249622,131329,3014,0.0034702650972622,0.0037365533792539,0.0048590031396215,41.413744542192,9.3709956337536e-05,9.3709956337536e-05,9.3709956337536e-05,4553244.5455661,0.012139911970539
9619200,0.82967144688062,0.012479704943871,0.0037107409910224,0.0039316243160792,0.0048373396367689,-0.00084139735972245,0.00084139681414317,2.0078612337764e-09,-2.565128695285e-09,1.7056680530412e-09,-2.3546271923438e-09,-0.001010298152326,0.0010103004538863,-0.0010102995720537,0.0010102990424536,-0.001010299324543,0.0010102992446485,-0.0010103011351137,0.0010102974263717,-0.00092780614523153,0.00092780940132016,-0.00092781136933157,0.00092780418142298,1.6213327296464e-09,-2.1064025324018e-09,-1.7215606466722e-10,-2.4054754989984e-10,-0.00090685912553855,0.00090685872026434,-0.0010729271013583,0.0010729278573723,-0.0010729269758315,0.0010729280249761,-0.0010729281957155,0.0010729267495939,-0.0010729283981648,0.001072926515471,-0.0009881588968857,0.00098815786813058,-0.00098815955279029,0.00098815725000974,-0.00089835554487217,0.00089835922627865,-0.0008983595078573,0.00089835488234573,2.173337843609e-09,-2.3523499388535e-09,-0.0011843102383337,0.0011843100639039,3.8391222415684e-10,-5.8556955384032e-10,-0.0013705550179979,0.0013705567019803,-0.0013705551573063,0.0013705564949579,-0.0013705564836207,0.0013705551477202,-0.0013705569553409,0.0013705546329491,-0.001111592209834,0.0011115866957214,-0.0011115872410598,0.0011115917739946,0.609385555492,131329,3014,0.0035017512392626,0.0037726374842275,0.004920692596039,40.446017655293,8.5968141242341e-05,8.5968141242341e-05,8.5968141242341e-05,4543923.1614753,0.012270790345674
9819200,0.84206333594013,0.012623127873172,0.0037506020590137,0.0039745462006783,0.00489797961348,-0.00084879127620792,0.00084879073480751,2.0155967036984e-09,-2.5702185716751e-09,1.6592923052002e-09,-2.3042812041733e-09,-0.0010214334937187,0.0010214357776028,-0.0010214349197655,0.0010214343605823,-0.001021434642352,0.0010214345911007,-0.001021436446787,0.0010214327800004,-0.00093592190761167,0.00093592519580128,-0.00093592712289235,0.00093591997750946,1.6769102261994e-09,-2.1732642799849e-09,-1.7057125282845e-10,-2.5279431605384e-10,-0.00091528227839082,0.00091528186484519,-0.0010848243683078,0.0010848251705243,-0.0010848242544313,0.0010848253284036,-0.0010848255109875,0.0010848240155162,-0.0010848257117222,0.0010848237824486,-0.00099729294197029,0.00099729185488608,-0.00099729358210581,0.0009972912320326,-0.00090618128749561,0.00090618505602078,-0.00090618535784394,0.00090618060976886,2.1867069377805e-09,-2.3561368955763e-09,-0.0011983579374898,0.0011983577722806,3.8079008065383e-10,-5.7095224968304e-10,-0.0013884856664727,0.0013884873639208,-0.0013884858064688,0.0013884871575246,-0.0013884871445592,0.0013884857995385,-0.001388487603256,0.0013884852953283,-0.0011237988875697,0.0011237933970288,-0.0011237939187593,0.0011237984663056,0.61214217013663,131329,3014,0.0035325167256975,0.0038076488311251,0.0049788812875794,39.872610210887,8.1380881687098e-05,8.1380881687098e-05,8.1380881687098e-05,4539650.8030261,0.012396323018734
10019200,0.8531684560959,0.012752752112394,0.0037867054199714,0.0040133867189688,0.0049526599734535,-0.00085494609040785,0.00085494555774635,1.9939397573915e-09,-2.539552550854e-09,1.5975413371205e-09,-2.2326033625292e-09,-0.0010308700721887,0.0010308722961344,-0.0010308714717978,0.0010308709046681,-0.00103087116948,0.0010308711631199,-0.0010308729673158,0.0010308693579069,-0.00094277967881821,0.00094278300634688,-0.00094278488356125,0.0009427778063079,1.6953515940303e-09,-2.1915342698824e-09,-1.6045715044751e-10,-2.6116582008972e-10,-0.0009223241123751,0.00092232369847994,-0.0010949457284723,0.0010949465391709,-0.0010949456106999,0.001094946701867,-0.0010949468770491,0.001094945382324,-0.001094947091794,0.0010949451322058,-0.0010050127064274,0.0010050116656909,-0.0010050134063083,0.0010050109932031,-0.00091274298710598,0.00091274682428193,-0.00091274712908283,0.00091274230653895,2.1648581993621e-09,-2.3293459833144e-09,-0.001210397086363,0.001210396926854,3.7452720530391e-10,-5.6106329348975e-10,-0.0014039708125138,0.0014039724853232,-0.0014039709357859,0.0014039722948478,-0.0014039722657985,0.0014039709464716,-0.0014039727303725,0.0014039704384447,-0.0011342278612293,0.0011342223992708,-0.0011342229103795,0.001134227449101,0.61575181193621,131329,3014,0.0035581301429869,0.0038369210995458,0.0050287450602637,39.082304894263,7.5058439154102e-05,7.5058439154102e-05,7.5058439154102e-05,4529989.8134113,0.012502411144597
10219200,0.86300578818952,0.012868731214153,0.0038190981904957,0.0040481871227561,0.0050014459009015,-0.00085982730307906,0.00085982677213463,2.0058331969668e-09,-2.548671801973e-09,1.5888977369119e-09,-2.2211807555702e-09,-0.0010386058366487,0.0010386080635203,-0.0010386072453211,0.0010386066633676,-0.0010386069307357,0.0010386069337872,-0.0010386087305625,0.0010386051269909,-0.00094832672903758,0.00094833007562071,-0.00094833194334944,0.00094832486569909,1.752032633009e-09,-2.2530493629234e-09,-1.5439856962031e-10,-2.7035948377298e-10,-0.00092794489348848,0.00092794447508394,-0.0011032496823994,0.0011032505356989,-0.0011032495734652,0.0011032506894907,-0.0011032508728461,0.0011032493348753,-0.001103251089328,0.0011032490834993,-0.001011269631727,0.0010112685509759,-0.0010112703310473,0.0010112678772855,-0.00091801631125302,0.00091802023650487,-0.0009180205416229,0.00091801561105213,2.1801480095631e-09,-2.3391805232289e-09,-0.001220386540044,0.001220386385903,3.6371239407132e-10,-5.4500830804677e-10,-0.0014169761821807,0.0014169778641596,-0.0014169763001985,0.0014169776800034,-0.0014169776466671,0.0014169763147674,-0.0014169780982069,0.0014169758168422,-0.0011428488572825,0.0011428433905793,-0.0011428438975129,0.0011428484608307,0.6200754187894,131329,3014,0.0035784477312861,0.0038602894492161,0.0050701151627366,38.042362831766,6.6738902654125e-05,6.6738902654125e-05,6.6738902654125e-05,4515148.6359725,0.012588564819781
10419200,0.87207981477478,0.012976919404834,0.0038494205126756,0.004080700210624,0.0050467986815346,-0.00086549769901743,0.00086549716613449,1.9816517332233e-09,-2.5272025771078e-09,1.6432877692749e-09,-2.2798831102242e-09,-0.0010469064175541,0.0010469086601698,-0.0010469078048282,0.0010469072815581,-0.0010469075441997,0.0010469074970225,-0.0010469093358512,0.0010469056981877,-0.00095473264453684,0.0009547359225078,-0.00095473782846565,0.00095473073101187,1.6077875190028e-09,-2.1087392504708e-09,-1.8604879753272e-10,-2.412910926155e-10,-0.00093434504750545,0.00093434463053925,-0.0011121051243768,0.0011121058605801,-0.001112104988756,0.0011121060413913,-0.0011121062131435,0.0011121047593594,-0.0011121064152797,0.0011121045207752,-0.0010183997081959,0.0010183986654913,-0.0010184003491482,0.0010183980205145,-0.0009241848940161,0.00092418856206731,-0.00092418885665494,0.00092418421406906,2.1621974727043e-09,-2.3154719192752e-09,-0.0012308419449687,0.0012308417949808,4.0410605601385e-10,-5.7698480256916e-10,-0.0014302198086154,0.0014302214960553,-0.0014302199444874,0.0014302212952963,-0.0014302212526457,0.0014302199653586,-0.0014302217348761,0.001430219435394,-0.0011520922080642,0.0011520867499208,-0.0011520872731313,0.0011520917964989,0.6250667123084,131329,3014,0.003602040166574,0.0038868906144976,0.0051134152657328,37.716888083276,6.4135104666206e-05,6.4135104666206e-05,6.4135104666206e-05,4511414.5862125,0.012683269890419
10619200,0.88056700353626,0.013076060215357,0.0038771397988408,0.0041104456717647,0.005088474744751,-0.00087111354746657,0.00087111300852251,2.0022310670976e-09,-2.5543534432557e-09,1.8553995600817e-09,-2.4994067414868e-09,-0.0010550299702824,0.001055032383963,-0.0010550313903768,0.0010550309731039,-0.0010550312578255,0.001055031059152,-0.0010550330449394,0.0010550292656186,-0.00096098487538106,0.00096098799630962,-0.0009609900499265,0.00096098281509194,1.5197847371033e-09,-2.0165182425662e-09,-2.4190170887537e-10,-1.8140973657138e-10,-0.0009406604843509,0.00094066007095665,-0.0011207563427444,0.0011207570013627,-0.0011207561880676,0.0011207572029357,-0.00112075739073,0.0011207559445143,-0.0011207575357963,0.001120755763287,-0.0010253584174933,0.0010253572762479,-0.0010253588899477,0.0010253568011666,-0.00093025759290451,0.00093026107865874,-0.00093026132819955,0.00093025695466098,2.1878332644897e-09,-2.3425218253309e-09,-0.0012409629675098,0.0012409628164136,4.4827664272098e-10,-6.2356356200239e-10,-0.0014429830387918,0.0014429847911858,-0.0014429832231524,0.001442984542281,-0.0014429845188656,0.0014429832268949,-0.0014429850130743,0.0014429826844031,-0.001161050291246,0.0011610448069551,-0.0011610453584163,0.0011610498469073,0.61395642985723,131329,3014,0.0036254041331121,0.0039131380423757,0.005155328457852,37.647134713118,6.3577077704942e-05,6.3577077704942e-05,6.3577077704942e-05,4511979.5637389,0.012775988938124
10819200,0.88853186084746,0.013167353506396,0.0039026059941268,0.0041377972825254,0.0051269502297441,-0.00087641588422178,0.00087641534551797,1.974256665667e-09,-2.5266317898685e-09,1.9649423605656e-09,-2.6099263870404e-09,-0.0010626896897049,0.0010626921408364,-0.0010626910688099,0.0010626907702954,-0.0010626910323056,0.0010626907608701,-0.0010626928224788,0.0010626889643243,-0.00096683533450406,0.0009668384016691,-0.00096684052905191,0.00096683320456288,1.311928927712e-09,-1.7965428876513e-09,-2.9121922275182e-10,-1.215249254769e-10,-0.00094662232877893,0.00094662192546304,-0.0011289183204982,0.0011289187916922,-0.0011289181080789,0.0011289190523506,-0.0011289192096583,0.0011289178971479,-0.0011289193389322,0.0011289177300688,-0.0010318712382073,0.0010318702193709,-0.0010318716806503,0.0010318697795414,-0.00093595402474497,0.00093595721044171,-0.00093595741310439,0.00093595343694604,2.1605177537245e-09,-2.3190691998513e-09,-0.0012504896648918,0.0012504895105587,5.0742015216266e-10,-6.8759406797321e-10,-0.001454992042204,0.001454993795564,-0.0014549922469714,0.001454993528349,-0.0014549934864618,0.0014549922696875,-0.0014549940427323,0.0014549916641712,-0.0011694483496887,0.0011694428079677,-0.0011694434024233,0.0011694478611575,0.60387279527409,131329,3014,0.0036474628350449,0.0039379148793324,0.0051947791545763,37.649660287941,6.3597282303525e-05,6.3597282303525e-05,6.3597282303525e-05,4515354.6773565,0.012863408701075
11019200,0.89607038401131,0.013251993953823,0.0039261544073324,0.004163115093886,0.0051627244526048,-0.00088164869036353,0.0008816481472541,1.9652083823505e-09,-2.5218203349433e-09,2.115420475886e-09,-2.7666854643347e-09,-0.0010701707747721,0.0010701733140737,-0.0010701721437701,0.0010701719532676,-0.0010701722153067,0.0010701718354007,-0.0010701740043566,0.0010701700398201,-0.00097254730628482,0.00097255026485461,-0.00097255249952025,0.00097254506880678,1.1372667459089e-09,-1.6113826316185e-09,-3.5216064754277e-10,-5.2041588037049e-11,-0.00095249957147565,0.00095249917707344,-0.0011368879140378,0.0011368882271771,-0.0011368876536835,0.0011368885363151,-0.0011368886804032,0.0011368874565894,-0.0011368887704946,0.0011368873279447,-0.0010382311477821,0.0010382301386292,-0.0010382314715805,0.0010382298134529,-0.00094154604179992,0.00094154893677599,-0.00094154908832955,0.00094154550795876,2.1538496242548e-09,-2.3167794997413e-09,-0.0012597414552303,0.0012597412963878,5.7153103970729e-10,-7.5652515341116e-10,-0.0014665944672834,0.001466596252956,-0.0014665947111961,0.0014665959468014,-0.0014665959040983,0.0014665947338902,-0.0014665965101749,0.0014665940788868,-0.0011775964670033,0.0011775908665867,-0.0011775915097176,0.0011775959295162,0.59321240923869,131329,3014,0.0036692301042376,0.0039623379678436,0.0052330909583642,37.826416291182,6.5011330329454e-05,6.5011330329454e-05,6.5011330329454e-05,4522574.6601272,0.01294902741601
11219200,0.90317091200707,0.013331686473481,0.0039483280968523,0.0041869629878382,0.005196395388791,-0.00088646134891513,0.00088646080410953,1.9670660454237e-09,-2.5242189005512e-09,2.2595409966324e-09,-2.913253759568e-09,-0.0010770755659042,0.0010770782139032,-0.0010770769494817,0.0010770768382209,-0.0010770771168273,0.0010770766247346,-0.0010770788912948,0.0010770748440191,-0.00097782581996563,0.0009778286382162,-0.0009778309722542,0.00097782348632734,1.027078662331e-09,-1.4911872175298e-09,-4.1018853151228e-10,1.5174013909307e-11,-0.00095792181413824,0.00095792142788705,-0.0011442586383781,0.0011442588550096,-0.0011442583514056,0.0011442591922172,-0.0011442593446756,0.0011442581488542,-0.0011442593778096,0.0011442580766096,-0.0010441198173337,0.0010441187260307,-0.001044119973045,0.001044118571466,-0.00094668423251037,0.00094668691000748,-0.00094668701044005,0.00094668375141336,2.1560551463482e-09,-2.3241666697742e-09,-0.001268328780783,0.0012683286168802,6.2642636860444e-10,-8.179677782635e-10,-0.0014773719241126,0.0014773737610828,-0.0014773722201195,0.0014773734019003,-0.00147737337893,0.001477372224709,-0.0014773740110097,0.0014773715462579,-0.0011851403045138,0.0011851346938031,-0.0011851353798937,0.0011851397199029,0.59263757319789,131329,3014,0.0036892494496506,0.0039848697522483,0.0052686504533106,37.93635535888,6.5890842871037e-05,6.5890842871037e-05,6.5890842871037e-05,4528663.8726269,0.01302817647934
11419200,0.90978809679062,0.01340656239596,0.0039691880386953,0.0042093963035244,0.0052279780537401,-0.00089064990810392,0.00089064935857606,1.9593745218945e-09,-2.5216829656987e-09,2.3192244759607e-09,-2.9789427742254e-09,-0.0010831863530298,0.0010831890298696,-0.0010831877275361,0.00108318766292,-0.0010831879412252,0.0010831874025969,-0.0010831897158757,0.0010831856213885,-0.00098248095716107,0.00098248373684823,-0.00098248611519569,0.00098247857775014,9.552657640738e-10,-1.4148636379606e-09,-4.5609909193205e-10,6.4542273931328e-11,-0.00096266483704435,0.00096266445463871,-0.0011507940660903,0.0011507942017444,-0.0011507937427602,0.001150794575019,-0.0011507947184333,0.0011507935474928,-0.0011507947248469,0.0011507935019735,-0.0010493262922919,0.0010493251734293,-0.0010493263670607,0.0010493250983742,-0.0009511777199478,0.00095118029881198,-0.00095118036165803,0.00095117727312081,2.1509173763035e-09,-2.324177717025e-09,-0.001276005674883,0.0012760055055906,6.7100047369024e-10,-8.6813738896927e-10,-0.0014870685205486,0.0014870703783169,-0.001487068844779,0.0014870699933073,-0.0014870699692826,0.0014870688482007,-0.0014870706367096,0.001487068131479,-0.0011918651020944,0.001191859448662,-0.0011918601757341,0.0011918644851369,0.59626754368581,131329,3014,0.0037066743331917,0.0040045803500454,0.0053004382791902,37.863745655205,6.5309965241643e-05,6.5309965241643e-05,6.5309965241643e-05,4530334.7877782,0.013098022369451
11619200,0.91588584877615,0.013475967143741,0.0039885458069896,0.0042302091404975,0.0052572121962543,-0.00089414095777191,0.00089414040738462,1.954617029762e-09,-2.5170286469438e-09,2.3202191757792e-09,-2.9810292886603e-09,-0.0010884249205431,0.0010884275944569,-0.0010884262920455,0.0010884262287404,-0.0010884265119689,0.0010884259644116,-0.0010884282801327,0.0010884241879166,-0.0009864190216776,0.00098642178378461,-0.00098642416628444,0.00098641664029863,9.3633038978806e-10,-1.3916977680278e-09,-4.8710481359527e-10,9.9824204702855e-11,-0.00096664407393373,0.0009666436945626,-0.0011564054968071,0.0011564056008121,-0.001156405152467,0.0011564059937309,-0.0011564061359758,0.0011564049567325,-0.001156406117931,0.0011564049339614,-0.0010537503503508,0.0010537491758587,-0.0010537503540582,0.0010537491762792,-0.00095494879338397,0.00095495134640401,-0.00095495137862113,0.00095494836932681,2.1456729808103e-09,-2.3252379855168e-09,-0.0012826650100622,0.0012826648347765,7.0140867353473e-10,-9.0604371425117e-10,-0.0014955788593415,0.0014955807356108,-0.0014955792088261,0.0014955803273707,-0.001495580307485,0.0014955792039699,-0.0014955809958398,0.0014955784650395,-0.00119767118847,0.0011976655135571,-0.0011976662782944,0.0011976705453993,0.59873866901806,131329,3014,0.0037212000449641,0.0040211190125521,0.0053280107154,37.583515310327,6.3068122482619e-05,6.3068122482619e-05,6.3068122482619e-05,4527285.6351283,0.013157449561425
11819200,0.92142753225616,0.013539545505558,0.0040063104633108,0.0042492952665492,0.0052839397756975,-0.0008968078687853,0.00089680732143474,1.9526166341669e-09,-2.512683118079e-09,2.2711311070919e-09,-2.9290796303926e-09,-0.0010926464660651,0.0010926491073565,-0.0010926478346254,0.0010926477456235,-0.0010926480231612,0.0010926475111674,-0.0010926497897597,0.0010926457376519,-0.00098950298863127,0.00098950578644856,-0.00098950813053174,0.00098950064400293,9.847184909225e-10,-1.442798351668e-09,-5.055095753291e-10,1.1565821067045e-10,-0.00096972296171092,0.00096972258062786,-0.0011609393426727,0.0011609394673873,-0.0011609389871484,0.0011609398735465,-0.0011609400166347,0.0011609387917928,-0.0011609399880935,0.0011609387800741,-0.0010572409109932,0.0010572396723977,-0.0010572408831421,0.0010572396990141,-0.00095785792008389,0.00095786058716916,-0.00095786061253514,0.0009578575072983,2.1444499279385e-09,-2.3254447829052e-09,-0.0012881422537628,0.0012881420766242,7.167852059981e-10,-9.2269772836482e-10,-0.001502725711651,0.0015027275952558,-0.0015027260706835,0.0015027271771084,-0.0015027271602729,0.0015027260655608,-0.0015027278600867,0.0015027253150765,-0.0012023969313591,0.0012023912453341,-0.0012023920153198,0.0012023962733602,0.60218599543281,131329,3014,0.00373230041256,0.0040339186524296,0.0053506867794672,37.032205840634,5.8657646725071e-05,5.8657646725071e-05,5.8657646725071e-05,4518710.2069643,0.013204658059371
12019200,0.92651108920915,0.013599927167355,0.0040232825069459,0.0042674866778654,0.0053091579825437,-0.00089952852163256,0.00089952797748212,1.9502387673973e-09,-2.5076617555959e-09,2.2130153835168e-09,-2.8678321045801e-09,-0.0010967581916135,0.0010967607929382,-0.0010967595561536,0.0010967594353485,-0.0010967597082596,0.001096759237018,-0.0010967614728525,0.0010967574657921,-0.00099270871668562,0.00099271155387452,-0.00099271385402904,0.00099270641352925,1.0232555064031e-09,-1.4843473139989e-09,-5.2210271740897e-10,1.2942639394029e-10,-0.00097283035530392,0.00097282997238396,-0.0011653407151128,0.0011653408550544,-0.0011653403487101,0.0011653412727078,-0.0011653414156744,0.0011653401532244,-0.0011653413779015,0.0011653401504767,-0.001060836475382,0.0010608351790588,-0.0010608364173347,0.0010608352283388,-0.00096087440197621,0.00096087715711222,-0.00096087717893707,0.00096087399768179,2.1423662848276e-09,-2.3254586137768e-09,-0.0012934497855847,0.0012934496060971,7.3245198815336e-10,-9.3989070169011e-10,-0.0015095482078746,0.0015095500978746,-0.0015095485768515,0.0015095496702532,-0.0015095496552947,0.0015095485699204,-0.0015095503671232,0.0015095478070162,-0.0012070694515896,0.0012070637527004,-0.0012070645330321,0.0012070687805132,0.61930376196448,131329,3014,0.0037436220872787,0.0040468352092451,0.0053726601121636,36.63023083921,5.5441846713682e-05,5.5441846713682e-05,5.5441846713682e-05,4511031.1149135,0.013251498450964
12219200,0.93126976121922,0.013658526643673,0.0040398413996999,0.0042852012497511,0.0053334839942218,-0.00090275306113717,0.00090275252477498,1.9468226780212e-09,-2.4976592991052e-09,2.0867024875831e-09,-2.7337442907826e-09,-0.0011012992413325,0.001101301749958,-0.0011013005894828,0.0011013004085981,-0.0011013006623521,0.001101300290038,-0.0011013024337197,0.0011012985121099,-0.0009965045033659,0.00099650745681141,-0.00099650966180117,0.00099650229181255,9.3118821219309e-10,-1.389404062439e-09,-5.3202310985423e-10,1.4066510868707e-10,-0.00097645247953673,0.00097645210032103,-0.0011701747839991,0.0011701748508119,-0.0011701743990456,0.0011701752878395,-0.0011701754148709,0.0011701742214067,-0.0011701753806045,0.0011701742137386,-0.0010650528937152,0.0010650516715313,-0.0010650528437728,0.0010650517002773,-0.00096449289636055,0.000964495512496,-0.0009644955370698,0.00096449251303245,2.1378092618063e-09,-2.3217954456252e-09,-0.0012991689620626,0.0012991687808029,7.6714309998135e-10,-9.7452585808045e-10,-0.001516696750335,0.0015166986448012,-0.0015166971293939,0.0015166982053423,-0.0015166981833409,0.0015166971303779,-0.0015166989313451,0.0015166963343827,-0.0012122613948676,0.0012122556484428,-0.0012122564397716,0.0012122606944647,0.63790520059132,131329,3014,0.0037570366343498,0.0040618883819622,0.0053963372224316,36.590855029685,5.5126840237476e-05,5.5126840237476e-05,5.5126840237476e-05,4506374.4334484,0.013304354427406
12419200,0.93576261444439,0.013711868956029,0.0040548398587029,0.0043012751939678,0.0053557539033584,-0.00090598313908579,0.00090598261427549,1.9394706177392e-09,-2.479144895737e-09,1.7407098968016e-09,-2.3737988271341e-09,-0.0011058654046648,0.00110586762854,-0.0011058666883583,0.00110586635225,-0.0011058665402332,0.0011058664544593,-0.0011058683581972,0.0011058646297185,-0.0010002053774334,0.0010002087196223,-0.0010002106770151,0.0010002034115269,6.0515886007793e-10,-1.0452366084339e-09,-5.0777657911965e-10,1.3151447752554e-10,-0.00098007031707029,0.00098006995251545,-0.0011750225877606,0.0011750224050115,-0.0011750221581248,0.0011750228864677,-0.001175022943169,0.0011750220467723,-0.0011750229765648,0.0011750219723115,-0.0010691731161883,0.0010691723308468,-0.0010691732634937,0.0010691721647747,-0.00096809178795987,0.00096809390527139,-0.00096809391929382,0.00096809141044107,2.1244866919193e-09,-2.3141341997887e-09,-0.0013047954358545,0.0013047952489838,8.2347583796664e-10,-1.0374920091548e-09,-0.0015237205405241,0.0015237224081432,-0.0015237209013414,0.0015237219838155,-0.0015237219076624,0.0015237209533361,-0.0015237227519046,0.0015237200615496,-0.0012173784136622,0.0012173724672387,-0.0012173733054501,0.0012173776606723,0.61827140647275,131329,3014,0.0037704749635437,0.004076924201074,0.0054196283297972,36.717557084683,5.6140456677468e-05,5.6140456677468e-05,5.6140456677468e-05,4503237.8283369,0.013356829892501
12619200,0.93994719811237,0.01375863376711,0.0040678826778968,0.0043152918816228,0.0053754592075903,-0.00090845993930713,0.00090845941053724,1.9427107320207e-09,-2.4850834284953e-09,1.9954854269076e-09,-2.6326589823693e-09,-0.0011095892068028,0.0011095916212875,-0.0011095905247249,0.0011095903111523,-0.0011095905336854,0.0011095902570588,-0.0011095923215415,0.0011095884617127,-0.0010029795956231,0.0010029826738881,-0.0010029848067762,0.00100297746567,9.4216702731841e-10,-1.3937219486262e-09,-5.5078416059798e-10,1.6703836547144e-10,-0.0009828790783192,0.00098287870294516,-0.001178989980988,0.0011789900104684,-0.0011789895580095,0.0011789904866675,-0.0011789905874656,0.0011789894058019,-0.0011789905640004,0.0011789893879204,-0.0010722927705933,0.0010722915817455,-0.0010722927549925,0.0010722915988127,-0.00097079702003458,0.00097079973627967,-0.00097079972378643,0.00097079665035444,2.1294045128009e-09,-2.3239319151811e-09,-0.0013094383625538,0.001309438172378,7.939387538337e-10,-1.0146936885396e-09,-0.0015296601300597,0.0015296620143742,-0.0015296605009443,0.0015296615741524,-0.0015296615313371,0.0015296605228197,-0.0015296623314981,0.0015296596828437,-0.0012214783374759,0.0012214724752521,-0.0012214732930875,0.0012214775900729,0.58731727432165,131329,3014,0.0037807820073437,0.0040885992515616,0.0054388469004992,36.603397580139,5.5227180641116e-05,5.5227180641116e-05,5.5227180641116e-05,4499919.5073229,0.013398598683062
12819200,0.94383975596862,0.013802546228395,0.0040801605080154,0.0043284729650255,0.0053939127553546,-0.00091074260197877,0.00091074206872549,1.9416450293713e-09,-2.4884989311247e-09,2.0987154813297e-09,-2.7414579753995e-09,-0.0011129492329087,0.0011129517322798,-0.0011129505779962,0.001112950394824,-0.0011129506490853,0.0011129502776376,-0.0011129524097925,0.0011129485095623,-0.0010055551122337,0.0010055580302701,-0.0010055602366264,0.0010055529032481,1.1362321865679e-09,-1.6001413805127e-09,-5.7328964961072e-10,1.7854371897838e-10,-0.00098546706221478,0.00098546667696699,-0.0011825794231619,0.0011825795847935,-0.0011825790170479,0.001182580044025,-0.0011825801797673,0.0011825788273211,-0.0011825801190567,0.0011825788463879,-0.0010751753747198,0.0010751739143784,-0.0010751752299593,0.0010751740486811,-0.00097327155490324,0.00097327457023703,-0.0009732745594596,0.00097327118211146,2.133749573827e-09,-2.327342683808e-09,-0.0013137021354732,0.0013137019454924,7.7618195508583e-10,-9.9514307520921e-10,-0.001535078900295,0.0015350808022486,-0.0015350792878103,0.0015350803471106,-0.0015350803309683,0.0015350792818404,-0.0015350810924695,0.0015350784774566,-0.001225217737105,0.0012252119713358,-0.0012252127870013,0.001225217012801,0.59135073842731,131329,3014,0.0037902786434085,0.0040993545079846,0.0054564979937449,36.464402337922,5.4115218703376e-05,5.4115218703376e-05,5.4115218703376e-05,4499850.5000131,0.013437023257866
13019200,0.94738104465272,0.013842663373938,0.0040913898991958,0.0043405233761729,0.0054107500985697,-0.00091206487574862,0.00091206434956485,1.9391857215897e-09,-2.4797054342894e-09,2.0293566604294e-09,-2.6638617277939e-09,-0.0011152192864544,0.0011152217570777,-0.0011152206413204,0.001115220410808,-0.0011152206693735,0.0011152203363561,-0.0011152224133274,0.0011152185867765,-0.0010071211059072,0.0010071240379743,-0.0010071261893431,0.0010071189676254,1.2376521189656e-09,-1.7053124150895e-09,-5.57083810807e-10,1.6097337414598e-10,-0.00098702528148163,0.00098702489232128,-0.0011850247449098,0.0011850249967858,-0.0011850243646667,0.0011850254331327,-0.0011850255886316,0.0011850241585757,-0.0011850255258575,0.0011850241806936,-0.0010769723241979,0.0010769708047755,-0.001076972190904,0.0010769709510684,-0.00097472400778155,0.00097472719141631,-0.00097472719216148,0.00097472362618546,2.1301701002951e-09,-2.3253127039989e-09,-0.0013167349617729,0.0013167347725916,7.5137194980858e-10,-9.73474269294e-10,-0.001539148111019,0.0015391500121097,-0.0015391484970772,0.0015391495597676,-0.0015391495567004,0.0015391484836042,-0.0015391502887639,0.0015391477070979,-0.0012277890953656,0.0012277833967018,-0.0012277841910784,0.0012277883823164,0.59303210646244,131329,3014,0.0037957850334218,0.0041058345094089,0.0054690513693095,35.904536712267,4.9636293698133e-05,4.9636293698133e-05,4.9636293698133e-05,4491643.4823857,0.013461904409436
13219200,0.95057971836005,0.013879089801086,0.0041016063266367,0.0043514750836928,0.0054260083907562,-0.00091288810726264,0.00091288758932817,1.9457650305963e-09,-2.4774182891895e-09,1.8299447725021e-09,-2.454677371556e-09,-0.0011168741904578,0.0011168765063399,-0.0011168755150502,0.0011168751885943,-0.001116875412198,0.0011168752478388,-0.0011168771868401,0.0011168734659024,-0.0010081585780044,0.0010081617501136,-0.0010081637585661,0.0010081565718749,1.210735616058e-09,-1.6783376696936e-09,-5.1419559173737e-10,1.1723700559404e-10,-0.0009880423144525,0.00098804192595285,-0.0011868235288578,0.0011868237670683,-0.0011868231454395,0.0011868242043933,-0.0011868243275181,0.0011868229702861,-0.0011868243220029,0.0011868229324648,-0.0010782002441552,0.0010781989113432,-0.00107820028081,0.0010781988677097,-0.00097564970323251,0.00097565288631045,-0.00097565291877948,0.00097564929024015,2.1363461574443e-09,-2.3287676018071e-09,-0.0013190469450636,0.0013190467571245,7.3776669179281e-10,-9.5559190832315e-10,-0.0015423818952862,0.0015423837577719,-0.0015423822407775,0.0015423833477889,-0.0015423833130629,0.001542382255117,-0.0015423840644865,0.0015423814585923,-0.0012297000902896,0.0012296943006542,-0.001229695085744,0.0012296993910041,0.59512913239271,131329,3014,0.0037992171655391,0.0041100671041114,0.0054786200084022,35.182192237447,4.3857537899577e-05,4.3857537899577e-05,4.3857537899577e-05,4479829.3667779,0.013479379914478
13419200,0.95347334462591,0.013911479914946,0.0041106821363249,0.0043612024828557,0.0054395952957652,-0.00091347481834754,0.00091347430327719,1.9432157809447e-09,-2.4720346834197e-09,1.7618169447605e-09,-2.3832831606589e-09,-0.0011182166500547,0.0011182189156387,-0.0011182179676749,0.0011182176053035,-0.0011182178217693,0.0011182177073601,-0.0011182195973862,0.0011182159244531,-0.001008910752587,0.0010089139784834,-0.0010089159361837,0.001008908795671,1.2801732573124e-09,-1.7528847898854e-09,-4.8565062476101e-10,8.4496537740014e-11,-0.00098879447217964,0.00098879407966354,-0.0011882871984731,0.0011882874976136,-0.0011882868313816,0.0011882879188559,-0.0011882880410596,0.0011882866557107,-0.0011882880600275,0.0011882865931813,-0.0010791168431647,0.0010791155291599,-0.0010791169489186,0.0010791154135324,-0.00097631096973792,0.00097631427907265,-0.0009763143346496,0.00097631052849012,2.1360989747014e-09,-2.3259275572744e-09,-0.0013209495293154,0.001320949343776,7.08131436306e-10,-9.229393928939e-10,-0.0015451167675089,0.0015451186070138,-0.0015451170876818,0.0015451182225388,-0.0015451181803915,0.0015451171088767,-0.0015451189148338,0.0015451163283729,-0.0012312401016653,0.0012312343200299,-0.0012312350833787,0.0012312394261006,0.58608787836254,131329,3014,0.0038016657035492,0.0041131993904851,0.005486493597927,34.451590208706,3.8012721669651e-05,3.8012721669651e-05,3.8012721669651e-05,4467630.686174,0.013493024979816
13619200,0.95612280743999,0.013940737712772,0.0041188780973688,0.0043699835825198,0.0054518760328834,-0.00091422298672971,0.00091422247075318,1.9435781079053e-09,-2.4738390284452e-09,1.7082110412664e-09,-2.331021688564e-09,-0.001119649678983,0.0011196519017378,-0.0011196509919984,0.0011196505964917,-0.0011196508094998,0.0011196507336378,-0.0011196525904554,0.0011196489452218,-0.0010098059945979,0.0010098092643355,-0.001009811188332,0.001009804061319,1.2753956373367e-09,-1.7522073796515e-09,-4.6104356904527e-10,5.4990860258602e-11,-0.00098969566575031,0.0009896952704407,-0.0011898330842465,0.0011898333923425,-0.0011898327303825,0.0011898337998194,-0.0011898339168032,0.0011898325545251,-0.0011898339597015,0.0011898324681734,-0.0010801594608964,0.0010801581947576,-0.0010801596176987,0.0010801580133864,-0.00097712224720471,0.00097712552838341,-0.00097712560789443,0.00097712178467137,2.1420229383755e-09,-2.327493236444e-09,-0.0013229066358514,0.0013229064530401,6.9000707405165e-10,-8.9967538065233e-10,-0.0015478270046,0.0015478288301552,-0.0015478273061041,0.0015478284642335,-0.0015478284130268,0.0015478273326505,-0.0015478291383709,0.0015478265585579,-0.00123285497737,0.0012328491896893,-0.0012328499428811,0.0012328543254245,0.57890326097282,131329,3014,0.0038047830069651,0.0041169488122149,0.0054945942039013,33.907079204985,3.3656633639878e-05,3.3656633639878e-05,3.3656633639878e-05,4460141.9065141,0.013508202447093
13819200,0.95857139366468,0.013967779675805,0.0041264632295471,0.0043781040497061,0.0054632123965513,-0.00091510390473222,0.00091510338964579,1.9347517723967e-09,-2.4639294679696e-09,1.8000332613077e-09,-2.4222749633391e-09,-0.0011211564620534,0.0011211587658251,-0.0011211577942488,0.0011211574414187,-0.0011211576774624,0.0011211575133575,-0.0011211594264377,0.0011211557572619,-0.0010108348509667,0.0010108379673482,-0.0010108399496511,0.0010108328656177,1.3327209244282e-09,-1.8107012232489e-09,-4.5285361566047e-10,4.6685386098303e-11,-0.00099072373094166,0.00099072333445744,-0.0011914449301011,0.0011914453046744,-0.0011914446076511,0.0011914456821702,-0.001191445827331,0.0011914444077752,-0.0011914458496053,0.0011914443413139,-0.001081325711781,0.0010813243550375,-0.0010813258143002,0.0010813242354117,-0.00097806893964468,0.00097807226175939,-0.00097807234694724,0.00097806846938981,2.1358995709107e-09,-2.3206020621999e-09,-0.0013249123509373,0.0013249121695816,6.6310695597885e-10,-8.7219675360553e-10,-0.001550519365225,0.0015505211956166,-0.0015505196735448,0.001550520822685,-0.0015505207966086,0.0015505196782604,-0.0015505214793601,0.0015505189487768,-0.0012345399372338,0.0012345342617136,-0.001234534988009,0.0012345393001546,0.57842618651044,131329,3014,0.0038084502575479,0.0041212236919979,0.0055028970775908,33.506987992196,3.0455903937572e-05,3.0455903937572e-05,3.0455903937572e-05,4455972.0562997,0.013524674222308
14019200,0.96087206430658,0.013993199022749,0.0041336002816721,0.0043857408058651,0.005473857935212,-0.00091639068704705,0.0009163901691976,1.928659996908e-09,-2.4613853258384e-09,1.8704944064151e-09,-2.4964940569673e-09,-0.0011230493358414,0.0011230516700985,-0.0011230506522106,0.0011230503618403,-0.0011230505865141,0.0011230503817645,-0.0011230523453014,0.0011230486161501,-0.001012289646167,0.0010122927457419,-0.0010122947774215,0.0010122876098898,1.2775361594315e-09,-1.7542828393929e-09,-4.4733830406995e-10,4.2009097830068e-11,-0.00099216601211369,0.00099216561701288,-0.0011934464047056,0.0011934467349157,-0.0011934460730855,0.0011934471219077,-0.0011934472524502,0.0011934458877344,-0.0011934472911134,0.0011934458051431,-0.0010829246711664,0.0010829234049666,-0.0010829248246408,0.0010829232320084,-0.00097945082554676,0.00097945407615351,-0.000979454165369,0.00097945035260496,2.1349117183831e-09,-2.3184995901349e-09,-0.0013273025827535,0.0013273024026391,6.5618013882365e-10,-8.6400240667249e-10,-0.0015535599154829,0.0015535617288152,-0.001553560206816,0.0015535613742526,-0.0015535613342344,0.0015535602256956,-0.0015535620241648,0.0015535594872712,-0.0012366301537263,0.0012366244521957,-0.0012366251706158,0.0012366295244654,0.57821464242226,131329,3014,0.0038138026440518,0.0041272173694333,0.0055127926261119,33.390834649041,2.9526677192331e-05,2.9526677192331e-05,2.9526677192331e-05,4456690.5337294,0.013546210826483
14219200,0.96302934415546,0.01401608051072,0.0041399911522101,0.0043925899587277,0.0054834993997825,-0.00091746972166112,0.00091746920834241,1.9252172923744e-09,-2.4508384048044e-09,1.96906992753e-09,-2.5894399959738e-09,-0.0011247109045317,0.0011247132814387,-0.0011247121967366,0.0011247119969911,-0.0011247121992441,0.0011247119508125,-0.001124713973608,0.0011247101700183,-0.0010134855177566,0.0010134886095924,-0.0010134907050342,0.0010134834270581,1.2457826703631e-09,-1.7147360492775e-09,-4.4052020627268e-10,4.3479590418845e-11,-0.00099338495659093,0.00099338456725208,-0.0011952074240357,0.0011952077162338,-0.0011952070744165,0.001195208123235,-0.0011952082318879,0.0011952069174822,-0.0011952082899218,0.0011952068136249,-0.0010842481420958,0.0010842469853227,-0.0010842483757686,0.0010842467405379,-0.00098059233597792,0.00098059559087305,-0.00098059567244371,0.00098059186730536,2.1311296473345e-09,-2.3135158612079e-09,-0.0013294011328154,0.0013294009544823,6.456921721356e-10,-8.5268813687449e-10,-0.0015562757216645,0.0015562775062788,-0.0015562759839679,0.0015562771790355,-0.0015562771199547,0.0015562760262488,-0.001556277824646,0.0015562752785106,-0.0012384313419085,0.0012384255896742,-0.0012384262956123,0.0012384307124501,0.5585676774158,131329,3014,0.0038182918567518,0.0041322836758192,0.0055214801892283,33.23368417469,2.826947339752e-05,2.826947339752e-05,2.826947339752e-05,4456720.343891,0.013564708332255
14419200,0.96503946321069,0.01403766578019,0.004146035607655,0.0043990617552452,0.0054925684172898,-0.00091826949180449,0.00091826897240224,1.9283560297529e-09,-2.4613876764137e-09,1.9618778255674e-09,-2.5895795712393e-09,-0.0011259943702424,0.0011259967828948,-0.0011259957036004,0.0011259954559347,-0.0011259957029417,0.0011259954137872,-0.0011259974428113,0.0011259936652384,-0.0010143976755381,0.001014400652148,-0.0010144027502078,0.0010143955759005,1.1363838374449e-09,-1.6018129646638e-09,-4.2310767745107e-10,2.7784345738675e-11,-0.00099430504235149,0.00099430465580456,-0.0011965836452729,0.0011965839178456,-0.0011965833430383,0.0011965842736042,-0.0011965844153152,0.0011965831474665,-0.0011965844468899,0.0011965830696649,-0.0010852606054597,0.0010852594229049,-0.0010852607374292,0.0010852592731608,-0.00098142683731049,0.00098142973923454,-0.00098142982544408,0.00098142636001256,2.1399519899945e-09,-2.3235961169101e-09,-0.0013311088118418,0.0013311086321565,6.4262081811041e-10,-8.5065202781152e-10,-0.0015585228394177,0.0015585246664995,-0.0015585231402129,0.001558524304753,-0.0015585242801313,0.0015585231411029,-0.0015585249432936,0.0015585224292878,-0.0012398502874606,0.001239844632222,-0.0012398453499402,0.0012398496688297,0.56383594408359,131329,3014,0.0038216190229403,0.0041361076540179,0.0055285507883026,32.955390287653,2.6043122301224e-05,2.6043122301224e-05,2.6043122301224e-05,4456667.9316046,0.013579127752225
14619200,0.96682737757973,0.01405698860239,0.0041514543188796,0.0044048603684099,0.0055006739151004,-0.00091742923961862,0.00091742869740219,1.920207551448e-09,-2.4861944751419e-09,1.8473294680881e-09,-2.5040027464937e-09,-0.0011255238494271,0.0011255261492387,-0.001125525147296,0.0011255248628703,-0.0011255250781644,0.0011255248794184,-0.0011255268642677,0.0011255230854015,-0.0010135886279866,0.0010135918062685,-0.0010135938484427,0.0010135865859261,1.1032073902503e-09,-1.5709578911273e-09,-3.8335998184732e-10,-1.8282862868091e-11,-0.00099352749262786,0.00099352710152808,-0.0011961669302085,0.0011961671679567,-0.0011961666144271,0.0011961675342868,-0.0011961676324109,0.001196166442434,-0.0011961677408866,0.0011961662967367,-0.0010845034093081,0.001084502463506,-0.0010845037604825,0.0010845021104314,-0.00098054188482382,0.0009805448232492,-0.00098054491050807,0.00098054135691116,2.1466837408147e-09,-2.3385791967167e-09,-0.0013309074579223,0.0013309072732543,6.1172141124255e-10,-8.2866609040799e-10,-0.0015587648716753,0.0015587666511675,-0.0015587651178113,0.0015587663513289,-0.0015587662747924,0.0015587651598902,-0.0015587669527254,0.0015587644115696,-0.0012394056768825,0.0012393998929511,-0.0012394006177224,0.0012394050992207,0.5664570723816,131329,3014,0.003818134220303,0.0041328850970757,0.005527715515045,31.821226483319,1.6969811866554e-05,1.6969811866554e-05,1.6969811866554e-05,4439312.4125945,0.013571485274075
14819200,0.96843815297841,0.014074537598785,0.0041563895756618,0.0044101352971411,0.005508012725982,-0.00091681004333987,0.00091680952560907,1.9278453978229e-09,-2.4609018178152e-09,1.897514992043e-09,-2.5244521687779e-09,-0.0011252279600704,0.0011252303014835,-0.001125229262649,0.0011252290077295,-0.0011252292187332,0.0011252290055111,-0.0011252309899439,0.0011252272273263,-0.0010130136199845,0.0010130167403947,-0.0010130187925363,0.0010130115656501,1.1576127251344e-09,-1.6248786230036e-09,-3.6252749375588e-10,-3.4666247322652e-11,-0.0009929637463828,0.00099296335872302,-0.0011959191122942,0.0011959194096773,-0.0011959188203985,0.0011959197566126,-0.0011959198675888,0.0011959186553989,-0.0011959199716685,0.0011959185061396,-0.0010839776142865,0.001083976639245,-0.0010839779679251,0.0010839762658737,-0.00097989343023844,0.0009798964318401,-0.00097989656139458,0.00097989291008572,2.1476060322275e-09,-2.3253983355006e-09,-0.0013308543056264,0.0013308541320504,5.8944984035905e-10,-7.9084240327802e-10,-0.0015591033972625,0.001559105164003,-0.0015591036277344,0.0015591048719725,-0.0015591048099116,0.001559103668033,-0.0015591054661932,0.0015591029608172,-0.0012391460650265,0.001239140350872,-0.0012391410175183,0.0012391454875525,0.56962156742041,131329,3014,0.0038155669401341,0.0041305494828998,0.0055274942767376,30.869292906778,9.3543432542268e-06,9.3543432542268e-06,9.3543432542268e-06,4424557.7160902,0.013566294220669
15019200,0.96986049492746,0.014089980370017,0.0041607365148537,0.0044147789361872,0.0055144649189763,-0.00091537609463025,0.00091537559345767,1.9184368631883e-09,-2.4275380363793e-09,1.9880173409349e-09,-2.5935709409528e-09,-0.0011240450509845,0.0011240474552262,-0.0011240463652009,0.0011240461622567,-0.0011240463719286,0.0011240460941512,-0.0011240481190188,0.0011240443548186,-0.0010115731185518,0.001011576100998,-0.0010115782061421,0.0010115710332936,1.3119763092121e-09,-1.7854288529532e-09,-3.510203844717e-10,-5.0774863602258e-11,-0.000991554177905,0.00099155378350082,-0.001194756604575,0.0011947570190274,-0.0011947563504476,0.0011947573479956,-0.0011947574883092,0.0011947561629752,-0.001194757589022,0.0011947560283586,-0.0010825617998745,0.0010825606829811,-0.0010825621260036,0.0010825603523196,-0.00097839224103369,0.00097839548640554,-0.00097839563828278,0.00097839172470322,2.1381691276361e-09,-2.2977359085688e-09,-0.0013298431391087,0.00132984298343,5.5633280476764e-10,-7.3846492175648e-10,-0.0015584138679257,0.0015584156282755,-0.0015584140811584,0.0015584153380601,-0.001558415294321,0.0015584141314539,-0.0015584159075194,0.0015584134752943,-0.0012379600054572,0.0012379544203382,-0.0012379550340988,0.0012379594447348,0.56738228759685,131329,3014,0.003809615279825,0.0041247028020965,0.0055233056046162,29.523323580995,-1.413411352037e-06,-1.413411352037e-06,-1.413411352037e-06,4402453.0958431,0.01355009184015
15219200,0.97102906045072,0.014102064031906,0.0041641210441665,0.0044183985422181,0.0055195444455212,-0.00091146600340346,0.00091146549575886,1.9305630873876e-09,-2.4521654492935e-09,1.7237503549628e-09,-2.3371789259058e-09,-0.001120221655484,0.0011202238977495,-0.0011202229694199,0.0011202225931217,-0.001120222808335,0.0011202227086695,-0.0011202245640957,0.0011202209462738,-0.0010075091532672,0.001007512356854,-0.0010075142797898,0.0010075072310986,1.3290205968876e-09,-1.8029680535911e-09,-2.8605999288849e-10,-1.1746172054889e-10,-0.00098759255590148,0.0009875921613105,-0.0011908909875661,0.0011908914603156,-0.0011908907628372,0.0011908917420228,-0.0011908918739816,0.0011908905759757,-0.0011908920179828,0.0011908903871667,-0.0010784574174399,0.0010784564332946,-0.0010784578851364,0.001078455951031,-0.00097428108685681,0.00097428433406139,-0.00097428451425055,0.00097428050922201,2.1531274618458e-09,-2.3243929115686e-09,-0.0013260633776075,0.0013260632105031,5.1266290526486e-10,-7.0690933722852e-10,-0.0015548168516615,0.0015548185876017,-0.0015548170417181,0.0015548183349188,-0.0015548182805911,0.0015548170766934,-0.0015548188700555,0.0015548164363113,-0.0012340287506447,0.001234023132101,-0.0012340237431168,0.0012340282317766,0.54391446521332,131329,3014,0.0037933780195207,0.0041082622968781,0.0055076515700042,26.879214981446,-2.2566280148429e-05,-2.2566280148429e-05,-2.2566280148429e-05,4358070.3002107,0.013501103463365
15419200,0.97209276302984,0.014114824582216,0.0041677748730886,0.0044222769476923,0.0055247727614353,-0.00091059594584039,0.0009105954353233,1.9241739179253e-09,-2.4490558837297e-09,1.7857042208442e-09,-2.4040648535866e-09,-0.0011194368211225,0.0011194391021185,-0.0011194381340361,0.0011194377995253,-0.001119438017533,0.0011194378684666,-0.0011194397689527,0.001119436111286,-0.0010066940754663,0.0010066972187587,-0.001006699184587,0.0010066921040248,1.292198923457e-09,-1.7704168706986e-09,-2.8910395261681e-10,-1.1605829707446e-10,-0.00098673247441402,0.00098673207906452,-0.0011901151066054,0.0011901155573565,-0.0011901148827327,0.0011901158391914,-0.0011901159713757,0.0011901146949829,-0.0011901161128175,0.0011901145096329,-0.001077644937003,0.0010776439631325,-0.0010776453906947,0.0010776434858922,-0.00097336890243994,0.00097337206715613,-0.00097337226247126,0.00097336832051829,2.152585034593e-09,-2.3214400655995e-09,-0.0013254596220112,0.0013254594566849,5.124881132811e-10,-7.0393616832149e-10,-0.0015543817381453,0.0015543834746863,-0.0015543819286188,0.0015543832209596,-0.0015543831678989,0.0015543819631002,-0.0015543837545684,0.0015543813248902,-0.001233307845308,0.0012333022411727,-0.0012333028449654,0.0012333073313234,0.61488004943002,131329,3014,0.0037897644191515,0.0041046931502841,0.0055051528668332,25.929610328604,-3.0163117371167e-05,-3.0163117371167e-05,-3.0163117371167e-05,4345813.2557193,0.013491289997373
15619200,0.97309580710769,0.014127136539519,0.0041713098806563,0.0044260260962666,0.0055298005625959,-0.00091066951079064,0.00091066896947611,1.9798784685424e-09,-2.5492172934557e-09,1.4759118605528e-09,-2.1291492513342e-09,-0.001119789700457,0.0011197918079944,-0.0011197910071634,0.0011197904284208,-0.0011197907122301,0.0011197907796851,-0.0011197924834808,0.0011197889158896,-0.0010068657073818,0.0010068692045462,-0.0010068709560289,0.0010068638763404,7.9379268277496e-10,-1.2374164902021e-09,-2.5690522847575e-10,-1.1849254982598e-10,-0.00098684185016804,0.0009868414898088,-0.0011904844351842,0.0011904845942164,-0.0011904841559264,0.001190484827532,-0.0011904849102294,0.0011904840233453,-0.0011904850319945,0.0011904837707949,-0.001077868096916,0.0010778675692273,-0.0010778686067794,0.0010778669797972,-0.00097352543229317,0.00097352764047027,-0.00097352780027468,0.00097352483549919,2.1994593457915e-09,-2.4337978765573e-09,-0.0013258955055337,0.00132589527417,5.3640788169565e-10,-7.9540441267648e-10,-0.0015550998380145,0.0015551015895213,-0.0015551000820503,0.0015551013438317,-0.0015551012759844,0.0015551000060518,-0.0015551019115927,0.0015550993119222,-0.001233714632155,0.0012337087607276,-0.0012337094914869,0.0012337141020554,0.62695263468901,131329,3014,0.0037900756910037,0.0041051530705348,0.0055069540950134,25.553385321679,-3.3172917426568e-05,-3.3172917426568e-05,-3.3172917426568e-05,4334294.5653348,0.013493903734669
15819200,0.97402103349732,0.014139393482212,0.0041748591076326,0.0044297805521507,0.0055347538224283,-0.00091004164466722,0.00091004116837735,2.0707184530021e-09,-2.5573978935145e-09,1.4102236176953e-09,-1.9879834994687e-09,-0.0011194042931219,0.0011194064068617,-0.0011194056862651,0.0011194050623618,-0.001119405203563,0.0011194054534861,-0.0011194070807762,0.0011194036096156,-0.0010063209571414,0.001006324724249,-0.001006326414417,0.001006319300276,5.5107549280503e-10,-9.8189742987296e-10,-2.4653034981823e-10,-1.2151012927203e-10,-0.00098623090092159,0.00098623053995194,-0.0011900952073164,0.0011900951738165,-0.0011900949990804,0.0011900954857307,-0.0011900955650846,0.0011900948640027,-0.0011900957632596,0.0011900946589676,-0.001077362452624,0.0010773621478057,-0.0010773630307022,0.0010773615695108,-0.00097297285958847,0.00097297460945321,-0.00097297477478595,0.00097297231979991,2.2946368656542e-09,-2.4472057288978e-09,-0.0013255578848987,0.0013255577386925,6.1360454153775e-10,-7.8821387390132e-10,-0.0015550096103546,0.0015550114912065,-0.0015550098237081,0.0015550111835893,-0.0015550111136325,0.0015550099250507,-0.001555011790493,0.0015550092092036,-0.0012333817438576,0.001233375741563,-0.0012333763614391,0.0012333811194308,0.66920159204875,131329,3014,0.0037874743230777,0.0041026233653022,0.005505551525607,24.790954245682,-3.9272366034545e-05,-3.9272366034545e-05,-3.9272366034545e-05,4315089.0159572,0.013487287885149
16019200,0.97490461008055,0.014151067558173,0.0041782397339441,0.0044333559470696,0.0055394718771594,-0.00091034641678838,0.00091034573279072,1.0264023424659e-09,-1.7282144706754e-09,5.2771445228866e-09,-6.1041814901514e-09,-0.0011200599207005,0.001120064042028,-0.0011200608808898,0.0011200630989958,-0.0011200636468076,0.0011200602575871,-0.0011200646880227,0.0011200592143258,-0.0010067467874633,0.0010067452244027,-0.0010067497745047,0.0010067422245201,4.2037798559961e-09,-4.8576001795349e-09,-7.5933759056345e-10,2.0231808648948e-10,-0.00098657620662714,0.00098657566182003,-0.0011907588505673,0.0011907610397376,-0.0011907585470347,0.0011907614026155,-0.0011907618422017,0.001190758017792,-0.001190761554103,0.0011907582749555,-0.00107785927685,0.0010778548166711,-0.0010778584349998,0.0010778556501677,-0.00097343704611102,0.00097344566431234,-0.00097344574314487,0.00097343654019618,1.3584349840378e-09,-1.5163889796517e-09,-0.0013262303703932,0.0013262302162337,2.5735709724087e-10,-4.3539414965465e-10,-0.001555986741884,0.0015559879704853,-0.0015559869483125,0.0015559877204059,-0.0015559878277267,0.0015559868152337,-0.0015559880438821,0.0015559865040034,-0.0012341062805069,0.0012341029679153,-0.0012341034653191,0.0012341060519634,0.66743249032759,131329,3014,0.0037887486694301,0.0041040648286358,0.0055083291645129,24.592989705177,-4.0856082358585e-05,-4.0856082358585e-05,-4.0856082358585e-05,4301675.4390192,0.013492865650461
16219200,0.97577657934921,0.014162531114204,0.0041815592697178,0.004436866256021,0.0055441055884656,-0.00091161075441189,0.00091161034565634,2.5770212024183e-09,-2.9955678603111e-09,9.3236651743113e-11,-5.925826415953e-10,-0.0011217143422133,0.0011217157995089,-0.0011217158982892,0.0011217142730285,-0.0011217142190771,0.0011217158908703,-0.0011217165489722,0.0011217135770011,-0.0010081533746827,0.0010081594906598,-0.001008160186244,0.001008152668196,-1.2522617647152e-09,9.2354267598424e-10,-1.0426059354784e-10,-1.7459853429536e-10,-0.00098790589819812,0.00098790563065937,-0.0011924424543305,0.0011924412185076,-0.0011924421567958,0.0011924416025824,-0.0011924414497671,0.0011924422736119,-0.0011924418462676,0.0011924418493349,-0.0010793559526517,0.0010793575944908,-0.001079357141017,0.0010793563668609,-0.00097491063026874,0.00097490918772949,-0.00097490935608797,0.00097491011930475,2.7610117532803e-09,-2.9275686465521e-09,-0.0013279293531795,0.0013279291877027,8.5160328936878e-10,-1.0425635315174e-09,-0.0015580047557144,0.0015580069593987,-0.0015580050012151,0.0015580066365764,-0.001558006439157,0.0015580052140304,-0.0015580074294122,0.0015580041889315,-0.0012358554843347,0.0012358479501641,-0.0012358487106699,0.0012358546600715,0.66426058614769,131329,3014,0.0037940090097171,0.0041095928130396,0.0055153581190544,24.94541115654,-3.8036710747682e-05,-3.8036710747682e-05,-3.8036710747682e-05,4299679.5077719,0.013510934194476
16419200,0.97657637373523,0.014171859087017,0.0041842240975212,0.004439695847494,0.0055479391420013,-0.00091059873836623,0.00091059819380158,1.7537337900483e-09,-2.3113873897607e-09,2.6410911298318e-09,-3.3000470421516e-09,-0.0011209993271129,0.0011210021179621,-0.0011210006076199,0.0011210008689246,-0.0011210011701039,0.0011210002293206,-0.0011210027581125,0.0011209986542646,-0.0010071204335099,0.0010071224568241,-0.0010071250450525,0.0010071178603689,1.2934187445031e-09,-1.7642243551937e-09,-4.6529581027595e-10,6.2415105227946e-11,-0.00098690200087006,0.00098690160594445,-0.0011917123208398,0.0011917127212883,-0.0011917120549061,0.0011917130668491,-0.0011917132627867,0.0011917117911878,-0.0011917132320352,0.001191711802588,-0.0010783587169449,0.0010783572051941,-0.0010783586336658,0.0010783572856399,-0.00097395508397934,0.00097395818340737,-0.00097395823679954,0.00097395462923736,2.0147473609099e-09,-2.1823407046954e-09,-0.001327163417393,0.0013271632558495,5.8663380723987e-10,-7.7765853647728e-10,-0.0015574850437641,0.0015574868009998,-0.0015574853422919,0.0015574864301114,-0.0015574864448732,0.0015574853292068,-0.0015574870091772,0.0015574847054755,-0.0012351101490379,0.0012351049494921,-0.0012351056134672,0.0012351095841255,0.5998214464055,131329,3014,0.0037898133335526,0.0041054332374811,0.0055121791826368,24.071983519212,-4.5024131846301e-05,-4.5024131846301e-05,-4.5024131846301e-05,4277749.1099753,0.013499250843176
16619200,0.97733623076759,0.014182531706242,0.0041873405104787,0.0044429818026094,0.0055522093931538,-0.00091069368505902,0.00091069313461591,1.6971971960554e-09,-2.2615453795469e-09,2.8043834660101e-09,-3.4719351479998e-09,-0.0011212471205391,0.0011212500085235,-0.0011212484002518,0.0011212487409183,-0.0011212490934814,0.0011212479930044,-0.0011212506136455,0.0011212464683902,-0.0010073078065664,0.0010073095029645,-0.0010073122044617,0.0010073050888524,1.4007682702621e-09,-1.8825252851062e-09,-5.1412878020259e-10,1.0465316640508e-10,-0.0009870220793071,0.00098702168147362,-0.0011919698481921,0.0011919703079992,-0.001191969577592,0.0011919706396625,-0.0011919708696432,0.0011919692882516,-0.0011919707673011,0.001191969348335,-0.0010785727026541,0.0010785709001052,-0.00107857241375,0.0010785711616551,-0.00097412849352176,0.00097413171719568,-0.00097413177440552,0.0009741280559315,1.9635603946954e-09,-2.1342515469038e-09,-0.0013275109335657,0.0013275107646449,5.9571588922968e-10,-7.895233387216e-10,-0.0015579857961182,0.0015579875644099,-0.0015579861457652,0.0015579871563541,-0.0015579872065714,0.0015579860764612,-0.0015579877494953,0.0015579854743285,-0.0012354540367814,0.001235449049771,-0.0012354497325241,0.0012354534885502,0.70236009073133,131329,3014,0.0037902103122108,0.0041059344348164,0.0055136164492063,23.765780279416,-4.7473757764674e-05,-4.7473757764674e-05,-4.7473757764674e-05,4272943.90631,0.013501619554059
16819200,0.97806647876182,0.014192834803221,0.0041903480876132,0.0044461536045031,0.0055563331111043,-0.00091102645662889,0.00091102579319761,8.407112606716e-10,-1.5262389545358e-09,4.608930356106e-09,-5.4145660814582e-09,-0.0011219320754921,0.0011219361416783,-0.0011219333987833,0.0011219348601613,-0.001121935854617,0.0011219322918975,-0.0011219362961284,0.0011219318777725,-0.0010077425539727,0.0010077396476266,-0.001007743744182,0.0010077384250963,3.163999788736e-09,-3.7717176388468e-09,-8.5499984354021e-10,3.3478149815825e-10,-0.00098739180903679,0.00098739130116707,-0.0011926567004004,0.0011926586438174,-0.0011926568172091,0.001192658614204,-0.0011926595001342,0.0011926558275553,-0.0011926586706624,0.0011926566575236,-0.0010790775650631,0.001079072214629,-0.001079075047591,0.0010790746848407,-0.00097464293664634,0.00097464811675294,-0.00097464806260974,0.00097464257925397,1.1867107018615e-09,-1.3283272798663e-09,-0.0013281686977321,0.001328168560341,3.8592921865669e-10,-5.48265136847e-10,-0.0015589162024182,0.0015589178940047,-0.0015589169625576,0.0015589170707201,-0.0015589176524281,0.0015589163840769,-0.0015589174641653,0.0015589164674951,-0.0012362089826524,0.0012362073532554,-0.0012362079485403,0.001236208657806,0.70571911946966,131329,3014,0.00379160175159,0.0041074778290563,0.0055163319569602,23.643368323235,-4.8453053414116e-05,-4.8453053414116e-05,-4.8453053414116e-05,4260498.6804913,0.013507356622838
17019200,0.97876403500071,0.014202466214051,0.004193154633949,0.0044491144532229,0.0055601971268795,-0.00091112755724117,0.00091112701776733,1.8570998654915e-09,-2.415127340547e-09,2.4010878561789e-09,-3.0571883243482e-09,-0.0011223826469245,0.0011223853026715,-0.0011223839353367,0.0011223840208863,-0.0011223842732828,0.0011223836353242,-0.0011223859827392,0.0011223819181436,-0.0010079122129871,0.0010079148303743,-0.0010079172475452,0.0010079097819553,9.751399327409e-10,-1.4291317205805e-09,-5.0579682081728e-10,1.1860420708393e-10,-0.00098752323886643,0.00098752286384746,-0.0011931048418427,0.0011931049479233,-0.0011931044726424,0.0011931053680502,-0.0011931054857773,0.0011931042945836,-0.0011931054724019,0.0011931042664828,-0.0010793102961152,0.0010793091268143,-0.0010793103150081,0.0010793090858534,-0.00097491470216418,0.0009749174015814,-0.00097491741747213,0.00097491428109337,2.1167782301722e-09,-2.3021633821948e-09,-0.001328570467508,0.0013285702855545,6.9023979729505e-10,-9.0012569271914e-10,-0.0015595757774875,0.0015595776351609,-0.0015595761182116,0.0015595772572187,-0.0015595772195829,0.0015595761277122,-0.0015595779178801,0.0015595753509994,-0.0012367113912391,0.0012367057752115,-0.0012367065634762,0.0012367107832215,0.69246306411619,131329,3014,0.0037920315975515,0.0041080326601141,0.0055179865950348,23.41600996063,-5.0271920314958e-05,-5.0271920314958e-05,-5.0271920314958e-05,4247086.8726042,0.013510041157758
17219200,0.97942284906478,0.014211298306571,0.004195722348975,0.0044518245645313,0.0055637513930652,-0.0009108495200036,0.00091084906993697,2.8870971343996e-09,-3.3657140964506e-09,3.6450893997268e-10,-9.1581063399612e-10,-0.0011224011843364,0.0011224025069661,-0.001122402397429,0.0011224012825214,-0.001122400747532,0.0011224029278986,-0.0011224038030711,0.0011223998404935,-0.0010076649062995,0.0010076730773008,-0.0010076739703796,0.0010076640168234,-9.7086171272271e-10,6.4222465666508e-10,-1.6966955510126e-10,-1.1226217765187e-10,-0.00098726213432199,0.0009872618659155,-0.0011931137587603,0.001193112140695,-0.0011931128524523,0.0011931130728371,-0.0011931123856085,0.0011931135033486,-0.001193113254006,0.0011931125711532,-0.0010791067633077,0.0010791097396034,-0.001079109456052,0.0010791070451242,-0.00097476302615206,0.00097476387141586,-0.00097476396955836,0.00097476253792989,3.0872251263327e-09,-3.3153238519556e-09,-0.0013285384798945,0.0013285382600831,9.8198602714799e-10,-1.2384094294126e-09,-0.0015597599959734,0.0015597619517853,-0.0015597598315905,0.001559762085611,-0.0015597613591086,0.0015597605047388,-0.0015597629856978,0.0015597588285949,-0.0012367607247051,0.0012367507699458,-0.0012367517283887,0.0012367598178642,0.67476322076821,131329,3014,0.003790885314495,0.0041069567544405,0.0055178460434637,22.992606258853,-5.3659149929173e-05,-5.3659149929173e-05,-5.3659149929173e-05,4232594.92502,0.013507653640984
17419200,0.98005177955299,0.01421933903161,0.0041980504045554,0.0044542840642838,0.005567004562771,-0.00091084247577298,0.00091084194349265,1.7336652238645e-09,-2.2812865106454e-09,2.5460325403947e-09,-3.1927955817278e-09,-0.0011226572342423,0.0011226600375772,-0.0011226585711454,0.0011226587176192,-0.0011226590995722,0.0011226581308973,-0.0011226605803925,0.0011226566497361,-0.0010076840746807,0.0010076858478037,-0.0010076883565701,0.0010076815657318,1.255992108518e-09,-1.7272219189494e-09,-5.7623083746487e-10,1.7508231441591e-10,-0.00098727459941193,0.00098727420889422,-0.001193365305051,0.0011933657058759,-0.0011933650423983,0.0011933660336534,-0.0011933663131496,0.0011933647063958,-0.0011933661120236,0.0011933648727271,-0.0010791619090155,0.0010791599398341,-0.0010791613409661,0.0010791604911498,-0.00097485746239806,0.00097486030829739,-0.00097486030960112,0.00097485709579139,2.0041820500847e-09,-2.1784985748345e-09,-0.001328769315066,0.0013287691445843,6.9781609631491e-10,-8.9675144665298e-10,-0.0015601818851576,0.0015601837709477,-0.0015601823458983,0.0015601832439934,-0.0015601833538285,0.0015601822254256,-0.0015601839072899,0.0015601816208058,-0.0012370401788822,0.0012370351107123,-0.0012370358395445,0.0012370395246421,0.64748128968924,131329,3014,0.0037908624685763,0.0041070142655413,0.0055187957694245,22.73630713788,-5.5709542896959e-05,-5.5709542896959e-05,-5.5709542896959e-05,4223660.257676,0.013508656844027
17619200,0.98056463276403,0.014225620273691,0.0041998616474968,0.0044561994474462,0.0055695591787479,-0.00090617005061275,0.00090616948629052,1.6145939888796e-09,-2.2040300441009e-09,2.550237282031e-09,-3.2326283082477e-09,-0.0011179711582721,0.0011179739631014,-0.0011179724978243,0.0011179726039823,-0.0011179731130556,0.0011179719767386,-0.0011179744404973,0.0011179706077246,-0.0010027954343542,0.001002796777351,-0.0010027993159206,0.0010027928785158,1.783346435226e-09,-2.2711352141631e-09,-5.6876893605871e-10,1.5063152091734e-10,-0.00098249977562114,0.00098249936833183,-0.0011885840966435,0.0011885849046022,-0.0011885838942007,0.0011885851217578,-0.0011885854876786,0.001188583463747,-0.0011885852088008,0.0011885836696056,-0.001074197391521,0.0010741948625546,-0.0010741966410797,0.001074195607605,-0.00097001607818976,0.00097001973589938,-0.00097001972267562,0.0009700156549408,1.8904173195191e-09,-2.1032765793443e-09,-0.0013239316072759,0.0013239314021592,6.0528920653611e-10,-8.4375224274228e-10,-0.0015553466944155,0.0015553485463687,-0.001555347207955,0.0015553480080418,-0.0015553481855636,0.0015553469565891,-0.0015553486137625,0.0015553464541602,-0.0012322226311598,0.0012322180705837,-0.0012322188421859,0.0012322220693976,0.62390560841714,131329,3014,0.0037714594618417,0.0040871984617519,0.0054987571334667,19.880488646398,-7.8556090828813e-05,-7.8556090828813e-05,-7.8556090828813e-05,4171955.4331431,0.013448596592647
17819200,0.98104422840328,0.014231283261444,0.0042014927377024,0.0044579231993015,0.0055718673244404,-0.00090535416571101,0.00090535363643905,1.8192659127928e-09,-2.3709906495691e-09,1.9775928767774e-09,-2.6230680761885e-09,-0.001117212316766,0.0011172147764201,-0.0011172136780377,0.0011172134346556,-0.0011172137622044,0.0011172132904016,-0.0011172153512324,0.0011172117011724,-0.0010019450373551,0.0010019475433652,-0.0010019496592938,0.0010019429133323,1.2666215979914e-09,-1.7463165822694e-09,-5.1023262616538e-10,1.027028627288e-10,-0.00098166598713847,0.00098166559166363,-0.0011878033262969,0.0011878037252311,-0.0011878030639912,0.00118780404887,-0.0011878042811335,0.0011878027637677,-0.0011878041764479,0.0011878028373319,-0.0010733318933569,0.0010733301962065,-0.0010733316056769,0.0010733304711765,-0.00096918280782714,0.00096918575141142,-0.00096918579453585,0.00096918236102177,2.0945550480752e-09,-2.2780084084656e-09,-0.001323177137643,0.0013231769598729,6.8228909862461e-10,-8.8977995521549e-10,-0.0015546380708406,0.0015546399923069,-0.0015546384925917,0.0015546395180606,-0.0015546395790565,0.0015546384121464,-0.0015546401681869,0.0015546377516321,-0.0012314677088966,0.0012314623988514,-0.001231463149364,0.0012314670878485,0.60341925680425,131329,3014,0.0037680717745807,0.0040837388500271,0.0054956314881962,19.209576976382,-8.3923384188942e-05,-8.3923384188942e-05,-8.3923384188942e-05,4161639.5394644,0.013438488551742
18019200,0.98151098909258,0.014236791947891,0.0042030809343729,0.0044596007580254,0.005574110255493,-0.00090566744835705,0.00090566693458688,1.9145688485006e-09,-2.4470300825283e-09,1.8274291779989e-09,-2.4522315498918e-09,-0.001117608753388,0.0011176110810444,-0.0011176100719088,0.0011176097718255,-0.0011176100056207,0.0011176097919097,-0.0011176117351574,0.0011176080532787,-0.0010022588402141,0.0010022619086381,-0.0010022639075978,0.001002256819639,1.040394055557e-09,-1.5014975839412e-09,-4.9370993313877e-10,1.0137678998866e-10,-0.00098198841340802,0.00098198803361883,-0.0011882029594266,0.0011882031332576,-0.0011882026056086,0.0011882035393118,-0.0011882036681784,0.0011882024168597,-0.0011882036525081,0.0011882023894816,-0.0010736468966318,0.0010736456656471,-0.0010736469030355,0.0010736456231981,-0.0009695020054216,0.00096950476834206,-0.0009695048092283,0.00096950157886573,2.1829394129935e-09,-2.3676453881174e-09,-0.001323620403196,0.001323620221152,7.220426593865e-10,-9.3134668196876e-10,-0.0015551478054328,0.0015551497090166,-0.0015551481591922,0.0015551493009967,-0.0015551492742946,0.0015551481585269,-0.0015551499877046,0.0015551473856948,-0.001231881507809,0.0012318757120365,-0.0012318764878887,0.0012318808511385,0.60266016024339,131329,3014,0.0037693727832294,0.0040850773685922,0.0054974676216358,19.169344574851,-8.4245243401189e-05,-8.4245243401189e-05,-8.4245243401189e-05,4165152.7660214,0.013443023632401
18219200,0.98192616865053,0.01424179615509,0.0042045273046837,0.0044611274837968,0.0055761413666099,-0.00090339677353846,0.00090339619289435,1.8056473439778e-09,-2.4297861932879e-09,1.7866553948453e-09,-2.4908791171469e-09,-0.0011153025323989,0.0011153048437698,-0.0011153038520781,0.0011153034778065,-0.001115303872377,0.0011153034794171,-0.0011153054518031,0.0011153018234348,-0.00099987146039142,0.00099987413049213,-0.00099987614923842,0.00099986938834963,1.1924969915537e-09,-1.6493200238356e-09,-4.8973377560995e-10,9.5232862922858e-11,-0.00097966330474239,0.00097966292386429,-0.0011858498570253,0.001185850213476,-0.0011858495403056,0.0011858504999576,-0.0011858506960575,0.001185849262865,-0.0011858505864459,0.0011858492750513,-0.0010712090871191,0.0010712075638399,-0.0010712088922246,0.0010712077309021,-0.00096711120689194,0.00096711407257164,-0.00096711403553902,0.00096711072782736,2.0827619695221e-09,-2.3474457152036e-09,-0.0013212753356233,0.0013212750849202,6.4837310188209e-10,-9.4133834490678e-10,-0.0015527929761689,0.0015527948463582,-0.0015527934100523,0.0015527944158919,-0.001552794453205,0.0015527932384098,-0.0015527950605573,0.0015527925366037,-0.0012295076463958,0.0012295021619986,-0.0012295030605542,0.0012295070539831,0.61339064933296,131329,3014,0.0037599408952094,0.0040754261627902,0.0054877561401868,17.682357805937,-9.6141137552504e-05,-9.6141137552504e-05,-9.6141137552504e-05,4143014.4968373,0.013413838050001
18419200,0.98230123751642,0.014246357210834,0.0042058484920511,0.0044625206493258,0.0055779880694566,-0.00090150010520586,0.00090149959153929,1.8812303953792e-09,-2.411351067586e-09,1.9802061406499e-09,-2.6039763212226e-09,-0.0011133775611413,0.0011133799077701,-0.0011133788110404,0.0011133786747554,-0.0011133788541764,0.0011133785755681,-0.0011133806158893,0.0011133768138881,-0.00099788985589369,0.0009978929148001,-0.00099789502602309,0.00099788774586241,1.4048032346971e-09,-1.8826794022013e-09,-4.8454709850698e-10,7.7848048454966e-11,-0.00097771751568724,0.00097771712003789,-0.0011838809317477,0.0011838812866629,-0.0011838805429801,0.0011838817368203,-0.0011838818329765,0.001183880388281,-0.0011838818813317,0.0011838803027824,-0.0010691844800964,0.0010691831843897,-0.0010691846846442,0.0010691829591451,-0.00096512528742324,0.0009651289208588,-0.00096512898416152,0.00096512484233805,2.160624415819e-09,-2.3379356806698e-09,-0.0013193115528528,0.0013193113801668,6.7745535535098e-10,-8.7761461268188e-10,-0.0015508211786603,0.0015508229912563,-0.0015508214453486,0.0015508226645394,-0.0015508225834387,0.0015508215114111,-0.0015508233168817,0.0015508207206206,-0.0012275336616369,0.0012275277949561,-0.0012275285318709,0.0012275330314438,0.61738718287959,131329,3014,0.0037520630701745,0.0040673498493868,0.0054796234226803,16.423890605731,-0.00010620887515415,-0.00010620887515415,-0.00010620887515415,4123357.0026664,0.013389425395007
18619200,0.98265812699692,0.01425065598244,0.0042070937707698,0.0044638333216374,0.0055797288900327,-0.00090100549224661,0.00090100497115896,1.8668369110903e-09,-2.4071610026484e-09,1.9539403330523e-09,-2.5874404962042e-09,-0.0011129192320263,0.0011129215923902,-0.00111292050601,0.0011129203249056,-0.0011129205516469,0.0011129202363939,-0.0011129222647386,0.001112918511163,-0.00099737288678589,0.00099737582604637,-0.0009973779157725,0.00099737078044719,1.2781528936814e-09,-1.7520132932498e-09,-4.8324802217403e-10,8.0820928415625e-11,-0.00097720656725534,0.000977206177088,-0.0011834041419455,0.0011834044581886,-0.0011834037823898,0.0011834048657162,-0.001183404990993,0.001183403598238,-0.0011834049980672,0.0011834035451259,-0.0010686522071901,0.0010686508907856,-0.001068652295906,0.0010686507709396,-0.0009646101834949,0.00096461345651045,-0.00096461351631343,0.00096460973359178,2.1508494773778e-09,-2.336981023481e-09,-0.0013188447748244,0.0013188445923468,6.7678350981657e-10,-8.8709862442242e-10,-0.0015503869191672,0.0015503887579363,-0.0015503872275652,0.0015503883979195,-0.0015503883519803,0.0015503872430267,-0.0015503890525582,0.0015503864822011,-0.0012270604343878,0.0012270546842496,-0.0012270554317782,0.0012270598085948,0.6117894846763,131329,3014,0.0037500088526106,0.0040652296489308,0.005477690177741,15.966392461525,-0.0001098688603078,-0.0001098688603078,-0.0001098688603078,4117508.0527411,0.013383235410128
18819200,0.98300403353701,0.014255124574716,0.0042083983476736,0.0044652053944151,0.0055815208326269,-0.00090102059876997,0.00090102007178815,1.8424820944367e-09,-2.3889707319075e-09,2.1308891112121e-09,-2.7714472325718e-09,-0.001112981906469,0.0011129843921714,-0.001112983192324,0.0011129831130388,-0.0011129833700147,0.0011129828915242,-0.0011129850439416,0.0011129812059361,-0.00099739526725057,0.0009973979635877,-0.00099740017761615,0.00099739303615718,1.2906139592382e-09,-1.7648234993204e-09,-4.9833335292174e-10,9.4898294831299e-11,-0.00097721824444436,0.00097721785378445,-0.0011834597316877,0.0011834600703948,-0.0011834593882419,0.0011834604626574,-0.0011834606140954,0.0011834591796379,-0.0011834605861324,0.0011834591619927,-0.0010686682742673,0.0010686668447873,-0.0010686682583958,0.0010686668300285,-0.00096462715354029,0.00096463038921317,-0.00096463044052063,0.00096462671372177,2.1345570919814e-09,-2.3191797620032e-09,-0.0013189205250237,0.0013189203437212,6.7808856933025e-10,-8.8705314587059e-10,-0.0015505045272722,0.0015505063817913,-0.0015505048619123,0.0015505059954036,-0.0015505059759148,0.0015505048528535,-0.0015505066512811,0.0015505041177764,-0.0012271269673638,0.0012271213314767,-0.0012271220729735,0.0012271263418296,0.64923266376115,131329,3014,0.0037500715028787,0.0040652785016103,0.0054780042414889,15.790761607795,-0.00011127390713764,-0.00011127390713764,-0.00011127390713764,4117223.6264086,0.013383666499208
19019200,0.98335145273003,0.014259916765757,0.0042098059277419,0.0044666834177153,0.0055834274203001,-0.00090200747441502,0.00090200694116233,1.8553766179591e-09,-2.4111623668801e-09,2.0912564745796e-09,-2.7399261122851e-09,-0.0011141277131983,0.0011141302144447,-0.0011141290374111,0.0011141288894925,-0.0011141291877059,0.0011141287046755,-0.001114130837974,0.0011141270335382,-0.00099844859258191,0.0009984512481674,-0.00099845343964486,0.00099844637582213,1.0130257630939e-09,-1.4714445944714e-09,-5.0246342469206e-10,1.1209090116499e-10,-0.00097822968148511,0.00097822930464887,-0.0011846146049218,0.0011846147938357,-0.0011846142796616,0.0011846151573115,-0.0011846153243843,0.0011846140528354,-0.0011846152552586,0.0011846140681703,-0.0010697518928045,0.0010697505493078,-0.0010697517600808,0.0010697506470555,-0.00096570834919473,0.00096571094998834,-0.0009657109788014,0.00096570792888712,2.1506740278553e-09,-2.3459406114776e-09,-0.0013200668489223,0.0013200666576675,6.9743264258798e-10,-9.1762730514513e-10,-0.0015517649563723,0.0015517668643096,-0.0015517653412401,0.0015517664336387,-0.0015517664450236,0.0015517652857352,-0.0015517671060021,0.0015517645628417,-0.0012283067035617,0.0012283010943147,-0.0012283018688543,0.0012283060647327,0.6871939958012,131329,3014,0.0037541731708873,0.0040694797661523,0.0054827494999809,16.172732663035,-0.00010821813869572,-0.00010821813869572,-0.00010821813869572,4122485.3159527,0.013396893839059
19219200,0.98372127770677,0.014265182688782,0.0042113561955904,0.0044683105467429,0.005585515946449,-0.00090463335483465,0.0009046328169161,1.831874064593e-09,-2.3879182872355e-09,2.4205321881973e-09,-3.074356968799e-09,-0.0011170613746684,0.0011170640342129,-0.0011170626498459,0.0011170627666752,-0.001117063027423,0.0011170623424387,-0.0011170647057428,0.0011170606536343,-0.001001222609371,0.0010012251019165,-0.0010012275320805,0.0010012201675343,9.9291627906687e-10,-1.4494767257089e-09,-5.4014676462608e-10,1.5223885233997e-10,-0.00098092683810936,0.00098092646182413,-0.0011875888027334,0.0011875889089266,-0.0011875884192911,0.0011875893425514,-0.001187589473525,0.0011875882311543,-0.001187589420631,0.0011875882391083,-0.0010726071330939,0.0010726058428246,-0.0010726070403515,0.0010726059089273,-0.00096854942940453,0.00096855212921979,-0.0009685521326348,0.00096854904317894,2.1353530039021e-09,-2.3233465715335e-09,-0.001323012797029,0.0013230126130246,7.2878506652824e-10,-9.4156709038935e-10,-0.0015549210062782,0.0015549228886709,-0.0015549213682577,0.001554922473354,-0.0015549224489867,0.0015549213639076,-0.0015549231668,0.001554920587088,-0.0012313245298869,0.0012313188267087,-0.0012313196146592,0.001231323865298,0.70678361373864,131329,3014,0.0037650852329637,0.0040806805803831,0.005494945262985,17.487743955855,-9.769804835316e-05,-9.769804835316e-05,-9.769804835316e-05,4140489.9723542,0.013431672503436
19419200,0.9841000093074,0.014270445220051,0.0042129003384997,0.0044699333840533,0.0055876114974984,-0.00090621078358274,0.00090621031943853,2.0395471247059e-09,-2.5118780150567e-09,1.4044808267513e-09,-1.9670252917864e-09,-0.0011189542671653,0.001118956567552,-0.0011189558296428,0.0011189550127549,-0.0011189553863661,0.0011189554164572,-0.00111895700411,0.0011189537927401,-0.0010028874974083,0.0010028905863569,-0.0010028922480084,0.0010028858574365,-2.106032094888e-10,-1.6078198574827e-10,-4.821707642701e-10,1.6826659908831e-10,-0.00098255558868903,0.00098255528154614,-0.001189504294229,0.0011895038180716,-0.0011895041019573,0.0011895040687574,-0.0011895043202126,0.0011895038166187,-0.0011895041030878,0.0011895039856356,-0.0010743416130346,0.0010743407776115,-0.0010743410704528,0.0010743413150989,-0.00097030785576399,0.00097030767796843,-0.00097030761976464,0.00097030755917552,2.3079857496196e-09,-2.4893566719801e-09,-0.0013248647556353,0.0013248645774951,7.8611777755327e-10,-9.9293294731533e-10,-0.0015569849720841,0.0015569871810714,-0.0015569855353476,0.0015569865495994,-0.0015569867044761,0.0015569853682966,-0.001556987296807,0.0015569847438642,-0.0012332609414928,0.0012332553751834,-0.0012332561648261,0.0012332601956364,0.69265170423076,131329,3014,0.0037716440424156,0.004087447827019,0.005502608783215,18.223568731101,-9.1811450151196e-05,-9.1811450151196e-05,-9.1811450151196e-05,4146965.6247804,0.013452953821902
19619200,0.98447543858917,0.014275518874871,0.0042143847612045,0.0044714949349608,0.0055896391787054,-0.00090688951975896,0.00090688899488948,1.8949711000219e-09,-2.4367175354813e-09,2.1863215850822e-09,-2.8229742004877e-09,-0.0011198796532277,0.0011198822640279,-0.0011198810232949,0.0011198808991858,-0.0011198812103792,0.0011198806710186,-0.0011198828628156,0.0011198790055001,-0.0010036108708645,0.0010036134788407,-0.0010036157261889,0.0010036086184631,5.5963850633636e-10,-9.8765058056117e-10,-5.3433051616969e-10,1.6896724778484e-10,-0.00098326279242193,0.0009832624378477,-0.0011904367790075,0.0011904366705009,-0.0011904364508284,0.0011904370465772,-0.0011904372201245,0.0011904362250183,-0.0011904371015318,0.0011904362962217,-0.0010751092926384,0.0010751081463381,-0.001075109017502,0.0010751084031158,-0.0009711088872079,0.00097111057681539,-0.00097111054486616,0.0009711085373023,2.198269169327e-09,-2.3887492891136e-09,-0.0013257450508527,0.0013257448644479,7.5880864415208e-10,-9.7498228334285e-10,-0.0015580308614596,0.0015580328634454,-0.001558031301564,0.0015580323652717,-0.0015580324021191,0.0015580312350155,-0.0015580330850694,0.0015580305022495,-0.0012342098128962,0.0012342041530653,-0.001234204951676,0.0012342091086131,0.67639368808305,131329,3014,0.0037744689538873,0.0040903885867342,0.0055062488530223,18.456559507225,-8.9947523942197e-05,-8.9947523942197e-05,-8.9947523942197e-05,4146222.3116672,0.013462492769229
19819200,0.98484443138014,0.014280347720464,0.0042157933530778,0.0044729779298347,0.0055915764375519,-0.00090733167759515,0.00090733103028455,1.5925204974449e-09,-2.2749494753257e-09,3.7710015098159e-09,-4.5558715450163e-09,-0.0011205201517136,0.0011205233765127,-0.001120521124611,0.0011205223714316,-0.0011205225873995,0.0011205209048948,-0.0011205242869263,0.0011205191470737,-0.0010040848706443,0.0010040864635948,-0.0010040899176273,0.0010040813857132,2.2153462101587e-09,-2.7433200372115e-09,-6.2826025801879e-10,1.7627523840948e-10,-0.00098372610712439,0.00098372566838089,-0.0011910815143519,0.0011910822017971,-0.0011910809043667,0.0011910828043741,-0.0011910828256669,0.0011910808045846,-0.0011910828811071,0.0011910806662397,-0.0010756128885385,0.0010756110759392,-0.0010756131782639,0.0010756107730742,-0.00097164202864747,0.0009716476868032,-0.00097164766906895,0.00097164157369818,1.9476830173855e-09,-2.1831350056653e-09,-0.0013263576914929,0.0013263574670967,6.7854473733581e-10,-9.4012800917583e-10,-0.0015587774511006,0.0015587790161038,-0.0015587776557512,0.001558778802877,-0.0015587786047587,0.0015587777500952,-0.0015587794540597,0.0015587768077524,-0.0012348702712508,0.0012348643992648,-0.0012348652703635,0.0012348696704233,0.65787308021802,131329,3014,0.0037763098698203,0.0040923156918323,0.005508781493853,18.558334000348,-8.9133327997216e-05,-8.9133327997216e-05,-8.9133327997216e-05,4144855.7208911,0.01346888282518
20019200,0.98520124593617,0.014285205340902,0.0042172164305999,0.0044744741660573,0.0055935147442451,-0.00090732921982175,0.00090732866336739,1.6780197618834e-09,-2.2478247099981e-09,3.3355510367937e-09,-4.0134395559706e-09,-0.0011206507454179,0.0011206537316133,-0.0011206517851556,0.0011206527302168,-0.0011206528349194,0.0011206515925852,-0.0011206545919022,0.0011206498585472,-0.0010040992215337,0.0010041012494491,-0.0010041043525708,0.0010040961539336,1.8738410504827e-09,-2.3781921187695e-09,-5.9412206335103e-10,1.6524502941977e-10,-0.0009837322694681,0.00098373184813172,-0.00119121043107,0.0011912108919978,-0.0011912098906788,0.0011912115217639,-0.001191211544745,0.001191209808353,-0.001191211640836,0.0011912097000803,-0.0010756401850169,0.0010756386458038,-0.0010756405066002,0.0010756383391982,-0.00097169358604261,0.00097169852076877,-0.00097169854169043,0.00097169319666692,2.0163470896864e-09,-2.1815535110965e-09,-0.001326476105682,0.0013264759477229,7.1264239341112e-10,-9.0164342420642e-10,-0.0015589886789096,0.0015589903333485,-0.0015589888631828,0.0015589900819806,-0.0015589899032071,0.0015589890612523,-0.0015589907530385,0.0015589881457308,-0.0012350181706746,0.0012350122612189,-0.0012350130141458,0.0012350175244029,0.68048789252767,131329,3014,0.0037763029981375,0.0040923441004783,0.0055092690066563,18.401007599216,-9.0391939206269e-05,-9.0391939206269e-05,-9.0391939206269e-05,4140765.0276763,0.013469400859305
20219200,0.98554869761986,0.01429008502079,0.0042186503566842,0.0044759803574496,0.0055954543066557,-0.00090750528096346,0.00090750473241414,1.6248539084755e-09,-2.1817489917718e-09,3.1420651674777e-09,-3.8074935356272e-09,-0.0011209941557792,0.0011209968002373,-0.0011209949692783,0.0011209960151663,-0.0011209959397419,0.0011209949675121,-0.0011209978327063,0.0011209930886913,-0.0010043072050594,0.0010043097674072,-0.0010043127203099,0.0010043042534201,1.8051026399464e-09,-2.3097835885737e-09,-5.8710423217156e-10,1.5862055482096e-10,-0.00098392173793685,0.00098392131953137,-0.001191553306008,0.00119155355787,-0.0011915525831108,0.0011915543598582,-0.0011915541966601,0.0011915526872647,-0.0011915544725472,0.0011915523886253,-0.0010758722284631,0.0010758712580063,-0.0010758730635775,0.0010758703985385,-0.00097195090558318,0.00097195621512889,-0.00097195624611592,0.00097195050474241,1.964086732028e-09,-2.1215946846799e-09,-0.0013267930816663,0.0013267929242267,7.0093454472492e-10,-8.8218121582235e-10,-0.0015594204875142,0.0015594219111513,-0.0015594204826824,0.0015594218516186,-0.0015594214912121,0.0015594208507948,-0.0015594225100854,0.0015594197672593,-0.0012353869021826,0.0012353805895708,-0.0012353813340803,0.0012353862811696,0.69909044617699,131329,3014,0.003777038557521,0.0040931344591171,0.0055105776201258,18.352326320115,-9.0781389439078e-05,-9.0781389439078e-05,-9.0781389439078e-05,4136468.4072679,0.013472277546148
20419200,0.98589369351374,0.014294937102975,0.0042200764396957,0.0044774781321976,0.0055973825310819,-0.0009082180279476,0.00090821746839935,1.689675702626e-09,-2.27292075339e-09,2.5775156699303e-09,-3.2573772345967e-09,-0.0011219282179644,0.0011219306442904,-0.0011219291461445,0.001121929697157,-0.0011219297437283,0.0011219290859006,-0.0011219315691139,0.0011219272205811,-0.0010050774804299,0.0010050803023738,-0.0010050828468342,0.0010050748987076,1.3483962774246e-09,-1.8248378801833e-09,-5.5091507940181e-10,1.4547192705484e-10,-0.00098466214943225,0.00098466175849164,-0.0011924956628996,0.0011924957549284,-0.0011924950146715,0.0011924964174358,-0.0011924963142493,0.0011924950593271,-0.0011924964929113,0.0011924948103879,-0.0010766822521381,0.0010766813997067,-0.0010766828564005,0.0010766807586513,-0.00097278820855056,0.00097279232515793,-0.00097279233522414,0.00097278778523295,2.0207391660997e-09,-2.226800692885e-09,-0.0013276965031389,0.0013276963004926,6.8850809413857e-10,-9.1982375528038e-10,-0.001560471388786,0.0015604729289296,-0.0015604715064583,0.0015604727898947,-0.0015604725221055,0.0015604717057788,-0.001560473451643,0.0015604706987655,-0.0012363579714298,0.0012363517184095,-0.0012363525193768,0.0012363573575447,0.69998784896174,131329,3014,0.0037800043516348,0.0040962127250714,0.0055143136709177,18.616404527865,-8.8668763777078e-05,-8.8668763777078e-05,-8.8668763777078e-05,4136223.9743019,0.013482195458545
20619200,0.98622573118773,0.014299074486485,0.0042212776441704,0.0044787442576402,0.0055990525846742,-0.00090801810988215,0.00090801757249342,1.8453054668317e-09,-2.3909298911742e-09,2.7290613051975e-09,-3.3793725328123e-09,-0.0011219207829634,0.0011219238170286,-0.0011219222458961,0.0011219223683748,-0.0011219228089161,0.0011219217444784,-0.0011219243234089,0.0011219202306529,-0.0010048691693236,0.0010048709059696,-0.0010048735724182,0.0010048665108959,1.6493394444801e-09,-2.1358492699345e-09,-5.2930270804657e-10,1.1857173678101e-10,-0.00098446706805815,0.00098446666215993,-0.0011924787042522,0.0011924794074758,-0.0011924785178879,0.0011924796553987,-0.0011924799973276,0.001192478115977,-0.0011924797849343,0.0011924782909291,-0.0010764930879092,0.001076490810978,-0.0010764924912931,0.0010764913877092,-0.00097265448472203,0.00097265790996955,-0.0009726579338741,0.00097265405924259,2.1769915688137e-09,-2.352750070865e-09,-0.001327620083213,0.0013276199127994,6.9322158370352e-10,-8.9322754351168e-10,-0.0015605198281974,0.0015605219083432,-0.0015605203430915,0.001560521336338,-0.0015605214890027,0.0015605201780327,-0.001560521991607,0.0015605196070954,-0.0012363364949649,0.0012363312238011,-0.0012363320113695,0.0012363358680445,0.63099509894989,131329,3014,0.0037791794912825,0.0040954077515375,0.0055139919260527,18.384996402605,-9.0520028779161e-05,-9.0520028779161e-05,-9.0520028779161e-05,4127608.5603933,0.013480222030887
20819200,0.98653653718577,0.014303279240884,0.0042225101090289,0.0044800393492303,0.0056007297826245,-0.00090707102488467,0.00090707051945575,1.8783680837032e-09,-2.3869912067924e-09,2.5106294402293e-09,-3.1231911031262e-09,-0.0011209888816345,0.0011209918789383,-0.0011209904466298,0.0011209903517646,-0.0011209908294089,0.0011209898849988,-0.0011209922800197,0.001120988459791,-0.0010038908226518,0.0010038925481239,-0.0010038950293704,0.0010038883777997,1.6389514319929e-09,-2.1251235585462e-09,-4.9909962797948e-10,8.8304158335259e-11,-0.00098350073446818,0.00098350032959798,-0.0011915297117367,0.001191530509482,-0.0011915296443431,0.0011915306693461,-0.0011915310958612,0.0011915291664793,-0.0011915308320051,0.0011915294177013,-0.001075492090464,0.0010754896367626,-0.0010754913102711,0.0010754904224563,-0.0009716750787454,0.00097167825650535,-0.00097167832276316,0.00097167465799516,2.2097924510634e-09,-2.3596698668818e-09,-0.0013266877642765,0.0013266876165855,6.8343589744364e-10,-8.5607317869908e-10,-0.0015596020321607,0.0015596041988849,-0.0015596025999583,0.0015596035567885,-0.0015596037898214,0.0015596023957223,-0.0015596042038774,0.0015596019248323,-0.0012353968194631,0.0012353918634152,-0.0012353925771618,0.0012353961925028,0.67643101489024,131329,3014,0.003775246382804,0.0040913970351493,0.0055101303239616,17.703394532826,-9.5972843737391e-05,-9.5972843737391e-05,-9.5972843737391e-05,4117733.5583125,0.013468254987718
21019200,0.98682269006795,0.014307015145587,0.0042236014915552,0.0044811871323945,0.0056022265216372,-0.00090559291438923,0.00090559239603834,1.8522301993153e-09,-2.3830650929384e-09,2.2679674142111e-09,-2.8965578934388e-09,-0.0011195655420152,0.0011195683660024,-0.0011195670786743,0.0011195668482921,-0.0011195673373301,0.0011195665310204,-0.0011195687747551,0.0011195650956421,-0.0010023535046073,0.0010023553949216,-0.0010023577092567,0.0010023512014659,1.6342939646357e-09,-2.1205539346193e-09,-4.6784955712195e-10,5.5901705636141e-11,-0.00098199127612501,0.00098199087222701,-0.0011900736473511,0.0011900744675833,-0.0011900735799805,0.00119007459971,-0.0011900750132544,0.0011900731090199,-0.0011900747697262,0.0011900733208176,-0.0010739375815203,0.0010739352488579,-0.0010739369124111,0.0010739359117179,-0.00097017079505943,0.00097017397020218,-0.00097017404297885,0.00097017033302962,2.1883231387597e-09,-2.3587218277849e-09,-0.0013251968366007,0.0013251966693567,6.4365658899774e-10,-8.3799930157892e-10,-0.0015581497505754,0.0015581518669108,-0.0015581502993202,0.0015581512631786,-0.0015581514831479,0.001558150072531,-0.0015581518838306,0.001558149605546,-0.0012339372238678,0.001233932273214,-0.0012339329978392,0.0012339366338227,0.65602048938631,131329,3014,0.0037691097781573,0.0040851341738286,0.0055039530883887,16.746947942103,-0.00010362441646317,-0.00010362441646317,-0.00010362441646317,4098671.1607772,0.013449428463983
21219200,0.98707233387894,0.014310298797815,0.0042245623964766,0.0044821968402434,0.0056035395610951,-0.00090259458945859,0.00090259407866772,1.8221522651167e-09,-2.3475779084005e-09,2.0122679303313e-09,-2.6319840049012e-09,-0.0011165019094344,0.001116504333533,-0.0011165032082629,0.0011165030486045,-0.0011165033201253,0.0011165028856989,-0.0011165049468109,0.0011165012547927,-0.00099922343393668,0.00099922608191959,-0.00099922820806737,0.00099922130899628,1.6701873618133e-09,-2.1563248319349e-09,-4.2201222912169e-10,9.5970898932144e-12,-0.0009789196050849,0.00097891920148903,-0.0011869476727478,0.0011869483363846,-0.0011869474187539,0.0011869486479691,-0.001186948846272,0.0011869471618632,-0.0011869488436047,0.0011869471264216,-0.0010707477140426,0.0010707460826014,-0.0010707477710891,0.0010707460107277,-0.0009670462743761,0.00096705012716011,-0.00096705023000295,0.00096704577457359,2.1578153936327e-09,-2.3321425367052e-09,-0.001322042247617,0.0013220420768731,6.0026666455956e-10,-7.9793037968639e-10,-0.0015549544121522,0.0015549562638266,-0.0015549547207168,0.0015549559046839,-0.0015549559089941,0.0015549546994741,-0.0015549564961513,0.0015549540455711,-0.0012307932232072,0.0012307877262637,-0.0012307884217702,0.0012307926648635,0.65967492709107,131329,3014,0.0037566570607013,0.0040723850782955,0.0054908876275106,14.932534270932,-0.00011813972583254,-0.00011813972583254,-0.00011813972583254,4066834.6045313,0.013410643211603
21419200,0.98730006888426,0.014313320233381,0.0042254485599796,0.0044831269128399,0.0056047447605613,-0.00090078842517183,0.00090078791427726,1.8214285837541e-09,-2.3476154879583e-09,1.9333542394139e-09,-2.5537607389212e-09,-0.0011146654347604,0.0011146677893698,-0.0011146667136952,0.0011146665208565,-0.0011146667754417,0.0011146664115939,-0.0011146684188666,0.0011146647612211,-0.00099734634314649,0.00099734910708328,-0.00099735117790527,0.00099734426521153,1.6733802265152e-09,-2.165174766206e-09,-3.9850860330079e-10,-1.7150436024477e-11,-0.00097706532543592,0.00097706491961128,-0.0011850685548947,0.0011850692203222,-0.0011850682974988,0.0011850695309203,-0.0011850697126118,0.001185068057758,-0.0011850697431763,0.001185067985803,-0.0010688320666723,0.0010688305415188,-0.0010688322311018,0.0010688303519986,-0.00096517310887622,0.00096517700355592,-0.00096517713513049,0.00096517258645673,2.1627144029713e-09,-2.3351144957374e-09,-0.0013201483350525,0.001320148165489,5.7949057513718e-10,-7.7447433201725e-10,-0.0015530400925044,0.001553041914643,-0.0015530403692721,0.0015530415895653,-0.0015530415730027,0.0015530403649771,-0.0015530421631176,0.0015530397068379,-0.0012289162541488,0.0012289106871688,-0.0012289113685476,0.0012289157146628,0.6637385005873,131329,3014,0.0037491557485304,0.0040646891176607,0.005483043172926,13.798132156293,-0.00012721494274965,-0.00012721494274965,-0.00012721494274965,4046851.0262886,0.013387290500208
21619200,0.9875162894257,0.01431621904716,0.004226300325226,0.0044840201384402,0.0056058985834939,-0.00090004691454676,0.00090004640453601,1.8259298802132e-09,-2.3509676161119e-09,1.9335798439042e-09,-2.5529667577062e-09,-0.0011139469343374,0.0011139492885516,-0.0011139482130697,0.0011139480212879,-0.0011139482712045,0.0011139479147057,-0.001113949921085,0.0011139462587042,-0.00099657788260633,0.00099658066490355,-0.00099658273462627,0.00099657580726683,1.5795973621887e-09,-2.0647843054296e-09,-3.8773941183815e-10,-2.2431082903443e-11,-0.00097630074148108,0.00097630034101604,-0.0011843266511082,0.0011843272593274,-0.0011843263968448,0.0011843275677855,-0.0011843277419166,0.0011843261654632,-0.0011843277805001,0.0011843260858958,-0.0010680461354286,0.0010680447068243,-0.0010680463265969,0.0010680444913732,-0.00096441500992681,0.00096441872901106,-0.00096441886087199,0.00096441448801393,2.1706661262869e-09,-2.3430918470348e-09,-0.0013193932598472,0.0013193930904152,5.7584172631289e-10,-7.7073880675263e-10,-0.0015522983158442,0.0015523001372884,-0.0015522985862127,0.0015522998177529,-0.0015522997982686,0.0015522985856842,-0.0015523003899378,0.0015522979272786,-0.0012281798435147,0.0012281742683022,-0.0012281749443755,0.0012281793044492,0.66921249527198,131329,3014,0.0037460767484205,0.0040615165644742,0.0054799150502651,13.268273014431,-0.00013145381588455,-0.00013145381588455,-0.00013145381588455,4037580.4731555,0.013377784924781
21819200,0.98773339562623,0.014319084034983,0.0042271411891479,0.004484902111797,0.0056070407340381,-0.00090081135750251,0.00090081084019265,1.7892391715597e-09,-2.3139349982859e-09,2.3928199410227e-09,-3.0185355583695e-09,-0.0011148159714071,0.0011148186009359,-0.0011148172282567,0.0011148173386101,-0.0011148176193379,0.0011148169153867,-0.0011148192312151,0.0011148152879491,-0.00099737948445654,0.00099738183228184,-0.00099738422800793,0.00099737707360302,1.755173169986e-09,-2.2558558387188e-09,-4.2128265234956e-10,1.7027043459706e-12,-0.00097708033316833,0.0009770799235232,-0.0011852018467383,0.0011852025535395,-0.0011852015765219,0.0011852028656885,-0.0011852030664412,0.001185201335269,-0.0011852030661357,0.0011852012785009,-0.0010688637132684,0.0010688620629718,-0.0010688638041672,0.0010688619240423,-0.00096523781249269,0.00096524186700805,-0.00096524200987581,0.00096523731816784,2.14471604475e-09,-2.3043099397954e-09,-0.0013202605904163,0.0013202604284684,5.8437764019364e-10,-7.6544554901684e-10,-0.0015532321656985,0.001553233978015,-0.0015532324465489,0.0015532336488566,-0.0015532336368822,0.0015532324357121,-0.0015532342233639,0.0015532317923093,-0.0012290682664793,0.0012290627944954,-0.0012290634696078,0.0012290677243706,0.65989249828677,131329,3014,0.0037492533225381,0.0040647541605312,0.0054835057668717,13.593945080499,-0.00012884843935601,-0.00012884843935601,-0.00012884843935601,4043127.4325092,0.013387926069211
22019200,0.98795319118353,0.014321932710135,0.0042279756575644,0.0044857779701894,0.0056081790823812,-0.00090181533836772,0.00090181476808289,1.687606698862e-09,-2.2724010455608e-09,3.0587756391509e-09,-3.7492142541957e-09,-0.0011159311007504,0.0011159341162128,-0.0011159323361225,0.0011159328852038,-0.001115933226723,0.0011159319436985,-0.0011159347729083,0.0011159303857491,-0.00099842476168483,0.00099842639292812,-0.00099842930010532,0.00099842182832511,2.1434658097252e-09,-2.669081600187e-09,-4.7669857390454e-10,3.181558076598e-11,-0.00097810707850478,0.00097810664444737,-0.001186331142019,0.0011863320786034,-0.0011863308668867,0.0011863323994912,-0.0011863326331917,0.0011863305649919,-0.0011863325925654,0.0011863305594285,-0.0010699290328727,0.0010699269320484,-0.0010699289740629,0.0010699269465275,-0.00096630008141498,0.00096630485792772,-0.00096630497256287,0.00096629956715852,2.0720615693531e-09,-2.2423950216655e-09,-0.001321388715175,0.0013213885457461,5.7524297472199e-10,-7.6750152426703e-10,-0.0015544334100878,0.0015544351959596,-0.0015544337124745,0.0015544348505666,-0.0015544348540607,0.0015544336766993,-0.0015544354083713,0.0015544330400853,-0.001230203822373,0.001230198537248,-0.001230199255691,0.0012302033171527,0.64982773413198,131329,3014,0.0037534243181128,0.0040690171914831,0.005488177033238,14.05378056688,-0.00012516975546496,-0.00012516975546496,-0.00012516975546496,4052072.1312059,0.013401209044022
22219200,0.98817656323302,0.014324801902459,0.0042288151911531,0.0044866595886924,0.0056093271226136,-0.00090294423764166,0.00090294368065481,1.6233097322667e-09,-2.1839248709472e-09,3.6652693500079e-09,-4.3404656582241e-09,-0.0011171650022875,0.0011171684048516,-0.0011171662327509,0.0011171671935366,-0.0011171675534996,0.0011171658075575,-0.0011171690233316,0.0011171643444997,-0.00099960167299981,0.0009996026704659,-0.00099960598031289,0.00099959837177577,2.459292042122e-09,-2.9916888419815e-09,-5.2175952334644e-10,7.3606262198666e-11,-0.00097926349512763,0.00097926305512267,-0.0011875845835384,0.0011875857247017,-0.0011875843263907,0.0011875860528631,-0.0011875863360368,0.0011875839971734,-0.0011875862342772,0.0011875840650125,-0.001071126223255,0.0010711237256091,-0.0010711259990004,0.0010711239291963,-0.00096748511684532,0.00096749045705384,-0.00096749057289174,0.00096748464506074,2.00954932053e-09,-2.1616731353695e-09,-0.0013226524223282,0.0013226522688507,5.847175007229e-10,-7.5858585257586e-10,-0.0015557688526438,0.0015557706357915,-0.0015557691848103,0.0015557702479515,-0.0015557703008378,0.0015557691386064,-0.0015557708253419,0.0015557685509316,-0.0012314630704686,0.0012314580429262,-0.0012314587000477,0.0012314625391492,0.64497828022888,131329,3014,0.0037581138633981,0.0040738179872782,0.0054934103437129,14.583389994527,-0.00012093288004379,-0.00012093288004379,-0.00012093288004379,4062987.435467,0.013416131838135
22419200,0.98839992110799,0.014327806920088,0.0042296981555188,0.0044875859122864,0.0056105228522832,-0.00090365192161058,0.00090365141632772,1.8908795170464e-09,-2.4067335643828e-09,2.047838175773e-09,-2.6611575380521e-09,-0.0011179520192188,0.0011179544611045,-0.0011179533040542,0.0011179531858329,-0.0011179533996642,0.0011179530452045,-0.0011179551256353,0.0011179513125736,-0.0010003452510396,0.001000348185557,-0.0010003503346275,0.0010003430994731,6.8229853073054e-10,-1.1115304086119e-09,-4.1799625374862e-10,5.5241058247636e-11,-0.00097998921328714,0.00097998885963078,-0.0011883849841453,0.0011883849507791,-0.0011883846587072,0.001188385331167,-0.0011883854293212,0.0011883845134631,-0.0011883854655985,0.0011883844343977,-0.0010718809599401,0.0010718801920689,-0.0010718811547272,0.001071879975256,-0.00096823101827914,0.00096823311349683,-0.00096823316287844,0.00096823058998,2.2471417590676e-09,-2.4220145335303e-09,-0.0013234656637763,0.0013234654905559,6.6677394019029e-10,-8.6504685626528e-10,-0.001556639911542,0.0015566418076595,-0.0015566402095093,0.0015566414625502,-0.001556641414901,0.0015566402396801,-0.0015566421049782,0.0015566394870159,-0.0012322696552832,0.0012322637535918,-0.0012322644914086,0.0012322690448385,0.67139744711181,131329,3014,0.0037610537753352,0.0040768309650632,0.0054967781933908,14.8717682409,-0.0001186258540728,-0.0001186258540728,-0.0001186258540728,4069708.8682644,0.013425578549064
22619200,0.98862102210095,0.01433081808421,0.0042305835774352,0.0044885147637516,0.0056117197430233,-0.00090407025886627,0.00090406969159226,1.5388654021595e-09,-2.1072316081679e-09,4.0415258172193e-09,-4.7278007599909e-09,-0.0011184813581634,0.0011184850179866,-0.0011184825843295,0.001118483800101,-0.0011184842357677,0.0011184820976928,-0.0011184855859967,0.0011184807441406,-0.001000794199671,0.001000794612961,-0.0010007981848419,0.0010007906492396,2.5582476827485e-09,-3.0899146532872e-09,-5.670365597045e-10,1.2103549887897e-10,-0.00098042096710188,0.000980420526765,-0.0011889198893143,0.0011889211349938,-0.0011889196518275,0.0011889214326551,-0.0011889217780355,0.0011889192694808,-0.0011889215801932,0.0011889194220072,-0.0010723460491159,0.001072343244514,-0.001072345583966,0.0010723437028339,-0.00096869874057957,0.0009687041571221,-0.00096870423678635,0.00096869830238134,1.9338089379938e-09,-2.0945027898481e-09,-0.0013239857216665,0.0013239855608219,5.9330221590692e-10,-7.7676753852019e-10,-0.001557238948781,0.0015572407399483,-0.0015572393470853,0.0015572402888329,-0.0015572404024449,0.0015572392316534,-0.0015572408809465,0.0015572386987017,-0.0012328093356311,0.0012328045966755,-0.0012328052584744,0.0012328087820736,0.67880653133517,131329,3014,0.0037627933792986,0.0040786249815303,0.0054989301985135,15.008448658572,-0.00011753241073142,-0.00011753241073142,-0.00011753241073142,4070796.5825367,0.013431343185895
22819200,0.98883908475563,0.0143337779842,0.0042314535667266,0.0044894275647918,0.0056128968526819,-0.00090438069629709,0.00090438009174609,1.5908052113163e-09,-2.218554108489e-09,3.3884324049806e-09,-4.1220881056849e-09,-0.0011189100953571,0.001118913325803,-0.0011189113273858,0.0011189120907737,-0.0011189125136848,0.0011189108631237,-0.0011189139545011,0.0011189093984706,-0.0010011315048654,0.001001132576322,-0.0010011357476925,0.0010011283075143,1.8980276724828e-09,-2.4076704605426e-09,-5.4392666351444e-10,1.1052386512067e-10,-0.00098074286439393,0.00098074244222779,-0.0011893518162689,0.0011893526015661,-0.001189351536891,0.0011893529116257,-0.0011893531805383,0.001189351190144,-0.0011893530402089,0.0011893512794623,-0.0010726992917246,0.0010726970783405,-0.0010726989462263,0.001072697397193,-0.00096906410035173,0.00096906829982828,-0.0009690683291342,0.00096906363155624,2.0017518213265e-09,-2.1968741813547e-09,-0.0013243947498098,0.0013243945607357,6.1432071168865e-10,-8.3309331527696e-10,-0.0015577298962564,0.0015577317214407,-0.0015577302966963,0.0015577312993296,-0.0015577313539357,0.0015577301861221,-0.0015577318844703,0.0015577295541255,-0.0012332458201421,0.0012332407404842,-0.001233241541611,0.0012332452990153,0.67692183854235,131329,3014,0.0037640853605802,0.0040799636366323,0.0055006217565588,15.09037928667,-0.00011687696570664,-0.00011687696570664,-0.00011687696570664,4070215.3395639,0.013435726408645
23019200,0.98905324715847,0.01433646474127,0.0042322371720965,0.0044902515490897,0.0056139760200837,-0.00090456353866542,0.00090456299023369,1.652856977501e-09,-2.2166976289385e-09,2.8134024017819e-09,-3.4802444433624e-09,-0.001119204320592,0.0011192072342095,-0.0011192055893694,0.0011192059671505,-0.0011192063547661,0.0011192051613011,-0.0011192078027642,0.0011192036977146,-0.0010013265540713,0.0010013281139405,-0.0010013308280817,0.0010013238360885,1.3244224120165e-09,-1.7896217887938e-09,-5.115963474017e-10,1.1837992445807e-10,-0.00098093404407873,0.0009809336596711,-0.0011896472039533,0.0011896476576518,-0.0011896469522897,0.0011896479519662,-0.0011896482087852,0.0011896466400977,-0.0011896480593501,0.0011896467411092,-0.0010729065354147,0.0010729047543134,-0.0010729061894989,0.0010729050847147,-0.00096928795396951,0.00096929098342691,-0.00096929100105241,0.00096928753034992,2.0400492489546e-09,-2.2276224897797e-09,-0.0013246657220935,0.0013246655395745,6.4705958239156e-10,-8.5807901601036e-10,-0.0015580772469679,0.0015580791281398,-0.0015580776745723,0.0015580786673336,-0.0015580787478625,0.0015580775600142,-0.0015580792916662,0.0015580769384436,-0.0012335369996426,0.0012335318808104,-0.0012335326464345,0.0012335364174668,0.63260384392213,131329,3014,0.0037648474045566,0.0040807595546053,0.0055017417481776,15.108110758991,-0.00011673511392807,-0.00011673511392807,-0.00011673511392807,4068860.014808,0.013438442842504
23219200,0.98926334896184,0.014339230861728,0.0042330482535421,0.0044911030588806,0.0056150795493054,-0.00090474896711283,0.00090474841748247,1.7772134963476e-09,-2.3397818322417e-09,2.9900601578911e-09,-3.6579811960383e-09,-0.0011194156689907,0.0011194186395389,-0.001119416883302,0.0011194174315037,-0.0011194176800925,0.0011194165875716,-0.0011194193505324,0.0011194149075044,-0.0010015283312803,0.0010015304245725,-0.0010015332587283,0.001001525494787,1.5456487207913e-09,-2.0255777327462e-09,-5.1493841292889e-10,1.0921962976053e-10,-0.00098112540899716,0.00098112501257142,-0.0011898647466829,0.0011898652038449,-0.0011898643618657,0.0011898656382548,-0.0011898657689997,0.0011898641776904,-0.0011898657612362,0.0011898641413458,-0.0010731051717602,0.0010731036425116,-0.0010731052371065,0.0010731035569564,-0.0009694732622804,0.0009694771377812,-0.0009694771764942,0.00096947283172162,2.1721736241751e-09,-2.352202839759e-09,-0.0013249112314162,0.0013249110548308,6.6711277472148e-10,-8.7067625282049e-10,-0.0015583476534358,0.0015583494955253,-0.0015583479508532,0.0015583491593799,-0.0015583491038468,0.0015583479828141,-0.001558349797183,0.0015583472146493,-0.001233760938465,0.0012337551549486,-0.0012337559199892,0.0012337603430638,0.65900391918219,131329,3014,0.003765617129613,0.0040815533872978,0.005502759161065,15.109155216403,-0.00011672675826878,-0.00011672675826878,-0.00011672675826878,4071496.5490811,0.013441057342928
23419200,0.98946874118008,0.014341903614203,0.0042338309183758,0.0044919251019966,0.0056161475938302,-0.00090481618993413,0.00090481565475995,1.7401737827972e-09,-2.2891837455668e-09,2.6268840334665e-09,-3.2776258445156e-09,-0.001119549237626,0.0011195520276029,-0.0011195505024843,0.0011195507731684,-0.0011195510836346,0.0011195501417253,-0.0011195526477572,0.001119548571266,-0.0010016073207297,0.0010016093558856,-0.0010016119296578,0.0010016047470316,1.2715308674559e-09,-1.735805494398e-09,-5.0807253391621e-10,1.1512706974501e-10,-0.00098119768926679,0.00098119730546786,-0.0011900001259651,0.0011900004894846,-0.0011899998215084,0.0011900008468709,-0.0011900010430563,0.0011899995702246,-0.0011900009599958,0.0011899996140717,-0.0010731897661289,0.0010731882083517,-0.0010731896046589,0.0010731883532975,-0.00096955881298321,0.00096956191539019,-0.00096956193976908,0.0009695583966797,2.1330484417166e-09,-2.3132364095685e-09,-0.0013250444726537,0.0013250442964738,6.7550235954307e-10,-8.793843941751e-10,-0.0015585321948507,0.0015585340950112,-0.0015585325743929,0.0015585336740819,-0.001558533696297,0.0015585325316026,-0.0015585343181059,0.0015585318356771,-0.001233896310198,0.0012338908243793,-0.0012338915899862,0.0012338957039185,0.6525675371033,131329,3014,0.0037658975318211,0.0040818545551873,0.0055033100877865,15.055084619763,-0.0001171593230419,-0.0001171593230419,-0.0001171593230419,4070293.1364795,0.013442206034296
23619200,0.98968282845297,0.014344760487648,0.0042346697409703,0.004492805447225,0.0056172852994532,-0.00090667121753676,0.00090667068141111,1.7354968474685e-09,-2.2933672932034e-09,2.2359297033235e-09,-2.8899084966615e-09,-0.001121538477057,0.0011215410689681,-0.0011215397834177,0.0011215397548288,-0.001121540125249,0.0011215393869426,-0.0011215416272715,0.0011215378570221,-0.0010035617638112,0.0010035639063959,-0.0010035661948659,0.0010035594380068,8.3708280826193e-10,-1.2838368201701e-09,-5.0974206804268e-10,1.3109400694502e-10,-0.00098310194639699,0.0009831015819429,-0.0011920272070708,0.001192027351762,-0.0011920269350161,0.0011920276515515,-0.0011920278745102,0.0011920266551713,-0.0011920277256431,0.0011920267455029,-0.0010751836024555,0.0010751821784609,-0.0010751832538245,0.0010751824804661,-0.00097151721950834,0.00097151931504685,-0.00097151932754694,0.00097151681163775,2.1284973573374e-09,-2.3259608380812e-09,-0.0013270970622379,0.0013270968674531,7.0282508288204e-10,-9.2477049516087e-10,-0.0015606815097279,0.0015606834706891,-0.0015606819724344,0.0015606829809792,-0.0015606830567643,0.0015606818436111,-0.0015606836502914,0.0015606811732145,-0.0012359477205705,0.001235942357326,-0.0012359431547879,0.0012359470998487,0.6666941697474,131329,3014,0.0037736033722377,0.004089759740408,0.0055118099856475,16.007723327905,-0.00010953821337676,-0.00010953821337676,-0.00010953821337676,4087443.4043616,0.013466644571121
23819200,0.9899095655605,0.014347963055111,0.004235614322408,0.0044937958257759,0.0056185529069272,-0.00090902343118018,0.00090902286106299,1.7417940542108e-09,-2.3255131514048e-09,3.4453323450501e-09,-4.1390400296977e-09,-0.00112408899304,0.0011240921558042,-0.0011240901119769,0.0011240910536614,-0.0011240912293798,0.0011240898728106,-0.0011240929727887,0.001124088130335,-0.0010060402072037,0.0010060421617209,-0.0010060453310302,0.0010060370349829,1.968620557968e-09,-2.4807070440401e-09,-5.9964257154199e-10,1.6604966655827e-10,-0.00098551949545827,0.00098551907232086,-0.0011946254732767,0.0011946260688566,-0.0011946249636675,0.0011946266403048,-0.0011946267098183,0.0011946248349787,-0.0011946267451973,0.0011946247672461,-0.0010777195583146,0.001077717810899,-0.0010777197256097,0.0010777176195918,-0.00097401614852429,0.00097402115109527,-0.00097402117767426,0.00097401573464959,2.1648265911513e-09,-2.3383485229401e-09,-0.0013297065909052,0.001329706420351,7.0132785485662e-10,-8.9851169852555e-10,-0.0015634313088907,0.0015634330843963,-0.0015634315393569,0.001563432807719,-0.0015634326697848,0.0015634316666768,-0.0015634334661146,0.0015634307932695,-0.0012385727343119,0.0012385667133764,-0.0012385674879489,0.0012385721194911,0.70079572409333,131329,3014,0.0037833755970848,0.0040997964569857,0.0055226150539698,17.241152351558,-9.9670781187532e-05,-9.9670781187532e-05,-9.9670781187532e-05,4107950.0015595,0.013497676775576
24019200,0.99013278135609,0.014351152058986,0.0042365548111564,0.0044947822829354,0.0056198149648947,-0.00090934449127131,0.00090934392539655,1.7410899816315e-09,-2.3215353719821e-09,3.276651069059e-09,-3.9635550633194e-09,-0.0011245898016082,0.0011245928597581,-0.0011245909208604,0.001124591743578,-0.0011245919335524,0.0011245906863569,-0.0011245936589686,0.0011245889476227,-0.0010063969036154,0.0010063989274652,-0.0010064019812272,0.0010063938497465,1.9622239259714e-09,-2.4659117167055e-09,-5.899719359002e-10,1.626570762055e-10,-0.0009858596192866,0.00098585920157841,-0.001195131545869,0.0011951321460803,-0.0011951310405685,0.0011951326973639,-0.0011951327722718,0.0011951309101983,-0.0011951327962892,0.0011951308384246,-0.0010781051113259,0.0010781033580925,-0.0010781052659659,0.0010781031866105,-0.00097442506247805,0.00097443002003013,-0.0009744300303048,0.00097442465509719,2.1611819745506e-09,-2.3459255764663e-09,-0.0013301640069997,0.001330163825936,6.9629368361769e-10,-9.0534765030956e-10,-0.0015640137890272,0.0015640155700933,-0.00156401403761,0.0015640152856921,-0.001564015159743,0.0015640141354545,-0.0015640159450065,0.0015640132721993,-0.0012390795192208,0.0012390734836059,-0.0012390742749989,0.0012390789020715,0.70866618845317,131329,3014,0.0037847139919322,0.0041012123648776,0.0055245049892217,17.343137175003,-9.8854902599979e-05,-9.8854902599979e-05,-9.8854902599979e-05,4104837.568169,0.013502388885009
24219200,0.99035212558605,0.014354140485451,0.0042374323516325,0.0044957037788524,0.0056210043549663,-0.00090959841281079,0.0009095979041631,1.771568365626e-09,-2.2950915064711e-09,2.0325523123044e-09,-2.6518470342758e-09,-0.0011250206238299,0.0011250231020317,-0.0011250219611423,0.0011250217711039,-0.0011250221208786,0.0011250215693672,-0.001125023634351,0.001125020045505,-0.0010066846536418,0.0010066869671804,-0.0010066891024679,0.0010066825149928,8.8655460130689e-10,-1.3266365529617e-09,-5.1578455546584e-10,1.4353276495725e-10,-0.00098612975864934,0.00098612939609981,-0.0011955649938889,0.0011955651562328,-0.001195564736505,0.0011955654628793,-0.0011955656999072,0.0011955644476034,-0.0011955655419293,0.0011955645613453,-0.0010784207448809,0.0010784192515048,-0.0010784203575481,0.0010784196178772,-0.00097476992638008,0.00097477208464386,-0.00097477207883167,0.00097476954575623,2.1672560201104e-09,-2.3529049552511e-09,-0.0013305478030508,0.0013305476213597,7.3081726873998e-10,-9.4105100842001e-10,-0.0015645168786623,0.0015645189026569,-0.0015645173658599,0.0015645183785668,-0.0015645184696298,0.0015645172492321,-0.001564519065511,0.0015645165799538,-0.0012395187625657,0.0012395133136984,-0.001239514119169,0.0012395181099933,0.68010475195978,131329,3014,0.0037857738650878,0.0041023381275883,0.0055260895877576,17.418238848858,-9.8254089209138e-05,-9.8254089209138e-05,-9.8254089209138e-05,4100735.4819555,0.013506215185933
24419200,0.99056762004018,0.014357073863166,0.0042382940265967,0.004496608397623,0.0056221714389464,-0.00090986617335879,0.00090986556318638,1.7148642120755e-09,-2.3394123083833e-09,4.2161438989039e-09,-4.9566916532077e-09,-0.0011254087030916,0.0011254121110121,-0.001125409572743,0.0011254112489801,-0.0011254112270093,0.0011254095385032,-0.0011254132013326,0.0011254075552727,-0.0010069839003476,0.0010069859654253,-0.0010069897056404,0.0010069801585359,3.2200926655508e-09,-3.8014670980028e-09,-6.5025650092781e-10,1.5866966264916e-10,-0.00098641194068122,0.00098641145825,-0.0011959589247062,0.0011959600641064,-0.0011959581543288,0.0011959608855508,-0.0011959607694572,0.0011959582049759,-0.0011959610265476,0.0011959579052989,-0.0010787368627712,0.0010787348527873,-0.0010787376888736,0.0010787340060182,-0.00097509380310701,0.00097510199544549,-0.00097510205472244,0.00097509333312558,2.1685596249332e-09,-2.3482138856189e-09,-0.0013309267682577,0.0013309265925964,6.4598534244415e-10,-8.4934164622513e-10,-0.0015649795963136,0.0015649810991242,-0.0015649795575193,0.0015649811006742,-0.0015649807209159,0.0015649799138201,-0.0015649817164142,0.001564978831918,-0.0012399239353624,0.0012399172224121,-0.0012399179812977,0.0012399233676087,0.6793499549338,131329,3014,0.0037868888499746,0.0041035116246624,0.0055276561092655,17.491846961788,-9.7665224305699e-05,-9.7665224305699e-05,-9.7665224305699e-05,4099709.8412901,0.013510124784972
24619200,0.9907784138171,0.014360090498319,0.0042391843792776,0.0044975417848645,0.0056233643341767,-0.00091002117977825,0.00091002062559126,1.7416978570613e-09,-2.3202700092557e-09,2.4735769478634e-09,-3.1487986950378e-09,-0.0011256694505952,0.0011256720347697,-0.0011256706155188,0.0011256708676672,-0.0011256710948636,0.0011256703530652,-0.0011256727656037,0.0011256686600038,-0.0010071690279622,0.0010071714493093,-0.0010071739370345,0.0010071665256269,1.6487869867834e-09,-2.1382719816098e-09,-5.4464361932057e-10,1.2907568688467e-10,-0.00098657829843837,0.00098657789425837,-0.0011962237139438,0.0011962241874479,-0.0011962232804789,0.0011962246540946,-0.0011962247603623,0.0011962231065177,-0.0011962247611896,0.001196223054985,-0.0010789357654451,0.0010789341636801,-0.0010789358375762,0.0010789340705455,-0.00097530346114992,0.000975307590902,-0.00097530760599563,0.00097530302559533,2.1663997936204e-09,-2.3665252108087e-09,-0.0013311807043787,0.0013311805115263,6.8297333842744e-10,-9.0777699347715e-10,-0.001565308053717,0.0015653098890407,-0.0015653083638575,0.0015653095624454,-0.0015653094845037,0.0015653083930033,-0.0015653102052814,0.0015653075732086,-0.0012402027627753,0.0012401968068933,-0.0012401976348645,0.0012402021715861,0.70944814632777,131329,3014,0.003787535485945,0.0041042045232104,0.0055287051804008,17.497814028865,-9.761748776908e-05,-9.761748776908e-05,-9.761748776908e-05,4097663.6357695,0.013512547792068
24819200,0.99098447782734,0.014362807544994,0.0042399800335354,0.0044983777710852,0.0056244497403736,-0.0009101251530944,0.00091012446146052,1.6685148572517e-09,-2.3793870120071e-09,5.6382782649399e-09,-6.4773094622598e-09,-0.0011259275164322,0.0011259316148877,-0.0011259281617552,0.0011259309738783,-0.0011259308071567,0.0011259282660462,-0.0011259329973898,0.0011259260626998,-0.0010072918786217,0.001007293477333,-0.0010072982919788,0.0010072870593094,4.9235345961471e-09,-5.6114899558393e-09,-7.2898681420276e-10,1.4654780176504e-10,-0.00098669361364368,0.00098669304052312,-0.0011964817865539,0.0011964837723715,-0.0011964807710641,0.0011964848325113,-0.001196484578052,0.0011964809426901,-0.0011964850325041,0.0011964804434051,-0.0010790808944857,0.0010790781636642,-0.0010790822704137,0.0010790767683273,-0.00097547388820609,0.00097548606911372,-0.00097548618292592,0.00097547332876818,2.1726114799753e-09,-2.3554984445512e-09,-0.0013313952758374,0.0013313950992367,5.7065300747175e-10,-7.7678594434026e-10,-0.0015656260587326,0.0015656273024927,-0.001565625760958,0.0015656275750977,-0.0015656269709008,0.0015656263306289,-0.0015656281224567,0.0015656250683153,-0.0012404669115645,0.0012404595806052,-0.0012404603218844,0.0012404664198993,0.66112597051218,131329,3014,0.003787971465146,0.0041046866652792,0.0055295896120795,17.493835883476,-9.7649312932193e-05,-9.7649312932193e-05,-9.7649312932193e-05,4092842.4571995,0.013514378982103
25019200,0.99119759536168,0.01436558240591,0.0042407921567456,0.0044992310745052,0.0056255591746594,-0.00091185572420919,0.00091185518569302,1.7502907015264e-09,-2.3106638937453e-09,2.3233025791128e-09,-2.9811389700743e-09,-0.0011278033919488,0.0011278059467544,-0.0011278046229154,0.0011278047030893,-0.0011278049950216,0.0011278043097067,-0.0011278065903399,0.0011278026836285,-0.0010091113099485,0.0010091136189453,-0.001009115983543,0.0010091089140848,1.570298216645e-09,-2.0524988243713e-09,-5.2989799471713e-10,1.2296246992435e-10,-0.00098847249285842,0.00098847209894629,-0.0011983941584956,0.001198394654131,-0.001198393796993,0.0011983950392218,-0.0011983952073719,0.0011983935709577,-0.0011983951367651,0.0011983935779659,-0.0010809373008403,0.0010809355577512,-0.0010809371644592,0.0010809356503198,-0.00097731406999674,0.0009773177884103,-0.00097731782017523,0.00097731363004028,2.1743445653249e-09,-2.3750436062834e-09,-0.0013333420050754,0.0013333418084595,6.849885184239e-10,-9.1030311468823e-10,-0.0015676658770865,0.0015676677874038,-0.0015676662725878,0.0015676673923216,-0.0015676673939344,0.00156766621434,-0.0015676680386863,0.001567665464796,-0.0012424161035102,0.0012424103142101,-0.001242411143165,0.001242415519036,0.65362909904604,131329,3014,0.0037951611379799,0.0041120717980131,0.0055376501092939,18.39356809523,-9.0451455238162e-05,-9.0451455238162e-05,-9.0451455238162e-05,4108928.9857688,0.013537323187286
25219200,0.99142886255281,0.014368704582517,0.0042417088083196,0.0045001935413105,0.0056268022328863,-0.00091503008089136,0.00091502954311635,1.7544296225558e-09,-2.291184979901e-09,3.7248500034775e-09,-4.3786910955809e-09,-0.0011311888353981,0.0011311920049097,-0.0011311898012988,0.0011311910883125,-0.0011311910568679,0.0011311897268846,-0.001131192979998,0.0011311878460175,-0.001012435613847,0.0010124378607538,-0.0010124411975967,0.0010124323017376,2.7228075048491e-09,-3.2760503626106e-09,-6.3022376934599e-10,1.6653811840381e-10,-0.00099173408650115,0.00099173363099962,-0.0012018445808324,0.0012018454621631,-0.0012018439188248,0.0012018462354522,-0.0012018461736379,0.0012018439279738,-0.0012018463789937,0.0012018437218187,-0.0010843437392904,0.0010843418750023,-0.0010843443377065,0.0010843412523571,-0.0009806582525965,0.00098066518628659,-0.00098066527616772,0.00098065784913893,2.2071038666095e-09,-2.3380790894064e-09,-0.0013368942906771,0.0013368941564709,6.9770218670653e-10,-8.5050980821506e-10,-0.0015713492447493,0.0015713508824891,-0.0015713492864053,0.0015713507719465,-0.0015713504782632,0.0015713496288231,-0.00157135142024,0.001571348617368,-0.0012459802961865,0.001245973759923,-0.0012459744614374,0.001245979680755,0.67455042875714,131329,3014,0.0038083470450557,0.0041256105750791,0.0055523598577335,20.10408014705,-7.6767358823603e-05,-7.6767358823603e-05,-7.6767358823603e-05,4140209.2824228,0.013579324184498
25419200,0.9916671512271,0.014372211259089,0.0042427449199101,0.0045012799034173,0.0056281864357617,-0.00091681267766353,0.00091681209488335,1.7205394375247e-09,-2.3151197443574e-09,3.7085864245833e-09,-4.4145352498901e-09,-0.0011331717352243,0.0011331748557425,-0.0011331726473698,0.0011331739518635,-0.0011331739528839,0.0011331725924972,-0.0011331758739861,0.0011331706644518,-0.001014322921983,0.0010143251801571,-0.0010143285440039,0.0010143195673544,2.6793778822423e-09,-3.2198567526949e-09,-6.2785341789187e-10,1.7340601059488e-10,-0.00099357335100052,0.00099357290302547,-0.0012038664723413,0.0012038673044738,-0.001203865753889,0.0012038680760293,-0.00120386797746,0.0012038657888912,-0.0012038681907159,0.001203865535089,-0.0010862865940385,0.0010862848532431,-0.0010862872707296,0.0010862841676323,-0.0009825754494949,0.00098258238249619,-0.00098258239968866,0.00098257502123186,2.1800959029196e-09,-2.3620356017279e-09,-0.0013389736145432,0.0013389734352241,6.7282499383475e-10,-8.7869273918704e-10,-0.0015735613304367,0.0015735629149627,-0.0015735613729578,0.0015735628479662,-0.0015735625254237,0.001573561674024,-0.0015735634807465,0.0015735606197225,-0.0012480868844566,0.0012480802117439,-0.0012480810254292,0.0012480863100309,0.7278974945384,131329,3014,0.0038157541473928,0.004133247298408,0.0055609676405011,21.028281087832,-6.9373751297342e-05,-6.9373751297342e-05,-6.9373751297342e-05,4154844.5311188,0.013603302068748
25619200,0.99189766786971,0.014375623210569,0.0042437523880553,0.0045023365981727,0.0056295342243413,-0.00091677290411771,0.00091677236374356,1.7507259941403e-09,-2.3101126877314e-09,2.6194128964988e-09,-3.2780889531032e-09,-0.0011333390260759,0.0011333417156931,-0.0011333401942022,0.0011333405522142,-0.0011333407634203,0.0011333399413149,-0.001133342438714,0.0011333382527662,-0.0010143118949769,0.0010143142351703,-0.001014316800111,0.001014309328511,1.7089276287612e-09,-2.1922580789966e-09,-5.4134986595994e-10,1.3216577478706e-10,-0.00099354808063958,0.00099354768152333,-0.0012040323227155,0.0012040328404242,-0.0012040318934055,0.0012040333149594,-0.001204033419305,0.0012040317313335,-0.0012040334228212,0.0012040316832666,-0.0010863091865761,0.0010863075491321,-0.0010863092514588,0.0010863074706527,-0.00098263777521506,0.00098264201967018,-0.00098264203657035,0.00098263735266876,2.1919441354936e-09,-2.3834655749981e-09,-0.0013390851022014,0.0013390849160697,6.8497485042968e-10,-9.0090924054699e-10,-0.0015738096924947,0.001573811543309,-0.0015738100019523,0.0015738112188345,-0.0015738111487934,0.0015738100420674,-0.001573811865714,0.0015738092263386,-0.0012482738976769,0.0012482679048456,-0.0012482687163798,0.001248273304729,0.73244077712281,131329,3014,0.0038155956944276,0.0041331480597809,0.0055614229891599,20.943753303718,-7.0049973570257e-05,-7.0049973570257e-05,-7.0049973570257e-05,4145800.2184802,0.013603508507474
25819200,0.99211071297757,0.014378685184026,0.0042446543931012,0.0045032831151987,0.0056307476757258,-0.00091538809147654,0.00091538754792547,1.7432788426162e-09,-2.3017412135918e-09,2.802264642327e-09,-3.4635770996853e-09,-0.0011320885959992,0.001132091320695,-0.0011320896828404,0.0011320902430072,-0.0011320903784132,0.0011320894968414,-0.0011320921311756,0.0011320877373164,-0.0010128936231727,0.0010128960489187,-0.0010128987473306,0.001012890924895,2.0918693485089e-09,-2.5988294181481e-09,-5.2758243617598e-10,9.9378904542798e-11,-0.00099214205306852,0.00099214163363869,-0.0012027525888547,0.0012027532919393,-0.0012027520981885,0.0012027538363715,-0.0012027538793248,0.0012027519949451,-0.0012027539803333,0.0012027518521235,-0.0010848931037535,0.0010848914549923,-0.0010848934440972,0.001084891094733,-0.00098128522021804,0.00098129043889532,-0.00098129049200562,0.00098128476114383,2.1929994509015e-09,-2.375457273705e-09,-0.0013377385066102,0.001337738328724,6.4174650817292e-10,-8.4791035977348e-10,-0.0015725495109681,0.0015725512509565,-0.0015725496992562,0.0015725510364196,-0.0015725508812344,0.0015725498321571,-0.0015725516498389,0.0015725489704365,-0.0012470023037719,0.001246996156932,-0.001246996921859,0.0012470017360847,0.71386866488666,131329,3014,0.003809850335573,0.0041273173575214,0.0055558403500587,20.108861987325,-7.6729104101398e-05,-7.6729104101398e-05,-7.6729104101398e-05,4123670.8641144,0.013586120087276
26019200,0.99231324975403,0.014381472422217,0.0042454730083335,0.0045041424996805,0.005631856914203,-0.00091479033250926,0.00091478978623213,1.7337956741735e-09,-2.2949593684196e-09,2.8373110773295e-09,-3.5026663760936e-09,-0.0011316051547511,0.0011316078528939,-0.0011316061962459,0.0011316068207269,-0.0011316069178062,0.0011316060470088,-0.0011316087058959,0.001131604252558,-0.0010122936157821,0.0010122961134803,-0.0010122988357241,0.0010122908803257,2.2219485365197e-09,-2.7424282780534e-09,-5.1631830783057e-10,7.7510300040814e-11,-0.00099153854190422,0.00099153811375578,-0.0012022561603608,0.0012022569159927,-0.0012022556411311,0.0012022574897191,-0.0012022574983623,0.0012022555705522,-0.0012022576503753,0.0012022553762717,-0.0010843006684976,0.0010842990639172,-0.0010843011525817,0.001084298542887,-0.00098073042057805,0.00098073599653922,-0.00098073608384857,0.00098072993684887,2.1922609227572e-09,-2.3685285516668e-09,-0.0013372097296963,0.0013372095557119,6.1158279656537e-10,-8.1101594807831e-10,-0.0015720930790722,0.0015720947564347,-0.0015720932045908,0.0015720946036274,-0.0015720944066099,0.0015720933793542,-0.0015720951929189,0.0015720924993981,-0.0012465251481107,0.0012465189132146,-0.0012465196492352,0.0012465246132149,0.68688840854417,131329,3014,0.0038073719860804,0.0041248160777982,0.0055536461381774,19.716076422107,-7.9871388623147e-05,-7.9871388623147e-05,-7.9871388623147e-05,4111911.6684321,0.013578851356978
26219200,0.99250956384495,0.014384350818651,0.004246323966089,0.0045050339102339,0.0056329929423278,-0.00091476270159346,0.0009147621942871,1.7863170375642e-09,-2.3061633175584e-09,2.2011270759611e-09,-2.820209277513e-09,-0.0011316610217859,0.0011316635839466,-0.001131662337144,0.00113166229261,-0.0011316625894387,0.0011316619744835,-0.0011316641618194,0.0011316604116772,-0.0010122890070673,0.001012291332422,-0.0010122935814164,0.0010122867596208,1.5937347601363e-09,-2.0772697277328e-09,-4.3902442626828e-10,3.1505676989072e-11,-0.00099151624465097,0.00099151584737579,-0.0012023121685875,0.0012023128056712,-0.0012023119446241,0.0012023131028184,-0.0012023133292399,0.0012023116620875,-0.0012023132851269,0.0012023116793381,-0.0010843040890103,0.0010843023589984,-0.0010843039807825,0.0010843024406881,-0.00098074408866824,0.00098074766636835,-0.00098074777095208,0.00098074361103043,2.2343497029738e-09,-2.3993280315874e-09,-0.0013372696848383,0.0013372695217431,6.4529614588099e-10,-8.3325957346259e-10,-0.001572207941392,0.0015722099168344,-0.001572208325917,0.0015722094937538,-0.0015722095446529,0.0015722082765671,-0.0015722101079752,0.00157220762744,-0.0012466089727524,0.0012466033623726,-0.0012466040907726,0.0012466084032122,0.72525111490055,131329,3014,0.0038072596571504,0.0041247254788579,0.0055538920401074,19.629139204224,-8.0566886366212e-05,-8.0566886366212e-05,-8.0566886366212e-05,4108574.9719063,0.013578895909874
26419200,0.99270432464429,0.014387294890324,0.0042471965034287,0.0045059472376793,0.0056341511492162,-0.00091538030267377,0.00091537974288633,1.6946169559976e-09,-2.2653166218675e-09,3.3588166955438e-09,-4.0402017986672e-09,-0.0011324541627499,0.0011324569405317,-0.0011324549500714,0.0011324561806078,-0.0011324560386396,0.0011324550151039,-0.001132458053916,0.0011324530130833,-0.0010129590491492,0.0010129618073391,-0.0010129649044626,0.0010129559476882,2.6703584052024e-09,-3.221795586077e-09,-5.4708689422156e-10,8.1964798547752e-11,-0.00099215682482726,0.00099215637029277,-0.0012031140837893,0.0012031148730894,-0.0012031133239408,0.001203115711143,-0.0012031155045917,0.0012031134673642,-0.0012031158940949,0.0012031130543817,-0.0010850077836651,0.0010850065025929,-0.0010850089232292,0.0010850053273554,-0.00098146543417476,0.00098147260980963,-0.00098147271937502,0.00098146494421743,2.1780346582421e-09,-2.3322331429372e-09,-0.0013380427772988,0.001338042623335,5.5877920282597e-10,-7.3497164467958e-10,-0.0015730938831136,0.0015730952739378,-0.0015730937146989,0.0015730953981453,-0.0015730949568202,0.001573094162364,-0.0015730959429422,0.001573093088175,-0.001247444625012,0.0012474378259092,-0.0012474384849976,0.0012474441312272,0.74503107260406,131329,3014,0.0038098292952665,0.0041273882433847,0.0055570890181281,19.918902559273,-7.8248779525815e-05,-7.8248779525815e-05,-7.8248779525815e-05,4108620.0120999,0.013587444774468
26619200,0.99290403478134,0.014390282564902,0.0042480810201218,0.0045068733762455,0.0056353281685347,-0.00091695029308054,0.000916949770059,1.7603522709171e-09,-2.2949353064193e-09,2.5582855784258e-09,-3.1950660616309e-09,-0.001134284285161,0.0011342869219303,-0.0011342854502087,0.0011342857728771,-0.0011342859552391,0.0011342852098089,-0.0011342876465341,0.0011342835203738,-0.0010146220497362,0.0010146244709459,-0.0010146269774646,0.0010146195349857,1.7050868247729e-09,-2.194258779985e-09,-4.6447013197918e-10,5.262651754429e-11,-0.00099377412458058,0.00099377372375286,-0.0012049682620086,0.0012049688143055,-0.0012049678844128,0.0012049692571889,-0.0012049693525234,0.0012049677345984,-0.0012049694225544,0.0012049676283959,-0.001086730290304,0.0010867288271315,-0.0010867305260303,0.0010867285533023,-0.00098320874404309,0.00098321294505908,-0.00098321304096962,0.00098320827423893,2.2241908602019e-09,-2.388918284598e-09,-0.0013398657061688,0.0013398655414442,6.2671569411868e-10,-8.1437654412029e-10,-0.0015750764918801,0.0015750783175153,-0.0015750767365866,0.0015750780380378,-0.0015750779570415,0.0015750768098446,-0.0015750786391059,0.0015750760425393,-0.0012493519004003,0.0012493459007586,-0.0012493466213196,0.001249351353502,0.73848803691131,131329,3014,0.0038163563295249,0.0041341064883856,0.0055646318730603,20.758659845602,-7.1530721235187e-05,-7.1530721235187e-05,-7.1530721235187e-05,4117045.0206306,0.013608523432661
26819200,0.99310720330916,0.014393238959771,0.0042489538694084,0.004507788070391,0.0056364970199714,-0.00091833284987554,0.0009183323349282,1.8127159217729e-09,-2.3519685460636e-09,1.7715127555307e-09,-2.400673120937e-09,-0.001135917452499,0.0011359199295056,-0.0011359189458837,0.0011359184245958,-0.0011359189190964,0.0011359184335119,-0.0011359203199691,0.0011359170010479,-0.001016086049921,0.0010160882465587,-0.0010160901869673,0.0010160840926859,7.9556834641795e-10,-1.2257153240084e-09,-3.7985541752425e-10,1.5491383046676e-11,-0.00099519923143375,0.00099519887909744,-0.0012066225093522,0.0012066228445752,-0.0012066224600438,0.001206622917679,-0.0012066232744196,0.0012066220503429,-0.0012066230667503,0.0012066221960708,-0.0010882457099849,0.0010882441698436,-0.0010882451820955,0.0010882446736226,-0.00098474949364524,0.00098475098039036,-0.00098475104526061,0.0009847490231648,2.261993372714e-09,-2.4678249520535e-09,-0.0013415195430746,0.0013415193441629,6.805538840754e-10,-9.1148671917699e-10,-0.0015768804537033,0.001576882643278,-0.0015768810656676,0.0015768820262593,-0.0015768822494288,0.0015768807894103,-0.0015768826743142,0.0015768802662946,-0.0012510820498696,0.0012510767810054,-0.0012510776047924,0.0012510814517844,0.72122277070639,131329,3014,0.0038221047603621,0.0041400266115648,0.0055714744587864,21.496669311999,-6.562664550401e-05,-6.562664550401e-05,-6.562664550401e-05,4124768.4525886,0.013627293544344
27019200,0.99330720684691,0.014396060280902,0.0042497842453512,0.0045086590091115,0.0056376170264395,-0.00091880547790882,0.00091880503121544,1.8958168679784e-09,-2.3476438042109e-09,1.5220357502938e-09,-2.0685846143658e-09,-0.001136568735197,0.0011365712355629,-0.0011365704390042,0.0011365696044345,-0.0011365701319358,0.0011365697913032,-0.0011365714669305,0.0011365685157463,-0.0010165946222182,0.0010165967464555,-0.0010165984809479,0.0010165929484266,4.7351905821806e-10,-8.8509947216979e-10,-3.3209111798723e-10,-1.4004698002084e-11,-0.00099569085986808,0.00099569051769812,-0.001207279130114,0.0012072794083393,-0.0012072792987547,0.0012072793730782,-0.0012072798652724,0.0012072787573925,-0.0012072795842362,0.0012072790590156,-0.0010887789871568,0.0010887773546907,-0.0010887781459377,0.0010887782134191,-0.00098531441416474,0.00098531485883356,-0.00098531495930118,0.00098531398995024,2.3394693358177e-09,-2.4807401229744e-09,-0.0013421652310402,0.0013421650953079,7.433183657224e-10,-9.0774301727981e-10,-0.001577633747067,0.0015776361704247,-0.0015776344702662,0.0015776353653136,-0.0015776357271437,0.0015776341789246,-0.0015776360531034,0.0015776337903047,-0.001251779692243,0.0012517748007822,-0.0012517755294631,0.0012517790118092,0.70228870053906,131329,3014,0.003824072790711,0.0041420708613446,0.005574143580477,21.715182451476,-6.3878540388192e-05,-6.3878540388192e-05,-6.3878540388192e-05,4124654.8363082,0.013634069876833
27219200,0.99350172463568,0.014398712306974,0.0042505624139108,0.0045094758040711,0.0056386740889924,-0.00091894491085455,0.00091894441093314,1.8232540818393e-09,-2.3347899657986e-09,2.086598282296e-09,-2.6939691597384e-09,-0.0011368271208477,0.0011368297335485,-0.0011368285560956,0.0011368283297902,-0.0011368287110532,0.0011368281024835,-0.0011368302105477,0.001136826617065,-0.0010167535112162,0.0010167557310175,-0.001016757887215,0.0010167513689409,1.0545193452981e-09,-1.5055767984013e-09,-3.9216219805871e-10,1.0670738177464e-11,-0.00099583966240705,0.00099583929016292,-0.0012075391639076,0.0012075395845649,-0.0012075390611604,0.0012075397691078,-0.0012075400683441,0.0012075387075609,-0.0012075399546951,0.0012075387998879,-0.0010889485898531,0.0010889470640751,-0.0010889482857819,0.0010889473549316,-0.00098550429415089,0.00098550656343395,-0.00098550665538788,0.00098550383919629,2.2905396341747e-09,-2.4524973154199e-09,-0.0013424255884758,0.0013424254278941,6.7654320221663e-10,-8.6175824955348e-10,-0.0015779677414056,0.0015779698542024,-0.0015779682185582,0.001577969322333,-0.0015779694575064,0.0015779680939488,-0.0015779699605785,0.0015779675195958,-0.0012520679887287,0.0012520626059748,-0.0012520633341937,0.0012520673799842,0.68192144578279,131329,3014,0.0038246549671696,0.0041426906588945,0.0055752185418957,21.739937887133,-6.368049690294e-05,-6.368049690294e-05,-6.368049690294e-05,4122818.0174161,0.013636379444133
27419200,0.99369235479014,0.014401401690657,0.0042513544322142,0.0045103061510537,0.0056397411073891,-0.00091932858039049,0.00091932807844453,1.7823240491943e-09,-2.2864516048259e-09,2.6536139229162e-09,-3.2621768645596e-09,-0.0011372929329421,0.0011372956691489,-0.0011372941370219,0.0011372945037944,-0.0011372946809927,0.0011372938762398,-0.001137296365445,0.0011372922179446,-0.0010171728426397,0.0010171751891657,-0.001017177742865,0.0010171702993287,1.6015135213937e-09,-2.0852237510902e-09,-4.5229966656209e-10,4.4948218711003e-11,-0.00099623732593898,0.00099623692749275,-0.0012080142591256,0.0012080147787088,-0.0012080139248491,0.00120801521118,-0.0012080153305267,0.0012080137594256,-0.0012080153919814,0.0012080136801746,-0.0010893769144778,0.001089375489078,-0.0010893771216015,0.0010893752489901,-0.00098592689324203,0.0009859308631696,-0.00098593097689203,0.00098592644519056,2.2617910263073e-09,-2.4012221647229e-09,-0.0013429370541428,0.0013429369112174,6.352625824877e-10,-7.9644198874394e-10,-0.0015785335734468,0.00157853543016,-0.0015785338038401,0.0015785351318252,-0.0015785350643359,0.001578533901444,-0.0015785357427506,0.0015785331668981,-0.0012525847921432,0.001252578912385,-0.0012525795642875,0.0012525842119789,0.70215250493858,131329,3014,0.0038262499858128,0.0041443420033858,0.0055773351583269,21.891998910362,-6.24640087171e-05,-6.24640087171e-05,-6.24640087171e-05,4125258.9901528,0.013641815827929
27619200,0.99388181208724,0.014404119487653,0.0042521559280498,0.0045111460935413,0.0056408174660616,-0.00092012068905569,0.00092012020713757,1.8353444747214e-09,-2.3261633221014e-09,1.7612735416258e-09,-2.3466169393456e-09,-0.0011382179481243,0.0011382204401715,-0.0011382194793079,0.0011382189397573,-0.0011382193999772,0.0011382189488918,-0.0011382208081044,0.0011382175556687,-0.001018022981106,0.001018025166857,-0.0010180270853705,0.001018021061303,6.8979289490634e-10,-1.1237095478031e-09,-3.6242975386723e-10,-4.2484204679793e-12,-0.00099705473782621,0.00099705438169828,-0.0012089548827321,0.0012089551687256,-0.0012089548896992,0.0012089552445762,-0.0012089556223403,0.0012089544618509,-0.0012089554281766,0.0012089546327019,-0.0010902518579609,0.0010902503591616,-0.0010902513163194,0.0010902508680542,-0.00098679890070694,0.00098680014403519,-0.00098680024891812,0.00098679844239612,2.3033239013888e-09,-2.4604904161773e-09,-0.0013439106959459,0.0013439105377697,7.0258319615387e-10,-8.8274602765597e-10,-0.0015795935518633,0.001579595790464,-0.0015795941468854,0.0015795951415378,-0.0015795953782783,0.001579593921801,-0.0015795958003872,0.0015795934314872,-0.0012535831421996,0.0012535779629934,-0.0012535786967193,0.0012535825172863,0.71253171509813,131329,3014,0.0038295426269528,0.0041477369055212,0.0055813645118741,22.282074638815,-5.9343402889476e-05,-5.9343402889476e-05,-5.9343402889476e-05,4130138.0860839,0.013652681667333
27819200,0.99406739581087,0.014406829452861,0.0042529561470645,0.0045119843982228,0.0056418889075735,-0.00092050308953351,0.00092050259988197,1.815122883036e-09,-2.3134855231053e-09,1.9719129296195e-09,-2.5666553240299e-09,-0.0011387361046535,0.0011387386376574,-0.0011387375432653,0.0011387372405767,-0.001138737615264,0.001138737084062,-0.0011387391040589,0.0011387356205347,-0.0010184445900353,0.001018446850022,-0.0010184489228249,0.0010184425368863,9.166887078896e-10,-1.3620415076312e-09,-3.8489232200643e-10,8.7417779144119e-12,-0.00099745287058338,0.00099745250204034,-0.0012094790910883,0.0012094794249153,-0.0012094790053517,0.0012094796057543,-0.0012094799094288,0.0012094786474856,-0.0012094797963446,0.001209478748394,-0.001090692798138,0.0010906913577925,-0.0010906924814486,0.0010906916616368,-0.00098725047120607,0.00098725244184432,-0.00098725253698314,0.00098725002283194,2.2931006878774e-09,-2.4472139810574e-09,-0.0013444394609915,0.001344439308707,6.8488050248842e-10,-8.6180342755568e-10,-0.0015802109313075,0.001580213064481,-0.0015802114168351,0.0015802125151155,-0.0015802126596696,0.0015802112971894,-0.0015802131587144,0.0015802107308452,-0.0012541475663998,0.0012541421928537,-0.0012541429114084,0.0012541469462109,0.72383700355254,131329,3014,0.0038311343047817,0.0041493920704824,0.0055835509335667,22.443793597999,-5.8049651216005e-05,-5.8049651216005e-05,-5.8049651216005e-05,4129868.2096717,0.013658192070143
28019200,0.99424983740662,0.014409545166522,0.0042537593651547,0.004512825408316,0.0056429603930515,-0.00092099162054901,0.00092099114274945,1.8294232799628e-09,-2.3116075539172e-09,1.9624934641718e-09,-2.5417936720951e-09,-0.001139379027295,0.0011393815922538,-0.0011393805040772,0.0011393801552219,-0.001139380556196,0.0011393800215912,-0.0011393820163413,0.0011393785869388,-0.0010189814598992,0.0010189836549482,-0.0010189857086344,0.0010189794198759,9.1405676547424e-10,-1.35940672042e-09,-3.7916213601602e-10,3.662976191997e-12,-0.00099795973525612,0.00099795936834323,-0.0012101286435558,0.0012101290113942,-0.0012101285962997,0.0012101291562575,-0.0012101294940624,0.0012101282115528,-0.0012101293466889,0.0012101283424528,-0.0010912537355965,0.0010912522110312,-0.0010912533342747,0.0010912525858028,-0.00098782551148776,0.00098782737402388,-0.00098782748547942,0.00098782506253019,2.3079782426137e-09,-2.4536448962444e-09,-0.0013450889137435,0.0013450887660351,6.9785024483052e-10,-8.6601887457078e-10,-0.0015809596933401,0.0015809618742809,-0.0015809602158966,0.0015809612826652,-0.001580961463901,0.0015809600629209,-0.001580961939179,0.001580959532271,-0.0012548443511089,0.0012548390515139,-0.0012548397528649,0.0012548437196321,0.73612815988092,131329,3014,0.003833167441173,0.0041514991786162,0.0055862364452376,22.670738838488,-5.6234089292097e-05,-5.6234089292097e-05,-5.6234089292097e-05,4129835.7509009,0.013665114958444
28219200,0.99443198038137,0.014412312428058,0.0042545791625345,0.0045136833328914,0.0056440499326318,-0.00092194032253156,0.00092193982279352,1.8274030860313e-09,-2.339807648453e-09,1.8156435973344e-09,-2.421108728555e-09,-0.00114052169752,0.0011405242467515,-0.0011405232430446,0.0011405227048392,-0.0011405232246417,0.0011405226857827,-0.0011405245935461,0.0011405213028411,-0.0010200034432669,0.0010200054996646,-0.0010200074581284,0.0010200014604469,7.6050391226394e-10,-1.1987248353122e-09,-3.6437752174155e-10,-6.6480909428392e-12,-0.0009989382788304,0.00099893791974608,-0.0012112852245354,0.0012112855904942,-0.0012112852419201,0.0012112856230053,-0.0012112860293571,0.0012112847848435,-0.0012112857938371,0.0012112849684422,-0.0010923114796724,0.001092309857158,-0.001092310863653,0.0010923104240069,-0.00098889620238486,0.00098889751916646,-0.00098889761837219,0.0009888957242589,2.3093821810184e-09,-2.4862884994165e-09,-0.0013462538225542,0.0013462536444982,7.108993274547e-10,-9.1165137747032e-10,-0.0015822465241161,0.0015822487883809,-0.0015822471608667,0.0015822481136781,-0.0015822483723397,0.0015822468748864,-0.0015822487821056,0.0015822463952135,-0.0012560701421365,0.0012560650050433,-0.0012560657800391,0.001256069514673,0.74949209251235,131329,3014,0.00383711254305,0.0041555647410164,0.0055910555408352,23.164135857845,-5.2286913137243e-05,-5.2286913137243e-05,-5.2286913137243e-05,4133714.8329835,0.013678125563287
28419200,0.99460850519257,0.014415052401273,0.0042553920019447,0.0045145336186216,0.0056451267807066,-0.00092203128079839,0.00092203073638757,1.677542044095e-09,-2.2368944692036e-09,2.6398136040653e-09,-3.2993780945875e-09,-0.0011407925204265,0.0011407950211578,-0.0011407934827853,0.0011407940606537,-0.0011407941264308,0.0011407933781753,-0.001140795904206,0.0011407915836969,-0.0010201250484669,0.0010201276752225,-0.0010201302567137,0.0010201224693133,1.6521291036202e-09,-2.1375897167981e-09,-5.1036704902163e-10,9.9960043040277e-11,-0.00099903809552286,0.00099903769271562,-0.0012115514623853,0.0012115518228809,-0.0012115508983306,0.0012115524331965,-0.0012115523878577,0.0012115508871005,-0.0012115525615455,0.0012115506600114,-0.001092453921878,0.0010924528312816,-0.0010924545002821,0.0010924522354002,-0.0009890773213196,0.00098908194095283,-0.00098908197488574,0.00098907688080775,2.1845399453336e-09,-2.3683054063073e-09,-0.0013464817690793,0.0013464815902524,5.7615037061931e-10,-7.8340428453686e-10,-0.001582586158526,0.0015825877580214,-0.0015825862109465,0.001582587670578,-0.001582587426235,0.0015825864230933,-0.0015825882397383,0.0015825855323025,-0.0012563710960962,0.0012563648571461,-0.0012563655602669,0.001256370558209,0.76402648149553,131329,3014,0.003837495884483,0.004155983563782,0.0055919939449325,23.176424570481,-5.2188603436152e-05,-5.2188603436152e-05,-5.2188603436152e-05,4127768.3189528,0.013679894830512
28619200,0.99477992731677,0.014417732524009,0.0042561876153233,0.0045153656017627,0.0056461793069227,-0.00092216859094774,0.00092216806002344,1.6902675316636e-09,-2.2338876118551e-09,2.5590203758606e-09,-3.2037267652876e-09,-0.0011411239571232,0.001141126473548,-0.0011411249967384,0.001141125447589,-0.0011411255602631,0.00114112483028,-0.0011411272838304,0.0011411231041396,-0.0010202975759186,0.0010203001019216,-0.0010203026223531,0.0010202950543038,1.6215391611959e-09,-2.110783608381e-09,-5.0288690622374e-10,8.9011370886019e-11,-0.00099918465294549,0.00099918424877513,-0.0012118771679315,0.0012118775674664,-0.0012118766833283,0.0012118781148093,-0.0012118781345297,0.0012118766094232,-0.0012118782569504,0.0012118764456634,-0.0010926496331647,0.0010926483890136,-0.0010926500370804,0.0010926479547435,-0.0009893193162999,0.00098932366478959,-0.00098932372573082,0.00098931887195131,2.2010129917992e-09,-2.3701105423381e-09,-0.0013467625661313,0.0013467623991359,5.8915829811841e-10,-7.8124880756167e-10,-0.0015829841528327,0.0015829858510214,-0.0015829842820734,0.0015829856788915,-0.0015829855098568,0.0015829844383834,-0.001582986258494,0.0015829836157025,-0.0012567371948706,0.0012567310766527,-0.0012567317577502,0.0012567366505361,0.76896223908793,131329,3014,0.0038380723987764,0.0041565969864023,0.0055931505971699,23.222826334382,-5.1817389324944e-05,-5.1817389324944e-05,-5.1817389324944e-05,4121567.7514955,0.013682279100887
28819200,0.99495284715636,0.014420359354144,0.0042569656484582,0.0045161795866994,0.0056472141189863,-0.00092342591136486,0.00092342540448413,1.9815248592463e-09,-2.5096222997908e-09,1.6497964900556e-09,-2.2688873971357e-09,-0.0011426296546977,0.0011426321496969,-0.0011426312664736,0.0011426305568851,-0.0011426310177608,0.0011426307489867,-0.0011426325538045,0.0011426292111136,-0.0010216415929436,0.0010216442294082,-0.0010216460850601,0.0010216397041016,6.7215297732149e-10,-1.1123729439503e-09,-3.1002495702069e-10,-6.6752110829152e-11,-0.0010004783923178,0.0010004780314101,-0.0012133979405572,0.0012133982284989,-0.0012133979534618,0.0012133982771958,-0.0012133986258494,0.0012133975411406,-0.0012133984953645,0.0012133976382428,-0.001094038221557,0.0010940369164379,-0.0010940378627722,0.0010940372243378,-0.00099073787471076,0.00099073909868819,-0.00099073923846655,0.00099073734097304,2.4806661940565e-09,-2.6638145237654e-09,-0.0013482824795391,0.0013482822983639,7.8402434897667e-10,-9.9188451337368e-10,-0.0015846516406591,0.0015846540381151,-0.0015846522933684,0.0015846533530345,-0.0015846535714304,0.0015846520565791,-0.0015846540734162,0.0015846514646408,-0.0012583456979985,0.0012583399591296,-0.0012583408025823,0.0012583450272498,0.74978590052213,131329,3014,0.0038433009536935,0.0041619721349297,0.0055994379746342,23.911416032708,-4.6308671738333e-05,-4.6308671738333e-05,-4.6308671738333e-05,4127171.3560979,0.013699408792802
29019200,0.99511668113932,0.014422700570866,0.0042576550587288,0.004516902007576,0.0056481435045611,-0.00092286645555078,0.00092286598443399,2.142466081426e-09,-2.624804411027e-09,1.3551080107922e-09,-1.9265972986279e-09,-0.0011422125797836,0.0011422150825063,-0.0011422143790233,0.0011422132991027,-0.0011422138345496,0.0011422137948698,-0.0011422153629294,0.0011422122655192,-0.0010210701519878,0.0010210730035472,-0.0010210746312444,0.0010210685465476,4.8664139421177e-10,-8.9703830323713e-10,-2.2140557564914e-10,-1.2569909475967e-10,-0.00099990948170537,0.00099990914052405,-0.0012129624472677,0.0012129627668651,-0.0012129626068773,0.0012129626722699,-0.0012129631154785,0.0012129621177893,-0.0012129629277663,0.0012129622658798,-0.0010934661158215,0.00109346483836,-0.0010934656347404,0.0010934653157096,-0.00099022319826198,0.00099022376291702,-0.00099022390760359,0.00099022266911798,2.6199455769316e-09,-2.8108417810072e-09,-0.0013478035742404,0.0013478033886808,8.4737344594053e-10,-1.0637307564909e-09,-0.0015842542956166,0.0015842569079943,-0.0015842550720884,0.0015842560871997,-0.0015842564055238,0.0015842547455306,-0.0015842568639138,0.0015842542191208,-0.001257927209185,0.0012579214694568,-0.0012579223623314,0.0012579264506303,0.7113044694883,131329,3014,0.0038409825867559,0.0041596147629917,0.0055974497316407,23.567271929265,-4.9061824565882e-05,-4.9061824565882e-05,-4.9061824565882e-05,4116015.8954789,0.013692656220694
29219200,0.99527909202238,0.01442496224322,0.0042583199927135,0.0045175988869208,0.0056490433635853,-0.00092365946476566,0.00092365897362336,2.1334479240716e-09,-2.64307790899e-09,1.343560260921e-09,-1.9415247623983e-09,-0.0011431209801609,0.0011431234732095,-0.0011431227653495,0.0011431216906848,-0.001143122244118,0.00114312217954,-0.0011431237672272,0.0011431206372084,-0.0010219190938715,0.0010219219313848,-0.0010219235544625,0.0010219174375858,4.5934613486643e-10,-8.8198630964976e-10,-2.4915911165015e-10,-1.1054538739184e-10,-0.0010007233599259,0.0010007230136327,-0.0012138836990111,0.0012138839997764,-0.0012138838287668,0.0012138839151731,-0.0012138843491562,0.0012138833404897,-0.0012138841419596,0.001213883492419,-0.0010943290063316,0.0010943276729597,-0.0010943284660581,0.0010943281600415,-0.00099108522689614,0.00099108576116057,-0.00099108591257555,0.00099108467956279,2.6266854993257e-09,-2.8238474229878e-09,-0.0013487527002343,0.0013487525047996,8.5703202067182e-10,-1.0800685234715e-09,-0.0015852721628462,0.0015852747567199,-0.0015852729408725,0.0015852739462171,-0.0015852742532182,0.0015852725961322,-0.0015852747224072,0.0015852720536628,-0.0012588952897384,0.0012588895576197,-0.0012588904519214,0.0012588945495011,0.69517198850328,131329,3014,0.0038442783521519,0.0041629941617857,0.0056013777077199,23.974949310617,-4.5800405515067e-05,-4.5800405515067e-05,-4.5800405515067e-05,4121979.0728442,0.013703405970283
29419200,0.99544066117675,0.014427045202763,0.0042589276394968,0.0045182371434132,0.005649880419853,-0.00092458910617293,0.00092458859756881,2.0280246891496e-09,-2.5556198888314e-09,1.6138811031283e-09,-2.2308572443719e-09,-0.0011441506572118,0.0011441531838188,-0.0011441522893225,0.0011441515255011,-0.001144152041658,0.00114415177749,-0.0011441535589363,0.001144150213668,-0.0010229030881416,0.0010229057414598,-0.0010229075663845,0.0010229012259673,6.9585878998668e-10,-1.1273187092185e-09,-3.3053763999271e-10,-3.4962866089736e-11,-0.0010016774136557,0.0010016770602564,-0.0012149316822248,0.0012149320148028,-0.0012149316703185,0.0012149320415868,-0.0012149324134236,0.0012149312522595,-0.0012149322098074,0.001214931369762,-0.0010953256394877,0.0010953242050009,-0.00109532516117,0.001095324626489,-0.00099206632678148,0.00099206761080295,-0.00099206770873401,0.00099206582425114,2.5284919681295e-09,-2.738306185861e-09,-0.0013498625902539,0.0013498623827205,8.0792821540643e-10,-1.0435272051072e-09,-0.001586445469285,0.0015864478839256,-0.001586446151074,0.0015864471858079,-0.001586447414171,0.0015864458506764,-0.0015864479297462,0.0015864452675547,-0.0012599990145126,0.0012599932755852,-0.0012599941633319,0.001259998301544,0.65090117729493,131329,3014,0.003848140587527,0.004166954397075,0.0056059725721035,24.457923908021,-4.1936608735834e-05,-4.1936608735834e-05,-4.1936608735834e-05,4131004.7120651,0.013715994097697
29619200,0.99560175860036,0.014429088679504,0.0042595227807509,0.0045188625547637,0.0056507033439891,-0.00092565047729709,0.00092564997903099,1.9026357292551e-09,-2.4124733373308e-09,1.945385010588e-09,-2.5513252285891e-09,-0.001145239957771,0.0011452425176177,-0.0011452414285845,0.0011452410634475,-0.0011452414505069,0.0011452409893274,-0.001145242996671,0.0011452394418718,-0.0010240277819299,0.0010240302467709,-0.0010240323051909,0.0010240257198863,9.6591554103249e-10,-1.4176860487379e-09,-4.2859831207625e-10,4.5722033242226e-11,-0.0010027652384699,0.0010027648657307,-0.0012160479436792,0.00121604827906,-0.0012160478041195,0.0012160484870945,-0.0012160487830157,0.0012160474606207,-0.0012160486372299,0.0012160475637918,-0.0010964529364866,0.0010964513942035,-0.0010964525670012,0.0010964517281141,-0.00099314018373654,0.0009931423305868,-0.00099314240690949,0.00099313974330033,2.4149643297327e-09,-2.593889773095e-09,-0.0013510942259157,0.001351094049082,7.6851083769791e-10,-9.7208471289105e-10,-0.0015877027529303,0.0015877049800531,-0.0015877032881734,0.0015877043937537,-0.0015877045334426,0.0015877031401381,-0.0015877051095799,0.0015877025032634,-0.001261175084761,0.0012611693725416,-0.0012611701697174,0.001261174392149,0.64191651456768,131329,3014,0.0038525471776846,0.0041714671948709,0.0056110745307612,24.998781011317,-3.7609751909461e-05,-3.7609751909461e-05,-3.7609751909461e-05,4144994.4503891,0.013730205261027
29819200,0.9957630786092,0.014431271198301,0.0042601623805358,0.0045195335810308,0.0056515752367343,-0.00092689419214169,0.0009268936866043,1.8614533489956e-09,-2.3794460061461e-09,2.0017039164958e-09,-2.6157603524638e-09,-0.0011465019160822,0.0011465044239316,-0.0011465033002155,0.0011465030552172,-0.0011465033863649,0.0011465029178728,-0.0011465049706199,0.001146501330673,-0.0010253530997982,0.0010253556348259,-0.0010253577409429,0.0010253509898234,9.7034703488714e-10,-1.4236714821425e-09,-4.527681523908e-10,6.8459156161706e-11,-0.0010040410785108,0.001004040704463,-0.0012173432105237,0.001217343469516,-0.0012173429927828,0.0012173437536422,-0.0012173439871059,0.0012173427085616,-0.001217343889434,0.0012173427633546,-0.0010977853905559,0.0010977839909353,-0.0010977851672935,0.0010977841810315,-0.00099440007903588,0.0009944024301696,-0.00099440248693092,0.00099439964984426,2.3803722098512e-09,-2.5615378181897e-09,-0.0013525249435565,0.0013525247641713,7.7739705658296e-10,-9.8311115683488e-10,-0.0015891598342153,0.0015891619854054,-0.0015891603159442,0.0015891614542707,-0.0015891615313407,0.0015891602273138,-0.0015891621756133,0.0015891595191115,-0.0012625415364541,0.0012625356915576,-0.0012625365022826,0.0012625408392174,0.67837953615123,131329,3014,0.0038577105163726,0.004176760001569,0.0056170014164924,25.63578384244,-3.2513729260484e-05,-3.2513729260484e-05,-3.2513729260484e-05,4161134.4389116,0.01374681083293
30019200,0.99592104504521,0.0144334444984,0.0042607997457967,0.0045202022576311,0.0056524424949723,-0.00092748152819075,0.0009274810079314,1.8327633070449e-09,-2.3709162080491e-09,1.9877114059574e-09,-2.6198886746405e-09,-0.0011471527911863,0.0011471552904572,-0.0011471541718498,0.0011471539105354,-0.0011471542791996,0.0011471537705908,-0.0011471558265717,0.0011471522034071,-0.0010259942394356,0.0010259966835093,-0.0010259987933384,0.0010259921244227,9.8416345007284e-10,-1.4339371809277e-09,-4.6964677192875e-10,8.8223015839095e-11,-0.0010046473192781,0.0010046469469603,-0.0012180112427425,0.0012180115178456,-0.0012180110193919,0.0012180117869762,-0.0012180120339875,0.0012180107171541,-0.0012180119021674,0.0012180107922696,-0.0010984349595359,0.0010984334777847,-0.0010984346588926,0.0010984337534111,-0.00099501372394997,0.00099501607128317,-0.00099501609492021,0.0009950132989196,2.3560711335853e-09,-2.5558830978199e-09,-0.0013532571736043,0.0013532569789387,7.5695515709837e-10,-9.8216887409156e-10,-0.0015899472328328,0.0015899493737125,-0.0015899477316676,0.0015899488403069,-0.0015899489311411,0.0015899476034765,-0.0015899495484539,0.0015899469135953,-0.0012632499802874,0.0012632442074772,-0.0012632450475525,0.0012632493008521,0.68873330194184,131329,3014,0.0038601503620566,0.0041792762021162,0.0056200333955727,25.914897436478,-3.0280820508172e-05,-3.0280820508172e-05,-3.0280820508172e-05,4166503.9194548,0.013754908863731
30219200,0.9960738117891,0.014435444385623,0.0042613832203289,0.0045208152994699,0.0056532458658243,-0.00092769589611514,0.00092769537542749,1.8132951470485e-09,-2.351234510782e-09,2.0163731704779e-09,-2.6497593765523e-09,-0.001147433203681,0.0011474357488091,-0.0011474346225438,0.0011474343505523,-0.0011474347472215,0.001147434165691,-0.0011474362505636,0.0011474326626212,-0.0010262429717324,0.0010262452375299,-0.0010262473747905,0.0010262408400763,1.0634828238522e-09,-1.5237263034574e-09,-4.9171450803973e-10,1.0069410991438e-10,-0.0010048717818493,0.001004871399634,-0.0012183002136495,0.0012183005626214,-0.0012183000320631,0.0012183008120467,-0.0012183011078328,0.001218299673135,-0.0012183009355257,0.0012182998106313,-0.0010986888800104,0.0010986871732017,-0.0010986884217895,0.0010986876153798,-0.00099524765127497,0.00099525003975634,-0.0009952500609077,0.00099524722978124,2.3470446160451e-09,-2.5344214078127e-09,-0.0013535814914973,0.0013535813102839,7.3703714540348e-10,-9.492872160154e-10,-0.0015903275749504,0.0015903297450529,-0.0015903280924026,0.0015903291799394,-0.0015903293098109,0.0015903279493886,-0.001590329866562,0.0015903273152654,-0.0012635616139027,0.0012635560156276,-0.0012635568271346,0.0012635609507814,0.66008545366287,131329,3014,0.0038610418825057,0.0041802085061793,0.0056213756278891,25.990962666436,-2.9672298668514e-05,-2.9672298668514e-05,-2.9672298668514e-05,4166905.3801702,0.013758119122057
30419200,0.99621913367345,0.014437230341667,0.0042619009774821,0.0045213602220756,0.005653969142109,-0.00092742877097516,0.00092742828620072,1.8246025674381e-09,-2.3134653806324e-09,2.0638180384521e-09,-2.6524335902981e-09,-0.001147155696565,0.0011471582811025,-0.0011471571344252,0.0011471568965232,-0.0011471572540758,0.0011471566774368,-0.0011471587593004,0.0011471552098972,-0.0010259859282409,0.0010259881541658,-0.0010259903018342,0.0010259838203648,1.1835790382151e-09,-1.6492000537579e-09,-4.8948965190094e-10,9.6238842601198e-11,-0.0010046022078236,0.0010046018201995,-0.0012180249676685,0.0012180253939703,-0.0012180248205898,0.0012180256563547,-0.0012180259721475,0.0012180244519768,-0.0012180258063541,0.0012180246132555,-0.0010984172924759,0.001098415475118,-0.0010984168181364,0.0010984159486616,-0.00099494732882866,0.00099494992962702,-0.00099494998321917,0.00099494692989249,2.3575482114028e-09,-2.5075287062487e-09,-0.0013533578345487,0.0013533576872619,7.3689695515679e-10,-9.0996454194316e-10,-0.0015901140163175,0.001590116204226,-0.0015901145130102,0.0015901156255651,-0.0015901157689771,0.0015901144158703,-0.0015901163120893,0.0015901138161441,-0.0012632913102625,0.0012632857921342,-0.0012632865215484,0.0012632906324528,0.62526767629719,131329,3014,0.0038599316563217,0.0041790884893301,0.0056204508420773,25.786577690281,-3.1307378477753e-05,-3.1307378477753e-05,-3.1307378477753e-05,4165059.0263349,0.013754918167476
30619200,0.99635639677585,0.014439038996417,0.0042624294429546,0.0045219151637503,0.0056546943897124,-0.00092696676581955,0.00092696625154429,1.8105347116721e-09,-2.3417834042127e-09,1.9024957407669e-09,-2.5269489162981e-09,-0.0011465975982343,0.0011465999668434,-0.0011465989076239,0.0011465986672064,-0.0011465989653407,0.0011465985654083,-0.0011466005599274,0.0011465969604408,-0.0010255285898536,0.0010255312230409,-0.0010255332704465,0.001025526534742,1.1421250326237e-09,-1.6051723085749e-09,-4.5037110914456e-10,5.7670249708805e-11,-0.0010041294175915,0.0010041290344252,-0.0012174693157021,0.0012174696473674,-0.0012174690563494,0.0012174699639475,-0.0012174701603853,0.0012174688006977,-0.0012174701093464,0.0012174688048329,-0.0010979305317472,0.0010979291507268,-0.0010979304528903,0.0010979292003815,-0.00099440353922768,0.00099440635168534,-0.00099440640535919,0.00099440308510923,2.3488719573976e-09,-2.5370767591642e-09,-0.001352892809386,0.0013528926242175,7.2639083764088e-10,-9.3976335834507e-10,-0.0015896105032812,0.0015896125630847,-0.0015896109158743,0.0015896121070428,-0.0015896121368689,0.0015896108610235,-0.0015896127893181,0.0015896101369243,-0.0012627441282013,0.0012627382414844,-0.001262739041068,0.0012627434733008,0.6631850209662,131329,3014,0.0038580093464544,0.0041771227576566,0.0056185290041819,25.453349796469,-3.3973201628246e-05,-3.3973201628246e-05,-3.3973201628246e-05,4164370.4366254,0.013749022655714
30819200,0.99649366897845,0.014440940492672,0.0042629877267422,0.0045225006592968,0.0056554521066333,-0.00092818631323649,0.00092818580590665,1.8068585552997e-09,-2.3276944545616e-09,1.9768237488914e-09,-2.5930161021674e-09,-0.0011478712247819,0.0011478736506494,-0.0011478725448745,0.0011478723446469,-0.001147872648969,0.0011478721905422,-0.0011478742272356,0.0011478706080199,-0.0010268419614938,0.0010268444928755,-0.0010268465865056,0.0010268398636801,1.1221404175918e-09,-1.5852427773974e-09,-4.681573065945e-10,7.6595752080212e-11,-0.001005381085176,0.0010053807029399,-0.0012187722349613,0.0012187725537238,-0.0012187719807826,0.0012187728727804,-0.0012187730838505,0.001218771715673,-0.001218773007959,0.0012187717481962,-0.0010992628853951,0.0010992614393663,-0.0010992627276361,0.0010992615647833,-0.00099567233013005,0.0009956750721967,-0.00099567512803069,0.00099567189705545,2.3483614521108e-09,-2.5288989032862e-09,-0.001354271569002,0.001354271390706,7.3714720524711e-10,-9.421428985341e-10,-0.0015910461061121,0.0015910481841516,-0.0015910465326836,0.0015910477070908,-0.0015910477524554,0.0015910464737463,-0.001591048398673,0.0015910457625281,-0.0012640902270775,0.0012640843895461,-0.0012640851753226,0.0012640895582084,0.69236591191634,131329,3014,0.0038630740941069,0.0041823173269275,0.0056242390121113,26.088098342416,-2.8895213260672e-05,-2.8895213260672e-05,-2.8895213260672e-05,4176532.4504784,0.01376521260337
31019200,0.99663534788037,0.014442966802215,0.0042635840106999,0.0045231257540153,0.0056562570374994,-0.00093039382292164,0.00093039332068092,1.8055307986558e-09,-2.3194658021178e-09,1.9430401041056e-09,-2.5530731201922e-09,-0.00115024762513,0.0011502500412882,-0.0011502489590733,0.0011502487214546,-0.0011502490389725,0.0011502485912107,-0.0011502505985924,0.0011502470278365,-0.0010291904380434,0.0010291929352628,-0.001029194998542,0.0010291883578819,9.0527251956857e-10,-1.3565359428133e-09,-4.8414550181868e-10,1.0193470771011e-10,-0.0010076487177396,0.0010076483464258,-0.0012211943613994,0.0012211945439046,-0.0012211941099491,0.001221194861649,-0.0012211950776299,0.0012211938411529,-0.001221194970845,0.0012211939033261,-0.0011016627342405,0.0011016613482837,-0.0011016624805998,0.0011016615541224,-0.00099801228752274,0.0009980145595979,-0.00099801459827999,0.00099801187708758,2.3483345724614e-09,-2.5280433234236e-09,-0.0013567941500571,0.001356793970499,7.6738757560103e-10,-9.7203002609111e-10,-0.0015936936344209,0.0015936957451007,-0.0015936940956612,0.0015936952307826,-0.0015936952959996,0.0015936940169334,-0.0015936959475683,0.0015936933044453,-0.001266617700515,0.0012666118965987,-0.0012666126959816,0.0012666170096299,0.71216093633853,131329,3014,0.0038722446003903,0.0041917308673835,0.0056346828902289,27.298763034417,-1.9209895724664e-05,-1.9209895724664e-05,-1.9209895724664e-05,4196326.9759989,0.013794646067915
31219200,0.9967818413645,0.014445172915728,0.0042642353748735,0.0045238081184414,0.0056571294224128,-0.00093275235732136,0.00093275186911171,1.8106983525553e-09,-2.3095823644324e-09,1.6398278456496e-09,-2.2324072104039e-09,-0.0011528321308901,0.0011528344010517,-0.0011528335200672,0.0011528330346734,-0.001152833385782,0.0011528331067265,-0.0011528348968042,0.0011528316014365,-0.001031702983918,0.0010317055457557,-0.0010317073879795,0.001031701127842,4.2659033421199e-10,-8.5232451515568e-10,-4.7719176043086e-10,1.1580797663995e-10,-0.0010100750414163,0.0010100746907024,-0.0012238256864744,0.0012238256080758,-0.0012238254897872,0.0012238258805216,-0.0012238261294338,0.001223825186529,-0.001223825974486,0.0012238253069532,-0.0011042381697468,0.0011042369731406,-0.0011042377499282,0.0011042373463738,-0.0010005432668027,0.0010005444475624,-0.0010005444595644,0.0010005428909207,2.3521184912182e-09,-2.528431882671e-09,-0.001359514272609,0.0013595140962293,8.1465647192163e-10,-1.0159743645629e-09,-0.0015965716895591,0.0015965738890966,-0.0015965722306486,0.0015965732876788,-0.001596573406877,0.0015965721090597,-0.0015965740361834,0.0015965714179486,-0.0012693690533711,0.0012693633656114,-0.0012693641983945,0.0012693683264827,0.74546455445561,131329,3014,0.003882044087579,0.0042018044609568,0.0056459428392364,28.605003547128,-8.7599716229736e-06,-8.7599716229736e-06,-8.7599716229736e-06,4215624.7527894,0.013826216734985
31419200,0.99692695727743,0.014447245165644,0.0042648435063204,0.0045244463637517,0.0056579552955714,-0.00093385986480914,0.00093385927945619,1.6938577177506e-09,-2.2803839272187e-09,4.1218816961965e-09,-4.8266044957811e-09,-0.0011541823094244,0.0011541857817806,-0.0011541832915218,0.0011541848113203,-0.001154184909976,0.0011541831343306,-0.0011541867233601,0.0011541813191277,-0.0010328967451479,0.0010328983957509,-0.0010329020557875,0.0010328931153501,2.8726630674224e-09,-3.4336482032885e-09,-6.9403560181193e-10,2.2400956037522e-10,-0.0010112216980341,0.0010112212297965,-0.0012251941242504,0.0012251951500324,-0.001225193459279,0.0012251958863917,-0.0012251959003988,0.0012251933955889,-0.0012251959802998,0.0012251932658175,-0.0011054797240848,0.0011054774559702,-0.0011054800408972,0.0011054771281176,-0.0010017972286978,0.0010018043983516,-0.0010018044016863,0.0010017968416968,2.2848078251011e-09,-2.4584094219267e-09,-0.00136088683279,0.0013608866613418,6.6019104196978e-10,-8.5750673905186e-10,-0.0015981052922525,0.0015981069913594,-0.0015981053683637,0.0015981068472265,-0.0015981066087551,0.0015981056040791,-0.0015981074889051,0.0015981046729341,-0.001270808742562,0.001270802265338,-0.0012708029857802,0.001270808111552,0.71243069075718,131329,3014,0.0038866500486582,0.0042065686296978,0.0056516202523326,29.223058089871,-3.8155352810357e-06,-3.8155352810357e-06,-3.8155352810357e-06,4218915.2474158,0.013841480780028
31619200,0.99706389498467,0.014449100000048,0.0042653850505647,0.0045250154716011,0.0056586994778822,-0.00093352032242685,0.00093351974872635,1.6919314228623e-09,-2.2599766711758e-09,4.2857804280557e-09,-4.9768866354707e-09,-0.0011539515205841,0.0011539550275518,-0.001153952473658,0.0011539541234433,-0.0011539541468117,0.0011539523417468,-0.0011539560155343,0.0011539505112857,-0.001032571167009,0.001032572813039,-0.0010325766019541,0.0010325674209629,3.1724828555129e-09,-3.7529232900527e-09,-7.1013306364571e-10,2.2305621759162e-10,-0.0010108827270025,0.0010108822411648,-0.0012249569970336,0.0012249581173064,-0.0012249563083551,0.00122495892283,-0.0012249589102432,0.0012249562668898,-0.001224959051092,0.0012249561164705,-0.0011051564825142,0.001105154105627,-0.0011051569107566,0.0011051536671818,-0.0010014968518344,0.0010015046970201,-0.0010015047233738,0.001001496471884,2.2969492688354e-09,-2.4323942604956e-09,-0.0013606412609656,0.0013606411259736,6.4222532969231e-10,-7.9947873694396e-10,-0.0015979355348037,0.0015979372114995,-0.0015979355463099,0.0015979371106003,-0.0015979368334178,0.0015979358785602,-0.001597937723802,0.0015979349292423,-0.0012705899815021,0.0012705833950642,-0.0012705840772303,0.0012705893946824,0.68058196619792,131329,3014,0.0038852438172656,0.0042051645785392,0.0056505999245444,29.011312833171,-5.509497334634e-06,-5.509497334634e-06,-5.509497334634e-06,4210686.5703007,0.013837599701909
31819200,0.99719193975402,0.014450768864801,0.0042658707525642,0.0045255262215391,0.0056593718906978,-0.00093290264360385,0.00093290193496423,1.5800180407099e-09,-2.3320700511549e-09,4.4879305501553e-09,-5.3460986539441e-09,-0.0011533485362092,0.0011533519751165,-0.0011533492919201,0.0011533511926009,-0.0011533512277556,0.001153349241656,-0.0011533531716283,0.0011533472431755,-0.0010319531522838,0.0010319548909134,-0.0010319589107785,0.0010319490992452,3.6121987116139e-09,-4.2244771427904e-09,-7.4742708421903e-10,2.2508976361742e-10,-0.0010102555016966,0.0010102549924645,-0.0012243458569316,0.0012243471276577,-0.001224344962428,0.0012243480195604,-0.0012243478594679,0.0012243450064786,-0.0012243481012366,0.0012243446869176,-0.001104524109284,0.0011045217879563,-0.0011045249041864,0.0011045209734177,-0.0010008617684635,0.0010008708992855,-0.0010008708620214,0.0010008612750914,2.2330651015116e-09,-2.4608988737581e-09,-0.0013600617652386,0.0013600615477147,5.3595195003582e-10,-7.8872461073984e-10,-0.0015973758839519,0.0015973773212965,-0.0015973757805114,0.0015973774437486,-0.0015973769973814,0.0015973761051464,-0.0015973779563581,0.0015973750076834,-0.0012699986668154,0.0012699916788342,-0.0012699925178466,0.0012699982357031,0.6580610332241,131329,3014,0.0038826792314358,0.004202561689743,0.0056481994656634,28.629070232021,-8.5674381438325e-06,-8.5674381438325e-06,-8.5674381438325e-06,4202995.8564613,0.013829925953819
32019200,0.99731392548252,0.014452528262424,0.0042663882664876,0.0045260687116762,0.0056600712842599,-0.0009328668644864,0.00093286630667338,1.7073359577643e-09,-2.2810396823917e-09,3.0370447186333e-09,-3.7162786039749e-09,-0.0011532958502509,0.0011532986185917,-0.0011532968622909,0.0011532976180366,-0.0011532977095327,0.0011532967156483,-0.0011532994993591,0.0011532949215039,-0.001031946225774,0.0010319485908677,-0.0010319514823366,0.0010319433271524,2.2150894677856e-09,-2.7360066038377e-09,-5.9019718526807e-10,1.5064350730501e-10,-0.0010102223945793,0.0010102219643419,-0.0012242991921077,0.0012242998472143,-0.0012242986086786,0.0012243004926531,-0.0012243004831565,0.0012242985550797,-0.0012243006076552,0.0012242983857124,-0.0011045086098706,0.0011045069440807,-0.0011045090293574,0.0011045064871365,-0.0010008116029463,0.0010008172743345,-0.0010008173095857,0.001000811168376,2.2998827626309e-09,-2.481005081939e-09,-0.0013600820923394,0.0013600819150888,6.4621583519687e-10,-8.5152432016359e-10,-0.0015973999574769,0.0015974017110636,-0.0015974000894722,0.0015974015417814,-0.0015974013332786,0.0015974002784766,-0.0015974021649645,0.0015973993615013,-0.0012699826651473,0.001269976150429,-0.0012699769110364,0.0012699820886077,0.71766732538398,131329,3014,0.0038825299980889,0.0042024232111064,0.0056482849362437,28.559225119627,-9.1261990429858e-06,-9.1261990429858e-06,-9.1261990429858e-06,4203274.6872555,0.013829718674869
32219200,0.99743151830882,0.014454266256192,0.0042669004313227,0.0045266053430372,0.0056607604818317,-0.00093314951040234,0.0009331490030482,1.7672296456121e-09,-2.2958958130765e-09,1.6195763726418e-09,-2.237491046155e-09,-0.0011536908183362,0.0011536928976917,-0.0011536920304685,0.0011536916718421,-0.0011536919206896,0.0011536917675221,-0.0011536935309302,0.0011536901259082,-0.0010322713775504,0.00103227428273,-0.0010322761296384,0.0010322695049627,8.4887997286148e-10,-1.2853073079297e-09,-4.4359431832252e-10,7.4916558386182e-11,-0.001010518039224,0.0010105176823925,-0.001224698994663,0.0012246990559564,-0.0012246986578613,0.0012246994228122,-0.0012246995324813,0.0012246984927614,-0.0012246995280216,0.0012246984271831,-0.0011048521735415,0.0011048511865591,-0.0011048522408367,0.001104851074486,-0.0010011586551414,0.0010011610267763,-0.0010011610580481,0.0010011582191239,2.329369667238e-09,-2.5342016009983e-09,-0.0013604781490158,0.0013604779472196,7.2369396058744e-10,-9.5447101909495e-10,-0.0015978766291419,0.0015978786367841,-0.001597877021462,0.0015978782296431,-0.0015978782141626,0.0015978769788566,-0.0015978789166178,0.0015978761927201,-0.0012704102630744,0.0012704041589483,-0.0012704049918037,0.0012704096145746,0.73341166160252,131329,3014,0.0038837071471374,0.004203653121341,0.0056499220216044,28.694291948398,-8.0456644128139e-06,-8.0456644128139e-06,-8.0456644128139e-06,4201118.7676472,0.013833822507163
32419200,0.99754575449961,0.014456001152432,0.0042674128678346,0.0045271418939161,0.0056614463906811,-0.00093366907967349,0.00093366853108519,1.7096691077823e-09,-2.271075198094e-09,2.9408160087072e-09,-3.6076016634514e-09,-0.001154362590135,0.0011543654152652,-0.0011543636955268,0.00115436432435,-0.0011543645013907,0.0011543634599578,-0.0011543661946375,0.0011543617663944,-0.0010328437817957,0.0010328459409415,-0.001032848727962,0.0010328409946825,2.1473049419598e-09,-2.6662718020447e-09,-5.6319875664206e-10,1.2476763769661e-10,-0.0010110570461332,0.0010110566168582,-0.001225377441652,0.0012253781934948,-0.0012253769734658,0.0012253787293223,-0.0012253788174247,0.0012253768259771,-0.001225378861316,0.0012253767400118,-0.00110545088976,0.0011054490296936,-0.0011054510568182,0.0011054488297213,-0.0010017692079978,0.0010017744736905,-0.0010017745249505,0.0010017687687094,2.3086395232355e-09,-2.4829229022332e-09,-0.0013611433057143,0.0013611431339102,6.4115439911439e-10,-8.3928645602194e-10,-0.0015986426143893,0.0015986444553173,-0.0015986428246291,0.0015986442021723,-0.001598644084909,0.0015986429302823,-0.0015986448176714,0.0015986421180823,-0.0012711267570575,0.001271120550649,-0.0012711212847952,0.0012711261768763,0.75109668273455,131329,3014,0.0038858691698804,0.0042058936797189,0.005652672362099,28.972167863244,-5.8226570940502e-06,-5.8226570940502e-06,-5.8226570940502e-06,4200432.1984105,0.013841079627792
32619200,0.99765963192413,0.01445758648948,0.0042678773560438,0.0045276293067527,0.0056620798266832,-0.00093498847785753,0.00093498803742999,1.8434196337367e-09,-2.2956961251769e-09,8.3672876074601e-10,-1.3746887566433e-09,-0.0011559081615686,0.0011559098631882,-0.0011559095129922,0.0011559085404278,-0.0011559087932005,0.0011559091963832,-0.0011559103626312,0.0011559076402518,-0.0010342502091009,0.0010342535442507,-0.0010342547824766,0.0010342489615878,-5.0573221132328e-11,-3.3704686650473e-10,-3.4782689411336e-10,1.983623302968e-11,-0.0010124162690121,0.0010124159531634,-0.0012269422877664,0.0012269419112981,-0.0012269421202053,0.001226942162817,-0.0012269423274889,0.0012269419080288,-0.0012269423032958,0.0012269419038963,-0.001106901669254,0.0011069012159664,-0.0011069016158626,0.0011069012223733,-0.0010032412851903,0.0010032415758912,-0.0010032416403223,0.0010032408720353,2.3950701047229e-09,-2.5640503040233e-09,-0.0013627170805656,0.0013627169110717,8.1251697481121e-10,-1.0061274959662e-09,-0.0016003562468994,0.001600358444737,-0.0016003567531975,0.0016003578871269,-0.0016003579644316,0.001600356683885,-0.0016003586340431,0.0016003559467663,-0.0012727717108411,0.001272765764725,-0.0012727665892393,0.0012727709988213,0.69654116717906,131329,3014,0.003891354716546,0.0042115400114717,0.0056591833562795,29.722488981957,1.7991185565962e-07,1.7991185565962e-07,1.7991185565962e-07,4207191.168871,0.013858974634342
32819200,0.99776310899203,0.014458902298874,0.0042682592857346,0.0045280311133028,0.0056626118998366,-0.00093350610126783,0.00093350554445861,1.6831962384515e-09,-2.2581217509011e-09,2.7995962168749e-09,-3.474876856809e-09,-0.001154431890622,0.0011544346205552,-0.0011544329910639,0.0011544335462241,-0.0011544337240957,0.0011544327427598,-0.0011544354026151,0.0011544310693915,-0.0010327123537049,0.0010327145607394,-0.0010327172627462,0.0010327096627486,2.0931906644693e-09,-2.6062627147223e-09,-5.4418910960121e-10,1.0795763058867e-10,-0.0010109012034289,0.0010109007747264,-0.0012254361966657,0.0012254369361863,-0.0012254357491187,0.0012254374584472,-0.0012254375462472,0.0012254355870209,-0.0012254376069185,0.0012254354971795,-0.0011053309696706,0.0011053291849309,-0.0011053311742334,0.0011053289721954,-0.0010017086929026,0.0010017138748681,-0.0010017139016065,0.0010017082368256,2.2958879839628e-09,-2.4752851353265e-09,-0.0013612065271503,0.0013612063541179,6.1985665374589e-10,-8.2299357649352e-10,-0.0015988507198346,0.0015988525433293,-0.0015988509148657,0.0015988523016236,-0.0015988521809018,0.0015988510267952,-0.0015988528947675,0.0015988502252232,-0.0012712645581164,0.0012712584038736,-0.0012712591370015,0.0012712639927702,0.6444638651487,131329,3014,0.0038851998675486,0.0042052527727991,0.0056529268913964,28.865083842702,-6.6793292583876e-06,-6.6793292583876e-06,-6.6793292583876e-06,4190441.1358176,0.013840015393642
33019200,0.99786030986647,0.014460254540233,0.004268655945746,0.0045284470258934,0.0056631515685932,-0.00093304663395106,0.00093304614763898,1.7758253932532e-09,-2.2725038171859e-09,1.747814945659e-09,-2.3387029498479e-09,-0.0011538896392804,0.0011538918704538,-0.0011538909091498,0.0011538906196592,-0.001153890876575,0.0011538905962601,-0.0011538924559031,0.0011538890200562,-0.001032254651641,0.0010322573363582,-0.0010322592698342,0.0010322527136655,1.0760634331909e-09,-1.5336041764911e-09,-4.2078767046494e-10,3.5272885869707e-11,-0.0010104298475286,0.0010104294718512,-0.0012248909972575,0.0012248912896992,-0.0012248907491085,0.001224891612634,-0.0012248917907435,0.0012248905214722,-0.0012248917738179,0.0012248904978891,-0.0011048461200092,0.0011048448580543,-0.0011048461098145,0.0011048448269179,-0.0010011910085741,0.0010011937027572,-0.0010011937908736,0.0010011905613733,2.358979128101e-09,-2.5279683358908e-09,-0.0013607423981318,0.0013607422293716,7.0263763187324e-10,-8.9527854826666e-10,-0.0015983430985212,0.0015983451467718,-0.0015983434783796,0.0015983447124495,-0.0015983447375468,0.0015983434526809,-0.0015983453798848,0.0015983427471051,-0.0012707468138024,0.0012707408880451,-0.0012707416289468,0.0012707461712559,0.6952439254621,131329,3014,0.00388328916765,0.0042032938863635,0.0056510076917051,28.557935474102,-9.1365162071828e-06,-9.1365162071828e-06,-9.1365162071828e-06,4188800.8498986,0.013834141452058
33219200,0.99795418570804,0.014461634068618,0.0042690626047172,0.0045288728541962,0.0056636986097047,-0.00093339569823821,0.00093339507989832,1.5680667305201e-09,-2.2076472120401e-09,4.0784052608423e-09,-4.8299363515246e-09,-0.0011542911944536,0.0011542944760229,-0.0011542920345534,0.0011542936561703,-0.0011542936884386,0.0011542919313275,-0.0011542955128104,0.0011542901076654,-0.0010326438296937,0.0010326455157875,-0.0010326491706484,0.001032640159639,3.3525466959895e-09,-3.954830658741e-09,-6.89893951473e-10,1.7886393036095e-10,-0.0010107891424087,0.0010107886445046,-0.0012252989486593,0.0012253002080818,-0.0012252982251815,0.0012253010008604,-0.0012253009465341,0.0012252982012224,-0.0012253011357993,0.0012252979769467,-0.0011052428233387,0.0011052404699313,-0.0011052434042633,0.0011052398496437,-0.0010015713979309,0.0010015797188473,-0.0010015797757383,0.0010015709286818,2.2288513384157e-09,-2.3948739103636e-09,-0.0013611741289442,0.0013611739651652,5.0007104090826e-10,-6.8849594074514e-10,-0.0015988159562828,0.0015988174536097,-0.0015988158710126,0.0015988174977803,-0.0015988171688733,0.0015988161853693,-0.0015988179983624,0.0015988152615142,-0.0012711831159853,0.0012711766044223,-0.0012711772320403,0.0012711826629478,0.72923015139959,131329,3014,0.0038847396234034,0.0042047856620477,0.0056527945045843,28.726518131903,-7.7878549447788e-06,-7.7878549447788e-06,-7.7878549447788e-06,4190373.6452458,0.013838937113187
33419200,0.99804626541434,0.014463015583724,0.0042694704769757,0.0045292997962374,0.0056642453105109,-0.00093421552300903,0.00093421491877249,1.6031779352793e-09,-2.2358809133435e-09,3.3191208367838e-09,-4.0534920207483e-09,-0.0011552541011867,0.0011552570178436,-0.0011552550466437,0.0011552560534281,-0.0011552562023336,0.0011552548802773,-0.0011552579228507,0.0011552531201928,-0.0010335210217326,0.0010335229735597,-0.0010335260982384,0.0010335178552745,2.4968851216379e-09,-3.0403883680569e-09,-6.0749674255053e-10,1.4612477296603e-10,-0.001011632787609,0.0010116323411106,-0.0012262735734758,0.0012262744476662,-0.0012262729684605,0.0012262750724843,-0.0012262750728184,0.0012262728926703,-0.0012262751762123,0.0012262727140635,-0.0011061474030821,0.0011061454720456,-0.0011061477835001,0.0011061450362375,-0.0010024845386932,0.0010024907953593,-0.0010024908297075,0.0010024840665051,2.2457509315565e-09,-2.447905398641e-09,-0.0013621345520884,0.001362134353036,5.512024844954e-10,-7.7731274654093e-10,-0.0015998699855599,0.00159987162584,-0.0015998700677852,0.0015998715360488,-0.0015998713119766,0.0015998702147944,-0.0015998720834903,0.0015998693448132,-0.0012721861884032,0.0012721798399064,-0.0012721805662913,0.0012721856916752,0.74278858716737,131329,3014,0.003888147902043,0.004208290188904,0.0056567680862256,29.177230559828,-4.1821555213733e-06,-4.1821555213733e-06,-4.1821555213733e-06,4193771.486943,0.01384997912767
33619200,0.99813547624149,0.014464354053146,0.0042698655405321,0.004529713375235,0.0056647751373789,-0.00093467210781206,0.00093467153434064,1.5774651747864e-09,-2.17742106284e-09,2.9385627462487e-09,-3.6392860316628e-09,-0.0011558663879383,0.0011558690639969,-0.0011558673415546,0.0011558681070328,-0.0011558682461587,0.0011558671701302,-0.0011558699155725,0.0011558654763777,-0.0010340165645548,0.0010340186644964,-0.0010340214994528,0.0010340137227834,2.0394514032886e-09,-2.5462367735692e-09,-6.0068887498163e-10,1.6965411892657e-10,-0.0010121057193771,0.0010121053002764,-0.0012268886835634,0.0012268892794878,-0.0012268881096718,0.0012268898906119,-0.001226889898936,0.0012268880350956,-0.0012268899760965,0.0012268878994515,-0.0011066656633028,0.0011066640003895,-0.00110666596495,0.0011066636813123,-0.0010030314296156,0.0010030367092152,-0.0010030367064496,0.0010030310023147,2.2087827337331e-09,-2.4101285543447e-09,-0.0013627160563715,0.0013627158631822,5.4639292374771e-10,-7.721918894796e-10,-0.0016005490910578,0.0016005507446043,-0.0016005491973792,0.0016005506179328,-0.0016005504315628,0.0016005493326582,-0.0016005511719193,0.0016005485024894,-0.0012728252885669,0.0012728190895477,-0.0012728197814099,0.0012728247580035,0.74303227768561,131329,3014,0.0038900485492791,0.0042102567891201,0.0056591718212489,29.431686003633,-2.1465119709371e-06,-2.1465119709371e-06,-2.1465119709371e-06,4192752.3790398,0.013856342231498
33819200,0.99822227999804,0.014465660699856,0.0042702513395925,0.0045301171942357,0.0056652921660282,-0.00093527650381923,0.0009352759807182,1.4184500974114e-09,-1.9537079734448e-09,2.5603478473661e-09,-3.1980013925762e-09,-0.001156631237145,0.0011566335095241,-0.0011566320468317,0.001156632723316,-0.0011566327739958,0.0011566319275067,-0.0011566343679598,0.0011566303440596,-0.0010346691884574,0.0010346713235447,-0.00103467384651,0.0010346666662901,1.5588291770702e-09,-2.0428320287367e-09,-6.9312188211285e-10,2.8381936141866e-10,-0.0010127291055582,0.0010127287068726,-0.0012276581158062,0.0012276582886115,-0.0012276574615314,0.0012276590239285,-0.0012276589847442,0.0012276574431522,-0.0012276590357924,0.0012276573586604,-0.001107340305995,0.0011073388799979,-0.0011073404801818,0.0011073386641123,-0.0010037356871595,0.0010037401717369,-0.0010037401022917,0.0010037353798595,2.0444685564772e-09,-2.2021685132636e-09,-0.0013634706120806,0.0013634704559455,4.7424297284977e-10,-6.5354011032765e-10,-0.0016013991945496,0.0016014006603464,-0.0016013991907718,0.0016014006138643,-0.0016014003934826,0.0016013994116529,-0.0016014011092113,0.0016013986212283,-0.00127363997546,0.0012736341319649,-0.0012736347156418,0.0012736395088629,0.74517940797413,131329,3014,0.0038925632276704,0.0042128477519158,0.0056622919552111,29.775570781324,6.0456625059128e-07,6.0456625059128e-07,6.0456625059128e-07,4193669.3139453,0.013864687207653
34019200,0.99830705917727,0.014466895654485,0.0042706148697121,0.004530497995709,0.005665782789064,-0.00093602140694862,0.00093602094269753,7.443140775982e-10,-1.2137762882911e-09,1.7424039009627e-09,-2.3072042493763e-09,-0.0011575460975955,0.0011575471966286,-0.0011575462565265,0.0011575470700357,-0.0011575468803954,0.0011575463725508,-0.0011575481876518,0.0011575450875624,-0.0010354681073414,0.0010354700399455,-0.00103547193147,0.0010354662268677,6.4903878613798e-10,-1.073936310959e-09,-1.0530537660461e-09,6.9532075037103e-10,-0.0010134961321325,0.0010134957840008,-0.0012285791903277,0.0012285783426099,-0.0012285781033501,0.0012285795274386,-0.0012285792617516,0.0012285783251487,-0.0012285792394649,0.0012285783221541,-0.0011081632072298,0.0011081622497956,-0.0011081631653633,0.0011081622490413,-0.0010045889056293,0.0010045924037958,-0.0010045920392474,0.0010045889272925,1.3586212372303e-09,-1.4851493032376e-09,-0.0013643862375303,0.0013643861096948,1.1954568107915e-10,-2.6395005044832e-10,-0.0016024148871237,0.0016024154834334,-0.0016024144480867,0.0016024158583731,-0.0016024154446594,0.0016024148841771,-0.001602416101538,0.0016024141716464,-0.0012746163844537,0.0012746116450265,-0.0012746119213767,0.0012746161666418,0.72426719013938,131329,3014,0.0038956616551131,0.0042160349520688,0.0056660787447613,30.204466738231,4.0357339058473e-06,4.0357339058473e-06,4.0357339058473e-06,4196200.9663722,0.013874904643792
34219200,0.99838836971532,0.014468045544768,0.0042709524249907,0.004530851830781,0.0056662412889961,-0.00093624587855652,0.00093624541353649,3.6397987045892e-10,-8.4313281884172e-10,1.3913250917676e-09,-1.9585910543877e-09,-0.0011578775053784,0.0011578781047654,-0.0011578773724216,0.00115787827068,-0.0011578780246102,0.0011578775458092,-0.0011578791391785,0.0011578764534561,-0.0010357190140256,0.0010357206495043,-0.001035722296909,0.0010357174035114,2.9708784554091e-10,-7.0098757682541e-10,-1.1934048074393e-09,8.5206898787736e-10,-0.001013728514945,0.0010137281822871,-0.0012289091102774,0.0012289079119575,-0.0012289078793893,0.0012289092374258,-0.0012289089050607,0.0012289081610171,-0.0012289088444953,0.0012289082018215,-0.0011084195166126,0.0011084187112342,-0.0011084193642803,0.0011084188568466,-0.0010048712585362,0.0010048743171104,-0.0010048738232441,0.001004871383297,9.817507250716e-10,-1.1138415603167e-09,-0.00136471357922,0.0013647134518048,-3.7808477918129e-11,-1.1143507247032e-10,-0.0016028042580266,0.0016028045062744,-0.0016028036888217,0.0016028050166125,-0.0016028045465133,0.0016028041763944,-0.0016028051592062,0.0016028034995981,-0.0012749786187603,0.0012749744953361,-0.0012749746844512,0.0012749785045843,0.70594540689963,131329,3014,0.0038965970188992,0.00421700161641,0.0056674311226044,30.330445061079,5.0435604886348e-06,5.0435604886348e-06,5.0435604886348e-06,4195292.8886887,0.013878206639248
34419200,0.99846722699291,0.014469166009841,0.0042712815829733,0.0045311967569029,0.0056666876699644,-0.00093684772092172,0.00093684719654649,1.1585923939741e-09,-1.7034172120676e-09,2.129605669891e-09,-2.7680790721138e-09,-0.0011585586586871,0.0011585605278529,-0.0011585593092716,0.0011585598745915,-0.0011585599456537,0.0011585592018195,-0.0011585613618499,0.0011585577736776,-0.0010363670462948,0.0010363690222519,-0.0010363712259081,0.0010363648316579,1.0156334882627e-09,-1.4671949329262e-09,-7.6081369827957e-10,3.7706418229928e-10,-0.0010143464182844,0.001014346047578,-0.0012295991284169,0.0012295989489669,-0.0012295984216463,0.0012295997042692,-0.0012295996442254,0.0012295984226998,-0.0012295996317568,0.0012295983816999,-0.00110907541685,0.0011090742459178,-0.0011090754363646,0.0011090741783943,-0.0010055256354348,0.0010055290653518,-0.001005528906151,0.0010055253597452,1.7850037484196e-09,-1.9615569857806e-09,-0.0013654415145445,0.0013654413407319,3.9271884382654e-10,-5.915804982395e-10,-0.0016035799037519,0.001603581235882,-0.0016035799043686,0.0016035812035118,-0.0016035809945559,0.0016035800765467,-0.0016035816723213,0.001603579321861,-0.0012757196052109,0.0012757141946488,-0.0012757147614436,0.0012757191906688,0.70868169000181,131329,3014,0.0038990980395534,0.0042195669141144,0.0056704435762745,30.663001207909,7.7040096632704e-06,7.7040096632704e-06,7.7040096632704e-06,4200074.7917747,0.013886398882453
34619200,0.99854837677853,0.014470370705271,0.0042716368802136,0.0045315686747258,0.005667165150332,-0.00093936534763452,0.00093936481830727,1.2042395061921e-09,-1.7542384427197e-09,2.2955370888e-09,-2.9421347306271e-09,-0.0011612470314234,0.0011612490280028,-0.0011612477143392,0.001161248354569,-0.0011612484220291,0.0011612475922394,-0.0011612498705323,0.0011612461451619,-0.0010390312772183,0.0010390331894822,-0.0010390355205829,0.0010390289323098,9.881953661753e-10,-1.4499484837364e-09,-8.006863717804e-10,4.0689670712569e-10,-0.0010169281678115,0.0010169277898904,-0.0012323332864509,0.0012323330534453,-0.0012323325641632,0.0012323338391538,-0.001232333785865,0.0012323325565226,-0.0012323337535678,0.0012323325488896,-0.0011117876134018,0.0011117863523148,-0.0011117875365241,0.0011117863735992,-0.001008195680409,0.0010081990613418,-0.0010081989024558,0.0010081954337912,1.8448386016235e-09,-2.0110175570293e-09,-0.0013682999365422,0.0013682997719078,4.2388768608098e-10,-6.1211214557059e-10,-0.0016065404674302,0.0016065418238773,-0.0016065404682911,0.0016065417840635,-0.0016065415739761,0.0016065406586949,-0.0016065422597818,0.0016065398936044,-0.0012785964026558,0.0012785909326809,-0.0012785914972403,0.0012785959749211,0.73613946933983,131329,3014,0.0039095561436907,0.0042302832908651,0.0056822770527223,32.08823293061,1.9105863444881e-05,1.9105863444881e-05,1.9105863444881e-05,4224549.071723,0.013919870696345
34819200,0.99863173056647,0.014471618704847,0.0042720047138822,0.0045319538752509,0.0056676601157134,-0.00094196241903916,0.00094196188320053,1.845726053189e-09,-2.3970977346626e-09,2.5995070304328e-09,-3.251665675228e-09,-0.0011640930385103,0.0011640958670093,-0.001164094360155,0.0011640945534365,-0.0011640948403834,0.0011640940209959,-0.0011640965094837,0.001164092350943,-0.0010417787769878,0.0010417811233201,-0.0010417836716492,0.0010417762238778,1.1371622540859e-09,-1.599379322089e-09,-3.9673446064072e-10,4.1322479956565e-12,-0.0010195943607589,0.0010195939800509,-0.0012352230001404,0.00123522333618,-0.0012352227537497,0.0012352236444491,-0.0012352238072771,0.0012352225362856,-0.0012352238328141,0.0012352224662023,-0.0011145936194758,0.0011145924458782,-0.0011145937344527,0.0011145922853856,-0.0010109864549654,0.0010109892493519,-0.0010109893507511,0.0010109859336588,2.4781573497587e-09,-2.6705547335037e-09,-0.0013712917210278,0.0013712915306028,8.6722409613444e-10,-1.0856741304888e-09,-0.00160967615825,0.0016096784334807,-0.0016096766707568,0.0016096778798982,-0.0016096779029527,0.0016096766301295,-0.0016096786895053,0.0016096757684338,-0.0012816379670795,0.0012816315050107,-0.0012816324067625,0.0012816371990982,0.74236298333588,131329,3014,0.0039203467880872,0.0042413521688736,0.0056946599101352,33.576985978546,3.101588782837e-05,3.101588782837e-05,3.101588782837e-05,4247070.4071768,0.013954598264485
35019200,0.99871468606012,0.014472819168305,0.0042723569968995,0.0045323232841328,0.0056681388872732,-0.00094369723638405,0.00094369670254687,1.6132548452307e-09,-2.163000691843e-09,2.5355640517587e-09,-3.1850687024257e-09,-0.0011660617493446,0.0011660642838906,-0.001166062821108,0.0011660632218109,-0.001166063418955,0.0011660625725145,-0.0011660650120406,0.0011660609768257,-0.0010436248844326,0.0010436270487912,-0.0010436295524496,0.0010436223813028,1.0687678739414e-09,-1.52505776701e-09,-5.8571555050292e-10,1.982975857531e-10,-0.0010213780761241,0.001021377699278,-0.001237217655961,0.0012372177237476,-0.0012372171889664,0.0012372182519107,-0.0012372183238744,0.0012372170613244,-0.0012372183052632,0.0012372170372644,-0.001116480916188,0.0011164796644555,-0.001116480901069,0.0011164796475424,-0.0010128865545237,0.0010128896199474,-0.0010128895846803,0.0010128861915749,2.2566353928672e-09,-2.4423044745689e-09,-0.0013733423281424,0.0013733421458705,7.0476764730274e-10,-9.1503136174353e-10,-0.001611862762937,0.0016118646565146,-0.0016118630586473,0.0016118643209603,-0.0016118642429048,0.0016118631181649,-0.0016118649939214,0.0016118622910459,-0.0012837448943835,0.0012837387917415,-0.0012837395733195,0.0012837442516371,0.72136735039591,131329,3014,0.0039275572557326,0.0042487589570389,0.0057031449339279,34.585410832842,3.9083286662739e-05,3.9083286662739e-05,3.9083286662739e-05,4259733.222244,0.013978030305178
35219200,0.99879584566762,0.014473957108413,0.0042726897624724,0.0045326725560893,0.0056685947898514,-0.00094500604377516,0.0009450055105992,1.285199990346e-09,-1.8322785132962e-09,2.4752752237469e-09,-3.1229169147378e-09,-0.0011675419207938,0.0011675440754296,-0.0011675426558251,0.0011675433512468,-0.0011675434305469,0.0011675425231619,-0.001167544922802,0.0011675410294339,-0.0010450274361228,0.0010450293493583,-0.0010450318139769,0.0010450249736449,1.0863686217382e-09,-1.5425570779217e-09,-8.4993333201167e-10,4.6367910543839e-10,-0.001022724364881,0.0010227239873696,-0.0012387185195402,0.0012387183025918,-0.0012387177604556,0.0012387191257489,-0.0012387190799135,0.0012387177463042,-0.0012387190035566,0.0012387177804608,-0.0011179085322287,0.001117907098916,-0.0011179083472524,0.0011179072518771,-0.0010143176920036,0.0010143213063789,-0.0010143210835237,0.0010143174948574,1.9390889746335e-09,-2.1129116989391e-09,-0.0013749088791642,0.0013749087090555,4.5048696740296e-10,-6.4655105936777e-10,-0.0016135293502409,0.0016135307564746,-0.0016135293574151,0.0016135307092641,-0.0016135305006689,0.0016135295463523,-0.0016135311957471,0.0016135287728152,-0.0012853426404237,0.0012853369965388,-0.001285337602628,0.0012853421845248,0.7021446414381,131329,3014,0.0039329969299162,0.0042543488134582,0.0057096271687599,35.346313065614,4.5170504524916e-05,4.5170504524916e-05,4.5170504524916e-05,4269789.6598533,0.013995791371717
35419200,0.99887427815071,0.014475019284223,0.0042729992037043,0.0045329976725952,0.0056690224079234,-0.0009460185697884,0.00094601804280918,4.6591438428244e-10,-1.0073435526401e-09,2.4545274784292e-09,-3.0953416932595e-09,-0.0011686700184126,0.0011686713134361,-0.0011686698995102,0.0011686714425778,-0.0011686712045793,0.0011686700866206,-0.0011686724634763,0.0011686688278463,-0.0010461202355301,0.001046121493715,-0.0010461239376562,0.0010461178082587,1.1937674625677e-09,-1.6543563237687e-09,-1.48193692404e-09,1.0922961172748e-09,-0.0010237663472106,0.0010237659664348,-0.0012398651366908,0.0012398642663343,-0.0012398636531335,0.0012398658175818,-0.0012398654645276,0.0012398639500733,-0.0012398652829786,0.0012398640899124,-0.0011190147427615,0.0011190129294435,-0.0011190142558657,0.0011190133949759,-0.0010154133225611,0.0010154184741511,-0.0010154178423478,0.0010154135320176,1.1366937067287e-09,-1.2800992900807e-09,-0.0013761340690429,0.0013761339297616,-1.7413048943308e-10,1.3999034515575e-11,-0.0016148248676184,0.0016148250449293,-0.0016148241489326,0.001614825724257,-0.001614825180271,0.0016148246763436,-0.001614825766716,0.0016148240165035,-0.0012865724254816,0.0012865679013088,-0.0012865680355363,0.001286572417562,0.68162531520534,131329,3014,0.0039372045179732,0.0042586743494537,0.0057146976553268,35.931116658249,4.9848933265995e-05,4.9848933265995e-05,4.9848933265995e-05,4278461.2575027,0.014009587556779
35619200,0.99895079301632,0.01447601228593,0.0042732871610448,0.0045333005918706,0.0056694245330144,-0.00094743446841113,0.00094743394344144,1.7530263112495e-09,-2.2942920416295e-09,2.3324512703324e-09,-2.9715066876869e-09,-0.0011701745235724,0.0011701771356718,-0.0011701758019664,0.0011701758657851,-0.0011701761607014,0.0011701754570943,-0.0011701777485491,0.0011701738669721,-0.0010476354585704,0.0010476377942702,-0.0010476401493961,0.0010476331047836,1.1680162494038e-09,-1.6327623920146e-09,-4.7767661647454e-10,8.3327930268122e-11,-0.0010252354624058,0.0010252350795042,-0.0012414093248128,0.0012414096382381,-0.0012414090404412,0.0012414099853949,-0.0012414101642153,0.0012414088072344,-0.0012414101226419,0.001241408802684,-0.0011205645244738,0.0011205631530403,-0.0011205644612038,0.0011205631737483,-0.0010169247587306,0.0010169276218214,-0.0010169276704459,0.0010169242906073,2.3996053302926e-09,-2.5885263876486e-09,-0.0013777943120332,0.001377794125772,7.9329358989596e-10,-1.0075697956403e-09,-0.0016165405122473,0.0016165427477941,-0.0016165410143824,0.0016165422058224,-0.0016165422458318,0.0016165409564655,-0.0016165429781794,0.0016165401488585,-0.0012882093146744,0.0012882030406282,-0.0012882038886264,0.0012882085958608,0.65730120449384,131329,3014,0.0039430857468483,0.0042647711352811,0.0057215707848281,36.739671151798,5.6317369214385e-05,5.6317369214385e-05,5.6317369214385e-05,4292295.0704379,0.014028704047541
35819200,0.99902587333827,0.014477054251717,0.0042735913022487,0.0045336200377907,0.0056698429116772,-0.00094918021209428,0.00094917968886048,1.661067626583e-09,-2.200188723333e-09,2.2887151662639e-09,-2.9256847736914e-09,-0.0011719788466789,0.0011719813267092,-0.001171980019438,0.0011719801584474,-0.0011719804217677,0.0011719797081684,-0.0011719819695945,0.0011719781596596,-0.0010495004607287,0.001049502677542,-0.0010495050018094,0.0010494981391931,1.1886523218814e-09,-1.6532411042753e-09,-5.4930800789518e-10,1.5514027321039e-10,-0.001027053225817,0.0010270528428809,-0.0012432710614459,0.0012432713106794,-0.0012432706977025,0.0012432717352632,-0.001243271886651,0.0012432704915184,-0.0012432718211375,0.001243270510544,-0.0011224781610095,0.0011224766836965,-0.0011224780066736,0.0011224767949101,-0.0010187672952561,0.0010187703154551,-0.0010187703148732,0.0010187668680012,2.3166529416076e-09,-2.5025039863975e-09,-0.0013798098782595,0.0013798096947628,7.2640234540697e-10,-9.3699802250065e-10,-0.0016185983501997,0.001618600379528,-0.0016185987407398,0.0016185999500591,-0.0016185999477892,0.0016185987227351,-0.0016186006451502,0.0016185979507602,-0.0012901699395768,0.0012901638973391,-0.0012901646924516,0.0012901692763198,0.69619443327172,131329,3014,0.003950335212993,0.0042723133496379,0.0057299167549255,37.725719311626,6.4205754493011e-05,6.4205754493011e-05,6.4205754493011e-05,4311004.5621749,0.014052166356982
36019200,0.99909656288233,0.014478099117999,0.0042738977544069,0.0045339416502179,0.0056702597133739,-0.00094964232361627,0.00094964180595147,1.4888883531593e-09,-2.0212919101843e-09,2.1656896399622e-09,-2.7946988183106e-09,-0.0011725232457414,0.0011725254209804,-0.0011725241953134,0.0011725244773387,-0.0011725246266641,0.0011725239975901,-0.0011725261698242,0.0011725224541022,-0.0010500183672881,0.0010500206590268,-0.0010500228974343,0.0010500161427983,1.2534698716188e-09,-1.7176209174427e-09,-6.4667148949754e-10,2.5350861650968e-10,-0.0010275425768421,0.0010275421925015,-0.0012438338696575,0.0012438339858478,-0.0012438333352162,0.0012438345835769,-0.0012438346292898,0.001243833233762,-0.0012438346089525,0.0012438332074991,-0.0011230163385925,0.0011230149577247,-0.001123016327724,0.001123014943279,-0.0010192900101881,0.0010192935521645,-0.0010192934765457,0.0010192896510277,2.1496642709968e-09,-2.3302069078373e-09,-0.0013804269998349,0.0013804268228072,5.9714314106929e-10,-8.0206000929374e-10,-0.0016192737738481,0.0016192755016591,-0.0016192739659964,0.0016192752690974,-0.0016192751489489,0.0016192740672738,-0.0016192758699388,0.001619273271545,-0.0012907830211388,0.0012907770814181,-0.0012907777905421,0.0012907824494059,0.73586530905833,131329,3014,0.0039522564644388,0.0042743451995729,0.0057324701473496,37.994855297539,6.6358842380315e-05,6.6358842380315e-05,6.6358842380315e-05,4313083.4431944,0.014058765950203
36219200,0.99916169319823,0.014479027909532,0.0042741691259439,0.0045342267603001,0.005670632023288,-0.00094937278895951,0.0009493722755768,1.7303719308547e-09,-2.2602166359038e-09,2.0784399418512e-09,-2.7029052970985e-09,-0.0011723700987161,0.0011723725588147,-0.0011723713856561,0.0011723712777526,-0.0011723715971785,0.0011723710201699,-0.001172373127566,0.0011723694876951,-0.0010497704201118,0.0010497727510733,-0.0010497749238551,0.0010497682682665,1.3892390665268e-09,-1.8605095438264e-09,-4.7493220906062e-10,7.5680843451918e-11,-0.0010272771433711,0.0010272767531683,-0.0012436753428342,0.0012436758396311,-0.0012436750998373,0.0012436761452955,-0.0012436763722343,0.0012436748202077,-0.0012436762936834,0.0012436748497597,-0.0011227782781569,0.0011227766451553,-0.00112277811112,0.0011227767937259,-0.0010190816734267,0.0010190848809407,-0.0010190849331437,0.0010190812084438,2.3893863342406e-09,-2.579711436057e-09,-0.0013802551918399,0.0013802550063913,7.1757125463191e-10,-9.3296809043584e-10,-0.0016191762781826,0.0016191784296407,-0.0016191767334068,0.0016191779341006,-0.0016191779982097,0.0016191766514846,-0.0016191786313017,0.001619175945482,-0.0012906546942235,0.0012906486773132,-0.001290649474877,0.001290654023864,0.71361275252444,131329,3014,0.0039511416924996,0.0042732470624953,0.0057317545233443,37.867125739579,6.5337005916634e-05,6.5337005916634e-05,6.5337005916634e-05,4304247.1077843,0.014055800092898
36419200,0.99921916252302,0.014479835547268,0.0042744048929532,0.0045344744652088,0.0056709561891063,-0.00094764093355572,0.00094764043121169,1.2270706538044e-09,-1.7427955592626e-09,1.7972786384007e-09,-2.4062269635356e-09,-0.0011706343711782,0.0011706359524994,-0.0011706349689302,0.0011706353625263,-0.0011706353301137,0.0011706349546503,-0.0011706368595756,0.0011706334218985,-0.0010479899114599,0.0010479924297241,-0.0010479944043841,0.0010479879527828,1.4198828592232e-09,-1.8883786308254e-09,-7.3275186651296e-10,3.3629096044135e-10,-0.0010255096645166,0.0010255092748669,-0.001241907228455,0.0012419072179778,-0.0012419064635522,0.001241908044781,-0.0012419079260552,0.0012419065240406,-0.0012419080166614,0.001241906386621,-0.0011209664837921,0.001120965309171,-0.0011209667969715,0.0011209649729544,-0.0010173084411596,0.0010173128854956,-0.0010173127463667,0.0010173081491292,1.894369913476e-09,-2.0646853036342e-09,-0.0013784854128651,0.0013784852475864,3.9494062492324e-10,-5.871210459433e-10,-0.0016174057804828,0.0016174070325549,-0.0016174056592747,0.0016174071130126,-0.0016174068082693,0.0016174059438155,-0.0016174075576735,0.0016174051187645,-0.0012888985580813,0.0012888927958208,-0.0012888933645067,0.0012888981402668,0.70434248187112,131329,3014,0.0039439519171788,0.0042659134285619,0.005724424807339,36.899977116857,5.7599816934855e-05,5.7599816934855e-05,5.7599816934855e-05,4283321.6345546,0.014033638978687
36619200,0.99927129348733,0.014480523614855,0.0042746046661167,0.0045346845815599,0.0056712343671786,-0.00094673794341568,0.00094673743687758,1.552133900963e-09,-2.074596267214e-09,1.8478759620696e-09,-2.4638878950337e-09,-0.0011697236361978,0.0011697257029199,-0.0011697246823033,0.001169724665789,-0.001169724857665,0.0011697244426492,-0.0011697263874385,0.0011697229095799,-0.0010470757610603,0.001047078262467,-0.0010470802671983,0.0010470737590263,1.6053100451966e-09,-2.0934845498645e-09,-5.3112633086556e-10,1.1838809454723e-10,-0.0010245882323982,0.0010245878298832,-0.0012409801361964,0.0012409806132371,-0.0012409797363546,0.00124098107703,-0.0012409811900396,0.0012409795655387,-0.0012409811989459,0.0012409795081774,-0.001120034371513,0.0011200328295041,-0.0011200344553037,0.0011200327070399,-0.0010163872111808,0.001016391222907,-0.0010163912536108,0.0010163867549822,2.223772318341e-09,-2.3996945255677e-09,-0.0013775819463074,0.0013775817733107,5.4799789709923e-10,-7.4696322593324e-10,-0.0016164994188792,0.0016165012317592,-0.0016164996342113,0.0016165009754646,-0.0016165009064123,0.0016164996844397,-0.0016165015426662,0.0016164989729498,-0.0012879977041246,0.0012879917879033,-0.0012879924525644,0.0012879971732542,0.66675555222916,131329,3014,0.0039402029841144,0.0042620900366757,0.0057206830014054,36.394792692178,5.3558341537428e-05,5.3558341537428e-05,5.3558341537428e-05,4272092.9900036,0.014022165158362
36819200,0.99932003453183,0.014481148173866,0.0042747855846942,0.0045348749387456,0.0056714876504263,-0.00094682223208561,0.00094682171309618,1.9370834307544e-09,-2.4752073017042e-09,1.8128112098913e-09,-2.4436878541605e-09,-0.0011697729149287,0.0011697754724809,-0.0011697744885993,0.0011697739075681,-0.0011697743851971,0.0011697739581851,-0.0011697758969773,0.0011697724426514,-0.0010471883275175,0.0010471907564437,-0.0010471927598389,0.001047186305842,1.5409709301631e-09,-2.0357591676221e-09,-3.0222356220456e-10,-1.1824420767248e-10,-0.0010246756928436,0.0010246752860753,-0.0012410357914795,0.0012410366479724,-0.0012410358179648,0.0012410366809272,-0.0012410370676984,0.0012410353603146,-0.00124103695656,0.0012410354248651,-0.0011201359139456,0.0011201339958909,-0.0011201355872428,0.0011201342568199,-0.0010164562345648,0.0010164591336109,-0.0010164593332122,0.0010164556292777,2.6173566213166e-09,-2.8000109347056e-09,-0.0013777070514343,0.0013777068692314,7.514770478332e-10,-9.5833250709973e-10,-0.0016166095695024,0.0016166120359683,-0.0016166101928116,0.0016166113725096,-0.0016166115817467,0.0016166099560008,-0.0016166120750088,0.0016166093764398,-0.0012880828205201,0.0012880768164007,-0.0012880776537831,0.0012880821702413,0.64958127761974,131329,3014,0.0039405515100259,0.0042624512724457,0.0057212025546834,36.42964404626,5.383715237008e-05,5.383715237008e-05,5.383715237008e-05,4274637.2606492,0.014023408993543
37019200,0.99936620761007,0.014481782772905,0.0042749707997627,0.0045350694204806,0.0056717425526619,-0.00094736941399054,0.000947368904902,1.8598192055352e-09,-2.3859493956485e-09,1.8563796998156e-09,-2.4758261039473e-09,-0.0011702799221863,0.0011702824549684,-0.0011702814293946,0.0011702809561397,-0.0011702814156312,0.0011702809229765,-0.0011702828760085,0.0011702794577851,-0.0010477825629543,0.0010477848391897,-0.0010477868499767,0.0010477805432577,1.4512695405757e-09,-1.9331140286897e-09,-3.4132057056366e-10,-6.731074689998e-11,-0.0010252368113194,0.0010252364147696,-0.001241560128977,0.0012415608971742,-0.0012415601171269,0.0012415609699244,-0.0012415613449678,0.0012415596847043,-0.001241561206463,0.00124155977456,-0.0011207236930467,0.001120721797398,-0.0011207233091233,0.0011207221257535,-0.0010169910183694,0.001016993822016,-0.0010169939744801,0.0010169904509879,2.5398895219421e-09,-2.7230687107083e-09,-0.0013783158952532,0.0013783157138204,6.9794445715828e-10,-9.0545850721708e-10,-0.0016172049366125,0.0016172073025229,-0.0016172055126484,0.0016172066856882,-0.0016172068889935,0.0016172052884877,-0.0016172073581671,0.0016172047443176,-0.0012886330687177,0.001288627241074,-0.0012886280105046,0.0012886324326845,0.6896211023996,131329,3014,0.0039428214482362,0.0042647773653489,0.0057237260892008,36.71685222986,5.6134817838883e-05,5.6134817838883e-05,5.6134817838883e-05,4283322.5152605,0.014030625333283
37219200,0.99941103753636,0.014482444148062,0.0042751650438677,0.0045352730755661,0.0056720060286282,-0.00094875323771889,0.00094875271360417,1.5019235826185e-09,-2.0442748473655e-09,2.1170557539293e-09,-2.7549991894894e-09,-0.0011717507624857,0.0011717528738112,-0.0011717516825705,0.0011717519635357,-0.001171752076904,0.0011717515193635,-0.0011717536661567,0.0011717499258257,-0.0010492552532365,0.0010492577155277,-0.0010492599191111,0.0010492530415792,1.4681089647256e-09,-1.9533130104868e-09,-5.314642722085e-10,1.2001689061256e-10,-0.0010266577715113,0.0010266573723815,-0.0012430589798673,0.0012430592771758,-0.0012430584878126,0.0012430598310422,-0.0012430598494339,0.0012430584086296,-0.0012430599466577,0.0012430582649486,-0.0011222220677522,0.0011222208574825,-0.0011222223834368,0.0011222204914322,-0.0010184544495265,0.001018458453498,-0.0010184584838809,0.0010184539960971,2.1996666066363e-09,-2.3727641188026e-09,-0.0013798510595085,0.0013798508886948,5.2975598978874e-10,-7.257366564786e-10,-0.0016188033927892,0.0016188050731285,-0.0016188034984302,0.001618804928105,-0.0016188047614453,0.0016188036429433,-0.0016188054735098,0.0016188028526445,-0.0012901635850976,0.001290157495458,-0.0012901581436991,0.0012901630771046,0.73362851225218,131329,3014,0.0039485691850439,0.0042706749492186,0.0057300816559372,37.497806128138,6.2382449025103e-05,6.2382449025103e-05,6.2382449025103e-05,4296046.1628463,0.014048881541642
37419200,0.99945367228846,0.014483026273412,0.0042753346099223,0.0045354512931074,0.0056722403703822,-0.00094950091661837,0.00094950038228412,1.0733922754851e-09,-1.6223898313396e-09,2.4233577511136e-09,-3.0718133436815e-09,-0.0011726523076754,0.0011726539100834,-0.0011726525235937,0.0011726537036499,-0.0011726534083488,0.0011726527681483,-0.0011726551354519,0.0011726510375628,-0.0010500575404424,0.0010500601860865,-0.0010500626205907,0.0010500551172088,1.5945823847053e-09,-2.07969482076e-09,-7.4113000413876e-10,3.3113418406522e-10,-0.0010274301598397,0.0010274297580035,-0.0012439713321301,0.0012439711467291,-0.0012439702794136,0.0012439722628481,-0.00124397186602,0.0012439706160256,-0.0012439722436449,0.0012439701916704,-0.0011230500530718,0.0011230495760929,-0.0011230511944361,0.0011230484015561,-0.0010192995142874,0.0010193051363785,-0.0010193050107356,0.0010192992003912,1.7831572805926e-09,-1.9488514686901e-09,-0.0013807464408658,0.0013807462796413,3.2419645605022e-10,-5.1099178563994e-10,-0.0016197963839353,0.0016197972381187,-0.0016197959311506,0.0016197976494184,-0.0016197970555082,0.0016197965044244,-0.0016197980440249,0.001619795439096,-0.0012911052172235,0.0012910988644992,-0.0012910993748489,0.0012911048554594,0.68665854276473,131329,3014,0.0039516782843871,0.0042738837474711,0.0057337851593906,37.943564911927,6.5948519295419e-05,6.5948519295419e-05,6.5948519295419e-05,4298318.4278707,0.014059049478512
37619200,0.99949316675898,0.014483545162821,0.0042754851976242,0.0045356097163472,0.0056724502488499,-0.00094944795723855,0.00094944743677245,1.5954377180611e-09,-2.1304847441241e-09,2.1555333160839e-09,-2.7877856105338e-09,-0.0011726213208554,0.0011726236638257,-0.0011726224503737,0.0011726225429914,-0.0011726227974567,0.0011726221479224,-0.0011726243137486,0.0011726206270895,-0.0010500235080885,0.0010500258087654,-0.0010500280430402,0.001050021277401,1.2498768493503e-09,-1.7141484047774e-09,-4.6271518363944e-10,6.9783896069511e-11,-0.0010273797827779,0.0010273793988554,-0.0012439412037874,0.0012439415351983,-0.0012439408891956,0.0012439419114929,-0.0012439420558383,0.0012439406884877,-0.0012439420566794,0.0012439406393766,-0.0011230092066609,0.0011230078887414,-0.0011230092535685,0.0011230078045823,-0.0010192581904011,0.0010192612933564,-0.0010192613302763,0.001019257707611,2.2952613982222e-09,-2.4723605260242e-09,-0.0013807403009765,0.0013807401274562,5.6361600274153e-10,-7.6403779087583e-10,-0.0016198088769881,0.0016198108208648,-0.0016198091670458,0.0016198104904416,-0.0016198104807464,0.0016198091558653,-0.0016198110696882,0.0016198084915565,-0.0012910881711747,0.0012910822499372,-0.0012910829338997,0.0012910876289539,0.66415581859892,131329,3014,0.0039514590303183,0.0042736747692903,0.0057337593371489,37.916697407193,6.5733579257545e-05,6.5733579257545e-05,6.5733579257545e-05,4297146.6969059,0.014058588783742
37819200,0.99952871652306,0.014483992705521,0.0042756145291213,0.004535745924612,0.0056726322517876,-0.00094843879793026,0.00094843828254508,1.407735034014e-09,-1.9354016102211e-09,2.2043180502437e-09,-2.8302001933268e-09,-0.001171535397901,0.0011715373936566,-0.001171536145644,0.0011715366540969,-0.0011715366549304,0.001171536097977,-0.0011715382908728,0.0011715344582894,-0.0010489870051012,0.0010489895504432,-0.0010489918096317,0.0010489847568756,1.327127288374e-09,-1.7919079145535e-09,-5.2634800415588e-10,1.3329675370971e-10,-0.0010263475299251,0.0010263471448059,-0.0012428407476414,0.0012428408369784,-0.0012428401403732,0.0012428415067256,-0.001242841404602,0.001242840191041,-0.0012428416124961,0.0012428399349365,-0.0011219406564226,0.0011219398639789,-0.001121941281805,0.0011219392089844,-0.001018179070402,0.0010181830623717,-0.0010181830637465,0.0010181786399287,2.1118505431214e-09,-2.2828000748482e-09,-0.0013796831204773,0.0013796829533099,4.6691448108311e-10,-6.6024015893988e-10,-0.0016187120717611,0.0016187135543251,-0.0016187120286189,0.0016187135539944,-0.0016187132820127,0.0016187122843775,-0.0016187140601031,0.0016187114364241,-0.0012899909628495,0.0012899847283033,-0.0012899853341218,0.0012899904875549,0.64016454781811,131329,3014,0.0039472666292546,0.0042693891265597,0.0057293839659142,37.334899560754,6.1079196486031e-05,6.1079196486031e-05,6.1079196486031e-05,4288518.2019718,0.014045550762529
38019200,0.99956003895028,0.014484405850663,0.0042757346027272,0.0045358721618913,0.0056727990860448,-0.00094666825714267,0.0009466677389859,1.4763073950578e-09,-2.0100371603033e-09,2.1570328291865e-09,-2.7868598094929e-09,-0.001169593303931,0.0011695953836544,-0.0011695941639886,0.0011695945319562,-0.0011695945983732,0.0011695940510156,-0.0011695962153309,0.0011695924294887,-0.0010471552276607,0.001047157752511,-0.0010471599788335,0.0010471530148579,1.3895485443828e-09,-1.861200419522e-09,-4.7317096535024e-10,7.4012843642829e-11,-0.0010245322184844,0.0010245318281364,-0.0012408720048669,0.0012408722380584,-0.0012408714997429,0.0012408728043335,-0.0012408727712255,0.0012408714792895,-0.0012408729514731,0.0012408712513477,-0.0011200552468025,0.0011200543263514,-0.0011200557898728,0.00112005375922,-0.0010162711317512,0.0010162750211166,-0.0010162750660542,0.0010162706618661,2.1865018824566e-09,-2.3598497057408e-09,-0.0013777804570369,0.0013777802887467,4.7590381646508e-10,-6.7190008291368e-10,-0.0016167138476961,0.0016167154511633,-0.0016167138768418,0.001616715381061,-0.0016167151718492,0.0016167140676614,-0.0016167158915118,0.0016167132751436,-0.0012880191438936,0.0012880129434999,-0.0012880135520305,0.0012880186640252,0.66570162775681,131329,3014,0.0039399101160933,0.0042618519575052,0.0057215099831742,36.305658579178,5.2845268633423e-05,5.2845268633423e-05,5.2845268633423e-05,4274462.7063328,0.014022456201161
38219200,0.9995886112597,0.014484786311605,0.0042758453429226,0.0045359885139529,0.0056729524547294,-0.000945920465417,0.00094591995158955,1.5422844488276e-09,-2.0721887907019e-09,2.1531536665746e-09,-2.7797065074919e-09,-0.0011687699640186,0.0011687722164453,-0.0011687709931971,0.0011687711957459,-0.0011687713843065,0.0011687707592014,-0.0011687729148467,0.001168769224308,-0.001046397724153,0.001046400000911,-0.0010464022088521,0.0010463955108371,1.3700721864613e-09,-1.8473557137404e-09,-4.4124257426136e-10,3.7518336095182e-11,-0.001023764341671,0.0010237639504652,-0.0012400362062343,0.0012400365824085,-0.0012400358507239,0.0012400369998767,-0.0012400370933573,0.001240035708698,-0.0012400371671043,0.0012400355864668,-0.0011192727291341,0.0011192714936575,-0.0011192729447832,0.0011192712318317,-0.0010154705832063,0.0010154740321262,-0.0010154741249162,0.0010154700861757,2.2580096855894e-09,-2.4256074072999e-09,-0.0013769853596382,0.0013769851934892,5.002902681816e-10,-6.9043129450377e-10,-0.0016158803129346,0.0016158820988758,-0.0016158804820373,0.0016158818877816,-0.0016158818097631,0.0016158805447631,-0.001615882417622,0.001615879869019,-0.0012871941210265,0.0012871881659065,-0.0012871887583983,0.0012871936262358,0.67076549788145,131329,3014,0.0039368030542053,0.0042586637895588,0.0057182196578667,35.867154511435,4.9337236091477e-05,4.9337236091477e-05,4.9337236091477e-05,4267882.6268578,0.014012733432589
38419200,0.99962114597701,0.014485251320814,0.0042759816956937,0.0045361314858364,0.005673138139284,-0.00095259987872364,0.0009525993347965,1.5073867627809e-09,-2.0683904765025e-09,2.6962749644153e-09,-3.3600489706927e-09,-0.0011757328260074,0.0011757353682209,-0.0011757338043728,0.0011757343991304,-0.0011757345764214,0.0011757335750612,-0.0011757361331706,0.0011757320144499,-0.0010534255961981,0.0010534275353702,-0.0010534301509645,0.0010534229685385,1.1843400489038e-09,-1.6604210313416e-09,-5.5687266408827e-10,1.5384328660829e-10,-0.0010306756321266,0.0010306752439649,-0.0012471780108241,0.0012471781491487,-0.0012471775407393,0.0012471786819359,-0.0012471787301191,0.0012471774376852,-0.0012471787666623,0.0012471773530619,-0.001126523557122,0.0011265223174635,-0.0011265236397153,0.0011265221688344,-0.0010225451595162,0.0010225484140392,-0.0010225484417436,0.0010225447424948,2.2412650273037e-09,-2.4128668401037e-09,-0.0013842919639095,0.0013842917933937,5.7913042946291e-10,-7.7137216734507e-10,-0.0016233715023107,0.0016233732872187,-0.0016233716859411,0.0016233730628861,-0.0016233729475652,0.0016233717816494,-0.0016233736464529,0.0016233710084546,-0.0012944943787102,0.0012944882762099,-0.0012944889420307,0.001294493838632,0.71254272063832,131329,3014,0.0039645427839228,0.0042873462416613,0.0057484708468333,39.666637143433,7.9733097147465e-05,7.9733097147465e-05,7.9733097147465e-05,4333283.581872,0.014100635770165
38619200,0.99965124010138,0.014485682572308,0.0042761076937318,0.0045362639697915,0.0056733109087843,-0.00095272285629369,0.00095272221747097,1.4060692222857e-09,-2.0614017938843e-09,3.5771951509966e-09,-4.3555587748457e-09,-0.0011759876540763,0.0011759906381453,-0.0011759885292599,0.0011759897698507,-0.0011759899712379,0.0011759882675772,-0.0011759915512555,0.0011759866782374,-0.0010535539200349,0.0010535552265288,-0.0010535585459706,0.0010535506071729,2.1765311357374e-09,-2.7067616619436e-09,-6.8621759612136e-10,2.3179340492528e-10,-0.0010308171560938,0.0010308167091933,-0.0012474405110544,0.0012474411364751,-0.0012474399064316,0.0012474417893225,-0.0012474418236056,0.0012474397679585,-0.001247441864501,0.001247439686942,-0.0011266755976202,0.0011266735890087,-0.0011266756508677,0.0011266735433307,-0.0010227155996508,0.0010227210543659,-0.0010227209859797,0.0010227152088204,2.1825284867823e-09,-2.3715886650648e-09,-0.0013845204358459,0.0013845202549761,5.0130637493436e-10,-7.1679394452526e-10,-0.0016236888348837,0.0016236904894895,-0.0016236889275813,0.0016236903777374,-0.0016236901615421,0.0016236890601007,-0.0016236908582439,0.0016236882404398,-0.0012947428489317,0.0012947366762406,-0.0012947374910807,0.00129474246256,0.71626668068422,131329,3014,0.0039650570684027,0.0042879361467501,0.0057494137591526,39.752830962807,8.0422647702459e-05,8.0422647702459e-05,8.0422647702459e-05,4330507.4155685,0.014102715950661
38819200,0.99967894845923,0.014486081103372,0.0042762241932945,0.0045363864354208,0.0056734704746564,-0.00095268242950723,0.00095268184498741,1.4454993779862e-09,-2.0459707746737e-09,3.413218976415e-09,-4.1249411282035e-09,-0.0011760383091765,0.0011760412330042,-0.0011760392184061,0.0011760403327684,-0.0011760405086945,0.0011760389865667,-0.0011760420782673,0.0011760374130075,-0.0010535373775634,0.0010535388140473,-0.0010535419915801,0.0010535342093321,2.124642383046e-09,-2.6467431462898e-09,-6.8383693155813e-10,2.4278424038723e-10,-0.0010307874653176,0.0010307870321208,-0.0012474917377573,0.0012474923526367,-0.001247491154681,0.0012474929973659,-0.0012474930497507,0.0012474910381036,-0.0012474930561497,0.0012474909852716,-0.0011266748331686,0.001126672836782,-0.0011266748680741,0.0011266727733336,-0.0010227380426315,0.0010227433706145,-0.00102274332824,0.0010227376469216,2.2038784347913e-09,-2.3837791545949e-09,-0.0013845522276649,0.0013845520525023,5.3439255623305e-10,-7.3785424070649e-10,-0.0016237796106718,0.0016237813117855,-0.00162377972967,0.0016237811503482,-0.0016237809917266,0.00162377986436,-0.0016237817010229,0.0016237790709998,-0.0012948108396076,0.0012948047082997,-0.0012948053931532,0.00129481033318,0.71845448090544,131329,3014,0.0039648927165336,0.0042878156163457,0.0057495421804814,39.755882849419,8.0447062795352e-05,8.0447062795352e-05,8.0447062795352e-05,4325388.294732,0.014102560855932
38880000,0.9996871565366,0.014486199331534,0.0042762587725279,0.0045364227743882,0.0056735177846174,-0.00095266238238617,0.00095266181039317,1.4600274861037e-09,-2.0477403421441e-09,3.2294571735354e-09,-3.9261122529068e-09,-0.0011760520430481,0.0011760548641399,-0.0011760529656249,0.0011760539497417,-0.0011760541230277,0.0011760527380443,-0.0011760556882607,0.0011760511685105,-0.0010535280542037,0.0010535296233077,-0.001053532652559,0.0010535250286608,1.999911189646e-09,-2.5126377387981e-09,-6.7074679656766e-10,2.3618220995324e-10,-0.0010307702872674,0.0010307698630919,-0.0012475044086045,0.0012475049603465,-0.0012475038405858,0.0012475055893057,-0.0012475056421179,0.0012475037244319,-0.0012475056454547,0.0012475036742651,-0.001126667912981,0.0011266660079215,-0.0011266679376049,0.0011266659470018,-0.0010227436081117,0.0010227486560792,-0.0010227486145251,0.0010227432139251,2.2200332546256e-09,-2.3856366518496e-09,-0.0013845560721132,0.00138455591021,5.5710997558443e-10,-7.461306702496e-10,-0.0016238034183516,0.0016238051580508,-0.0016238035594596,0.0016238049777038,-0.001623804815444,0.0016238036953974,-0.001623805527207,0.0016238029018017,-0.0012948296822225,0.0012948235650699,-0.0012948242434056,0.0012948291790012,0.7191052145154,131329,3014,0.0039648108095226,0.0042877452946381,0.0057495567941389,39.755988953037,8.0447911624296e-05,8.0447911624296e-05,8.0447911624296e-05,4323622.6006259,0.014102422478957
