time,ASR_ext,ASR_strain,ASR_strain_xx,ASR_strain_yy,ASR_strain_zz,disp_x_101,disp_x_102,disp_x_103,disp_x_104,disp_x_105,disp_x_106,disp_x_p1_neg,disp_x_p1_pos,disp_x_p2_neg,disp_x_p2_pos,disp_x_p3_neg,disp_x_p3_pos,disp_x_p4_neg,disp_x_p4_pos,disp_x_p5_neg,disp_x_p5_pos,disp_x_p6_neg,disp_x_p6_pos,disp_y_101,disp_y_102,disp_y_103,disp_y_104,disp_y_105,disp_y_106,disp_y_p1_neg,disp_y_p1_pos,disp_y_p2_neg,disp_y_p2_pos,disp_y_p3_neg,disp_y_p3_pos,disp_y_p4_neg,disp_y_p4_pos,disp_y_p5_neg,disp_y_p5_pos,disp_y_p6_neg,disp_y_p6_pos,disp_y_p7_neg,disp_y_p7_pos,disp_y_p8_neg,disp_y_p8_pos,disp_z_101,disp_z_102,disp_z_103,disp_z_104,disp_z_105,disp_z_106,disp_z_p1_neg,disp_z_p1_pos,disp_z_p2_neg,disp_z_p2_pos,disp_z_p3_neg,disp_z_p3_pos,disp_z_p4_neg,disp_z_p4_pos,disp_z_p5_neg,disp_z_p5_pos,disp_z_p6_neg,disp_z_p6_pos,humidity,ndof,nelem,strain_xx,strain_yy,strain_zz,temp,thermal_strain_xx,thermal_strain_yy,thermal_strain_zz,vonmises,vstrain
2419200,0,0,0,0,0,0,0,0,0,0,0,0,0,0,0,0,0,0,0,0,0,0,0,0,0,0,0,0,0,0,0,0,0,0,0,0,0,0,0,0,0,0,0,0,0,0,0,0,0,0,0,0,0,0,0,0,0,0,0,0,0,0,0,0,0,0,0,0,0,0,0,0,0,0,0
2919200,0.076571943234336,0.001599164825511,0.000533054941837,0.000533054941837,0.000533054941837,-0.00015986071157612,0.00015983774618537,-8.9665984479694e-09,-8.9665983238629e-09,-8.249279109524e-09,-9.2805038277432e-09,-0.00016137239235909,0.00016135302107341,-0.00016137310350096,0.00016135373221456,-0.00016137395392283,0.00016135399908873,-0.00016137465800696,0.00016135470317383,-0.00016491218393488,0.00016489303848768,-0.0001649128333179,0.00016489368786866,-6.6052407701106e-09,-5.9480981900169e-09,-6.7616029424875e-09,-6.1485014496485e-09,-0.00016317324679718,0.00016315612994402,-0.00016442995387836,0.00016441516498662,-0.00016443043219438,0.00016441609125631,-0.00016443128400367,0.00016441709891754,-0.00016443176231981,0.0001644180251869,-0.00016755246095802,0.00016753849734127,-0.00016755253132122,0.0001675397532583,-0.00016527858666253,0.00016526477712076,-0.00016527860435123,0.00016526619103424,-2.1854022342707e-09,-2.1854023131653e-09,-0.00016945769311096,0.00016945080059512,-1.8417930712433e-09,-2.4918544076208e-09,-0.00017011006293275,0.00017010521714345,-0.00017011181783721,0.00017010652670998,-0.00017011197212421,0.00017010712633516,-0.00017011365464878,0.00017010836352126,-0.00017014542047617,0.00017014045382499,-0.00017014429393938,0.0001701393272854,0.83502648770561,125301,3014,0.00066581683565064,0.00067962122793057,0.00070580868050174,32.43063847358,0.00017464510778864,0.00017464510778864,0.00017464510778864,1320290.2484111,0.0020533543975949
3419200,0.15547299032221,0.0031000951904479,0.001007795174402,0.0010272527559704,0.0010650472600755,-0.00026251504051064,0.00026249452216625,-8.5958952326688e-09,-8.5958963573918e-09,-8.0426622233663e-09,-8.4145316612602e-09,-0.00027227476786271,0.00027225677165635,-0.00027227572950375,0.00027225773349441,-0.0002722765671311,0.00027225841570433,-0.00027227751314926,0.00027225936177869,-0.00027463048389258,0.0002746125348479,-0.00027463208647111,0.00027461413740922,-7.0367541180474e-09,-7.1723272632891e-09,-8.2203722641988e-09,-6.773783444676e-09,-0.00027309080206966,0.0002730728205844,-0.00028237972847594,0.00028236357243326,-0.00028238024174944,0.00028236512177927,-0.00028238189577611,0.00028236577361711,-0.00028238240904948,0.00028236732295559,-0.00028333250744513,0.0002833155357508,-0.00028333295349132,0.00028331878263165,-0.00027513125285938,0.00027511689171988,-0.00027513284632067,0.00027511836518,-4.097688248525e-09,-4.0976895694258e-09,-0.00029462006567419,0.00029460979078109,-3.3084402324954e-09,-4.8420465919327e-09,-0.00030253128465469,0.00030252353111461,-0.00030253446153633,0.00030252566078017,-0.00030253421795456,0.00030252646442588,-0.00030253729743868,0.0003025284966296,-0.00029233629713176,0.00029232718599347,-0.00029233354124935,0.00029232443006363,0.77960726241633,125301,3014,0.0010931809521941,0.0011371955337554,0.0012268007393012,31.910859824529,0.00017048687859623,0.00017048687859623,0.00017048687859623,2058309.6041706,0.0034631685693212
3919200,0.24190788634105,0.0046342336974807,0.001473139484233,0.0015249651763536,0.001636129036894,-0.00036531790554491,0.00036530971318608,-3.1041018587748e-09,-3.1041135310065e-09,-3.2007557073455e-09,-2.8048791561612e-09,-0.00038711387529841,0.00038710741370671,-0.00038711444469553,0.00038710798328458,-0.00038711463006771,0.00038710846346293,-0.00038711518524123,0.00038710901865822,-0.00038786821869919,0.00038786158371923,-0.0003878689673926,0.00038786233233976,-3.2017326572818e-09,-3.8895786562258e-09,-4.3572993270017e-09,-3.0031770796818e-09,-0.00038554133380899,0.00038553207036079,-0.0004076735317043,0.00040766572150563,-0.00040767368119307,0.00040766682472469,-0.00040767471473038,0.00040766648201967,-0.00040767486417579,0.00040766758521877,-0.00040468792074768,0.00040467847737749,-0.00040468751391462,0.00040468070419713,-0.00038544441942677,0.00038543773837815,-0.00038544589473235,0.00038543794159904,-3.3156288543292e-09,-3.3156408282722e-09,-0.00043022066480269,0.00043021262198513,-2.5424417131215e-09,-3.9958567014162e-09,-0.00045324156087192,0.00045323541568057,-0.00045324340132835,0.00045323625973111,-0.00045324279436171,0.00045323664920151,-0.0004532445906766,0.00045323744905564,-0.00042051961098541,0.00042051206552209,-0.00042051851699941,0.00042051097149658,0.74640349119053,125301,3014,0.001521021234425,0.0016051256847295,0.0017909361996545,32.496995083038,0.00017517596066431,0.00017517596066431,0.00017517596066431,2852909.1809545,0.0049292126565122
4419200,0.33656477260769,0.006273995341059,0.0019574373122606,0.0020515783277476,0.0022649797010508,-0.0004729136616585,0.00047290971738111,-1.461362169433e-09,-1.4613655232717e-09,-1.6628623057715e-09,-1.0007844583982e-09,-0.00051026557998562,0.00051026345448772,-0.0005102658840887,0.00051026375882085,-0.00051026565950786,0.00051026399544931,-0.00051026595763151,0.00051026429361757,-0.00051032206731139,0.00051031898705173,-0.0005103225080049,0.00051031942774995,-1.5979629184301e-09,-2.3151591932654e-09,-2.6147525617573e-09,-1.8118663488895e-09,-0.00050473840749249,0.00050473303464933,-0.00054353853472041,0.00054353488339223,-0.00054353863552863,0.00054353553883875,-0.00054353898225566,0.00054353487238,-0.00054353908301123,0.00054353552779274,-0.00053701091970422,0.00053700496309406,-0.00053701085869873,0.00053700647205573,-0.00050261936824357,0.00050261600189645,-0.00050262082066775,0.00050261608882497,-1.9310109866163e-09,-1.9310148250873e-09,-0.00057945233833802,0.00057944742002075,-1.5178885794723e-09,-2.3901413185293e-09,-0.0006229427429893,0.0006229394402908,-0.00062294373701139,0.00062293983405633,-0.00062294317415424,0.00062293987147654,-0.00062294418388104,0.00062294028087843,-0.00056098522737051,0.00056098068386851,-0.00056098399476097,0.00056097945121539,0.74424082049435,125301,3014,0.0019686275336539,0.0021008949433366,0.0024113937344975,33.599289777066,0.00018399431821652,0.00018399431821652,0.00018399431821652,3533433.5017023,0.0065020128716133
4919200,0.43948761617107,0.0080301389198543,0.0024656768595724,0.0026087987031491,0.0029556633571328,-0.00058552755342372,0.00058552570962257,-6.1474412263609e-10,-6.147457639683e-10,-1.0092578288367e-09,-6.364902659534e-11,-0.00064444929406854,0.00064444924664958,-0.00064444943012109,0.00064444938287193,-0.00064444893159645,0.00064444954138608,-0.00064444906514176,0.00064444967493905,-0.00064135279970146,0.00064135158948086,-0.00064135299532103,0.00064135178509344,-8.6763993005804e-10,-1.7029196468175e-09,-1.062298280655e-09,-1.9771920861653e-09,-0.00063023537933484,0.00063023182559727,-0.00069149504154179,0.0006914937711459,-0.00069149550901447,0.00069149364828435,-0.00069149514258879,0.00069149333419476,-0.00069149560997999,0.00069149321129794,-0.00067891331663664,0.00067891037496165,-0.00067891460920955,0.00067890987266742,-0.00062675983514993,0.00062675746265935,-0.00062676148166258,0.00062675749016172,-1.0448005014736e-09,-1.0448029168704e-09,-0.00074275079598195,0.00074274787019469,-1.5037825809009e-09,-6.387083690007e-10,-0.00081304075006021,0.00081303865952055,-0.00081304074362425,0.00081303921698432,-0.00081304071668556,0.00081303862616439,-0.00081304076403866,0.00081303923737258,-0.00071527665681254,0.00071527448007259,-0.00071527550733297,0.00071527333053405,0.74696695512676,125301,3014,0.0024369394314123,0.0026226238134777,0.0030898638460213,35.344578020271,0.00019795662416217,0.00019795662416217,0.00019795662416217,4052086.7545905,0.0081828354381803
5419200,0.54002027115864,0.0096813132232988,0.0029393896951499,0.0031268780485286,0.0036150454796204,-0.00068642514157165,0.00068642543794679,1.6672365517737e-10,1.6672371461673e-10,-2.7250757158075e-10,7.6184914920792e-10,-0.00077106512054084,0.00077106716079084,-0.00077106512711328,0.00077106716750039,-0.00077106454087035,0.00077106729081999,-0.00077106454782628,0.00077106729774326,-0.00075967459560871,0.00075967508053962,-0.0007596747340655,0.00075967521904054,-1.8266643221104e-10,-9.9200476976243e-10,-1.5587666192907e-10,-1.5239591925026e-09,-0.00074272676174324,0.00074272511808791,-0.00083048698214844,0.00083048773335916,-0.00083048746998598,0.00083048730973142,-0.00083048684711612,0.0008304870635157,-0.00083048733487239,0.00083048663983604,-0.00080694434661825,0.00080694327685366,-0.00080694600117372,0.00080694225506037,-0.0007380168605608,0.00073801586143515,-0.00073801869230285,0.00073801610734247,-2.0036783660601e-10,-2.0036874213717e-10,-0.00089480604622088,0.00089480510327276,-9.1460101741967e-10,4.224421418149e-10,-0.00099607395024287,0.00099607354674066,-0.00099607350910215,0.000996073991819,-0.00099607363129843,0.00099607322781408,-0.00099607326998969,0.00099607375266221,-0.00085876240509632,0.00085876209952515,-0.00085876110146795,0.00085876079587812,0.73229095938568,125301,3014,0.0028564003850109,0.0030900911744167,0.0037211784254243,36.273462585494,0.00020538770068395,0.00020538770068395,0.00020538770068395,4416013.9203297,0.0097147590085925
5919200,0.6313313693713,0.010960211369584,0.0033059804619446,0.0035255400624557,0.0041286908451833,-0.00075991564274792,0.0007599180361379,1.0056635680801e-09,1.0056624119389e-09,4.7778832407114e-10,1.5988386070486e-09,-0.00087110883669661,0.00087111288402825,-0.00087110870752273,0.00087111275496525,-0.00087110806355218,0.00087111286802798,-0.00087110793815334,0.00087111274256581,-0.00084457063796114,0.00084457288250938,-0.00084457068244726,0.00084457292702687,5.2809781547231e-10,-2.7139489311643e-10,8.9809093605511e-10,-1.0374661949825e-09,-0.00082466001040206,0.00082466029152258,-0.00093998724115272,0.0009399900064306,-0.00093998776641329,0.00093998922656293,-0.00093998690921679,0.00093998912652674,-0.00093998743438895,0.00093998834661473,-0.00089873096091159,0.000898732035888,-0.00089873304124883,0.00089873033703091,-0.00081584125807029,0.00081584159034689,-0.00081584319863788,0.00081584195503757,5.1585018957198e-10,5.1584773138237e-10,-0.0010095010451309,0.0010095018206718,-5.0380184986108e-10,1.4238898725094e-09,-0.0011437281550118,0.0011437291144803,-0.0011437271999855,0.0011437294480027,-0.0011437275215599,0.0011437284810408,-0.0011437266634481,0.0011437289114313,-0.00096260437877616,0.00096260575200735,-0.00096260314585837,0.00096260451906482,0.6360792580923,125301,3014,0.0031618763516041,0.0034304815741287,0.0041971036515412,36.779370106244,0.00020943496084995,0.00020943496084995,0.00020943496084995,4603287.000906,0.01084817512002
6419200,0.70879982449738,0.011963749171071,0.0035979222053822,0.0038393628713494,0.0045264640943393,-0.00081530998771696,0.00081531416083239,1.6806656140544e-09,1.6806637504349e-09,1.0873004784814e-09,2.2840761056899e-09,-0.00094783967337618,0.00094784545289701,-0.00094783941157776,0.00094784519120103,-0.00094783871451393,0.00094784529340804,-0.00094783845854821,0.00094784503737172,-0.00090884131638516,0.00090884500734374,-0.00090884135074115,0.00090884504173925,1.1272177838921e-09,3.3767409756017e-10,1.8719398219306e-09,-7.3663703419758e-10,-0.00088596362829836,0.0008859655867701,-0.0010236357734573,0.0010236404098808,-0.0010236363804683,0.0010236392534857,-0.0010236352583044,0.0010236393365491,-0.0010236358652254,0.0010236381801055,-0.00096776813110747,0.00096777120501772,-0.00096777084308481,0.0009677688242874,-0.0008737009386949,0.0008737023455567,-0.0008737029887289,0.00087370283330217,1.1249419060911e-09,1.1249385257238e-09,-0.0010951981361177,0.001095200420611,-2.4911753907136e-10,2.3692581897298e-09,-0.0012571033575554,0.0012571055117699,-0.001257101902538,0.0012571058126985,-0.0012571024564607,0.0012571046106857,-0.0012571011116073,0.0012571050217301,-0.0010392613621893,0.0010392642217679,-0.0010392601058813,0.0010392629654417,0.59525943091212,125301,3014,0.0033920940222926,0.0036851102611623,0.0045525528058699,36.741500280265,0.00020913200224212,0.00020913200224212,0.00020913200224212,4774864.9013709,0.01169802606966
6919200,0.77870423347669,0.012941371578335,0.0038865773009341,0.0041467529658998,0.0049080413115008,-0.00087171641796235,0.00087171807617869,6.7343383005876e-10,6.7343153474652e-10,1.5054606945033e-10,1.2379707589607e-09,-0.0010256229754855,0.0010256266916063,-0.001025622747322,0.0010256264635411,-0.0010256221374964,0.0010256265976744,-0.0010256219144836,0.0010256263745864,-0.00097563819522207,0.00097563973790824,-0.00097563829469407,0.00097563983742355,3.7201575239196e-10,-3.1889949152326e-10,1.3405657662955e-09,-1.6393656380558e-09,-0.00094707706991872,0.00094707718653874,-0.0011066122499625,0.0011066154828741,-0.0011066129955169,0.0011066142225452,-0.0011066118194284,0.001106614580061,-0.0011066125648902,0.0011066133196816,-0.0010386168242089,0.001038618782111,-0.0010386199493482,0.0010386160868847,-0.00093523325835727,0.00093523295920101,-0.00093523534296638,0.00093523369234033,1.0758461882845e-09,1.0758421130561e-09,-0.0011782468101182,0.0011782487531591,-4.8578723812157e-10,2.5060728571062e-09,-0.0013653045649059,0.0013653064631976,-0.0013653030499935,0.0013653069551319,-0.0013653037834554,0.0013653056817561,-0.0013653023742697,0.0013653062793699,-0.0011186352868924,0.001118638126074,-0.0011186338975206,0.0011186367366846,0.64378173705164,125301,3014,0.0036264658198279,0.0039388899256839,0.0048968733658334,38.625434898571,0.00022420347918857,0.00022420347918857,0.00022420347918857,4833854.9718285,0.012540716676377
7419200,0.83903161441973,0.013666057191285,0.0041021526298964,0.0043744616129562,0.0051894429484328,-0.00090826554584479,0.00090826645205553,3.4775718925658e-10,3.4775473541978e-10,-1.1982970884347e-10,8.6730352788433e-10,-0.0010863070371174,0.0010863101013427,-0.0010863068506326,0.0010863099149521,-0.0010863062939731,0.001086310042496,-0.0010863061115232,0.0010863098599666,-0.0010176027458089,0.0010176035853525,-0.0010176028990494,0.0010176037386392,8.385508569953e-11,-5.1508865113609e-10,1.2267570134411e-09,-2.0171610374556e-09,-0.00098576371933104,0.00098576326493563,-0.0011696500591005,0.0011696528302988,-0.0011696509227728,0.0011696515158876,-0.0011696496746538,0.0011696520393523,-0.0011696505382315,0.0011696507248887,-0.0010825216449001,0.0010825233868933,-0.0010825250706067,0.0010825204751132,-0.00097359691671567,0.00097359594463257,-0.00097359899491596,0.00097359686200277,1.0467766293396e-09,1.0467721901222e-09,-0.0012328448808568,0.0012328467172477,-6.4363419844646e-10,2.609991037536e-09,-0.0014460056724473,0.0014460074060635,-0.0014460041318413,0.0014460080469605,-0.0014460049769535,0.0014460067105776,-0.001446003536684,0.0014460074517649,-0.0011704248878816,0.001170427752477,-0.0011704234282411,0.0011704262928194,0.55664260548471,125301,3014,0.0037783812402327,0.0040995753420887,0.0051231568768285,40.764319518069,0.00024131455614455,0.00024131455614455,0.00024131455614455,4657769.275995,0.013086653666696
7919200,0.88439523022694,0.014163768829635,0.0042538257467307,0.0045320584746729,0.0053778846082311,-0.00092912448849789,0.0009291291325007,1.7921909827957e-09,1.7921883677285e-09,1.2414480846426e-09,2.3120970339051e-09,-0.0011222112830559,0.0011222176136652,-0.0011222109540221,0.0011222172847223,-0.0011222103202124,0.0011222173705769,-0.0011222099966977,0.0011222170469792,-0.0010419011194091,0.0010419050515424,-0.0010419012556849,0.0010419051878659,1.2661615904722e-09,6.6128989363591e-10,2.6925652648379e-09,-1.0414338701181e-09,-0.001007535923892,0.0010075386834453,-0.0012066991483217,0.0012067048989423,-0.0012067000349018,0.0012067032682045,-0.0012066985390469,0.0012067038503525,-0.0012066994255312,0.0012067022195611,-0.0011075657119151,0.0011075705233028,-0.0011075695845252,0.001107567104084,-0.00099494181956629,0.00099494323509806,-0.00099494397201527,0.00099494419785304,1.785679163492e-09,1.7856744754587e-09,-0.0012637659304624,0.0012637698124087,-1.6166452178924e-10,3.5946683127035e-09,-0.0014942195531539,0.0014942228362997,-0.001494217566627,0.0014942233713218,-0.0014942185527444,0.0014942218358976,-0.0014942166763929,0.0014942224810493,-0.0011989856217497,0.0011989902380657,-0.0011989842142084,0.0011989888305083,0.5070717593097,125301,3014,0.0038650903458824,0.0041900140997556,0.0052512934950347,40.956226945185,0.00024284981556148,0.00024284981556148,0.00024284981556148,4582149.5231689,0.013396064002807
8419200,0.91819824369077,0.014516999309863,0.0043629461192431,0.0046445108124259,0.005509542378194,-0.00094240374928233,0.00094240813940479,1.6924529798409e-09,1.6924502825115e-09,1.1370664611648e-09,2.2129093037574e-09,-0.0011483034483934,0.0011483095970138,-0.0011483031149988,0.0011483092637084,-0.0011483024940572,0.0011483093667849,-0.0011483021656106,0.0011483090382536,-0.0010572428727759,0.0010572465949796,-0.001057243033219,0.0010572467554714,1.2116005651535e-09,6.0579798314039e-10,2.8217148973124e-09,-1.2724159645124e-09,-0.001020648339474,0.0010206509598816,-0.0012326526420752,0.0012326584338274,-0.0012326536373885,0.0012326566737059,-0.0012326520478864,0.0012326574017473,-0.0012326530431031,0.0012326556415715,-0.0011228398267868,0.0011228448816388,-0.0011228440678839,0.0011228411255625,-0.001008549900044,0.0010085510821937,-0.0010085520959793,0.0010085520897933,1.880598270602e-09,1.8805934175149e-09,-0.0012819956157916,0.0012819996825397,-2.4451699229138e-10,3.8706295441596e-09,-0.001526064579455,0.0015260679587054,-0.0015260624656235,0.0015260686057302,-0.0015260635832852,0.0015260669625426,-0.0015260615779122,0.0015260677179806,-0.0012170106021648,0.0012170155279876,-0.0012170091716655,0.0012170140974722,0.48138031764921,125301,3014,0.0039203020271039,0.0042444968384163,0.0053268245737325,41.432638941809,0.00024666111153447,0.00024666111153447,0.00024666111153447,4447335.1005517,0.013583878550826
8919200,0.94285557617623,0.014748138841867,0.0044352379858618,0.0047184285325974,0.0055944723234079,-0.00094896489571856,0.00094896950331243,1.7779140667104e-09,1.777911320559e-09,1.2152215347869e-09,2.2938898667392e-09,-0.0011656593109526,0.0011656656672957,-0.001165658962611,0.0011656653190422,-0.0011656583452337,0.001165665426446,-0.0011656580014318,0.0011656650825588,-0.0010645470711839,0.0010645509763205,-0.0010645472449482,0.0010645511501343,1.2978590682763e-09,6.9689383220451e-10,3.0888470506485e-09,-1.3464099425756e-09,-0.0010263093205539,0.0010263121843983,-0.0012490722264367,0.0012490783601802,-0.0012490733152623,0.0012490764672527,-0.0012490716193487,0.0012490773171524,-0.001249072708077,0.00124907542417,-0.001129472484133,0.0011294780797494,-0.0011294770645486,0.0011294739949982,-0.0010149244472683,0.0010149257044879,-0.0010149266652418,0.0010149267441122,2.0159196184512e-09,2.0159146417209e-09,-0.0012896721895846,0.0012896765843289,-2.7737867786003e-10,4.1777004153553e-09,-0.0015446363153117,0.0015446398879537,-0.001544634058451,0.0015446406185504,-0.0015446352938904,0.0015446388665393,-0.001544633144765,0.0015446397048264,-0.0012254123450088,0.0012254176682148,-0.0012254109145816,0.0012254162377713,0.43063171924148,125301,3014,0.0039476105020076,0.0042680521876073,0.005358628569625,41.891652203724,0.00025033321762979,0.00025033321762979,0.00025033321762979,4286063.372914,0.013667755175641
9419200,0.95973940211371,0.014898727954875,0.0044829414292206,0.0047668473150527,0.0056489392106013,-0.00095046766989642,0.00095047509201859,2.8816435100629e-09,2.8816406983841e-09,2.2430555607805e-09,3.4048620069794e-09,-0.001173591875948,0.0011736007314072,-0.0011735913993115,0.0011736002548583,-0.0011735907230307,0.0011736003424333,-0.0011735902522439,0.0011735998715605,-0.0010666695954829,0.0010666758633061,-0.0010666697643539,0.0010666760322269,2.2413856890001e-09,1.618255036175e-09,4.3070303428169e-09,-6.2717323112872e-10,-0.001027106972587,0.0010271123364541,-0.001256262991281,0.0012562715344927,-0.0012562641205832,0.0012562693392263,-0.0012562622059465,0.0012562702780142,-0.0012562633351511,0.0012562680826925,-0.0011310423383961,0.0011310504646467,-0.0011310473894034,0.0011310458778073,-0.0010164086599285,0.001016411775169,-0.0010164109549679,0.0010164128338739,2.6643967724487e-09,2.6643917381319e-09,-0.0012913004061476,0.0012913065452293,1.1279052394456e-10,5.0767356138295e-09,-0.0015528372334714,0.0015528421496781,-0.0015528345742139,0.0015528428208991,-0.0015528359606824,0.0015528408768959,-0.0015528334175416,0.001552841664189,-0.0012277247110331,0.0012277315879579,-0.0012277233233823,0.0012277302002908,0.40723906797413,125301,3014,0.003953896713049,0.0042714060313713,0.0053653746372114,41.150743045654,0.00024440594436523,0.00024440594436523,0.00024440594436523,4191874.7910565,0.013684415033976
9919200,0.97109882329102,0.014999840421656,0.0045152139595224,0.004799474990291,0.0056851514718429,-0.00094925906225028,0.00094926799638089,3.4797589470175e-09,3.4797560325183e-09,2.7874254447131e-09,4.018553684061e-09,-0.0011779085644332,0.0011779187532325,-0.0011779080161099,0.0011779182049964,-0.0011779073032252,0.0011779182934037,-0.0011779067610336,0.0011779177511261,-0.0010657266234929,0.0010657341792398,-0.0010657267953707,0.0010657343511675,2.7734767369632e-09,2.1116931515289e-09,5.090936149227e-09,-3.4257127245268e-10,-0.0010251090296378,0.0010251157589284,-0.001259743023458,0.0012597529642282,-0.0012597442451579,0.0012597505256265,-0.0012597421519345,0.0012597515862827,-0.0012597433735366,0.0012597491476255,-0.0011294880571829,0.00112949779024,-0.0011294935892266,0.0011294927082833,-0.0010152255818934,0.0010152296699345,-0.0010152279499657,0.0010152307178168,3.0546455227937e-09,3.0546403540104e-09,-0.0012892652645864,0.0012892724341046,2.5238982878163e-10,5.7180340981598e-09,-0.0015560955502524,0.0015561011974029,-0.0015560925966235,0.0015561019098584,-0.0015560941423103,0.0015560997894677,-0.0015560913086442,0.0015561006218414,-0.001226810906271,0.0012268187818833,-0.0012268095425427,0.001226817418138,0.40432824355073,125301,3014,0.0039489206450528,0.0042631545472116,0.005356940494009,39.827331897456,0.00023381865517965,0.00023381865517965,0.00023381865517965,4098866.8035362,0.013662509297017
10419200,0.97873346797683,0.015072262313046,0.0045384754286659,0.0048229205032007,0.0057108663811792,-0.00094644569410559,0.00094645568622444,3.8983426218088e-09,3.8983396201064e-09,3.1644882304391e-09,4.4520825931093e-09,-0.0011799595837765,0.0011799706840078,-0.0011799589853473,0.0011799700856657,-0.0011799582455001,0.0011799701788223,-0.0011799576531244,0.0011799695863605,-0.0010630920270986,0.0010631004904009,-0.001063092201154,0.0010631006645062,3.154064399317e-09,2.4540634992542e-09,5.6996080932261e-09,-1.9714771371442e-10,-0.0010214820574149,0.0010214897510187,-0.0012609552982906,0.001260966247067,-0.0012609566205545,0.001260963599974,-0.0012609543719112,0.0012609647829917,-0.001260955694077,0.001260962135843,-0.0011262130507562,0.0011262240266988,-0.0011262190289013,0.0011262184841844,-0.0010125358605871,0.0010125406116246,-0.001012538288883,0.0010125416388895,3.3371379391973e-09,3.3371326970045e-09,-0.00128511189239,0.0012851198123577,3.051536723236e-10,6.2336697716969e-09,-0.0015564603679833,0.001556466500776,-0.0015564571731671,0.0015564672807088,-0.0015564588682794,0.0015564650010791,-0.0015564557954728,0.0015564659029769,-0.0012240235885524,0.0012240322239806,-0.0012240222463328,0.0012240308817435,0.42845224819223,125301,3014,0.0039372799675173,0.0042481411261452,0.0053397286193608,38.09895106028,0.00021999160848224,0.00021999160848224,0.00021999160848224,4011731.6587393,0.013618096236027
10919200,0.98433286746879,0.015121404943858,0.0045543326746712,0.0048388575736776,0.005728214695509,-0.00094567955180547,0.00094568607937848,2.5432863893172e-09,2.5432833673801e-09,1.88042378705e-09,3.1011660427414e-09,-0.0011842569047401,0.0011842649400563,-0.001184256459027,0.0011842644944304,-0.0011842557877171,0.0011842646307164,-0.0011842553452034,0.0011842641881168,-0.0010620946411611,0.001062100215544,-0.0010620948329588,0.0010621004073915,2.0202517055908e-09,1.3183045777056e-09,4.6051258856365e-09,-1.4470057998599e-09,-0.0010196223634203,0.001019627020587,-0.0012641803589309,0.0012641886619533,-0.0012641818709379,0.0012641861211821,-0.0012641796638402,0.0012641874532796,-0.001264181175749,0.0012641849124526,-0.0011243255358666,0.0011243341853784,-0.0011243316892646,0.0011243285055129,-0.0010116012482195,0.001011603517169,-0.0010116036269971,0.0010116045100762,2.64933404484e-09,2.6493287521193e-09,-0.0012818830414516,0.0012818890541737,-4.3963089243095e-10,5.6243655207294e-09,-0.001557922201899,0.0015579266694331,-0.0015579192344939,0.0015579277601034,-0.001557921002376,0.0015579254699171,-0.001557918145151,0.0015579266707232,-0.0012223343363678,0.0012223415408751,-0.0012223329492169,0.0012223401537058,0.39597081456719,125301,3014,0.0039341263994661,0.0042404548949636,0.005326349478721,37.946134445558,0.00021876907556446,0.00021876907556446,0.00021876907556446,3901784.4385733,0.013593601500156
11419200,0.98841311288377,0.015157251291939,0.0045659674290115,0.0048505145250572,0.0057407693378704,-0.00094506617674437,0.00094507308149994,2.6866172373935e-09,2.6866141863102e-09,2.0240313680252e-09,3.2333980672027e-09,-0.0011849132463686,0.0011849216279019,-0.0011849127800176,0.0011849211616376,-0.0011849121103854,0.0011849212894968,-0.0011849116473104,0.0011849208263354,-0.0010617812202671,0.0010617870977187,-0.0010617814129997,0.0010617872905014,2.1355575699129e-09,1.4559748884298e-09,4.8094575637703e-09,-1.3881501457344e-09,-0.0010186719036516,0.0010186769104767,-0.0012644878470684,0.0012644965081114,-0.0012644893863226,0.0012644938967423,-0.0012644871194023,0.0012644952779273,-0.0012644886585582,0.0012644926665023,-0.0011237256976492,0.0011237347785318,-0.0011237319922301,0.0011237289553176,-0.0010110994535596,0.0010111019281131,-0.0010111018210006,0.0010111029519852,2.760293029178e-09,2.7602877046348e-09,-0.0012806454728684,0.0012806517795875,-4.0201699827431e-10,5.8081516852764e-09,-0.0015580335926692,0.0015580382736011,-0.0015580305416396,0.0015580393784461,-0.0015580323565776,0.0015580370375166,-0.0015580294169412,0.0015580382537104,-0.0012215570356907,0.0012215645259931,-0.0012215556519952,0.0012215631422794,0.39457194111806,125301,3014,0.003931587726418,0.0042365189500736,0.0053212200906793,37.628348240108,0.00021622678592086,0.00021622678592086,0.00021622678592086,3877440.4499144,0.013581847954405
11919200,0.99137039770253,0.015185335716482,0.004575097815572,0.0048596581190391,0.0057505797818711,-0.00094391082926941,0.00094391824359382,2.8866652920333e-09,2.8866622086569e-09,2.2165229757446e-09,3.4280389887914e-09,-0.0011861062147287,0.001186115041334,-0.0011861057249934,0.0011861145516854,-0.0011861050496997,0.001186114672968,-0.0011861045633239,0.001186114186506,-0.0010605829727276,0.0010605892764951,-0.0010605831670446,0.0010605894708621,2.3058040555511e-09,1.6323452266742e-09,5.0647881288996e-09,-1.2827382159596e-09,-0.0010169995139791,0.0010170049849855,-0.0012651684882637,0.0012651776006766,-0.0012651700534175,0.0012651749143698,-0.0012651677264514,0.0012651763370225,-0.0012651692915067,0.0012651736506597,-0.001122103202431,0.0011221128163205,-0.001122109641581,0.0011221068445519,-0.0010099039120336,0.0010099067045327,-0.0010099062844202,0.0010099077431224,2.8810257267005e-09,2.8810203655702e-09,-0.0012783086527579,0.0012783152909172,-3.5629536080365e-10,6.0044423968476e-09,-0.0015578887833358,0.0015578936918368,-0.0015578856410179,0.0015578948060503,-0.0015578875034599,0.001557892411968,-0.0015578844734197,0.0015578936384148,-0.0012199770929724,0.0012199848947977,-0.0012199757194311,0.0012199835212379,0.42516298576731,125301,3014,0.0039268073913066,0.0042295964930887,0.0053115395699958,37.1047910116,0.0002120383280928,0.0002120383280928,0.0002120383280928,3828620.5700097,0.013560201773549
12419200,0.99354771243099,0.015207108228109,0.0045821923621888,0.0048667551720268,0.0057581606938933,-0.00094259017396299,0.00094259712215502,2.7058632790577e-09,2.7058601744173e-09,2.047915982249e-09,3.2439104171458e-09,-0.0011881983283454,0.0011882067310222,-0.0011881978605245,0.0011882062632881,-0.0011881971969729,0.0011882063892602,-0.0011881967319608,0.0011882059241621,-0.0010590205267192,0.0010590264444396,-0.0010590207251151,0.0010590266428856,2.1549556391009e-09,1.4842530022606e-09,4.9558507090905e-09,-1.4804626635554e-09,-0.0010148459435644,0.0010148510133837,-0.0012664809113937,0.0012664896815088,-0.0012664825247657,0.0012664869880805,-0.0012664801818569,0.0012664884559779,-0.0012664817951303,0.0012664857624935,-0.0011198463612415,0.0011198557410475,-0.0011198528904276,0.0011198496838584,-0.0010084377757514,0.0010084402169395,-0.0010084401380849,0.0010084412538156,2.7844075674954e-09,2.7844022013652e-09,-0.0012748235880092,0.0012748299678872,-4.9273898704453e-10,5.9528007001424e-09,-0.0015575931106463,0.0015575977583703,-0.0015575899784411,0.0015575989378732,-0.0015575918734158,0.001557596521147,-0.00155758885104,0.001557597810435,-0.001217682116218,0.0012176897431526,-0.0012176807425021,0.0012176883694176,0.44663644431852,125301,3014,0.0039213466276285,0.0042206854582509,0.0052971040829451,36.80229218492,0.00020961833747936,0.00020961833747936,0.00020961833747936,3750268.7881608,0.013531045001911
12919200,0.99513180340644,0.015221970958497,0.0045870522026378,0.004871606126401,0.0057633126294583,-0.00094015259968751,0.00094016038445794,3.0305942718959e-09,3.0305911659613e-09,2.3554675928466e-09,3.5656900533518e-09,-0.0011882552052732,0.0011882643269095,-0.0011882546987112,0.0011882638204343,-0.0011882540223061,0.0011882639386717,-0.0011882535188825,0.0011882634351622,-0.0010564874827431,0.0010564940990281,-0.0010564876814851,0.0010564942978202,2.4327937959122e-09,1.7622520543984e-09,5.3064328663666e-09,-1.2534740540564e-09,-0.0010117241669273,0.0010117299911789,-0.0012659051936496,0.0012659146524773,-0.0012659068101774,0.001265911877062,-0.0012659044106928,0.0012659133680714,-0.0012659060271219,0.0012659105925999,-0.0011167317688904,0.0011167418877526,-0.0011167384150447,0.0011167357067147,-0.0010059132196348,0.00100591622262,-0.0010059155970205,0.0010059172705564,2.9686511026878e-09,2.9686457359105e-09,-0.0012705544714933,0.0012705613719857,-3.7225651134852e-10,6.1994901797423e-09,-0.0015557476868544,0.0015557527191073,-0.0015557444462366,0.0015557538752376,-0.0015557463785979,0.001555751410858,-0.0015557432494877,0.0015557526784516,-0.001214349654348,0.0012143577256302,-0.0012143482962134,0.0012143563674764,0.41875849256559,125301,3014,0.0039112463645133,0.0042077526618528,0.0052794185350482,36.136517065319,0.00020429213652255,0.00020429213652255,0.00020429213652255,3691582.4588104,0.013489803448272
13419200,0.99626043615711,0.01523233303051,0.0045904497726413,0.0048749923931849,0.0057668908646838,-0.0009368463592508,0.00093685569049302,3.6299165507469e-09,3.629913424666e-09,2.9142172266053e-09,4.1697331180155e-09,-0.0011848144800403,0.0011848249640968,-0.0011848138990351,0.0011848243831781,-0.0011848131918445,0.0011848244911247,-0.0011848126147508,0.0011848239139447,-0.0010534715282748,0.001053479434294,-0.0010534717264803,0.0010534796325497,2.9472668819084e-09,2.2647563419653e-09,5.9433960265439e-09,-8.3641466374716e-10,-0.001008397597095,0.0010084048005662,-0.001262410222053,0.0012624209815825,-0.0012624118396901,0.001262418054718,-0.001262409339556,0.0012624195780667,-0.0012624109570945,0.001262416651146,-0.0011136959258486,0.0011137073775043,-0.0011137027810046,0.001113700977366,-0.0010027684691636,0.0010027725094513,-0.001002770890582,0.0010027735692832,3.3248199562091e-09,3.3248145849026e-09,-0.0012673079355065,0.0012673158119795,-1.3141366446158e-10,6.6659434392389e-09,-0.001552441425898,0.0015524472207174,-0.0015524379825099,0.001552448326507,-0.0015524399800418,0.0015524457748685,-0.0015524366530231,0.0015524469969833,-0.0012111691402904,0.0012111780527464,-0.0012111677981207,0.0012111767105576,0.40900439415344,125301,3014,0.0038975243758989,0.0041939496086637,0.0052659609361685,34.795366940139,0.00019356293552111,0.00019356293552111,0.00019356293552111,3697371.4228089,0.013448262789177
13919200,0.9970915614532,0.015239803409184,0.0045928991336534,0.0048774336944216,0.0057694705811093,-0.00093445510774503,0.00093446362337608,3.3129656964956e-09,3.3129625608855e-09,2.6077311261335e-09,3.8605843188579e-09,-0.0011830185341365,0.0011830283077675,-0.0011830179898112,0.0011830277635286,-0.0011830172937846,0.0011830278850329,-0.0011830167525988,0.0011830273437608,-0.0010510913319724,0.0010510985629533,-0.0010510915352456,0.0010510987662768,2.6854079014376e-09,1.9905252464965e-09,5.7272821517659e-09,-1.1746198890193e-09,-0.0010058654683792,0.0010058719490318,-0.0012604589728703,0.001260469149365,-0.0012604606633716,0.0012604662197804,-0.0012604581480262,0.0012604678012522,-0.0012604598384289,0.0012604648716114,-0.0011111997644122,0.0011112107423065,-0.001111206745449,0.0011112042265668,-0.0010003727337869,0.0010003761678837,-0.0010003751573846,0.0010003772099812,3.1682493586275e-09,3.1682439664392e-09,-0.0012646100600662,0.0012646174883611,-3.4313425704281e-10,6.5705643979149e-09,-0.0015502947403494,0.0015503001298082,-0.0015502913223088,0.0015503013365371,-0.0015502933643775,0.0015502987538437,-0.0015502900602241,0.0015503000744157,-0.001208664165443,0.0012086727759415,-0.0012086628087851,0.0012086714192645,0.40047476240274,125301,3014,0.0038875996678122,0.0041834442291142,0.0052547790937052,33.82864984323,0.00018582919874584,0.00018582919874584,0.00018582919874584,3685780.9223005,0.013416233886768
14419200,0.99770452446654,0.015245058973855,0.0045946232874289,0.0048791515141101,0.0057712841723164,-0.00093160900642949,0.00093161801870513,3.5062518907645e-09,3.5062487319198e-09,2.7879565391944e-09,4.0555171978805e-09,-0.0011807001812712,0.0011807103888033,-0.0011806996137895,0.001180709821408,-0.0011806989076337,0.0011807099398057,-0.0011806983434267,0.0011807093755122,-0.0010482834206244,0.0010482910674282,-0.0010482836242976,0.0010482912711515,2.8530823387446e-09,2.1526771974503e-09,5.9630695262636e-09,-1.0683550431107e-09,-0.0010029073302935,0.0010029142561057,-0.0012580190924657,0.0012580297049484,-0.0012580208027551,0.001258026707724,-0.0012580182367566,0.0012580283189683,-0.0012580199469473,0.0012580253216877,-0.0011083004771631,0.0011083119440036,-0.0011083075826974,0.0011083052996276,-0.0009975592311032,0.00099756298350047,-0.00099756167034127,0.00099756402774577,3.2857693289436e-09,3.2857639417553e-09,-0.001261523294945,0.0012615310437459,-2.9094711197133e-10,6.7531596248149e-09,-0.0015476976999563,0.0015477033187675,-0.0015476941983724,0.0015477045292441,-0.0015476962807066,0.001547701899525,-0.0015476928943172,0.0015477032251521,-0.0012057703406723,0.0012057792473733,-0.0012057689903845,0.0012057778970664,0.38210045494667,125301,3014,0.0038757904365759,0.0041711738784662,0.0052419863350264,32.642432850325,0.0001763394628026,0.0001763394628026,0.0001763394628026,3676896.9416911,0.013378874152483
14919200,0.99814418904129,0.015248980165972,0.0045959101592307,0.0048804337400242,0.0057726362667171,-0.00092709096653144,0.00092710194877756,4.2738684516055e-09,4.2738652851139e-09,3.5043053351128e-09,4.8298053640262e-09,-0.0011761774936275,0.0011761894272187,-0.0011761768348477,0.0011761887685253,-0.001176176087244,0.0011761888727386,-0.0011761754327345,0.0011761882181427,-0.0010439465532033,0.0010439558493155,-0.0010439467541433,0.0010439560503058,3.5130238759317e-09,2.7931225876711e-09,6.7638792790354e-09,-5.2197037576419e-10,-0.00099846486255063,0.0009984735403377,-0.0012535466483988,0.0012535588968585,-0.001253548355281,0.001253555719103,-0.0012535456682999,0.0012535573597778,-0.0012535473750835,0.0012535541819661,-0.0011040311973857,0.0011040443379361,-0.0011040385415923,0.0011040374372301,-0.00099318608212774,0.00099319116999415,-0.00099318857725596,0.0009931922209547,3.7242397950307e-09,3.7242343937251e-09,-0.0012573221963849,0.0012573311499471,1.3810037112846e-11,7.3194565847433e-09,-0.0015434834977911,0.0015434900533741,-0.0015434797504933,0.0015434911950177,-0.0015434819065064,0.0015434884620967,-0.0015434782802855,0.001543489724773,-0.0012015721225964,0.0012015820598248,-0.0012015707974352,0.0012015807346445,0.39678962402156,125301,3014,0.0038570424315088,0.0041527433490906,0.005224573012632,30.578865816084,0.00015983092652867,0.00015983092652867,0.00015983092652867,3686145.502147,0.013323553532517
15419200,0.99844376017259,0.015252266645356,0.0045969881051658,0.00488150884986,0.0057737696903298,-0.000919123734472,0.00091913790275866,5.5175899888544e-09,5.517586790511e-09,4.6637123046139e-09,6.0878085514805e-09,-0.0011698951371612,0.0011699098221519,-0.0011698943347621,0.0011699090198392,-0.0011698935181851,0.0011699091037123,-0.0011698927215282,0.0011699083069691,-0.0010359734777761,0.0010359854514165,-0.0010359736732549,0.0010359856469455,4.5899773333966e-09,3.8243726544928e-09,8.0535470422685e-09,3.7196267471717e-10,-0.00099026638792571,0.00099027790138662,-0.0012470573584864,0.0012470722155976,-0.0012470590579593,0.0012470687553091,-0.0012470561861301,0.0012470704355014,-0.0012470578855043,0.0012470669751567,-0.0010958674914463,0.0010958833281854,-0.0010958752037056,0.0010958760256412,-0.00098527359714655,0.00098528087198897,-0.00098527619042092,0.00098528191376827,4.4144499141147e-09,4.414444542573e-09,-0.001248826244889,0.0012488371167263,4.9738551986085e-10,8.2089430952468e-09,-0.0015365481431338,0.0015365561578214,-0.0015365440118283,0.0015365571897684,-0.0015365462819772,0.0015365542966722,-0.0015365422799535,0.0015365554578568,-0.0011935518350608,0.0011935634004569,-0.0011935505590448,0.0011935621244214,0.48651353790675,125301,3014,0.0038239929010159,0.0041187434565585,0.005189364346428,27.069957600793,0.00013175966080634,0.00013175966080634,0.00013175966080634,3664054.2891973,0.013219961706323
15919200,0.99867397278449,0.015255367621992,0.0045980059362935,0.0048825239947581,0.0057748376909402,-0.00091372426784389,0.00091373448296779,3.9787503551137e-09,3.978747228268e-09,3.1953277189315e-09,4.5681867748827e-09,-0.0011692096268114,0.0011692207939105,-0.0011692090092688,0.001169220176455,-0.0011692082573674,0.0011692203136731,-0.0011692076425042,0.0011692196987242,-0.0010300792645935,0.001030087959968,-0.001030079471318,0.0010300881667429,3.3018065014628e-09,2.5082096171514e-09,6.7512179721223e-09,-1.0194877367665e-09,-0.00098368679484521,0.00098369480459395,-0.0012453630147952,0.0012453747835325,-0.0012453649137398,0.0012453714865234,-0.0012453621185073,0.0012453732912739,-0.001245364017353,0.0012453699942084,-0.0010889596119557,0.0010889726748975,-0.0010889674318398,0.0010889652955448,-0.00097955277840264,0.00097955725339702,-0.00097955532673495,0.0009795582164012,3.5656751543069e-09,3.5656698053527e-09,-0.001240019470711,0.0012400280095641,-3.7347343108422e-10,7.4059706004171e-09,-0.0015323190565759,0.0015323250433522,-0.0015323152266197,0.0015323264140185,-0.0015323175477681,0.0015323235345518,-0.001532313833539,0.001532325020901,-0.0011863589713963,0.0011863687393393,-0.0011863576514889,0.0011863674194115,0.59571470761932,125301,3014,0.0038016037882322,0.0040914724869842,0.0051528761902455,25.353598869137,0.0001180287909531,0.0001180287909531,0.0001180287909531,3556331.2088275,0.013132741013801
16419200,0.99886077577332,0.015257485186155,0.0045987041332443,0.0048832181062826,0.0057755629466285,-0.00090907175150936,0.00090908023200516,3.2984264012493e-09,3.2984232939031e-09,2.5610944353818e-09,3.8777625414279e-09,-0.0011693550950845,0.0011693647266993,-0.001169354556322,0.0011693641880241,-0.0011693538443866,0.0011693643381729,-0.0011693533072348,0.0011693638009356,-0.001025015118049,0.0010250223569622,-0.0010250153322659,0.0010250225712298,2.7196803590254e-09,1.945286526922e-09,6.1209284435573e-09,-1.5709055920362e-09,-0.00097756364884159,0.00097757013257426,-0.0012442755709054,0.0012442859421901,-0.0012442775179713,0.0012442827542421,-0.0012442747843075,0.0012442845849165,-0.0012442767312745,0.0012442813969121,-0.0010826034442559,0.001082615188865,-0.0010826111996455,0.0010826078956054,-0.0009745139610416,0.0009745172172522,-0.00097451646155201,0.00097451818016327,3.1783406214051e-09,3.178335230511e-09,-0.0012309188920776,0.0012309263920306,-7.133789704092e-10,6.979003993248e-09,-0.0015281759620745,0.0015281810768,-0.0015281722994857,0.0015281825540757,-0.0015281746044678,0.0015281797192006,-0.0015281710513073,0.0015281813058606,-0.0011791025287591,0.0011791114441302,-0.0011791011914866,0.0011791101068371,0.50210013400473,125301,3014,0.0037823155030658,0.0040660992562023,0.0051151786039696,24.411882871264,0.00011049506297011,0.00011049506297011,0.00011049506297011,3435226.4387226,0.013049363914192
16919200,0.99901602569134,0.015259790744622,0.00459946760351,0.0048839760907839,0.0057763470503279,-0.00090687249357433,0.00090688029173501,3.0244507351943e-09,3.0244476328479e-09,2.3143750260198e-09,3.5892130647987e-09,-0.0011635644809328,0.0011635735895092,-0.0011635639640635,0.0011635730727261,-0.001163563277298,0.0011635732209049,-0.0011635627618205,0.0011635727053408,-0.0010235836484237,0.001023590288366,-0.0010235838685296,0.0010235905085227,2.4680170165362e-09,1.7370513073852e-09,5.8329724284334e-09,-1.7601382286571e-09,-0.00097600214162605,0.00097600802310839,-0.0012389029427931,0.0012389128043207,-0.0012389048781713,0.0012389096717913,-0.001238902180963,0.0012389115013206,-0.0012389041162424,0.0012389083687348,-0.0010817364150037,0.0010817475653127,-0.0010817440845143,0.0010817403791943,-0.00097285548092458,0.00097285823215188,-0.00097285794199737,0.00097285924441716,3.0815382223579e-09,3.0815328467574e-09,-0.0012307048260391,0.0012307120163494,-7.6072718439494e-10,6.8314086028623e-09,-0.0015244114317032,0.00152441638531,-0.0015244078431231,0.0015244178694353,-0.0015244101194947,0.0015244150731089,-0.0015244066405671,0.0015244166668428,-0.0011781608545101,0.0011781695134418,-0.0011781594855443,0.0011781681444562,0.65164127745866,125301,3014,0.0037731563349236,0.0040595834388884,0.0051142647206864,23.779666528196,0.00010543733222557,0.00010543733222557,0.00010543733222557,3507341.0459908,0.013032497589401
17419200,0.99913781181801,0.015261411295797,0.0046000031584157,0.0048845079853389,0.0057769001520422,-0.00090077215775089,0.00090078248019311,4.0050875134727e-09,4.0050844304493e-09,3.2519764465577e-09,4.5583805133984e-09,-0.0011639295976342,0.0011639408197836,-0.0011639289698419,0.0011639401920786,-0.001163928243364,0.0011639403119265,-0.0011639276183142,0.0011639396867912,-0.0010164967066919,0.0010165054582604,-0.0010164969275486,0.0010165056791678,3.3107594618542e-09,2.5741843101348e-09,6.7436914644077e-09,-9.3050393754591e-10,-0.00096821209865644,0.00096822025179148,-0.0012378670134149,0.001237878796966,-0.0012378688709393,0.0012378755216696,-0.0012378660948247,0.0012378773200898,-0.00123786795225,0.0012378740447369,-0.0010731634212536,0.0010731765170114,-0.0010731711591375,0.0010731692451482,-0.00096595636341928,0.00096596091564436,-0.00096595886708057,0.00096596194743584,3.5778377312191e-09,3.5778323369722e-09,-0.0012194643161641,0.001219472964871,-3.1317093269592e-10,7.369843681952e-09,-0.0015196532605156,0.0015196593134576,-0.0015196494536231,0.0015196606432542,-0.0015196517459438,0.0015196577988932,-0.00151964805217,0.0015196592417644,-0.0011688710459561,0.001168880835915,-0.0011688697309017,0.0011688795208396,0.58772740813402,125301,3014,0.0037478742758139,0.0040273111872783,0.0050677149048638,21.982613664714,9.106090931771e-05,9.106090931771e-05,9.106090931771e-05,3355633.0290529,0.012927138493765
17919200,0.99923085528354,0.015262447863286,0.004600347811317,0.0048848490022487,0.0057772510497208,-0.00089419437155726,0.00089420622261374,4.5896407171854e-09,4.5896376059863e-09,3.7896304473323e-09,5.1520904258211e-09,-0.0011552184378682,0.0011552310352581,-0.0011552177284767,0.001155230325953,-0.001155216971718,0.0011552304407022,-0.001155216265915,0.0011552297348128,-0.0010105709014051,0.0010105809167651,-0.0010105711274743,0.001010581142885,3.8154585831707e-09,3.0652183777102e-09,7.3697055015438e-09,-5.228461076641e-10,-0.00096199176023303,0.00096200128524103,-0.0012293343347365,0.0012293474450078,-0.0012293361861451,0.0012293440111795,-0.0012293333142795,0.0012293458435192,-0.0012293351655893,0.0012293424096344,-0.0010675711173616,0.0010675855234033,-0.0010675790697663,0.0010675780413082,-0.00095991187042619,0.00095991744373543,-0.00095991443126875,0.00095991849627083,3.9633555430911e-09,3.9633501598438e-09,-0.0012140683239765,0.0012140780162507,-4.3704633971079e-11,7.8643885253289e-09,-0.0015120652527607,0.0015120721597701,-0.0015120612354191,0.001512073431467,-0.0015120635936743,0.0015120705006912,-0.0015120596954681,0.0015120718914796,-0.0011632590547256,0.0011632697448111,-0.0011632577411893,0.0011632684312545,0.4915601615792,125301,3014,0.0037205550788785,0.0040014780762027,0.0050453268178392,19.5023166915,7.1218533532001e-05,7.1218533532001e-05,7.1218533532001e-05,3401094.3617119,0.012850583660745
18419200,0.99930481791366,0.015263310656412,0.0046006342258823,0.0048851327404153,0.0057775436901143,-0.000890153132125,0.0008901640605946,4.2337190682004e-09,4.2337159305903e-09,3.4413988820676e-09,4.8076145637046e-09,-0.001147399113085,0.0011474109864089,-0.001147398441244,0.0011474103146537,-0.0011473976940984,0.0011474104439442,-0.0011473970252161,0.0011474097749749,-0.0010071625426511,0.0010071717877545,-0.0010071627764831,0.0010071720216374,3.5138768720463e-09,2.7574963461699e-09,7.1277864735518e-09,-9.1202938453842e-10,-0.00095894370170619,0.00095895239447534,-0.0012222563394804,0.0012222688599771,-0.0012222582735219,0.0012222654157933,-0.0012222553749218,0.0012222673144245,-0.0012222573088644,0.0012222638701841,-0.0010650435115423,0.0010650573732811,-0.0010650516199869,0.0010650497566641,-0.00095639134977417,0.00095639621107617,-0.00095639391672455,0.0009563972623584,3.8211426260687e-09,3.8211372089989e-09,-0.0012132114597304,0.0012132206811894,-2.5560622287593e-10,7.7950422377221e-09,-0.0015072849465415,0.0015072915001331,-0.001507280943564,0.0015072928796045,-0.00150728335393,0.0015072899075292,-0.001507279469845,0.0015072914058491,-0.0011612761614451,0.0011612865663742,-0.0011612748123974,0.0011612852173069,0.51421839069127,125301,3014,0.0037037506099764,0.0039887918329087,0.0050417477266564,17.47911696677,5.5032935734157e-05,5.5032935734157e-05,5.5032935734157e-05,3492912.0763179,0.012817040962326
18919200,0.99936936855141,0.015264170798111,0.0046009186698903,0.0048854152094316,0.0057778369187895,-0.00088865451446512,0.00088866234584291,3.0391577065535e-09,3.039154572414e-09,2.3241196049767e-09,3.6079514076199e-09,-0.0011475652977465,0.0011475744504301,-0.0011475647778088,0.0011475739305788,-0.0011475640901138,0.0011475740839468,-0.0011475635711406,0.0011475735648872,-0.0010052301895852,0.0010052368623189,-0.0010052304256388,0.0010052370984232,2.49328630266e-09,1.7539290766137e-09,6.0069743093735e-09,-1.8897619236947e-09,-0.0009571102482858,0.00095711618031664,-0.0012221187627582,0.0012221287899886,-0.0012221207924388,0.0012221255523693,-0.0012221180030952,0.001222127484201,-0.0012221200326769,0.0012221242465252,-0.0010628301731952,0.0010628416640828,-0.0010628381534208,0.0010628341929036,-0.00095461014314209,0.00095461284497779,-0.00095461263046551,0.00095461386757052,3.1365436991548e-09,3.1365382460567e-09,-0.0012107415114222,0.0012107488249874,-8.540139376369e-10,7.0388267403512e-09,-0.0015063053727292,0.0015063103557164,-0.0015063016805839,0.0015063119355404,-0.0015063040584779,0.0015063090414726,-0.001506300475215,0.001506310730135,-0.0011591774694506,0.00115918634189,-0.0011591760873985,0.001159184959818,0.5877987766322,125301,3014,0.0036975309697048,0.0039811882336613,0.0050315151989279,16.874921880086,5.0199375040687e-05,5.0199375040687e-05,5.0199375040687e-05,3454477.7747562,0.0127927073213
19419200,0.9994302515445,0.015265079132416,0.0046012193282021,0.0048857137022265,0.0057781461019874,-0.00088887448252772,0.00088887950884469,1.9513695546761e-09,1.951366469535e-09,1.3184898381581e-09,2.4983470403893e-09,-0.001151113431103,0.0011511201382428,-0.0011511130446413,0.0011511197518679,-0.0011511124209867,0.0011511199172181,-0.001151112034187,0.0011511195303324,-0.0010049288684613,0.0010049331920327,-0.0010049291070389,0.0010049334306612,1.5468666348415e-09,8.5752496172127e-10,4.8818001389671e-09,-2.6709996717154e-09,-0.0009563170596377,0.00095632049702052,-0.0012248210616484,0.001224828762516,-0.0012248231065669,0.0012248257799026,-0.0012248204729909,0.0012248276805251,-0.0012248225178105,0.0012248246978551,-0.0010616440828464,0.0010616532241436,-0.0010616517402178,0.0010616460986779,-0.00095443703371192,0.00095443781007733,-0.00095443941725648,0.0009544388432151,2.4941780608664e-09,2.4941725953275e-09,-0.001207784550777,0.0012077901024811,-1.3158096917701e-09,6.2238817690371e-09,-0.0015067114627181,0.0015067150649399,-0.0015067081148055,0.001506716750153,-0.0015067103932685,0.0015067139954977,-0.0015067071455082,0.0015067157808193,-0.0011574546980555,0.0011574620707682,-0.0011574532884175,0.0011574606611097,0.65664642788028,125301,3014,0.0036984564872072,0.0039779184826006,0.0050192772347461,17.545891412381,5.5567131299049e-05,5.5567131299049e-05,5.5567131299049e-05,3365264.9778393,0.012777985432772
19919200,0.99948896001204,0.015265933347468,0.0046015030307657,0.004885994807814,0.0057784355088884,-0.00088959609703801,0.00088960008778724,1.5490023281304e-09,1.5489992531949e-09,9.6382103819358e-10,2.0683759154768e-09,-0.0011545681299555,0.0011545739542023,-0.0011545677916746,0.0011545736160083,-0.0011545672036423,0.0011545737736293,-0.0011545668649547,0.0011545734348559,-0.001005297250855,0.0010053006927484,-0.0010052974924967,0.0010053009344409,1.1807027343218e-09,5.4696991687464e-10,4.3520733007e-09,-2.8405060677084e-09,-0.00095600187798943,0.00095600440044505,-0.0012274026341244,0.0012274094006037,-0.0012274046094536,0.0012274065891941,-0.0012274020957254,0.001227408412193,-0.0012274040709556,0.0012274056007268,-0.0010610972178775,0.0010611052790462,-0.0010611045319309,0.0010610985151366,-0.00095482393188345,0.0009548240411726,-0.00095482624385386,0.00095482511862485,2.2424563656738e-09,2.242450918899e-09,-0.0012051663663111,0.0012051712397565,-1.3879362343537e-09,5.7911465309193e-09,-0.0015070144454056,0.0015070175929041,-0.0015070112986323,0.0015070192387975,-0.0015070134639006,0.0015070166114065,-0.001507010413956,0.0015070183540848,-0.0011560461337106,0.001156052846894,-0.0011560447129081,0.0011560514260705,0.63949909152816,125301,3014,0.0037014612239235,0.0039766297906471,0.0050084447084544,18.682040939008,6.4656327512062e-05,6.4656327512062e-05,6.4656327512062e-05,3283452.3726137,0.012768786689483
20419200,0.9995413817765,0.015266759337071,0.0046017781030631,0.0048862670336935,0.0057787142003143,-0.00088824028169998,0.00088824690979318,2.5670853612455e-09,2.5670822789573e-09,1.9409701330771e-09,3.0688572275771e-09,-0.0011527680153878,0.0011527761314072,-0.0011527675509191,0.001152775667025,-0.0011527669289736,0.001152775791939,-0.001152766465948,0.0011527753288272,-0.0010040888711386,0.0010040944957831,-0.0010040891122246,0.0010040947369202,2.0412747508267e-09,1.43255400008e-09,5.2061155499393e-09,-1.8886258151264e-09,-0.0009545159708926,0.00095452086531563,-0.0012254091054741,0.0012254178906504,-0.0012254109314891,0.0012254149798458,-0.0012254083869634,0.0012254167198223,-0.0012254102128794,0.0012254138089612,-0.0010597874949898,0.0010597973978203,-0.0010597947049596,0.0010597907282794,-0.00095358277536454,0.00095358478494075,-0.00095358511301458,0.00095358592323497,2.8231164254075e-09,2.8231109984851e-09,-0.0012033918231897,0.0012033983304122,-7.7268166263501e-10,6.3229187793186e-09,-0.001504774475038,0.0015047790063815,-0.0015047711452486,0.0015047804186763,-0.0015047732678395,0.0015047777991905,-0.0015047700419157,0.0015047793153071,-0.0011544721526738,0.0011544801008686,-0.0011544707633199,0.001154478711494,0.69004788769245,125301,3014,0.0036958300327142,0.0039704605672863,0.0050010870927003,18.601894960528,6.4015159684228e-05,6.4015159684228e-05,6.4015159684228e-05,3282055.7705453,0.012749371409621
20919200,0.99958498128789,0.01526739983633,0.0046019915392712,0.0048864781188794,0.0057789301781794,-0.00088402243301006,0.00088403182045395,3.6361791282236e-09,3.6361760215244e-09,2.9476665938089e-09,4.139287906037e-09,-0.0011507429940975,0.0011507534819551,-0.001150742400092,0.0011507528880362,-0.0011507417288249,0.0011507529916278,-0.0011507411378382,0.001150752400555,-0.00099957008665584,0.00099957801610957,-0.00099957033194831,0.00099957826145309,2.9648510859218e-09,2.3370914345988e-09,6.2172586095048e-09,-1.0061441143652e-09,-0.00094961857339243,0.00094962594657205,-0.0012227909370358,0.0012228019076495,-0.0012227926833596,0.0012227988184865,-0.0012227900457279,0.001222800533607,-0.0012227917919526,0.0012227974443874,-0.0010546678563181,0.0010546799033548,-0.0010546751858458,0.0010546731070696,-0.00094910624024563,0.00094911020633516,-0.00094910865063515,0.00094911136522413,3.4221321287125e-09,3.4221267129956e-09,-0.0011970269663688,0.0011970351684713,-2.4905607044918e-10,6.987124775796e-09,-0.0015006439351172,0.0015006498116802,-0.0015006403413669,0.0015006510579121,-0.001500642495001,0.0015006483715717,-0.0015006390115233,0.0015006497280323,-0.0011488856035609,0.0011488949057617,-0.0011488842507665,0.0011488935529462,0.64466974006305,125301,3014,0.0036783342457847,0.0039501553024917,0.0049747196357064,17.27724527709,5.3417962216717e-05,5.3417962216717e-05,5.3417962216717e-05,3227638.441764,0.012684418681906
21419200,0.99961997174157,0.01526791176528,0.0046021624436971,0.0048866469917127,0.0057791023298699,-0.00087889008318326,0.0008789011126601,4.2699054147912e-09,4.2699023048862e-09,3.525573939195e-09,4.7910350247569e-09,-0.0011442391970796,0.0011442511333111,-0.0011442385203351,0.0011442504566529,-0.0011442378102837,0.0011442505592819,-0.0011442371373704,0.0011442498862821,-0.00099480377273849,0.00099481307588626,-0.00099480402349688,0.00099481332669582,3.5235876412717e-09,2.8585791877063e-09,6.9113499118054e-09,-5.8022385296186e-10,-0.00094477073565217,0.00094477958100179,-0.0012164229634451,0.001216435352074,-0.0012164247187282,0.0012164320866368,-0.0012164219733079,0.0012164338421069,-0.001216423728492,0.001216430576613,-0.001050174194375,0.0010501876845582,-0.0010501817859297,0.0010501806278568,-0.00094432937888785,0.00094433446144064,-0.00094433186789923,0.00094433561591133,3.8212670110041e-09,3.8212616019928e-09,-0.0011928723652171,0.0011928816545213,1.0122648407098e-11,7.5205088061477e-09,-0.0014949498091091,0.0014949565405118,-0.0014949459859858,0.0014949577423135,-0.0014949482213122,0.0014949549527227,-0.0014949445139049,0.0014949562701966,-0.0011445701741218,0.0011445804249032,-0.0011445688291795,0.0011445790799402,0.64095610021346,125301,3014,0.0036570202966133,0.0039300238383454,0.0049574822180536,15.2311654111,3.7049323288804e-05,3.7049323288804e-05,3.7049323288804e-05,3259591.8520322,0.012624970168192
21919200,0.99964972711624,0.015268334353962,0.0046023034102134,0.0048867863290582,0.0057792446146909,-0.00087571202811857,0.00087572130849695,3.5953228713248e-09,3.5953197492437e-09,2.876284813091e-09,4.1313117938194e-09,-0.0011413045922244,0.0011413150089858,-0.001141303999324,0.0011413144161717,-0.0011413033114784,0.0011413145434486,-0.0011413027210859,0.0011413139529696,-0.00099156797999616,0.00099157583845862,-0.00099156823395181,0.00099157609246538,2.9578618278963e-09,2.2712619334941e-09,6.3562315603538e-09,-1.2190500237763e-09,-0.00094151937783299,0.00094152665374302,-0.001213377010502,0.0012133880739799,-0.0012133788705172,0.0012133848680934,-0.0012133761432961,0.0012133866854314,-0.0012133780032123,0.0012133834794882,-0.0010468823711148,0.0010468946603683,-0.0010468900527917,0.001046887525428,-0.00094114038425512,0.00094114421073601,-0.00094114286428281,0.00094114532312599,3.453633533278e-09,3.4536280918854e-09,-0.0011895134922361,0.0011895217335998,-3.8927889238528e-10,7.1946710083864e-09,-0.001491719945405,0.0014917257894143,-0.0014917162391412,0.0014917271535647,-0.0014917185096085,0.0014917243536255,-0.0014917149141519,0.0014917258285392,-0.0011413237719572,0.0011413332447095,-0.0011413224014669,0.0011413318741986,0.62311101531201,125301,3014,0.003643821453114,0.0039165253279116,0.004943554980938,13.995900053298,2.7167200426388e-05,2.7167200426388e-05,2.7167200426388e-05,3253771.3692519,0.012583839920135
22419200,0.99967859679063,0.015268763141133,0.0046024464275614,0.0048869277292823,0.0057793889842893,-0.00087722644874036,0.00087723108777478,1.7949958901959e-09,1.7949928050255e-09,1.2361659217737e-09,2.2728362742355e-09,-0.0011423328119013,0.0011423392324147,-0.0011423324380554,0.001142338858655,-0.0011423318702869,0.0011423389882714,-0.0011423314971253,0.0011423386150233,-0.00099306207019293,0.0009930660187245,-0.00099306232192389,0.00099306627050669,1.3633658144059e-09,8.1405760287292e-10,4.3627020147551e-09,-2.3893457651717e-09,-0.00094302298307379,0.00094302611854474,-0.0012143420735455,0.0012143492128706,-0.0012143438747654,0.0012143465113425,-0.0012143414685483,0.0012143482074624,-0.0012143432696692,0.0012143455058777,-0.0010483791577157,0.0010483873093134,-0.0010483860527524,0.0010483809935174,-0.00094266925165355,0.00094266991384349,-0.00094267150514033,0.00094267109645865,2.4059658511301e-09,2.4059603707387e-09,-0.0011909851812266,0.0011909905122728,-1.0150460338492e-09,5.7332600981483e-09,-0.0014926215656593,0.0014926252504612,-0.0014926185084239,0.0014926267018113,-0.0014926205296724,0.001492624214482,-0.0014926175706421,0.0014926257639933,-0.0011428126425804,0.0011428195682214,-0.0011428112160737,0.0011428181416941,0.65096373206224,125301,3014,0.0036500922616028,0.003922750972995,0.0049496489643662,14.850076604646,3.4000612837165e-05,3.4000612837165e-05,3.4000612837165e-05,3254293.5398756,0.012602658578944
22919200,0.99970590038581,0.015269128373685,0.0046025683162353,0.0048870481607156,0.0057795118967345,-0.00087768271530343,0.00087768809427125,2.081438076819e-09,2.0814349812665e-09,1.5099975411999e-09,2.5544544988744e-09,-0.0011441431495905,0.0011441502087926,-0.0011441427416311,0.0011441498009196,-0.0011441421627009,0.0011441499211346,-0.0011441417560785,0.0011441495144258,-0.00099322572005156,0.00099323028280978,-0.00099322597207578,0.00099323053488521,1.6072915558064e-09,1.0598646508422e-09,4.5720090221598e-09,-2.0902026947194e-09,-0.0009430143397836,0.00094301814029236,-0.0012157525992935,0.0012157602816542,-0.0012157543404445,0.0012157575745162,-0.001215751945123,0.0012157592235771,-0.0012157536861749,0.0012157565163824,-0.0010481339984939,0.0010481426056668,-0.0010481408038659,0.0010481363783345,-0.00094289270897,0.00094289392860921,-0.00094289497404028,0.00094289512282951,2.5535651894245e-09,2.5535597181505e-09,-0.0011899303194879,0.0011899360786024,-8.2732175125604e-10,5.8357270403683e-09,-0.0014929396540727,0.001492943714596,-0.0014929365660798,0.0014929450802775,-0.0014929385545633,0.0014929426150943,-0.0014929355663796,0.0014929440805412,-0.0011422619162286,0.0011422691378996,-0.0011422605029573,0.0011422677246075,0.58748017292924,125301,3014,0.0036519926098821,0.0039227259765458,0.0049452891011744,15.357494512055,3.8059956096439e-05,3.8059956096439e-05,3.8059956096439e-05,3214468.1793494,0.012600163556062
23419200,0.99973140589007,0.015269480312367,0.0046026858843609,0.0048871642902003,0.0057796301378056,-0.0008784771920804,0.00087848291819962,2.2138352778225e-09,2.2138321721527e-09,1.6333646547133e-09,2.6889033030851e-09,-0.0011427051453928,0.0011427125177286,-0.0011427047184513,0.0011427120908732,-0.0011427041338593,0.0011427122100077,-0.0011427037085934,0.001142711784655,-0.00099437864682859,0.00099438349542139,-0.00099437889900805,0.0009943837476521,1.7224678089e-09,1.1742559763944e-09,4.6721837921476e-09,-1.9545605238314e-09,-0.00094428551474781,0.00094428962887152,-0.0012146374408457,0.0012146453992486,-0.0012146391530827,0.0012146426839828,-0.0012146367634507,0.0012146443142417,-0.0012146384755886,0.0012146415989191,-0.0010497259662845,0.0010497347889922,-0.0010497327371293,0.001049728597865,-0.00094402262290883,0.00094402410406169,-0.00094402489794768,0.00094402530447067,2.6490351874993e-09,2.6490297139606e-09,-0.0011922579090266,0.0011922639195562,-7.1729639579336e-10,5.9130586429997e-09,-0.0014929005692068,0.0014929048674853,-0.0014928974619658,0.0014929061931146,-0.0014928994380448,0.0014929037363311,-0.0014928964321992,0.0014929051633119,-0.0011441267333773,0.001144134146352,-0.0011441253176922,0.0011441327306465,0.60459639632209,125301,3014,0.0036552766134673,0.003927982686124,0.0049549226609925,15.705783469976,4.0846267759811e-05,4.0846267759811e-05,4.0846267759811e-05,3260187.5860572,0.012618533791558
23919200,0.9997565429266,0.015269889373947,0.0046028222223389,0.0048872991770887,0.0057797679745197,-0.00088105103293923,0.00088105466002741,1.4006030750375e-09,1.4005999731028e-09,8.6818852399536e-10,1.8743187356139e-09,-0.0011463172054002,0.0011463227429054,-0.0011463168793605,0.0011463224169521,-0.0011463163323154,0.0011463225528918,-0.0011463160067637,0.0011463222272535,-0.00099659494198369,0.00099659804175552,-0.00099659519341806,0.00099659829324117,1.0229430040368e-09,4.827205912081e-10,3.8618326518835e-09,-2.5836641725464e-09,-0.00094652062448838,0.00094652285549072,-0.0012179615160719,0.0012179677578205,-0.0012179632641792,0.0012179652086328,-0.001217960974953,0.0012179668293022,-0.0012179627229613,0.0012179642800577,-0.001051643205519,0.0010516503196756,-0.0010516498056542,0.0010516443086672,-0.00094630830193459,0.00094630833166924,-0.00094631052591574,0.00094630950839839,2.1697437033781e-09,2.1697382114282e-09,-0.0011937290238398,0.0011937337091822,-1.0974127143684e-09,5.3426715435811e-09,-0.0014953926593352,0.0014953958996541,-0.0014953897850071,0.0014953973281759,-0.0014953917104694,0.001495394950796,-0.0014953889313251,0.0014953964744577,-0.0011458791785498,0.0011458854931623,-0.0011458777422254,0.0011458840568172,0.71228945632067,125301,3014,0.0036659602501775,0.0039372619586514,0.0049610301935634,17.004663648155,5.1237309185239e-05,5.1237309185239e-05,5.1237309185239e-05,3227273.4181834,0.012644951684392
24419200,0.99978051325018,0.015270260949948,0.004602946243709,0.0048874217545356,0.0057798929517029,-0.00088160091921641,0.00088160548810424,1.7687592368253e-09,1.7687561583605e-09,1.2217314834418e-09,2.2333013138249e-09,-0.0011509635642309,0.0011509699186938,-0.0011509631958935,0.0011509695504432,-0.001150962635501,0.0011509696726567,-0.0011509622684575,0.0011509693055271,-0.00099650002498659,0.00099650391027832,-0.00099650027953503,0.00099650416487808,1.3325681365148e-09,8.0122368060588e-10,4.1411434970283e-09,-2.2088484407622e-09,-0.00094578641193591,0.00094578948944809,-0.0012216048396324,0.0012216117775079,-0.0012216065184963,0.001221609216455,-0.0012216042341446,0.0012216107847665,-0.0012216059129093,0.0012216082236569,-0.0010503929380235,0.0010504006584526,-0.0010503994449467,0.0010503947437583,-0.00094625445551904,0.00094625518502496,-0.00094625668994992,0.00094625638522105,2.3468559117511e-09,2.3468504322126e-09,-0.0011900477101907,0.0011900529162197,-8.7849924271587e-10,5.4723955519841e-09,-0.0014961268824132,0.0014961305714703,-0.0014961239633679,0.001496131897959,-0.0014961258530988,0.0014961295421636,-0.0014961230309049,0.0014961309654598,-0.0011435865693355,0.0011435932455201,-0.0011435851511083,0.0011435918272717,0.6789410524186,125301,3014,0.0036682650032523,0.0039342501106605,0.0049458068124954,17.881915668856,5.8255325350851e-05,5.8255325350851e-05,5.8255325350851e-05,3119920.6279784,0.012628878922415
24919200,0.99980271397908,0.015270569506564,0.0046030496566151,0.0048875237170505,0.0057799961328982,-0.00088177846455164,0.0008817839247921,2.1118331840929e-09,2.1118301211571e-09,1.5450618158339e-09,2.577023689754e-09,-0.0011501188224111,0.0011501259550839,-0.0011501184096183,0.0011501255423775,-0.001150117835576,0.0011501256589019,-0.0011501174246826,0.001150125247922,-0.0009969111871703,0.00099691581244827,-0.00099691144309068,0.00099691606842005,1.6290769292105e-09,1.0960153769329e-09,4.4464434065393e-09,-1.9036721920848e-09,-0.00094598697482434,0.00094599085735934,-0.0012206916651999,0.0012206993105011,-0.0012206933026567,0.0012206967028665,-0.0012206910025199,0.0012206982527312,-0.0012206926398776,0.0012206956450399,-0.0010508466262314,0.0010508549984625,-0.0010508531325382,0.0010508490852056,-0.00094665528792829,0.00094665666139298,-0.00094665754419469,0.00094665787487074,2.5605204061827e-09,2.5605149287912e-09,-0.0011902651304253,0.0011902709259224,-6.6991954791766e-10,5.6859411545772e-09,-0.0014952598360145,0.0014952640237322,-0.0014952568433027,0.0014952652816135,-0.0014952587303403,0.0014952629180658,-0.0014952558371102,0.0014952642753849,-0.0011438940663866,0.0011439012057904,-0.0011438926528246,0.0011438997922075,0.60789483588396,125301,3014,0.0036689939803728,0.0039350733410234,0.0049467000109118,18.352027933122,6.2016223464973e-05,6.2016223464973e-05,6.2016223464973e-05,3132202.2314441,0.012631332287892
25419200,0.99982451921882,0.015270938310552,0.0046031730779632,0.0048876455824992,0.0057801196500896,-0.00088524848127518,0.00088525148600221,1.1573364362251e-09,1.1573333464666e-09,6.4758283402423e-10,1.6225838259132e-09,-0.0011510515913993,0.0011510565905459,-0.0011510512938218,0.0011510562930545,-0.0011510507654185,0.0011510564304457,-0.0011510504683174,0.0011510561332577,-0.0010005958813278,0.0010005984544708,-0.0010005961347399,0.0010005987079345,8.0782867748463e-10,2.8890846959236e-10,3.5105183764993e-09,-2.6571786975207e-09,-0.00094998452980325,0.00094998621041526,-0.0012219565799332,0.0012219622411477,-0.001221958265793,0.0012219598146245,-0.0012219560746979,0.0012219613665662,-0.0012219577604586,0.0012219589399863,-0.0010550202044511,0.0010550266017476,-0.0010550265392115,0.0010550208695467,-0.00095035810645821,0.00095035776773647,-0.00095036029969071,0.00095035895926026,2.0301106197788e-09,2.0301051494753e-09,-0.0011954548422296,0.0011954591459331,-1.0994809622143e-09,5.0634355827833e-09,-0.0014976673499407,0.0014976703606544,-0.0014976646180335,0.0014976717470204,-0.0014976664563103,0.0014976694670318,-0.0014976638174999,0.0014976709464507,-0.0011484565052378,0.0011484624270797,-0.0011484550580894,0.0011484609799109,0.7372586897946,125301,3014,0.0036833753006966,0.0039516355720533,0.0049681942510444,19.920335269342,7.456268215474e-05,7.456268215474e-05,7.456268215474e-05,3179751.1985651,0.012684397551274
25919200,0.99984481315919,0.015271276839574,0.0046032862380071,0.0048877573531131,0.005780233248454,-0.00088581801493568,0.00088582271430045,1.8185378517993e-09,1.8185348548026e-09,1.2767177219147e-09,2.2741132461072e-09,-0.0011565082639974,0.0011565147358456,-0.0011565078892668,0.0011565143612019,-0.0011565073329415,0.0011565144777121,-0.0011565069599091,0.0011565141045938,-0.001000253185048,0.0010002571728199,-0.00100025344285,0.0010002574306734,1.3689853386284e-09,8.5397334360128e-10,4.0801127568201e-09,-2.0550826434884e-09,-0.00094913726373687,0.00094914046385359,-0.0012263293810048,0.0012263363490044,-0.0012263309854025,0.0012263338530968,-0.0012263287628758,0.0012263353534193,-0.0012263303671743,0.001226332857455,-0.0010533893282352,0.001053396942913,-0.0010533956293993,0.0010533912446358,-0.00095007310236661,0.00095007398408931,-0.00095007532613095,0.00095007520550915,2.366231753303e-09,2.3662261767675e-09,-0.0011913430041254,0.0011913482763826,-7.556943521151e-10,5.383937709634e-09,-0.0014987962059034,0.0014988000167414,-0.0014987933466016,0.0014988012633705,-0.0014987951660936,0.0014987989769393,-0.0014987924035127,0.0014988003202456,-0.0011457299197918,0.001145736571028,-0.0011457285023501,0.0011457351535651,0.72914636768882,125301,3014,0.0036857659107583,0.0039481609865523,0.0049511961400228,20.734577104922,8.1076616839372e-05,8.1076616839372e-05,8.1076616839372e-05,3056180.2829285,0.012666161881495
26419200,0.99986242958635,0.015271597613892,0.0046033938123322,0.0048878634620984,0.0057803403394616,-0.0008840898687023,0.00088409712513951,2.8075985367037e-09,2.8075955471185e-09,2.2031687037967e-09,3.269564629839e-09,-0.001154680769789,0.0011546894548321,-0.0011546802719751,0.0011546889571047,-0.0011546796691055,0.0011546890582939,-0.0011546791744248,0.0011546885635268,-0.00099868025534616,0.0009986863780812,-0.0009986805167782,0.0009986866395649,2.2279698527813e-09,1.6907861168212e-09,5.0482442473696e-09,-1.2682017117011e-09,-0.00094721310854159,0.00094721861024501,-0.0012242735903657,0.0012242826282126,-0.0012242751381434,0.00122427994307,-0.0012242728131268,0.0012242814413308,-0.0012242743608054,0.0012242787561313,-0.0010516616328515,0.0010516712928872,-0.0010516681060607,0.0010516654168988,-0.00094850349118821,0.00094850617285091,-0.00094850579004646,0.00094850741137154,2.9517166786404e-09,2.9517111304864e-09,-0.0011889295702876,0.0011889364742397,-2.7137401662184e-10,6.0605365075786e-09,-0.0014962831487675,0.0014962882595565,-0.0014962800218086,0.0014962893706252,-0.0014962818912013,0.0014962870019981,-0.0014962788677544,0.0014962882165349,-0.0011436991858149,0.0011437071714491,-0.001143697794108,0.0011437057797212,0.7920419595447,125301,3014,0.0036785930745051,0.0039401773108134,0.0049411912129995,20.398838450148,7.8390707601184e-05,7.8390707601184e-05,7.8390707601184e-05,3050242.9276473,0.012640672916314
26919200,0.99987883144173,0.015271878854125,0.004603488216088,0.0048879565091569,0.0057804341288802,-0.00088478690272404,0.00088479147077395,1.7683750167689e-09,1.768372036007e-09,1.2116939106416e-09,2.2414663320363e-09,-0.0011574969839644,0.0011575033348109,-0.0011574966149443,0.0011575029658776,-0.0011574960514524,0.0011575030966891,-0.0011574956838286,0.0011575027289791,-0.00099896028237629,0.00099896417422397,-0.0009989605453034,0.00099896443720282,1.3414952541745e-09,7.9270552166067e-10,4.0996165015042e-09,-2.1647392520908e-09,-0.00094709090393667,0.00094709398660424,-0.0012264127362378,0.0012264196584368,-0.001226414387334,0.0012264171254872,-0.0012264121390702,0.001226418662824,-0.0012264137900672,0.0012264161298175,-0.0010512026435508,0.0010512102786661,-0.0010512090763255,0.0010512044580601,-0.00094879364644372,0.00094879442446861,-0.00094879590657693,0.00094879561611726,2.350606541319e-09,2.3506009950178e-09,-0.0011868384469044,0.0011868436696586,-8.3357713842296e-10,5.4330995654348e-09,-0.0014965227937507,0.0014965265265713,-0.0014965199032569,0.0014965278259286,-0.0014965217665061,0.0014965254993344,-0.0014965189718897,0.0014965268945255,-0.0011424170933308,0.0011424237525704,-0.0011424156699323,0.0011424223291506,0.74688297492095,125301,3014,0.003681485750481,0.0039396792442846,0.0049325420375984,21.287235050744,8.5497880405954e-05,8.5497880405954e-05,8.5497880405954e-05,2987227.0818679,0.012634370101654
27419200,0.99989405700986,0.015272132979096,0.0046035736908463,0.0048880406691023,0.0057805186191479,-0.00088616963341571,0.00088617398700299,1.6818527823167e-09,1.681849800349e-09,1.1357025502137e-09,2.1500961029223e-09,-0.0011574286450465,0.0011574348153044,-0.0011574282845696,0.0011574344549137,-0.001157427729821,0.0011574345850312,-0.0011574273706973,0.001157434225821,-0.0010004782162326,0.0010004819203161,-0.0010004784781211,0.0010004821822564,1.263046960987e-09,7.281798059156e-10,3.9915765946848e-09,-2.2069264950241e-09,-0.00094862308414796,0.000948625978708,-0.0012263365958814,0.0012263433314422,-0.0012263382337015,0.0012263408292367,-0.0012263360086373,0.0012263423557449,-0.0012263376463583,0.0012263398534825,-0.0010528874834229,0.0010528948993242,-0.0010528938523668,0.0010528891438544,-0.00095038410126421,0.000950384735333,-0.00095038634380583,0.00095038593791703,2.3159877343704e-09,2.3159821821282e-09,-0.0011887058421016,0.0011887109618296,-8.3561732071444e-10,5.365155284983e-09,-0.0014966916598536,0.0014966953352411,-0.0014966888073289,0.0014966966286341,-0.001496690650597,0.0014966943259922,-0.0014966878936128,0.0014966957148821,-0.0011442125632688,0.0011442191233866,-0.0011442111335801,0.0011442176936769,0.72588280929977,125301,3014,0.0036872119076657,0.0039460218646904,0.0049402704946961,22.251217883107,9.320974306486e-05,9.320974306486e-05,9.320974306486e-05,3006978.2341876,0.012654391206028
27919200,0.999907856716,0.015272375882355,0.0046036553225658,0.0048881210906196,0.0057805994691696,-0.00088728541935544,0.00088729043308704,1.9366509898475e-09,1.9366479884098e-09,1.3795189171146e-09,2.4011952640153e-09,-0.0011579979972792,0.0011580047449697,-0.0011579976047458,0.0011580043525226,-0.0011579970412069,0.0011580044750856,-0.0011579966504885,0.0011580040842805,-0.0010015101795408,0.0010015144299158,-0.001001510443004,0.0010015146934307,1.4800571306644e-09,9.5033572545291e-10,4.2189369901761e-09,-1.9801068312442e-09,-0.00094978308908521,0.00094978657949371,-0.0012268665134185,0.0012268737696008,-0.0012268681216507,0.0012268712336101,-0.0012268658812538,0.0012268727476297,-0.0012268674893868,0.0012268702115821,-0.0010539730142128,0.0010539809169335,-0.0010539793832522,0.001053975162147,-0.00095148567808979,0.00095148678214314,-0.00095148793007896,0.00095148800084046,2.4666178165189e-09,2.4666122534241e-09,-0.0011899824742972,0.0011899880133397,-6.8891087924553e-10,5.5160493312293e-09,-0.0014972402874975,0.0014972443151038,-0.0014972373801072,0.0014972455576882,-0.001497239221216,0.0014972432488302,-0.0014972364111939,0.001497244588739,-0.0011454099537401,0.0011454168416447,-0.0011454085301475,0.0011454154180311,0.76533978020323,125301,3014,0.0036918378676565,0.0039508294705358,0.0049455604263584,22.918726394459,9.8549811155675e-05,9.8549811155675e-05,9.8549811155675e-05,3011355.2290966,0.012669294939462
28419200,0.99992019870011,0.015272610347224,0.0046037340759966,0.00488819870891,0.0057806775623176,-0.00088778819697489,0.00088779355106457,2.0700668165562e-09,2.0700638130597e-09,1.5041270684799e-09,2.5351617363433e-09,-0.0011600045679232,0.0011600116067768,-0.0011600041603521,0.0011600111992922,-0.0011600035897705,0.0011600113195849,-0.0011600031841826,0.0011600109139105,-0.0010016800093376,0.0010016845471042,-0.0010016802751739,0.0010016848129923,1.5964867069286e-09,1.0616204142986e-09,4.3509577869248e-09,-1.8749133397473e-09,-0.00094975771563393,0.000949761512345,-0.0012284416314768,0.0012284491607838,-0.0012284432343915,0.001228446600193,-0.0012284409792438,0.0012284481135425,-0.0012284425820593,0.0012284455528948,-0.001053665473247,0.0010536736537681,-0.0010536718692861,0.0010536678740493,-0.00095168896368492,0.00095169030945671,-0.00095169122852031,0.00095169152921835,2.5363633938688e-09,2.53635782648e-09,-0.0011886899879256,0.0011886957274745,-6.3359865614303e-10,5.5994629732498e-09,-0.0014975596155719,0.0014975637957496,-0.0014975566727223,0.0014975650220418,-0.001497558521124,0.0014975627013096,-0.0014975556761048,0.0014975640253884,-0.0011446340152321,0.0011446410660091,-0.0011446325975758,0.0011446396483315,0.82558911402084,125301,3014,0.0036939298161694,0.0039507350552308,0.0049402193635144,23.441580351908,0.00010273264281527,0.00010273264281527,0.00010273264281527,2967919.070604,0.01266593321223
28919200,0.99993119900442,0.015272803684533,0.0046037991391122,0.0048882627558145,0.0057807417896063,-0.00088793055813896,0.00088793587590325,2.0568005989183e-09,2.0567976157741e-09,1.4892968726499e-09,2.5234901478141e-09,-0.0011621322321297,0.0011621392330175,-0.0011621318271517,0.0011621388281261,-0.0011621312559087,0.0011621389503389,-0.0011621308528383,0.0011621385471822,-0.0010015081386259,0.0010015126497488,-0.0010015084064428,0.0010015129176175,1.5872580721894e-09,1.0472672510499e-09,4.3471809312679e-09,-1.8939550415858e-09,-0.00094913383478976,0.00094913760004024,-0.0012299557704387,0.0012299632729412,-0.0012299573807474,0.001229960710126,-0.0012299551230661,0.001229962227917,-0.0012299567332756,0.0012299596650449,-0.0010528007952667,0.0010528089658058,-0.0010528072080951,0.001052803172726,-0.00095151251650808,0.00095151383727479,-0.00095151478667803,0.00095151505261274,2.5234763644704e-09,2.5234708009051e-09,-0.0011861737816087,0.0011861794923993,-6.5344506479005e-10,5.5943938546373e-09,-0.0014972881691586,0.0014972923135477,-0.0014972852254727,0.0014972935486545,-0.0014972870790627,0.0014972912234596,-0.0014972842325641,0.00149729255571,-0.0011429343554051,0.0011429413859882,-0.0011429329391671,0.0011429399697286,0.76400561131051,125301,3014,0.0036945261844024,0.003948160215932,0.0049298105573461,23.983858887312,0.0001070708710985,0.0001070708710985,0.0001070708710985,2910269.6168073,0.012653417345685
29419200,0.99994108648783,0.015272945472597,0.0046038470091615,0.0048883097757902,0.0057807886876455,-0.00088918388444103,0.00088918861143128,1.8253201154587e-09,1.8253171213443e-09,1.2712172346567e-09,2.2926802808677e-09,-0.0011614873533933,0.0011614938498992,-0.0011614869744985,0.0011614934710906,-0.0011614864151832,0.0011614935992153,-0.0011614860378666,0.0011614932218119,-0.001002984638673,0.0010029886524182,-0.0010029849054669,0.0010029889192641,1.3879989653487e-09,8.5343915304727e-10,4.1301191420289e-09,-2.0859066111056e-09,-0.00095070507807143,0.00095070831489516,-0.0012294316969183,0.0012294387386938,-0.0012294333234003,0.0012294362113542,-0.0012294310864801,0.0012294377374438,-0.0012294327128629,0.0012294352100472,-0.0010546025291988,0.0010546102404014,-0.0010546089192879,0.0010546044726691,-0.00095308279644234,0.00095308369658908,-0.00095308505091481,0.00095308490985903,2.4106612804526e-09,2.4106557190343e-09,-0.001188496989602,0.0011885023710739,-7.5181167505174e-10,5.46856677448e-09,-0.0014973805475723,0.0014973844398394,-0.0014973776585205,0.0014973857104624,-0.0014973795070177,0.0014973833992927,-0.0014973767140349,0.0014973847659411,-0.0011450581601858,0.0011450649323714,-0.0011450567315786,0.0011450635037433,0.62417410960896,125301,3014,0.0036997137055872,0.0039546614168523,0.0049394223813049,24.778720287241,0.00011342976229793,0.00011342976229793,0.00011342976229793,2943317.6930141,0.012674954729777
29919200,0.99994985973027,0.015273084189918,0.0046038937418638,0.0048883557529677,0.0057808346950861,-0.00089155776645476,0.00089156270533425,1.9029996423437e-09,1.9029966080834e-09,1.3482094188042e-09,2.3685103742809e-09,-0.0011590442660966,0.0011590509617252,-0.0011590438735484,0.0011590505692625,-0.0011590433142884,0.0011590506945353,-0.0011590429235362,0.0011590503036957,-0.0010059753366169,0.0010059795163844,-0.0010059756013807,0.0010059797812,1.4530796817455e-09,9.2836313060317e-10,4.2048197895305e-09,-2.0200716257166e-09,-0.00095438626052735,0.00095438969130407,-0.0012279034250529,0.0012279106520145,-0.0012279050416681,0.0012279081070598,-0.0012279027963749,0.0012279096363501,-0.001227904412891,0.0012279070913386,-0.0010588015226803,0.0010588093950011,-0.0010588079197865,0.0010588036177487,-0.00095613922548488,0.00095614026575188,-0.00095614147516836,0.0009561414921442,2.4890685741342e-09,2.489062999628e-09,-0.0011953105744483,0.0011953161490363,-6.8014546694933e-10,5.5508460751391e-09,-0.0014987753879516,0.0014987794615828,-0.0014987724752472,0.0014987807162804,-0.0014987743267626,0.0014987784004018,-0.0014987715118082,0.0014987797528057,-0.0011505446137791,0.0011505515513948,-0.0011505431792673,0.0011505501168627,0.68688558505508,125301,3014,0.0037095426564176,0.0039698985950353,0.0049676267693943,25.465321334365,0.00011892257067492,0.00011892257067492,0.00011892257067492,3053352.8345195,0.012728835565515
30419200,0.9999575856134,0.015273183638246,0.004603927192297,0.00488838866628,0.0057808677796687,-0.00089299905628628,0.00089300407835822,1.9404049548429e-09,1.9404019157887e-09,1.3840502954488e-09,2.4039927666711e-09,-0.0011634273588256,0.0011634341172965,-0.0011634269665585,0.0011634337251157,-0.0011634264035591,0.0011634338472551,-0.0011634260130829,0.0011634334566924,-0.0010066960008662,0.0010067002579292,-0.0010066962671807,0.0010067005242953,1.4844129609373e-09,9.5620404257691e-10,4.2381324073906e-09,-1.988712891816e-09,-0.00095513887338205,0.00095514237478025,-0.0012318049941333,0.0012318122727497,-0.0012318066116682,0.0012318097275507,-0.0012318043617698,0.0012318112516934,-0.0012318059792055,0.0012318087064373,-0.0010588771580944,0.0010588850987522,-0.0010588835569587,0.0010588793193619,-0.00095691037909046,0.00095691148196474,-0.00095691263226618,0.00095691270503662,2.4791215395387e-09,2.4791159424156e-09,-0.0011944699361484,0.0011944755001923,-6.9025325582508e-10,5.5424566533273e-09,-0.0015010550027708,0.0015010590490763,-0.0015010520856769,0.0015010603003847,-0.0015010539362816,0.0015010579825949,-0.0015010511163543,0.0015010593310263,-0.0011501909449686,0.0011501978669446,-0.0011501895202299,0.0011501964421848,0.56251928746541,125301,3014,0.0037155400683909,0.0039730446801161,0.0049641708099013,26.130627072934,0.00012424501658348,0.00012424501658348,0.00012424501658348,2983032.0433788,0.012734645755714
30919200,0.99996445650448,0.015273290533692,0.004603963141961,0.0048884240697391,0.0057809033219917,-0.00089616735757874,0.00089617159150214,1.6295060421795e-09,1.6295030098604e-09,1.0937414343029e-09,2.0929009595182e-09,-0.0011621871785865,0.0011621932539874,-0.0011621868204802,0.0011621928959669,-0.0011621862746087,0.001162193024803,-0.0011621859178571,0.0011621926679642,-0.0010106129634181,0.001010616554049,-0.0010106132249019,0.0010106168155844,1.2165276970893e-09,6.9841452884754e-10,3.9400713783075e-09,-2.2397242402471e-09,-0.00095944242738724,0.00095944522479552,-0.0012314114012977,0.0012314180502508,-0.0012314130353256,0.001231415556221,-0.0012314108169682,0.0012314170883472,-0.001231412450897,0.0012314145942605,-0.0010638386317556,0.0010638459461369,-0.0010638449836238,0.0010638402105478,-0.0009608084143579,0.00096080895869442,-0.00096081063971696,0.00096081017753943,2.3331655841283e-09,2.3331599792995e-09,-0.0012013795262844,0.0012013846633886,-8.1014517759152e-10,5.3722642745141e-09,-0.0015032426459362,0.0015032463639384,-0.0015032398072577,0.0015032476590421,-0.0015032416465855,0.0015032453645955,-0.0015032389037985,0.001503246755547,-0.0011560447113634,0.0011560512944352,-0.0011560432712022,0.0011560498542538,0.67617106509292,125301,3014,0.0037286692754737,0.0039908697526967,0.0049927781771305,27.119859987671,0.00013215887990137,0.00013215887990137,0.00013215887990137,3083124.0605323,0.012794902995354
31419200,0.99997060352052,0.015273389156073,0.0046039962114751,0.0048884566826096,0.0057809362619882,-0.00089852190554371,0.00089852542068539,1.3551694295924e-09,1.3551663938322e-09,8.3804081925176e-10,1.8120593275667e-09,-0.0011692294886169,0.0011692349334982,-0.0011692291684788,0.0011692346134467,-0.0011692286347955,0.0011692347430379,-0.0011692283156661,0.0011692344238221,-0.0010120183164494,0.0010120213117959,-0.001012018579305,0.0010120215747032,9.7393300397659e-10,4.6355222445583e-10,3.6399317385826e-09,-2.4279029904963e-09,-0.00096055734531916,0.00096055949238522,-0.001237571260092,0.0012375772909223,-0.0012375728939378,0.0012375748743349,-0.001237570719905,0.0012375763840777,-0.0012375723536516,0.0012375739674333,-0.001064097251625,0.0010641039372242,-0.0010641034969536,0.0010640983128194,-0.00096223780518838,0.0009622378589639,-0.0009622400073596,0.00096223907446801,2.1281233145288e-09,2.1281177097883e-09,-0.0011996062458369,0.001199610843474,-9.5617629870572e-10,5.111640854013e-09,-0.0015065655073119,0.0015065687897958,-0.0015065627650786,0.001506570103885,-0.0015065645691921,0.0015065678516838,-0.0015065619199641,0.0015065692587345,-0.0011553354919661,0.0011553416014803,-0.0011553340553842,0.0011553401648771,0.69952705654839,125301,3014,0.0037384652191179,0.0039955332381123,0.0049854716938082,28.437152856813,0.0001426972228545,0.0001426972228545,0.0001426972228545,2967438.9757488,0.01280222069113
31919200,0.99997589799483,0.015273476824618,0.0046040257001141,0.0048884857210453,0.0057809654034588,-0.00089965641589363,0.00089966102799661,1.7815867072196e-09,1.7815836987233e-09,1.2441334393127e-09,2.2340708355519e-09,-0.0011713010372015,0.0011713074393242,-0.0011713006650255,0.0011713070672347,-0.001171300115302,0.0011713071855684,-0.0011712997448944,0.0011713068150743,-0.0010131245631932,0.0010131284725247,-0.0010131248282909,0.0010131287376741,1.3387661231798e-09,8.3223796566649e-10,4.0161633710338e-09,-2.0448410306438e-09,-0.00096123527890921,0.00096123841554886,-0.0012392871082684,0.0012392939996099,-0.0012392886917665,0.0012392915310888,-0.0012392864957092,0.0012392930155337,-0.0012392880791081,0.0012392905469556,-0.0010647974113975,0.0010648049007856,-0.0010648036490945,0.0010647992848211,-0.00096330402978324,0.00096330487493746,-0.00096330625187234,0.00096330611202502,2.372431997831e-09,2.3724264258835e-09,-0.0011991384342058,0.0011991437152125,-7.1423477114742e-10,5.3526363162377e-09,-0.0015072618506063,0.0015072657043176,-0.0015072590217964,0.0015072669333331,-0.0015072608193881,0.0015072646731073,-0.0015072580863476,0.0015072659978484,-0.0011554445458625,0.0011554511853365,-0.0011554431204119,0.0011554497598647,0.71926751588325,125301,3014,0.0037431804859923,0.0039983573149796,0.0049835448049784,29.269335132652,0.00014935468106122,0.00014935468106122,0.00014935468106122,2936516.7384011,0.012807912636696
32419200,0.99998024518859,0.015273555951174,0.0046040523284088,0.0048885119422647,0.005780991680501,-0.00089904524281605,0.00089905170551436,2.5003825572351e-09,2.5003795437095e-09,1.9173671705726e-09,2.9573095936631e-09,-0.0011715506484266,0.0011715586544286,-0.0011715501886174,0.0011715581947058,-0.0011715496044129,0.0011715583016068,-0.0011715491474056,0.001171557844513,-0.0010124156150632,0.0010124210735632,-0.0010124158838267,0.0010124213423785,1.9620924373629e-09,1.4402063742427e-09,4.7216897162099e-09,-1.4753126636818e-09,-0.00096026780938209,0.0009602726102878,-0.0012392401781065,0.0012392485692049,-0.0012392417236612,0.0012392459637094,-0.0012392394506981,0.0012392474477973,-0.0012392409961536,0.0012392448422448,-0.0010637691085146,0.0010637780863336,-0.0010637754762221,0.0010637723377419,-0.00096258092773337,0.00096258307476013,-0.00096258320385779,0.00096258432549861,2.7894034998731e-09,2.7893979436311e-09,-0.0011972988191098,0.0011973052627601,-3.7282303249757e-10,5.8382755740417e-09,-0.0015064021831843,0.0015064069599947,-0.0015063991600821,0.001506408093666,-0.0015064009952282,0.0015064057720465,-0.0015063980726427,0.0015064070061907,-0.0011539972869146,0.0011540048792505,-0.0011539958814337,0.0011540034737482,0.78912843059547,125301,3014,0.0037406491301363,0.0039943515134773,0.0049759293164048,29.2991236149,0.0001495929889192,0.0001495929889192,0.0001495929889192,2912302.7816659,0.012793588277307
32919200,0.99998378687635,0.01527361230185,0.0046040713299172,0.0048885306256255,0.0057810103463074,-0.00089771926927961,0.00089772610391283,2.6453121751759e-09,2.6453091681207e-09,2.0435609800266e-09,3.1126886107643e-09,-0.0011725341698384,0.0011725424805271,-0.0011725336934563,0.0011725420042316,-0.0011725330963271,0.001172542115705,-0.0011725326226964,0.001172541641988,-0.0010107733102303,0.0010107790893928,-0.0010107735823373,0.0010107793615516,2.0978661923473e-09,1.548771015184e-09,4.9203197344777e-09,-1.4191561902953e-09,-0.0009581451303992,0.0009581502645705,-0.0012396120788589,0.0012396208031756,-0.0012396136542959,0.0012396181328574,-0.001239611337369,0.0012396196481378,-0.0012396129127068,0.0012396169777627,-0.0010613955713579,0.0010614049546193,-0.001061402079178,0.0010613990671148,-0.00096088998038278,0.00096089237341267,-0.00096089229186963,0.00096089360395124,2.8708498512724e-09,2.8708442980009e-09,-0.0011932219605883,0.0011932286397282,-3.6143359102542e-10,5.9913368073761e-09,-0.0015049729475062,0.0015049778621749,-0.0015049698501233,0.0015049790158466,-0.0015049717304688,0.0015049766451453,-0.0015049687338126,0.0015049778995,-0.0011507212868549,0.0011507291071157,-0.0011507198874137,0.0011507277076527,0.69092321609739,125301,3014,0.0037351531610879,0.003985560037906,0.004959053558206,29.174592001937,0.0001485967360155,0.0001485967360155,0.0001485967360155,2852391.628773,0.012762059659239
33419200,0.99998671359801,0.015273664786277,0.0046040890375887,0.004888548041314,0.0057810277073745,-0.0008978775674018,0.00089788378875983,2.4037432601758e-09,2.4037402405033e-09,1.8067467961256e-09,2.8805034972425e-09,-0.0011696701664139,0.0011696779646054,-0.0011696697149009,0.0011696775131784,-0.001169669124899,0.0011696776363801,-0.001169668675684,0.0011696771870781,-0.0010113595518825,0.0010113648163831,-0.0010113598236175,0.0010113650881701,1.8954578534714e-09,1.3376988839195e-09,4.7543326734757e-09,-1.682747596579e-09,-0.00095901164996239,0.00095901623253708,-0.0012371502078611,0.0012371585133665,-0.0012371518377205,0.0012371558361782,-0.0012371495071627,0.001237157396174,-0.0012371511369228,0.0012371547189288,-0.0010626685935837,0.0010626776097527,-0.0010626751992286,0.0010626716272066,-0.00096160068766666,0.00096160261094907,-0.0009616029999464,0.00096160382791782,2.7678904414352e-09,2.7678848963399e-09,-0.0011958028118883,0.0011958091751427,-5.1024244114955e-10,5.9367237986337e-09,-0.0015040024409354,0.0015040070930687,-0.0015039993557537,0.0015040083205442,-0.0015040012714185,0.0015040059235598,-0.0015039982864442,0.001504007251199,-0.0011527508121032,0.0011527584310633,-0.0011527493953755,0.0011527570143146,0.77567308772676,125301,3014,0.0037357912741882,0.0039891276012614,0.0049697184552684,29.316125552586,0.00014972900442068,0.00014972900442068,0.00014972900442068,2918123.5176956,0.012777069114397
33919200,0.9999892004679,0.015273708533617,0.0046041037785348,0.0048885625451007,0.0057810422099811,-0.00089881902499309,0.00089882385256546,1.8664262368714e-09,1.8664232055228e-09,1.2995927557452e-09,2.343253319249e-09,-0.0011735090057604,0.0011735155793184,-0.0011735086241626,0.001173515197807,-0.001173508056168,0.001173515331777,-0.001173507675923,0.0011735149514454,-0.0010116856153279,0.0010116897237201,-0.0010116858867391,0.0010116899951834,1.433089896922e-09,8.7561564342549e-10,4.2516099452548e-09,-2.134782588695e-09,-0.00095907283493362,0.00095907616164566,-0.001240342402737,0.0012403495814326,-0.0012403440812944,0.0012403469943981,-0.0012403417943666,0.0012403485674051,-0.0012403434728247,0.0012403459803136,-0.0010621715164008,0.0010621794650809,-0.0010621780759245,0.0010621735323662,-0.00096189836541854,0.00096189930368095,-0.00096190064736737,0.00096190049901348,2.4346675621948e-09,2.4346620248052e-09,-0.0011937308814177,0.0011937363305161,-8.1064629304749e-10,5.5783502070391e-09,-0.0015051792387003,0.0015051831277237,-0.0015051762872668,0.001505184447678,-0.0015051781911632,0.0015051820801945,-0.0015051753352299,0.0015051834956054,-0.0011513814846268,0.0011513883667416,-0.0011513800595113,0.0011513869416046,0.76303060755973,125301,3014,0.0037397063491649,0.0039894000081169,0.0049611608226607,30.069881243079,0.00015575904994464,0.00015575904994464,0.00015575904994464,2842696.9447808,0.012772691285274
34419200,0.99999136076896,0.015273744844451,0.0046041160421085,0.0048885745967662,0.0057810542055761,-0.00090128860917549,0.00090129189331707,1.2666348601157e-09,1.2666318337375e-09,7.3906881071986e-10,1.7386418903602e-09,-0.001175568288592,0.001175573526655,-0.0011755679799205,0.0011755732180698,-0.0011755674425845,0.001175573361722,-0.0011755671344281,0.0011755730534789,-0.0010141496064777,0.0010141524218215,-0.0010141498750069,0.0010141526904026,9.1150649462238e-10,3.7188322521539e-10,3.6520973096115e-09,-2.5976784795981e-09,-0.00096141514191515,0.00096141708307893,-0.0012422273064808,0.0012422332286695,-0.0012422290091254,0.0012422307634729,-0.0012422267934871,0.0012422323319316,-0.0012422284960326,0.001242229866678,-0.0010645441788366,0.0010645508663698,-0.0010645506080167,0.0010645450679562,-0.00096441616574859,0.00096441602367176,-0.00096441839850455,0.00096441721337382,2.0935839408889e-09,2.0935784046168e-09,-0.0011957138183207,0.0011957183126588,-1.0777779827695e-09,5.1683979169767e-09,-0.0015066819150139,0.0015066850568368,-0.0015066791336848,0.0015066864495072,-0.0015066809992184,0.0015066841410495,-0.0015066783093205,0.0015066856251072,-0.0011535779703249,0.001153584063812,-0.0011535765267832,0.0011535826202486,0.72790058071019,125301,3014,0.0037499481025912,0.003999112460419,0.004969378046239,31.47958682614,0.00016703669460912,0.00016703669460912,0.00016703669460912,2838463.3762346,0.012801212280677
34919200,0.99999326227152,0.015273778159781,0.0046041272917278,0.0048885856548077,0.0057810652132457,-0.00090562599008605,0.00090562763228672,6.2825729590616e-10,6.2825427202795e-10,1.4928411117876e-10,1.0891704560902e-09,-0.001178791157235,0.0011787949681609,-0.0011787909270039,0.0011787947380159,-0.0011787904261185,0.001178794887811,-0.001178790195593,0.0011787946571986,-0.001018438570801,0.0010184400067023,-0.0010184388349036,0.001018440270857,3.5208019710052e-10,-1.5776609321444e-10,2.975395315562e-09,-3.0507497344157e-09,-0.00096587526116994,0.00096587572925275,-0.0012454599051274,0.0012454644526258,-0.0012454616089694,0.0012454621439852,-0.0012454594910883,0.0012454636853944,-0.0012454611948311,0.0012454613766967,-0.0010689659113857,0.0010689711852413,-0.001068972124082,0.001068965605645,-0.00096879151945442,0.00096879024536205,-0.00096879368660374,0.00096879143723908,1.7243369402195e-09,1.7243313900067e-09,-0.0012004484458666,0.0012004519122323,-1.3299407486348e-09,4.6866218617721e-09,-0.0015100794774347,0.0015100818306778,-0.0015100769046109,0.001510083276705,-0.0015100787036832,0.0015100810569346,-0.0015100762178444,0.001510082589903,-0.0011581606785182,0.0011581658949604,-0.0011581592174594,0.0011581644338806,0.75808686568768,125301,3014,0.0037679391090387,0.0040176070987027,0.0049889965052193,33.573062753034,0.00018378450202427,0.00018378450202427,0.00018378450202427,2850482.5899696,0.012858018851842
35419200,0.99999490627172,0.015273803707816,0.0046041359253424,0.0048885941345592,0.0057810736479146,-0.00091032227252911,0.00091032326472574,3.7620268461916e-10,3.7619964965305e-10,-7.4378422790239e-11,8.2101034231525e-10,-0.0011844432822215,0.0011844465410206,-0.0011844430832189,0.0011844463421042,-0.0011844426023002,0.0011844464864399,-0.0011844424029802,0.0011844462870335,-0.0010227609980676,0.0010227618809036,-0.0010227612609622,0.0010227621438498,1.2038584156354e-10,-3.5623998818459e-10,2.6351018239361e-09,-3.154457237762e-09,-0.00097011563716777,0.00097011552275331,-0.001250745922413,0.0012507498764786,-0.0012507475801719,0.0012507476797011,-0.0012507455393316,0.0012507491660752,-0.0012507471969912,0.0012507469692409,-0.0010728708937719,0.0010728754717546,-0.0010728768775383,0.0010728701261849,-0.00097312723420175,0.00097312553883275,-0.00097312935485459,0.00097312675365254,1.5584261981788e-09,1.5584206454073e-09,-0.0012035373909969,0.001203540408265,-1.3781317947255e-09,4.4018982363246e-09,-0.0015142625986313,0.0015142646520319,-0.0015142601546104,0.0015142660691455,-0.0015142618784252,0.0015142639318335,-0.001514259519589,0.0015142654340882,-0.0011615769924724,0.0011615817732058,-0.0011615755278184,0.0011615803085299,0.67379056419234,125301,3014,0.0037874313457172,0.0040352087164183,0.00500181793118,35.929068935133,0.00020263255148107,0.00020263255148107,0.00020263255148107,2812405.1991448,0.012908593165156
35919200,0.99999623600328,0.015273825902525,0.0046041434265459,0.0048886015042437,0.0057810809717349,-0.00091404255749337,0.00091404524211404,1.0286729378655e-09,1.0286699066934e-09,5.5628798728384e-10,1.4597948788861e-09,-0.0011854982562104,0.0011855029866587,-0.0011854979744869,0.0011855027050211,-0.0011854974754444,0.0011855028275855,-0.0011854971947078,0.0011855025467618,-0.0010267556268624,0.0010267579075453,-0.0010267558911547,0.0010267581718897,6.7458608425241e-10,2.2038900643625e-10,3.1689982752205e-09,-2.5221573375876e-09,-0.00097444738720827,0.00097444880547338,-0.0012521699996229,0.0012521752451971,-0.001252171548952,0.0012521729947059,-0.0012521694996495,0.0012521744206218,-0.0012521710488793,0.0012521721700736,-0.0010774555044023,0.0010774612396054,-0.0010774613889634,0.0010774559923434,-0.00097723192585551,0.00097723146739318,-0.00097723405860584,0.00097723272927493,1.9455600165652e-09,1.9455544495882e-09,-0.0012093379428686,0.0012093420418609,-9.5233127155101e-10,4.7395474859306e-09,-0.0015169672137415,0.0015169701982797,-0.0015169646644456,0.0015169714550313,-0.0015169663504191,0.0015169693349653,-0.0015169638910451,0.0015169706815952,-0.0011668377772701,0.00116684336893,-0.0011668363268548,0.0011668419184936,0.72183945217264,125301,3014,0.0038028623334128,0.0040531652359822,0.0050258409686506,37.536090494981,0.00021548872395985,0.00021548872395985,0.00021548872395985,2865304.8723067,0.012966704966727
36419200,0.99999721667379,0.015273841844684,0.0046041488088861,0.0048886067939921,0.0057810862418053,-0.0009137195574291,0.0009137261869345,2.5627629718504e-09,2.5627598993854e-09,2.0010166797552e-09,2.9930814596512e-09,-0.0011870963553671,0.0011871045290303,-0.0011870958862291,0.0011871040599786,-0.001187095316899,0.0011871041498569,-0.0011870948511807,0.0011871036840519,-0.0010260562789118,0.0010260618554388,-0.0010260565539256,0.0010260621305044,1.9979725419351e-09,1.5233837065668e-09,4.6297204890525e-09,-1.2605432383832e-09,-0.00097362710939099,0.00097363207350957,-0.0012534298491518,0.0012534382743195,-0.0012534312884434,0.0012534357616024,-0.0012534290962854,0.0012534371568496,-0.0012534305354778,0.0012534346440755,-0.001076282582091,0.0010762914052469,-0.0010762886579589,0.001076285967774,-0.00097650370615391,0.00097650603695507,-0.00097650594572322,0.00097650734432644,2.8188388022331e-09,2.8188332607553e-09,-0.001207325695557,0.0012073322334967,-1.9582863521668e-10,5.7131309907111e-09,-0.0015171086409078,0.0015171136008909,-0.0015171057028817,0.001517114620154,-0.0015171074377231,0.0015171123977142,-0.0015171046001242,0.0015171135173608,-0.0011651959956484,0.0011652035539321,-0.0011651945878631,0.0011652021461254,0.70447270805609,125301,3014,0.0038015380390875,0.0040497832619621,0.0050175253798351,37.48841263838,0.00021510730110704,0.00021510730110704,0.00021510730110704,2819816.060039,0.012953547179566
36919200,0.99999792315806,0.015273852401372,0.0046041523792753,0.004888610299299,0.0057810897227978,-0.00091221248159852,0.00091222051091027,3.1071128594526e-09,3.1071097838113e-09,2.4953941840971e-09,3.5564240555687e-09,-0.0011852963416704,0.0011853057313848,-0.001185295804943,0.0011853051947435,-0.001185295200166,0.0011853052863024,-0.0011852946674578,0.0011853047535074,-0.0010246798665924,0.0010246866248948,-0.0010246801455225,0.0010246869038767,2.4820697502512e-09,1.96837964884e-09,5.243288932829e-09,-9.1139270093932e-10,-0.00097217612273661,0.00097218234273719,-0.0012516491607037,0.0012516587923492,-0.0012516506219505,0.0012516561206707,-0.0012516483288592,0.0012516575606282,-0.0012516497900068,0.0012516548888927,-0.0010749689383777,0.0010749790334876,-0.0010749752712697,0.0010749733372088,-0.00097514600700445,0.00097514929298425,-0.00097514831718279,0.00097515058574347,3.15193072318e-09,3.1519251991134e-09,-0.0012060054686638,0.0012060129184294,8.9750816997678e-13,6.1792010767369e-09,-0.0015154374713093,0.0015154431187739,-0.0015154343313493,0.0015154441171959,-0.0015154361478489,0.0015154417953216,-0.0015154331123746,0.0015154428981855,-0.0011639354744847,0.0011639438404817,-0.0011639340777137,0.0011639424436893,0.64727478642577,125301,3014,0.0037952841567892,0.0040437622915087,0.0050120494697464,36.861739303991,0.00021009391443193,0.00021009391443193,0.00021009391443193,2827574.1730558,0.012935560334766
37419200,0.99999846841714,0.015273860644877,0.0046041551657656,0.0048886130361655,0.0057810924429459,-0.00091427542554187,0.00091428006641827,1.7910126113235e-09,1.7910095547993e-09,1.2391274308017e-09,2.258169550088e-09,-0.0011856781212945,0.0011856845488819,-0.0011856777458253,0.0011856841734985,-0.0011856771901206,0.0011856843039019,-0.0011856768162855,0.0011856839299798,-0.0010269146441105,0.0010269185844417,-0.0010269149157954,0.0010269188561785,1.3610476015886e-09,8.2846998591723e-10,4.076439455412e-09,-2.0864837011286e-09,-0.00097467069151519,0.00097467385860357,-0.0012523141509584,0.0012523211215238,-0.0012523157640618,0.0012523186153399,-0.0012523135473673,0.0012523201289004,-0.0012523151603715,0.0012523176226595,-0.0010776111456856,0.0010776187473739,-0.0010776174900916,0.0010776130383113,-0.0009774386932302,0.00097743955326547,-0.00097744094950766,0.00097744077285693,2.4117619241228e-09,2.4117563687043e-09,-0.0012095406989859,0.00120954607013,-7.2547206829689e-10,5.4427067893671e-09,-0.001517029067584,0.0015170329811326,-0.0015170262025047,0.0015170342411995,-0.0015170280353631,0.0015170319489197,-0.0015170252657905,0.0015170333044498,-0.001167051029358,0.0011670577836246,-0.0011670495946531,0.0011670563488987,0.65462458225499,125301,3014,0.0038038312442284,0.0040540938440712,0.0050266843248196,37.673859754685,0.00021659087803748,0.00021659087803748,0.00021659087803748,2863577.1973905,0.012969483282777
37919200,0.99999887056686,0.015273866307057,0.0046041570788341,0.0048886149151903,0.0057810943130325,-0.00091437647947086,0.00091438301502329,2.5275300940141e-09,2.5275270213139e-09,1.9334128883575e-09,2.993915710989e-09,-0.0011863993754979,0.0011864074560438,-0.001186398910905,0.001186406991537,-0.0011863983210355,0.0011864071052559,-0.0011863978591824,0.001186406643316,-0.001026867925068,0.0010268734470575,-0.0010268681996059,0.0010268737216472,1.9945567678312e-09,1.4557090429777e-09,4.799869784674e-09,-1.503595481895e-09,-0.00097465523626806,0.00097466010501859,-0.0012529716458839,0.0012529801549802,-0.0012529732212851,0.0012529775087031,-0.0012529709195394,0.0012529790227104,-0.0012529724948413,0.0012529763763763,-0.0010774474105705,0.0010774565388655,-0.0010774538881178,0.0010774506914731,-0.00097738287177131,0.00097738505189642,-0.00097738517365778,0.00097738629466987,2.8315650552489e-09,2.8315595046243e-09,-0.0012092593921675,0.001209265933362,-3.8375228560168e-10,5.9335189674214e-09,-0.0015174326820971,0.001517437528104,-0.0015174296156508,0.001517438689118,-0.0015174314864638,0.0015174363324788,-0.0015174285206518,0.0015174375940834,-0.0011668099937316,0.0011668177072054,-0.0011668085812543,0.0011668162947068,0.61069305856341,125301,3014,0.003804257854435,0.0040540381239088,0.0050255273805116,37.67647461684,0.00021661179693472,0.00021661179693472,0.00021661179693472,2850035.8198475,0.012968699032006
38419200,0.99999916130458,0.015273870991325,0.0046041586598045,0.0048886164695937,0.0057810958619265,-0.0009137014223926,0.00091370911008851,2.9758389216931e-09,2.9758358330521e-09,2.3484368156908e-09,3.4496731959106e-09,-0.0011845887458255,0.0011845978415743,-0.0011845882254334,0.0011845973212681,-0.0011845876108188,0.0011845974302594,-0.0011845870937558,0.0011845969131093,-0.0010264204336135,0.0010264269213398,-0.0010264207098497,0.0010264271976278,2.3864143106955e-09,1.8297523786719e-09,5.2889724087174e-09,-1.1997317897917e-09,-0.000974348757729,0.0009743546589455,-0.0012514361162611,0.0012514456115553,-0.0012514376993584,0.0012514428450396,-0.0012514353190956,0.0012514443884659,-0.0012514369020937,0.0012514416218933,-0.0010773411583837,0.0010773513045258,-0.0010773478146768,0.0010773452750043,-0.00097695045699692,0.00097695341888384,-0.00097695280242512,0.00097695466347283,3.1059995794625e-09,3.1059940416317e-09,-0.0012098428322189,0.0012098501182705,-2.0586946644676e-10,6.3007014541014e-09,-0.0015167329786877,0.0015167384050014,-0.0015167297552102,0.0015167395367129,-0.0015167316820099,0.0015167371083317,-0.0015167285629251,0.001516738344392,-0.0011670818849085,0.001167090249969,-0.0011670804808453,0.0011670888458848,0.69725492786578,125301,3014,0.003801454447934,0.004052760177149,0.0050279347818828,37.19805930345,0.0002127844744276,0.0002127844744276,0.0002127844744276,2880740.2672067,0.012966986561109
38880000,0.99999936433479,0.01527387438552,0.0046041598042994,0.0048886175953638,0.0057810969858567,-0.00091315717345124,0.00091316376121471,2.5513748351619e-09,2.5513717685497e-09,1.9401833921409e-09,3.034105921588e-09,-0.0011871209713439,0.001187129074325,-0.0011871205072288,0.0011871286102963,-0.0011871199052862,0.0011871287340985,-0.0011871194434544,0.0011871282721802,-0.0010254299827066,0.0010254355665057,-0.0010254302582626,0.0010254358421135,2.0299235575205e-09,1.4543585629802e-09,4.9471900674305e-09,-1.6137806396066e-09,-0.00097293882508377,0.00097294373547767,-0.0012533861239548,0.0012533947515188,-0.0012533877818015,0.0012533920197384,-0.0012533854078532,0.0012533936062409,-0.0012533870656007,0.0012533908744036,-0.0010755354762772,0.0010755448858755,-0.0010755422041087,0.0010755387830263,-0.00097586501451373,0.00097586718218301,-0.00097586735214335,0.00097586838791305,2.8449938596846e-09,2.8449883169716e-09,-0.0012063436464725,0.0012063502238387,-4.9434679078017e-10,6.0765384085404e-09,-0.0015167968303569,0.0015168016106651,-0.0015167936796143,0.001516802855088,-0.0015167956340836,0.0015168004143997,-0.0015167925834095,0.0015168017588475,-0.0011643525798473,0.0011643604085183,-0.0011643511722729,0.0011643590009222,0.72416034322609,125301,3014,0.0037992074448771,0.0040469325453545,0.0050134613142424,37.19367710898,0.00021274941687184,0.00021274941687184,0.00021274941687184,2806580.7710456,0.012944194512723
