time,ASR_ext,ASR_strain,ASR_strain_xx,ASR_strain_yy,ASR_strain_zz,disp_x_101,disp_x_102,disp_x_103,disp_x_104,disp_x_105,disp_x_106,disp_x_p1_neg,disp_x_p1_pos,disp_x_p2_neg,disp_x_p2_pos,disp_x_p3_neg,disp_x_p3_pos,disp_x_p4_neg,disp_x_p4_pos,disp_x_p5_neg,disp_x_p5_pos,disp_x_p6_neg,disp_x_p6_pos,disp_y_101,disp_y_102,disp_y_103,disp_y_104,disp_y_105,disp_y_106,disp_y_p1_neg,disp_y_p1_pos,disp_y_p2_neg,disp_y_p2_pos,disp_y_p3_neg,disp_y_p3_pos,disp_y_p4_neg,disp_y_p4_pos,disp_y_p5_neg,disp_y_p5_pos,disp_y_p6_neg,disp_y_p6_pos,disp_y_p7_neg,disp_y_p7_pos,disp_y_p8_neg,disp_y_p8_pos,disp_z_101,disp_z_102,disp_z_103,disp_z_104,disp_z_105,disp_z_106,disp_z_p1_neg,disp_z_p1_pos,disp_z_p2_neg,disp_z_p2_pos,disp_z_p3_neg,disp_z_p3_pos,disp_z_p4_neg,disp_z_p4_pos,disp_z_p5_neg,disp_z_p5_pos,disp_z_p6_neg,disp_z_p6_pos,humidity,ndof,nelem,strain_xx,strain_yy,strain_zz,temp,thermal_strain_xx,thermal_strain_yy,thermal_strain_zz,vonmises,vstrain
2419200,0,0,0,0,0,0,0,0,0,0,0,0,0,0,0,0,0,0,0,0,0,0,0,0,0,0,0,0,0,0,0,0,0,0,0,0,0,0,0,0,0,0,0,0,0,0,0,0,0,0,0,0,0,0,0,0,0,0,0,0,0,0,0,0,0,0,0,0,0,0,0,0,0,0,0
2619200,0.021291017349247,0.00043647570961519,0.00014549190320506,0.00014549190320506,0.00014549190320506,-4.0023245280371e-05,4.0020519066146e-05,-1.3614632650664e-09,-1.3525612176796e-09,3.7048874280668e-09,-6.5841409710423e-09,-4.0026470809673e-05,4.0027132215193e-05,-4.0026461444405e-05,4.0027120279332e-05,-4.0029745254278e-05,4.0023698832257e-05,-4.0029717138607e-05,4.0023689534547e-05,-4.0562907360966e-05,4.0556758311809e-05,-4.0562857383729e-05,4.0556703418901e-05,-9.8794312688678e-10,1.6996361434398e-09,2.3058367076205e-09,-1.6541708354838e-09,-4.002154896968e-05,4.0022215377552e-05,-4.0026231791328e-05,4.0027307615899e-05,-4.0027497427215e-05,4.0025970962086e-05,-4.002536275198e-05,4.0028187441341e-05,-4.0026616772531e-05,4.0026860600785e-05,-4.0557163066872e-05,4.0562572927451e-05,-4.056099854868e-05,4.0558609529962e-05,-4.0561441539692e-05,4.0558179690379e-05,-4.0558815749649e-05,4.0560829842744e-05,-3.2156705574056e-10,-3.1943748158619e-10,-4.0022201603561e-05,4.0021562743735e-05,8.1600930493451e-10,-1.486533752179e-09,-4.00267057438e-05,4.0026837310051e-05,-4.0027470498878e-05,4.002607255935e-05,-4.0026684411993e-05,4.0026808966172e-05,-4.0027419779311e-05,4.002603614242e-05,-4.0560473167636e-05,4.0559046643784e-05,-4.0560592496287e-05,4.0559184145372e-05,0.81993057472632,131329,3014,0.00016674391968749,0.00016674391968875,0.00016674391968891,32.690506056923,2.3924048455381e-05,2.3924048455381e-05,2.3924048455381e-05,297255.66624452,0.00050035696910237
2819200,0.043232812664688,0.00088054101199007,0.00029351367090995,0.00029351366969945,0.00029351367138067,-7.5418283384475e-05,7.5417592058094e-05,-3.3844271433681e-10,-3.4236275609325e-10,1.7828542186929e-09,-2.5283764637316e-09,-7.5734768354919e-05,7.5735563608433e-05,-7.5734773504241e-05,7.5735594903303e-05,-7.5736251988512e-05,7.5734065113144e-05,-7.5736212728679e-05,7.5734003753021e-05,-7.6559464924795e-05,7.6557421370599e-05,-7.6559433228827e-05,7.6557351481797e-05,5.4983344496818e-10,-1.151235781237e-09,1.056031005844e-09,-1.640795092428e-09,-7.5418229093107e-05,7.5417645786223e-05,-7.5734676449382e-05,7.5735704859549e-05,-7.5735595858577e-05,7.5734719215214e-05,-7.5735278055919e-05,7.5735017945322e-05,-7.5736226063928e-05,7.5734012964815e-05,-7.6557687862304e-05,7.655925442405e-05,-7.6560298443617e-05,7.6556529951579e-05,-7.6558327504732e-05,7.6558598031212e-05,-7.6559961469047e-05,7.6556817753803e-05,-2.2483943637573e-10,-2.4666873618943e-10,-7.5418175167734e-05,7.5417700492971e-05,8.1240515756355e-10,-1.3118982085757e-09,-7.5735004297393e-05,7.5735308773598e-05,-7.5735813500524e-05,7.5734571096134e-05,-7.573500517515e-05,7.5735324044962e-05,-7.5735742774746e-05,7.573446625237e-05,-7.6558941649473e-05,7.6557777680868e-05,-7.655903422113e-05,7.6557943682519e-05,0.82138593477889,131329,3014,0.00031419198918338,0.00031419198801029,0.00031419198963767,32.940602734221,2.5924821873767e-05,2.5924821873767e-05,2.5924821873767e-05,445175.94074298,0.00094302063429785
3019200,0.065281531803423,0.0013210004935677,0.00044033349811897,0.00044033349694358,0.00044033349850512,-0.0001098653561026,0.00010986576542401,2.2948045206648e-11,3.9073637638588e-10,3.9205200726412e-10,1.9654050453573e-11,-0.00011070649218307,0.00011070705511931,-0.00011070642766317,0.00011070713956648,-0.00011070682072751,0.0001107067876813,-0.00011070657900345,0.00011070689686631,-0.000111710747792,0.00011171055506472,-0.0001117101301537,0.0001117109910459,1.2213489304062e-09,-2.2024668125838e-09,1.6202255838755e-09,-2.5481138160723e-09,-0.00010986602662835,0.00010986509435185,-0.00011070590303639,0.00011070774692856,-0.00011070737438961,0.00011070617703104,-0.0001107071434901,0.0001107063996597,-0.00011070851751844,0.00011070493457393,-0.00011170970578683,0.00011171161993086,-0.00011171355483946,0.00011170760146087,-0.00011171020282543,0.00011171112491193,-0.0001117133493619,0.00011170778683097,-6.8891571234788e-10,-3.5018793414973e-10,-0.00010986608188648,0.0001098650398147,1.6470261434249e-09,-2.7492233875851e-09,-0.00011070653985181,0.00011070700318465,-0.00011070818947534,0.00011070543068332,-0.00011070649154613,0.00011070708460696,-0.00011070794447633,0.00011070551716535,-0.00011171153493312,0.00011170956664803,-0.00011171214308201,0.00011170917819455,0.82013449037566,131329,3014,0.00045766832193962,0.00045766832080179,0.00045766832230313,32.856879562941,2.5255036503528e-05,2.5255036503528e-05,2.5255036503528e-05,592070.87584238,0.001373948758402
3219200,0.08666223390481,0.0017367494714386,0.00057891649074546,0.00057891648958395,0.00057891649110921,-0.00014142365014946,0.00014142449040307,1.6022681290144e-10,6.7899544758163e-10,-3.0819704152723e-10,1.1823257662815e-09,-0.00014313175873796,0.00014313210732452,-0.00014313166701912,0.00014313221424887,-0.00014313152536658,0.00014313244093569,-0.00014313118790368,0.00014313262781778,-0.00014382736625009,0.00014382798498562,-0.00014382649285866,0.00014382861697108,2.1136275287922e-09,-3.6318325458079e-09,1.5084118297345e-09,-2.9287865841271e-09,-0.00014142478415894,0.00014142335585561,-0.00014313087220417,0.00014313313378806,-0.00014313249415432,0.00014313140451645,-0.00014313287053928,0.00014313098909286,-0.0001431343347119,0.00014312942810216,-0.00014382724468144,0.00014382808795535,-0.00014383128617726,0.00014382386958979,-0.00014382643073831,0.00014382894106002,-0.00014383176133356,0.00014382335593037,-8.2652642522918e-10,-3.4813199851965e-10,-0.00014142465945614,0.00014142348126229,2.0201376546262e-09,-3.2754600596384e-09,-0.00014313161777702,0.00014313225940656,-0.00014313362623999,0.00014313032030924,-0.00014313155062613,0.00014313236421991,-0.00014313330078483,0.00014313049224609,-0.00014382865737611,0.00014382646163897,-0.00014382947305777,0.00014382585123228,0.80676032417466,131329,3014,0.00058909330325899,0.00058909330213886,0.00058909330360438,32.291472793087,2.0731782344698e-05,2.0731782344698e-05,2.0731782344698e-05,689991.1159919,0.0017688438703309
3419200,0.10547485721791,0.0020896735927404,0.00069655786451343,0.00069655786338077,0.00069655786484622,-0.000165480539969,0.00016548231775306,6.1371559613775e-10,1.1575573743139e-09,-1.7345616201199e-09,3.6113810800149e-09,-0.00016834683396262,0.0001683468208333,-0.00016834671629441,0.00016834695843991,-0.00016834536714752,0.00016834845995512,-0.000168345036196,0.00016834864066577,-0.00016813423720924,0.00016813709464925,-0.00016813338960563,0.00016813769821512,3.0946661553391e-09,-5.2070791003468e-09,7.6661110927599e-10,-2.7271205710011e-09,-0.0001654824157379,0.00016548044145887,-0.00016834579713662,0.00016834804640317,-0.00016834711637276,0.00016834663862814,-0.00016834858763498,0.00016834506702909,-0.00016834978452753,0.00016834379361296,-0.00016813633463632,0.00016813493927814,-0.00016813953883203,0.00016813159700374,-0.00016813327681459,0.00016813810203302,-0.0001681411545607,0.00016812989769944,-7.6223652219747e-10,-2.7156676630699e-10,-0.00016548194779011,0.00016548091008238,2.0139185194621e-09,-3.1325512966273e-09,-0.00016834648722836,0.00016834721072602,-0.00016834843991454,0.00016834532405511,-0.00016834640100454,0.00016834734458932,-0.00016834813386572,0.00016834549423986,-0.00016813657584876,0.0001681345330345,-0.00016813732582044,0.00016813393610151,0.78590062620924,131329,3014,0.00068926832716529,0.00068926832607171,0.00068926832747838,30.392484528874,5.5398762309951e-06,5.5398762309951e-06,5.5398762309951e-06,760211.49460352,0.0020699462902734
3619200,0.12347358585594,0.0024174980353925,0.00080583267872163,0.00080583267761603,0.00080583267905483,-0.00018979043369774,0.00018979138837814,1.9614524283129e-10,7.5811114262204e-10,-6.131473580338e-10,1.6313087419245e-09,-0.00019394245474791,0.00019394261500607,-0.00019394232764874,0.00019394276178106,-0.0001939419628984,0.0001939432355356,-0.00019394162605219,0.00019394342300096,-0.00019255720637671,0.00019255820828285,-0.00019255634639296,0.00019255883051033,2.1055902098707e-09,-3.3924092020671e-09,1.3294881450091e-09,-2.5048284343182e-09,-0.00018979150222901,0.00018979031933632,-0.0001939415041944,0.00019394371234639,-0.00019394292860721,0.00019394219884918,-0.00019394338525308,0.00019394168325274,-0.00019394469055398,0.00019394030141214,-0.00019255735623613,0.00019255801608498,-0.00019256090036003,0.00019255433474891,-0.00019255634293248,0.00019255909732852,-0.00019256147436237,0.00019255370023807,-6.9203939270835e-10,-1.965580208168e-10,-0.00018979135698919,0.0001897904652366,1.9287545127081e-09,-2.8998612082049e-09,-0.00019394217011194,0.00019394292176997,-0.00019394401009762,0.00019394115014266,-0.00019394207665093,0.00019394305811576,-0.0001939437008759,0.00019394132091668,-0.00019255849286645,0.00019255670697669,-0.00019255924954957,0.00019255611181819,0.77012034818844,131329,3014,0.00079048305381709,0.00079048305275427,0.00079048305412912,29.683612166186,-1.3110267051235e-07,-1.3110267051235e-07,-1.3110267051235e-07,873595.71879375,0.0023742657692426
3819200,0.14099821013731,0.0027337830967087,0.00091126103249182,0.00091126103140206,0.00091126103281478,-0.00021366095771328,0.00021366127008479,-2.8323786764521e-11,3.4449050135312e-10,1.9901647016874e-10,1.4701470091945e-10,-0.00021912702305733,0.00021912736068044,-0.00021912696438274,0.00021912743927179,-0.00021912726475725,0.00021912721205553,-0.00021912698317858,0.00021912734581641,-0.00021659168745447,0.00021659145016947,-0.00021659099244901,0.00021659191316095,1.5785786988828e-09,-2.3543796551251e-09,1.7375111787359e-09,-2.427542081945e-09,-0.00021366146031142,0.00021366076698497,-0.00021912610720871,0.0002191283958719,-0.00021912764352481,0.00021912676784719,-0.00021912749031645,0.00021912688715399,-0.00021912889407472,0.00021912540496813,-0.00021659057440779,0.00021659253658303,-0.00021659441791233,0.00021658855242312,-0.00021659078277711,0.0002165923680184,-0.00021659436538281,0.0002165885565802,-5.1007874708412e-10,-2.1706377729178e-10,-0.00021366147864463,0.00021366074929888,1.8148433689426e-09,-2.6196937537754e-09,-0.00021912676983196,0.00021912762171644,-0.00021912848299601,0.00021912597734922,-0.00021912674621382,0.00021912768240236,-0.00021912822905836,0.00021912608554141,-0.00021659229396716,0.00021659062695098,-0.00021659288811487,0.00021659021955957,0.77140879555228,131329,3014,0.00088985883092947,0.00088985882988519,0.00088985883123221,29.234262340261,-3.7259012779118e-06,-3.7259012779118e-06,-3.7259012779118e-06,982636.70711018,0.0026731462667261
4019200,0.16032641960652,0.0030805137353313,0.001026837912035,0.0010268379109561,0.0010268379123403,-0.00024322541087609,0.00024322535166813,-8.6189745037452e-10,8.1352072576496e-10,5.553685641657e-10,-6.0575511562644e-10,-0.00025018328792798,0.00025018318868054,-0.00025018277634734,0.00025018372268429,-0.00025018387691942,0.0002501826856638,-0.00025018319581472,0.0002501832231492,-0.0002464461183108,0.00024644398388587,-0.00024644423755593,0.0002464456427497,-1.4166303551016e-09,2.5533767145454e-09,2.8922957862224e-09,-1.7763566895686e-09,-0.00024322482110439,0.0002432259409446,-0.00025018244343591,0.00025018408823269,-0.00025018411540032,0.00025018232142484,-0.00025018129646772,0.00025018523880428,-0.00025018288718858,0.00025018356408304,-0.00024644155559843,0.00024644854350279,-0.00024644597486443,0.00024644397691975,-0.00024644722327657,0.00024644280440936,-0.0002464432001804,0.00024644682137916,-1.0200677951144e-09,5.6050957689806e-10,-0.00024322561149377,0.00024322515118807,1.4846166901226e-09,-2.0093169421327e-09,-0.00025018305152426,0.00025018340575801,-0.00025018443385069,0.0002501821124834,-0.00025018258582372,0.00025018392259474,-0.0002501838065697,0.00025018264048521,-0.00024644493969449,0.00024644502975969,-0.00024644663914117,0.00024644337552697,0.77300335392049,131329,3014,0.0010129262858524,0.0010129262848217,0.0010129262861388,30.535619331082,6.6849546486555e-06,6.6849546486555e-06,6.6849546486555e-06,1109002.7719826,0.003043405116197
4219200,0.18147128834493,0.0034577038968302,0.0011525679658874,0.0011525679648168,0.001152567966126,-0.00027505839603908,0.00027505787445574,-7.5834907582393e-10,2.5082726932557e-10,1.4246521065914e-09,-1.9581236994004e-09,-0.00028374926783695,0.00028374955827252,-0.0002837489641674,0.00028374988427522,-0.00028375049141882,0.00028374836773538,-0.00028374998963627,0.0002837487274847,-0.00027867495111321,0.00027867218994975,-0.00027867365682664,0.00027867327162186,-1.0099563647831e-09,2.5018451356541e-09,3.2863190433227e-09,-1.8456808799638e-09,-0.00027505741173117,0.00027505885827256,-0.00028374833441172,0.00028375052953953,-0.00028375015957962,0.00028374859441547,-0.00028374727713272,0.00028375157963309,-0.00028374899988278,0.00028374977426861,-0.00027866979783357,0.00027867734272804,-0.00027867463380028,0.0002786723913461,-0.00027867545572084,0.00027867161276609,-0.00027867180257292,0.00027867527132897,-6.0679494447803e-10,2.9250227838853e-10,-0.00027505829223202,0.00027505797836836,1.4021490018399e-09,-1.7748976577199e-09,-0.00028374909492281,0.00028374969554983,-0.00028375037589508,0.00028374849316161,-0.00028374883312615,0.00028374999036327,-0.00028374993211735,0.00028374883759432,-0.00027867364888778,0.00027867339313156,-0.00027867473757136,0.00027867232122338,0.77489565093134,131329,3014,0.0011454199195486,0.0011454199185266,0.0011454199197682,31.778728063492,1.6629824507933e-05,1.6629824507933e-05,1.6629824507933e-05,1239731.2738071,0.0034421767043635
4419200,0.20294814862015,0.00383844320033,0.0012794810670418,0.0012794810660005,0.0012794810672877,-0.00030517346825298,0.00030517360697375,-8.8358168708303e-10,1.0330561569171e-09,-3.8853117858037e-10,5.529406898503e-10,-0.00031575278742288,0.00031575198585379,-0.00031575216584815,0.00031575263043518,-0.00031575259291038,0.00031575226229491,-0.00031575180998489,0.00031575290594812,-0.00030926072240682,0.00030925921073296,-0.00030925859234769,0.00030926113781718,-9.0349940834217e-11,1.1536816152754e-09,2.9356296116185e-09,-1.9032614179291e-09,-0.00030517302078799,0.00030517405396134,-0.0003157512157397,0.00031575362386864,-0.00031575292748023,0.00031575180651482,-0.00031575087605145,0.00031575394626347,-0.00031575252058905,0.0003157522224459,-0.00030925688844086,0.00030926303564945,-0.00030926149319251,0.00030925832536711,-0.00030926088111145,0.00030925899051381,-0.00030925949500805,0.00030926036574115,-1.0233000407538e-09,7.6792171800393e-10,-0.00030517366499558,0.00030517341034124,1.3993730957596e-09,-1.7110559526137e-09,-0.00031575221645255,0.00031575253923887,-0.00031575345717344,0.00031575137890017,-0.00031575164582907,0.00031575315134695,-0.00031575274460364,0.00031575200922238,-0.00030925960912785,0.00030926025969609,-0.00030926148689806,0.00030925832611682,0.77613009992903,131329,3014,0.0012707496024669,0.0012707496014735,0.0012707496026959,31.980557873052,1.8244462984413e-05,1.8244462984413e-05,1.8244462984413e-05,1358491.2311834,0.0038195331846749
4619200,0.22596435428583,0.0042441180486494,0.0014147060164685,0.0014147060154562,0.0014147060167247,-0.00033880049962198,0.00033880017861349,6.1320878743659e-10,-9.2480923966843e-10,1.2999791990572e-09,-1.6210297949172e-09,-0.0003515208447494,0.00035152198745975,-0.00035152138821311,0.00035152146010254,-0.00035152191907181,0.00035152096174272,-0.0003515222090269,0.0003515205227943,-0.00034349650662219,0.00034349641091167,-0.00034349758013076,0.00034349515783528,9.6732371792867e-10,-5.5939372170818e-10,2.9844661513182e-09,-2.5853484119956e-09,-0.00033880013927091,0.0003388005384987,-0.00035151999862846,0.00035152292388436,-0.00035152198387293,0.00035152081189999,-0.00035152053276831,0.0003515222941861,-0.00035152236868592,0.00035152037651356,-0.00034349393254911,0.00034349901858222,-0.00034349906883092,0.0003434937914416,-0.00034349657683034,0.00034349635471208,-0.00034349768810662,0.00034349513763245,6.7389909274236e-10,-1.0057371083629e-09,-0.000338800505493,0.00033880017287197,1.6508185164804e-09,-2.0427337261295e-09,-0.00035152060357791,0.00035152220971159,-0.0003515220800864,0.00035152081389278,-0.00035152119642107,0.00035152163834517,-0.00035152242189926,0.0003515203325566,-0.00034349781926815,0.00034349500005379,-0.00034349654182926,0.00034349632720068,0.7769460931201,131329,3014,0.0014106740938911,0.0014106740929219,0.0014106740941605,33.011090305218,2.6488722441741e-05,2.6488722441741e-05,2.6488722441741e-05,1491360.6843888,0.0042410015513145
4819200,0.25127293997304,0.0046873832340471,0.0015624610783189,0.0015624610773053,0.001562461078423,-0.00037622700422718,0.00037622625245925,4.5526664860757e-10,-1.1985772645226e-09,1.7831175266306e-09,-2.5701079647453e-09,-0.00039152443288572,0.00039152580041348,-0.00039152508564048,0.00039152516525752,-0.00039152603751208,0.00039152424186246,-0.00039152642080486,0.00039152370562577,-0.00038169942464582,0.00038169860825322,-0.00038170065492586,0.00038169717091946,2.7685468190702e-10,3.662310111679e-11,3.03555303464e-09,-2.7310341903927e-09,-0.00037622647535333,0.00037622678087184,-0.00039152387779615,0.00039152642665803,-0.00039152595058453,0.00039152423461928,-0.00039152406383237,0.00039152617923069,-0.00039152596732886,0.00039152418742624,-0.00038169620296756,0.00038170185997725,-0.00038170152162832,0.00038169638050549,-0.0003816998131384,0.00038169820083056,-0.00038169970533615,0.00038169820655404,7.4104533352962e-10,-1.0707385763479e-09,-0.00037622679342597,0.00037622646331061,1.5410954473346e-09,-1.9315116354616e-09,-0.00039152427822527,0.00039152593964185,-0.00039152569292824,0.00039152459408383,-0.00039152498306158,0.00039152525206327,-0.00039152613732649,0.000391524013725,-0.0003817004176548,0.00038169748532969,-0.00038169897173306,0.0003816990167631,0.77793123140667,131329,3014,0.0015663858964475,0.001566385895488,0.0015663858965517,34.498367430332,3.8386939442654e-05,3.8386939442654e-05,3.8386939442654e-05,1635686.079803,0.0047102319895435
5019200,0.27863740313845,0.0051617110912447,0.0017205703640536,0.0017205703630908,0.0017205703641003,-0.00041573744286722,0.00041573679035833,-3.6027073884388e-10,-2.8139029174915e-10,1.0368093963611e-09,-1.7247262374444e-09,-0.00043408699476268,0.0004340873983657,-0.00043408708593065,0.00043408732586919,-0.00043408809392403,0.00043408636630661,-0.00043408794848236,0.00043408636256905,-0.00042210171642158,0.00042209988967458,-0.00042210130240662,0.00042210011495873,-2.8196420387606e-10,7.8516578622051e-10,2.9550014345282e-09,-2.4732783608056e-09,-0.00041573687490236,0.00041573735788671,-0.00043408612959158,0.00043408833541191,-0.00043408808325408,0.00043408626448959,-0.00043408590845928,0.0004340885119329,-0.00043408772765541,0.00043408661327839,-0.00042209784878678,0.00042210382161383,-0.00042210285880047,0.00042209863894953,-0.00042210207810145,0.00042209951416787,-0.00042210073247783,0.0004221007856663,-6.9189558218255e-11,-1.6458632642718e-10,-0.00041573723368861,0.00041573699955645,1.3049292789607e-09,-1.5945809645064e-09,-0.00043408668635348,0.00043408770221262,-0.00043408790380441,0.00043408655829883,-0.00043408682953175,0.00043408756649509,-0.00043408782544415,0.00043408650557188,-0.00042210124671621,0.00042210024393574,-0.00042210142954959,0.00042210012929847,0.77678229396497,131329,3014,0.0017307431281497,0.0017307431272419,0.0017307431281903,35.808329636637,4.8866637093093e-05,4.8866637093093e-05,4.8866637093093e-05,1778664.4975677,0.0052057541250771
5219200,0.30742512164092,0.0056571060208001,0.0018857020072476,0.0018857020063574,0.0018857020071951,-0.00045619445999414,0.00045619393431978,2.2625454085556e-09,-2.7750731415822e-09,1.0909557406539e-09,-1.646109614893e-09,-0.00047797832814514,0.00047798056370017,-0.00047798016252167,0.00047797874556972,-0.00047797945089285,0.00047797949340863,-0.00047798092131142,0.00047797787366523,-0.00046360015290064,0.00046360323371448,-0.00046360454176387,0.00046359864205521,8.3268685110808e-10,-6.0339449126855e-10,3.0028011995556e-09,-2.7812003501473e-09,-0.00045619408615612,0.00045619430776513,-0.00047797802299363,0.00047798094804916,-0.00047798014793729,0.0004779787017666,-0.00047797865840153,0.00047798024411908,-0.00047798051921684,0.00047797829560697,-0.0004635992038501,0.00046360421862966,-0.00046360437154827,0.00046359887417903,-0.00046360202325509,0.00046360132567216,-0.00046360291955524,0.00046360032093734,2.4844749805389e-09,-2.7437952980988e-09,-0.00045619432625045,0.00045619406801824,1.5391799447636e-09,-1.8563082225139e-09,-0.00047797799586072,0.00047798089701129,-0.00047797942627984,0.00047797952081318,-0.00047797987933809,0.00047797900072716,-0.00047798097114078,0.00047797784841675,-0.00046360464828028,0.0004635986168805,-0.00046360000636123,0.00046360332837235,0.77856400274817,131329,3014,0.0018990105986343,0.0018990105978179,0.0018990105985398,36.7614445325,5.6491556259999e-05,5.6491556259999e-05,5.6491556259999e-05,1924802.7993607,0.0057133201435623
5419200,0.33731281665447,0.006160287511587,0.0020534291707622,0.002053429169434,0.0020534291713907,-0.00049697299974538,0.00049697250822722,5.3310508169834e-09,-5.8121875635861e-09,1.2047262041473e-09,-1.7306929335336e-09,-0.00052267461737295,0.00052267918200634,-0.00052267865625253,0.00052267515654928,-0.00052267591030982,0.0005226779459387,-0.00052267941777752,0.00052267428321526,-0.00050532850761617,0.00050533742766144,-0.00050533874900466,0.00050532696934428,1.7918949730591e-09,-2.0531701195282e-09,3.0167083646311e-09,-3.2556902083186e-09,-0.00049697287389324,0.00049697263348138,-0.00052267516636946,0.00052267869938917,-0.00052267756672715,0.00052267622491089,-0.0005226767098052,0.00052267711528945,-0.00052267862890583,0.00052267505470248,-0.00050533101255047,0.00050533503430771,-0.00050533635043011,0.00050532935572903,-0.00050533258395599,0.0005053334112264,-0.00050533554480144,0.00050533014480128,5.493841118822e-09,-5.8565001786308e-09,-0.00049697293459107,0.00049697257359922,1.7797653888082e-09,-2.2070450322672e-09,-0.00052267429467466,0.00052267950927029,-0.00052267601142662,0.00052267784850887,-0.00052267839092459,0.0005226754037863,-0.00052267959252638,0.00052267412172501,-0.00050533898613727,0.00050532678673368,-0.00050532849920497,0.00050533740472691,0.76958753892859,131329,3014,0.0020685871747439,0.0020685871735012,0.0020685871751949,37.572919381313,6.2983355050507e-05,6.2983355050507e-05,6.2983355050507e-05,2055159.6981005,0.0062250958630599
5619200,0.36704026469792,0.0066330318220018,0.0022110106076167,0.002211010606104,0.0022110106082811,-0.00053422204996179,0.00053422186360801,3.7867859392448e-09,-3.9651591213165e-09,7.9952495917896e-11,-2.8541914975854e-10,-0.00056435341401287,0.00056435651178551,-0.00056435648830752,0.00056435345949219,-0.00056435387646957,0.000564356144376,-0.00056435650798098,0.00056435335530068,-0.00054285142045008,0.00054285855034352,-0.00054285869071483,0.00054285105072992,2.1511976124473e-09,-2.7389473806957e-09,2.626782790729e-09,-3.1659030063039e-09,-0.00053422222792974,0.00053422168496217,-0.00056435326428971,0.00056435670538435,-0.00056435552409807,0.0005643544630566,-0.00056435518612971,0.00056435481923047,-0.00056435697713493,0.00056435281500652,-0.00054285353288257,0.00054285664295648,-0.00054285848081878,0.00054285114032015,-0.00054285411752273,0.00054285602103969,-0.00054285819900859,0.00054285140312394,3.8045998217341e-09,-4.1715685710613e-09,-0.00053422213932025,0.00053422177444527,1.5881741449877e-09,-2.0213040490047e-09,-0.00056435290056131,0.00056435704252078,-0.00056435446889409,0.00056435554355995,-0.00056435604148741,0.00056435390785429,-0.00056435717577155,0.0005643526805855,-0.00054285945516176,0.00054285033215277,-0.00054285192256584,0.00054285800819803,0.73637638002543,131329,3014,0.0022234627697248,0.0022234627683161,0.0022234627701302,37.741252481448,6.4330019851584e-05,6.4330019851584e-05,6.4330019851584e-05,2171341.138417,0.0066927330191929
5819200,0.39423048860366,0.0070446655912939,0.0023482218640582,0.0023482218626488,0.002348221864587,-0.00056417527665801,0.00056417574871924,4.6203628563804e-09,-4.1431506247983e-09,-1.7604899598872e-09,2.2484345586912e-09,-0.00059858125741048,0.00059858384957835,-0.00059858462543737,0.00059858050166022,-0.00059858030844889,0.00059858492172607,-0.00059858318893961,0.00059858189264876,-0.00057259765413868,0.00057260774734199,-0.00057260579473498,0.00057259942130478,2.2379681588652e-09,-3.2590517147688e-09,1.8491582469056e-09,-2.8107403929923e-09,-0.00056417599688901,0.00056417502784081,-0.00059858115966226,0.00059858401476111,-0.000598583058451,0.00059858212264743,-0.00059858328865572,0.00059858189798792,-0.0005985846874523,0.00059858031293563,-0.0005726021194524,0.00057260340848382,-0.00057260595625966,0.00057259919964689,-0.00057260158633853,0.00057260392529599,-0.00057260623426817,0.00057259889394604,4.3387900955585e-09,-4.6676640416264e-09,-0.00056417567638116,0.00056417534919318,1.2520723751513e-09,-1.641703606317e-09,-0.00059858045080759,0.00059858468611438,-0.00059858179811166,0.00059858340349393,-0.00059858389339713,0.00059858125117576,-0.00059858476606389,0.00059858030016035,-0.0005726074980463,0.00057259778516047,-0.00057259904796181,0.00057260627699784,0.71318193372244,131329,3014,0.0023479873348194,0.0023479873334742,0.0023479873352275,36.556607748949,5.4852861991592e-05,5.4852861991592e-05,5.4852861991592e-05,2303324.4443049,0.0070688863593853
6019200,0.41986703932867,0.0074216495351573,0.0024738831786618,0.0024738831773243,0.0024738831791712,-0.0005925898386943,0.00059259045250868,4.3062892285553e-09,-3.6876188957446e-09,7.2700909857696e-10,-1.1184214341694e-10,-0.00063102657364815,0.00063103057240356,-0.00063102969278446,0.00063102745887764,-0.00063102710065529,0.00063103013888347,-0.00063102977753018,0.0006310273138947,-0.0006006997010772,0.00060070758929591,-0.00060070714548626,0.00060069994880249,5.0591234041768e-09,-6.5771265645647e-09,3.0279480327436e-09,-4.4544578658702e-09,-0.00059259086257785,0.00059258942800466,-0.00063102601654071,0.00063103120508408,-0.0006310287760431,0.00063102844380788,-0.0006310300389803,0.00063102715836185,-0.00063103232808844,0.0006310246581851,-0.00060070295139636,0.00060070451965562,-0.00060070955073165,0.00060069742411659,-0.00060070024276478,0.00060070723724544,-0.00060071089094862,0.00060069602918266,3.902018712448e-09,-4.3536225724071e-09,-0.00059259037084389,0.0005925899205674,2.7444320620579e-09,-3.2707596611993e-09,-0.00063102615413524,0.00063103101995244,-0.00063102846028784,0.00063102875706915,-0.00063102935125718,0.00063102781032992,-0.0006310312290053,0.0006310258496854,-0.00060070868478308,0.000600698465424,-0.00060070092719438,0.00060070630480612,0.70262235296217,131329,3014,0.0024660997540823,0.0024660997527937,0.0024660997545135,35.891878493156,4.9535027945251e-05,4.9535027945251e-05,4.9535027945251e-05,2383382.5179339,0.0074258019936001
6219200,0.4448165208057,0.0077890441232517,0.0025963480413925,0.0025963480400998,0.0025963480417594,-0.00062144476462354,0.00062144547612716,5.3075046093186e-09,-4.5922435704053e-09,-1.9568625586038e-09,2.6832125166994e-09,-0.00066377477760426,0.00066377795403402,-0.00066377859045356,0.00066377409273576,-0.00066377375497987,0.00066377904530607,-0.00066377697320479,0.0006637757456507,-0.0006294695168824,0.00062948095540357,-0.00062947847887463,0.00062947170808486,1.7405618313806e-09,-3.3502123233628e-09,1.2751579334762e-09,-2.8096300321209e-09,-0.00062144589061375,0.00062144434954782,-0.00066377532266827,0.00066377747937866,-0.0006637771368409,0.00066377562405674,-0.00066377743440914,0.00066377531564373,-0.00066377862450086,0.0006637739931177,-0.00062947527097286,0.00062947531257193,-0.00062947822318614,0.00062947190179737,-0.00062947465499641,0.00062947592698168,-0.00062947856101937,0.00062947152990762,4.8624968528824e-09,-5.3181234215388e-09,-0.00062144534733926,0.00062144489354783,9.3456372835196e-10,-1.4550553952329e-09,-0.00066377415681564,0.00066377863237997,-0.00066377540965775,0.00066377733372772,-0.00066377803722695,0.00066377465176325,-0.00066377874781526,0.00066377396697987,-0.00062948038752497,0.00062946982534265,-0.00062947111678652,0.0006294793134059,0.7074629662729,131329,3014,0.0025860285991247,0.0025860285979014,0.002586028599406,35.771289641208,4.8570317129661e-05,4.8570317129661e-05,4.8570317129661e-05,2388896.3455344,0.0077883381929034
6419200,0.46950347654029,0.0081497633699159,0.0027165877903015,0.0027165877890487,0.0027165877905657,-0.00065045683808222,0.00065045755238249,4.7203646353359e-09,-4.0003743433686e-09,2.4827429533188e-10,4.7309105189311e-10,-0.00069679217205292,0.00069679622558657,-0.0006967955677662,0.00069679285331755,-0.00069679238769153,0.00069679614018855,-0.00069679535941025,0.00069679301119964,-0.00065835605932884,0.00065836516778641,-0.00065836427233017,0.000658356801986,3.0070059542942e-09,-4.6135707272448e-09,2.3972759338364e-09,-3.9275671732465e-09,-0.00065045796304441,0.00065045642685265,-0.00069679257851364,0.00069679597868232,-0.00069679487905764,0.0006967935333008,-0.00069679521150114,0.00069679318326785,-0.00069679722791865,0.00069679112157314,-0.00065835989298839,0.00065836157981377,-0.00065836531423699,0.00065835557040418,-0.00065835906359356,0.00065836240974699,-0.00065836574024165,0.00065835510294135,4.2859181909942e-09,-4.7349200514132e-09,-0.00065045741909728,0.0006504569714575,1.9566872675177e-09,-2.473554308555e-09,-0.00069679189458884,0.00069679652606917,-0.00069679368937844,0.00069679481987624,-0.00069679539371395,0.00069679305746386,-0.00069679675401882,0.00069679158395366,-0.0006583658040472,0.00065835533713126,-0.00065835722669954,0.00065836392568622,0.70211760833753,131329,3014,0.0027065963815501,0.0027065963803716,0.0027065963817348,35.957292096558,5.0058336772462e-05,5.0058336772462e-05,5.0058336772462e-05,2394197.4073612,0.0081529391057315
6619200,0.49471980988367,0.0085416833647459,0.002847227788591,0.0028472277873481,0.0028472277888068,-0.00068261023037326,0.00068261079497325,3.4829601578109e-09,-2.9113622015891e-09,1.93868018171e-09,-1.3841864758768e-09,-0.00073297596145278,0.00073298004434969,-0.0007329783167782,0.00073297768538853,-0.00073297710351178,0.00073297900199758,-0.00073297958827828,0.00073297638395372,-0.00069108290617996,0.00069108922765212,-0.00069108958673564,0.00069108228647444,3.4019543593016e-09,-5.074089509758e-09,3.173445080385e-09,-4.762517951933e-09,-0.00068261130902591,0.00068260971576465,-0.00073297610496824,0.00073298004807391,-0.00073297869202755,0.00073297731292116,-0.00073297878088761,0.00073297720530353,-0.00073298161187936,0.00073297432610104,-0.00069108426328682,0.0006910880301289,-0.00069109212835927,0.00069107966032992,-0.00069108392553813,0.00069108836072913,-0.00069109231506422,0.00069107942860694,3.1059269977387e-09,-3.6083142086248e-09,-0.00068261076310244,0.00068261026231934,2.5366137012367e-09,-3.1138319539683e-09,-0.00073297602648715,0.00073298000886987,-0.0007329779613425,0.0007329781234992,-0.00073297848309906,0.00073297753823562,-0.00073298054972951,0.0007329753960123,-0.00069109067586873,0.00069108122635183,-0.00069108365029455,0.00069108844842224,0.74071517912407,131329,3014,0.0028402021823547,0.0028402021812005,0.0028402021825083,36.728901267217,5.6231210137734e-05,5.6231210137734e-05,5.6231210137734e-05,2345262.0873401,0.0085571217445533
6819200,0.52135818904287,0.0089907287071915,0.0029969095694295,0.0029969095681687,0.0029969095695933,-0.00071979081544531,0.00071979127424408,6.3011072310582e-09,-5.8350663206998e-09,1.2704432668891e-09,-8.2314828632606e-10,-0.0007740056279945,0.0007740118218768,-0.00077401052220967,0.00077400692877875,-0.0007740071460916,0.00077401040977903,-0.0007740107742154,0.00077400664512245,-0.00072976963523235,0.000729779807983,-0.00072977978028612,0.0007297693336846,1.2324189172602e-09,-2.8272221179024e-09,2.4738922061283e-09,-4.000255759122e-09,-0.0007197918091473,0.00071979027998844,-0.00077400734770645,0.00077401023901095,-0.00077401020552278,0.00077400724392474,-0.00077400934962387,0.00077400809410842,-0.00077401105293425,0.00077400633949858,-0.00072977383725718,0.00072977566741156,-0.00072977824285488,0.000729770886203,-0.0007297754426043,0.00072977404291642,-0.00072977748553164,0.00072977160580844,5.9910027695366e-09,-6.4858483884015e-09,-0.00071979129126271,0.00071979079847276,1.4901319185222e-09,-2.0539697687511e-09,-0.00077400579749005,0.00077401168437658,-0.00077400777959419,0.0007740097496446,-0.00077401079789337,0.00077400667061186,-0.00077401152370409,0.00077400587411904,-0.00072978067923627,0.00072976845239651,-0.00072977017947705,0.00072977923827504,0.79222279042309,131329,3014,0.0029946751337973,0.0029946751326484,0.0029946751338894,38.159932198094,6.7679457584753e-05,6.7679457584753e-05,6.7679457584753e-05,2365809.1383282,0.0090246321854036
7019200,0.5497611032486,0.0094336553988273,0.0031445518000242,0.0031445517985409,0.0031445518002622,-0.00075799677332602,0.00075799709844027,4.6385422256014e-09,-4.3044351683721e-09,2.6381284028705e-09,-2.3350041980481e-09,-0.00081660855933724,0.00081661417153913,-0.00081661208452428,0.00081661062537724,-0.00081661053687126,0.00081661227169239,-0.00081661369070253,0.00081660900121032,-0.00076855019333792,0.00076855759467627,-0.00076855875077103,0.00076854879939388,1.2637243387206e-09,-2.763014516816e-09,3.1608822917934e-09,-4.5975743399672e-09,-0.00075799765478359,0.00075799621632539,-0.00081660997532611,0.00081661285844338,-0.00081661281390318,0.00081660992219817,-0.00081661150305924,0.00081661122944902,-0.00081661401707108,0.0008166086169638,-0.00076855178765625,0.00076855626931381,-0.00076855863524017,0.00076854873353738,-0.00076855425360528,0.00076855377820777,-0.00076855743102608,0.00076854990208974,4.4105710232593e-09,-4.8936003538977e-09,-0.00075799717633897,0.00075799669549882,1.819302690434e-09,-2.3715379671724e-09,-0.00081660901692353,0.000816613749817,-0.00081661073240626,0.00081661204937741,-0.00081661264719043,0.00081661006871679,-0.00081661401327362,0.00081660866548727,-0.00076855921877185,0.00076854837327289,-0.00076855026437529,0.00076855747819436,0.73336568019859,131329,3014,0.0031533839870895,0.0031533839857254,0.0031533839872338,39.886794831865,8.1494358654917e-05,8.1494358654917e-05,8.1494358654917e-05,2348969.6842382,0.0095051917353905
7219200,0.57836411381673,0.0098618136756203,0.0032872712256324,0.0032872712241036,0.0032872712258842,-0.00079369048514008,0.00079369073485846,5.5790624584421e-09,-5.3199323268662e-09,1.1934792343816e-09,-9.6073522522776e-10,-0.00085673218958208,0.00085673835003879,-0.00085673721568942,0.00085673329369026,-0.00085673420158566,0.0008567364123444,-0.00085673702967426,0.00085673348677896,-0.00080432604497982,0.00080433341793018,-0.00080433370249388,0.00080432552087966,-7.1969923575915e-10,-6.1012487429324e-10,2.0807052280118e-09,-3.3672533674919e-09,-0.00079369125367413,0.00079368996559079,-0.00085673437655236,0.00085673627330962,-0.0008567373951771,0.00085673313734326,-0.00085673549141951,0.00085673503558831,-0.00085673637204499,0.00085673409272347,-0.00080432935574465,0.00080433031474907,-0.00080433121560521,0.0008043278930787,-0.00080433302930854,0.00080432662090456,-0.00080432942248164,0.00080432967079436,5.4307107232211e-09,-5.8512143105663e-09,-0.00079369081938858,0.00079369040070034,4.9207146370161e-10,-9.7112946304387e-10,-0.00085673257355003,0.0008567380077644,-0.00085673433315378,0.00085673625575981,-0.00085673770727735,0.00085673280523135,-0.00085673729259812,0.0008567332066534,-0.000804334129809,0.00080432513193798,-0.00080432605686822,0.00080433336376657,0.70719547638474,131329,3014,0.0033016342991112,0.0033016342975878,0.0033016342992957,40.739811134249,8.8318489073993e-05,8.8318489073993e-05,8.8318489073993e-05,2364378.9432723,0.0099542929828736
7419200,0.60650587374695,0.010266939341037,0.0034223131141459,0.003422313112896,0.0034223131139951,-0.00082711239039568,0.00082711261219975,5.6284053615209e-09,-5.3967788858742e-09,1.3235638489741e-09,-1.1186094600135e-09,-0.00089454979473993,0.0008945562239953,-0.00089455510456251,0.0008945508313232,-0.00089455197858096,0.000894554051441,-0.00089455471490327,0.00089455127430952,-0.0008374299415901,0.0008374368111977,-0.0008374373259083,0.00083742937124724,-6.8590468179793e-10,-4.74320414745e-10,2.2100594626246e-09,-3.3343750015171e-09,-0.00082711306409084,0.00082711193790056,-0.00089455200536461,0.00089455409070148,-0.00089455519531722,0.00089455078785707,-0.0008945531991184,0.00089455278326817,-0.00089455381444568,0.00089455209498945,-0.00083743325613671,0.00083743386864752,-0.00083743450749637,0.00083743190403738,-0.00083743706273486,0.00083743003220542,-0.00083743262249799,0.00083743376277945,5.5452651844845e-09,-5.8848702073135e-09,-0.00082711267034662,0.00082711233215369,5.105707497523e-10,-9.0480960824638e-10,-0.00089455016360538,0.00089455590208044,-0.00089455200915929,0.00089455398920131,-0.00089455557923015,0.00089455034541247,-0.00089455489416143,0.00089455109086038,-0.00083743766656784,0.00083742910338791,-0.00083742981233754,0.00083743686587252,0.6850208386737,131329,3014,0.0034404286618419,0.003440428660588,0.0034404286616412,41.271738684218,9.2573909473747e-05,9.2573909473747e-05,9.2573909473747e-05,2425690.8532993,0.010374932973531
7619200,0.63299870589389,0.010638399094214,0.0035461330318844,0.0035461330307003,0.0035461330316296,-0.00085655205403195,0.00085655225471856,5.8663434840863e-09,-5.6551620568869e-09,1.3734708321148e-09,-1.1896404471833e-09,-0.0009283384553974,0.00092834498247968,-0.00092834393376781,0.00092833951479931,-0.00092834062141735,0.00092834292132251,-0.00092834355890119,0.00092833984598547,-0.00086635604549061,0.00086636305881625,-0.00086636365308547,0.00086635541360753,-1.6788995513666e-10,-8.9813417811553e-10,2.3801451647077e-09,-3.4111044082103e-09,-0.0008565526696009,0.00085655163856977,-0.00092834059141325,0.0009283430370504,-0.00092834370536828,0.00092833968107359,-0.00092834193108872,0.00092834145337657,-0.00092834272301053,0.00092834070885464,-0.00086635963470203,0.00086635990602577,-0.0008663607525777,0.00086635801472622,-0.00086636297334081,0.00086635652591082,-0.00086635907958592,0.0008663596531313,5.8300375358846e-09,-6.1189202011292e-09,-0.00085655229815255,0.00085655201054183,7.6564119298123e-10,-1.1084948749336e-09,-0.00092833870948257,0.00092834475135066,-0.00092834068819502,0.00092834285022715,-0.00092834432329433,0.0009283391343668,-0.00092834375620964,0.00092833962063951,-0.00086636401932068,0.00086635511368626,-0.00086635592719918,0.00086636311079373,0.67223853704649,131329,3014,0.0035626701647485,0.0035626701635456,0.0035626701646278,41.071002895502,9.0968023164015e-05,9.0968023164015e-05,9.0968023164015e-05,2479494.3377784,0.010745556671508
7819200,0.65802373809875,0.010984743685397,0.0036615812289733,0.0036615812278101,0.0036615812286138,-0.0008842962749954,0.0008842964698,5.8328128500124e-09,-5.6286445551254e-09,1.2149393424371e-09,-1.0374723111095e-09,-0.00096063016111129,0.00096063652375172,-0.00096063560655038,0.00096063112667768,-0.0009606321768627,0.00096063464760386,-0.00096063516136206,0.00096063148850606,-0.00089358401496113,0.00089359097606773,-0.00089359147660799,0.00089358346782694,1.6147942627725e-10,-1.1726814880032e-09,2.3836435377861e-09,-3.360203733665e-09,-0.00088429686037149,0.00088429588386314,-0.00096063215776455,0.00096063477409824,-0.00096063515251378,0.00096063145888624,-0.00096063359751206,0.00096063301370859,-0.00096063446469159,0.0009606322701194,-0.00089358773812649,0.00089358770077099,-0.00089358866666567,0.00089358593642938,-0.00089359065277059,0.00089358474922053,-0.00089358720663738,0.00089358736745503,5.8263650210186e-09,-6.0850533161511e-09,-0.00088429650090473,0.00088429624378506,9.0846488650661e-10,-1.2207500023077e-09,-0.00096063029367401,0.00096063640227626,-0.00096063232302233,0.00096063450826498,-0.00096063589287244,0.00096063085925618,-0.00096063543525956,0.00096063117712051,-0.00089359193133072,0.0008935830817235,-0.00089358396200712,0.00089359096291847,0.66655684214139,131329,3014,0.0036778594582827,0.003677859457119,0.0036778594580598,40.972113147624,9.0176905180995e-05,9.0176905180995e-05,9.0176905180995e-05,2489629.8113499,0.011094927239127
8019200,0.68174138989775,0.011309834472445,0.0037699448246617,0.0037699448235064,0.0037699448242772,-0.00091058520665686,0.00091058540501591,5.8511951313875e-09,-5.6440221443507e-09,8.6200799433571e-10,-6.7965342378973e-10,-0.00099150500774372,0.0009915101023202,-0.00099150942171724,0.00099150576165576,-0.00099150574389295,0.0009915095322298,-0.00099150979958001,0.00099150528374541,-0.00091940922085723,0.000919419559324,-0.00091941982045837,0.00091940892084682,2.6854962124864e-10,-1.2352332462057e-09,2.2021914039112e-09,-3.1371402281249e-09,-0.00091058577286082,0.000910584838135,-0.00099150693686966,0.00099150845993093,-0.00099150871827104,0.000991506316794,-0.0009915073511026,0.0009915076705059,-0.00099150917398072,0.00099150602102083,-0.00091941332200319,0.00091941592752603,-0.00091941689117193,0.00091941149245546,-0.00091941588569453,0.00091941336524206,-0.00091941562678257,0.00091941274936043,5.8700591376933e-09,-6.0975835522433e-09,-0.00091058542007037,0.00091058519158411,8.9704218065361e-10,-1.1761485165143e-09,-0.00099150501656747,0.00099151010084598,-0.00099150599194184,0.00099150930645616,-0.00099150959566022,0.00099150561146863,-0.00099151016714029,0.00099150486258485,-0.00091942037812015,0.00091940841286235,-0.00091940926691125,0.00091941946714668,0.66097842567171,131329,3014,0.0037869955371246,0.0037869955357178,0.0037869955370864,40.977141567896,9.0217132543169e-05,9.0217132543169e-05,9.0217132543169e-05,2490543.6760752,0.011426053033241
8219200,0.70427117176804,0.011616014514934,0.0038720048389192,0.0038720048381421,0.0038720048378727,-0.0009355394065565,0.00093553962974875,5.7761954936044e-09,-5.5462645457194e-09,6.7311918949434e-10,-4.6536855125138e-10,-0.0010209851263293,0.0010209896724138,-0.001020989117592,0.0010209857597761,-0.0010209853334109,0.0010209896341569,-0.0010209897274488,0.0010209850396366,-0.0009439577727444,0.00094396929277975,-0.00094396941862514,0.00094395762211274,4.6248618255324e-10,-1.4131509833693e-09,2.1084771559224e-09,-3.0257049217695e-09,-0.0009355399773922,0.00093553905846496,-0.0010209869431975,0.0010209881353246,-0.001020988270026,0.001020986460428,-0.0010209870958335,0.0010209876259633,-0.0010209892158643,0.0010209856604227,-0.00094396203181779,0.00094396551003889,-0.00094396657513387,0.00094396007440584,-0.00094396420548719,0.00094396331950333,-0.00094396547938448,0.00094396113559963,5.8009936956834e-09,-6.01643819559e-09,-0.00093553962564312,0.00093553941022432,9.9034620383857e-10,-1.2578518583862e-09,-0.0010209850376308,0.0010209897676832,-0.0010209856791409,0.0010209893069294,-0.0010209892014018,0.0010209856979113,-0.0010209902048013,0.0010209845138703,-0.00094397008603916,0.00094395701059864,-0.00094395790068797,0.00094396911184485,0.65549730892752,131329,3014,0.0038905804708606,0.0038905804699312,0.0038905804699509,41.071122325836,9.096897860669e-05,9.096897860669e-05,9.096897860669e-05,2492456.1994829,0.011740439340569
8419200,0.72569330121952,0.011906624561454,0.0039688748544371,0.0039688748537073,0.0039688748533094,-0.00095930674894037,0.00095930699851191,5.7041866868358e-09,-5.4480190199939e-09,5.3605618679263e-10,-2.9995657715011e-10,-0.001049099957746,0.0010491041766167,-0.0010491036987096,0.0010491005096141,-0.0010490998553561,0.0010491044406041,-0.0010491044032555,0.0010490996979076,-0.00096741159246379,0.00096742364977718,-0.00096742365596534,0.00096741156618343,6.2772180227644e-10,-1.573003313777e-09,2.0179077626504e-09,-2.9286485192827e-09,-0.00095930732977512,0.00095930641723502,-0.0010491016805085,0.0010491027154604,-0.0010491027556545,0.0010491013222183,-0.0010491017524408,0.001049102316894,-0.0010491039898414,0.0010491002036424,-0.00096741598862932,0.00096741973478466,-0.00096742089878164,0.00096741392082704,-0.00096741782728341,0.00096741787978601,-0.00096741996655224,0.00096741481592401,5.7302795666868e-09,-5.9394469838834e-09,-0.00095930697808018,0.00095930676896816,1.0976599031405e-09,-1.3593884057644e-09,-0.0010490997910517,0.0010491043526788,-0.0010491002918114,0.0010491040189689,-0.0010491037085388,0.0010491005171805,-0.0010491049830991,0.0010490990743293,-0.00096742442970702,0.00096741084976351,-0.00096741180335867,0.00096742338448321,0.65381527896827,131329,3014,0.0039892292881412,0.0039892292872246,0.0039892292873004,41.233829570659,9.2270636565272e-05,9.2270636565272e-05,9.2270636565272e-05,2491981.9447402,0.012039936708122
8619200,0.746497341679,0.012188585452523,0.0040628618181395,0.0040628618174537,0.0040628618169303,-0.00098317869065125,0.00098317896402835,5.5095879590463e-09,-5.2296634838998e-09,4.6349940649953e-10,-2.0210953636887e-10,-0.0010771498958622,0.00107715374349,-0.0010771532933253,0.0010771504138676,-0.0010771495227799,0.0010771542677209,-0.0010771541524749,0.001077149451849,-0.00099104049199035,0.00099105281193374,-0.00099105273888164,0.00099104053925084,5.5525953819841e-10,-1.485514908837e-09,1.9032764717723e-09,-2.799287829173e-09,-0.00098317927653737,0.00098317837776342,-0.001077151587936,0.0010771522913735,-0.0010771523866533,0.0010771512042425,-0.0010771514153051,0.0010771521708985,-0.0010771537655153,0.0010771499166489,-0.00099104479759943,0.00099104895873647,-0.00099105004869334,0.00099104280549469,-0.00099104659059807,0.00099104715619773,-0.00099104914567016,0.00099104367225447,5.5364623178472e-09,-5.7428764097736e-09,-0.00098317892992923,0.00098317872420035,1.1231484560709e-09,-1.3825559836431e-09,-0.0010771497006389,0.001077153949338,-0.0010771499995664,0.0010771538005953,-0.0010771532801305,0.0010771504413469,-0.0010771547861087,0.0010771487810723,-0.00099105357427861,0.00099103976810658,-0.00099104073605765,0.00099105250731244,0.65261451386461,131329,3014,0.0040883023966834,0.0040883023958984,0.0040883023955392,41.855138215022,9.724110572018e-05,9.724110572018e-05,9.724110572018e-05,2493233.4346715,0.012340812098433
8819200,0.76611260692388,0.012443971320007,0.0041479904406096,0.004147990439905,0.0041479904394928,-0.0010042554778207,0.0010042557778046,5.4692508231416e-09,-5.160932425557e-09,3.1172151906274e-10,-1.9562617081359e-11,-0.0011022677877809,0.0011022724253647,-0.001102272066375,0.0011022682109898,-0.0011022682248788,0.0011022721379911,-0.0011022718853045,0.0011022682964153,-0.0010116552540468,0.0010116647408737,-0.0010116645392718,0.0010116554517411,6.2077636137257e-10,-1.5450681122095e-09,1.7760087468624e-09,-2.6657058406138e-09,-0.0010042560739217,0.0010042551812609,-0.0011022694314229,0.0011022710160695,-0.0011022710775112,0.0011022690987569,-0.0011022702279806,0.0011022699358665,-0.0011022715547218,0.0011022686900552,-0.0010116597474892,0.0010116607275907,-0.0010116618633239,0.0010116577192542,-0.0010116612866218,0.0010116591775473,-0.0010116610756485,0.0010116584607701,5.4937569246735e-09,-5.6992384552067e-09,-0.0010042557305057,0.0010042555247647,1.205196773507e-09,-1.4639667001457e-09,-0.0011022675194447,0.001102272710379,-0.0011022687948514,0.0011022715776523,-0.0011022719815734,0.0011022683039097,-0.0011022726197883,0.0011022675248434,-0.0010116654764768,0.001011654569042,-0.0010116555864843,0.0010116643564321,0.62942561239502,131329,3014,0.0041757673892496,0.0041757673883316,0.0041757673885098,41.996744942018,9.8373959536145e-05,9.8373959536145e-05,9.8373959536145e-05,2523363.7017789,0.012606514258253
9019200,0.78447095630242,0.01268312482013,0.004227708274,0.0042277082733655,0.0042277082727649,-0.0010237569223901,0.0010237572514241,5.508533403321e-09,-5.1717104100029e-09,2.6744443710897e-10,5.4667493827942e-11,-0.0011255573001183,0.0011255625755765,-0.0011255622293192,0.0011255577015401,-0.0011255583267666,0.0011255616859848,-0.0011255613584938,0.0011255584794431,-0.0010308057108471,0.0010308134193481,-0.0010308131506316,0.0010308059715213,7.6914727194582e-10,-1.7038591010865e-09,1.6875998864957e-09,-2.5862749789701e-09,-0.0010237575373302,0.0010237566360751,-0.0011255589187339,0.0011255611724172,-0.0011255611566894,0.0011255586820024,-0.0011255604657846,0.0011255593669634,-0.0011255610775476,0.0011255588149439,-0.0010308103988043,0.0010308092169012,-0.0010308104568455,0.0010308082495651,-0.0010308116227318,0.001030807979123,-0.0010308098250364,0.0010308088410462,5.5245493209281e-09,-5.7412873934346e-09,-0.0010237571944571,0.0010237569787588,1.3303082896861e-09,-1.6016627262149e-09,-0.0011255569821771,0.0011255629099976,-0.0011255589741739,0.0011255610415448,-0.0011255621024836,0.0011255578362066,-0.0011255621853152,0.0011255576237225,-0.0010308141880217,0.0010308049999036,-0.0010308061098249,0.0010308129559242,0.62978086249931,131329,3014,0.0042566889046223,0.0042566889037765,0.0042566889033752,42.04668173307,9.8773453864561e-05,9.8773453864561e-05,9.8773453864561e-05,2534068.4677481,0.01285240313226
9219200,0.80144098441311,0.012901669314798,0.0043005564388743,0.0043005564382055,0.0043005564377184,-0.0010412285320895,0.0010412288876914,5.4976587093296e-09,-5.1348649407537e-09,1.8461863567447e-10,1.6518757739761e-10,-0.0011465707107628,0.0011465754660045,-0.0011465751574333,0.0011465710721632,-0.0011465712024011,0.0011465751099299,-0.0011465746912222,0.0011465714495883,-0.0010478311600045,0.0010478405166691,-0.0010478401566117,0.0010478315159258,8.9061664680995e-10,-1.8346525379111e-09,1.5821735906815e-09,-2.4889439703879e-09,-0.0010412291643809,0.00104122825499,-0.0011465722992493,0.0011465740899014,-0.0011465740048953,0.0011465721403218,-0.0011465734623825,0.0011465726723714,-0.0011465744713132,0.001146571716954,-0.0010478360122205,0.0010478361494015,-0.0010478374841768,0.0010478337729817,-0.0010478369390851,0.0010478352131931,-0.0010478370016135,0.0010478342134226,5.5066301739928e-09,-5.7341858070303e-09,-0.0010412288232877,0.0010412285960398,1.4426668072987e-09,-1.7260179484247e-09,-0.001146570337542,0.001146575858185,-0.0011465719371247,0.001146574377537,-0.0011465749804647,0.001146571254458,-0.0011465756133231,0.0011465704986064,-0.0010478412941703,0.0010478304404864,-0.0010478316406266,0.0010478399757895,0.62301125292179,131329,3014,0.0043291828220034,0.0043291828211537,0.0043291828210586,41.896904245917,9.7575233967332e-05,9.7575233967332e-05,9.7575233967332e-05,2542742.3885641,0.013072737723083
9419200,0.81684310688353,0.013097772693757,0.0043659242318615,0.004365924231208,0.0043659242306874,-0.0010562474389342,0.0010562478259699,5.4542978395332e-09,-5.0592194069964e-09,3.3463196692899e-11,3.5092224638979e-10,-0.0011648124166979,0.0011648173451855,-0.0011648171167386,0.0011648126952543,-0.0011648130882886,0.0011648168073276,-0.0011648162478753,0.0011648134785777,-0.0010623852758966,0.0010623938924447,-0.0010623933927272,0.0010623857725641,9.9094783743771e-10,-1.9501906406543e-09,1.4490632536417e-09,-2.3696708873121e-09,-0.0010562480939238,0.0010562471705553,-0.0011648139564197,0.001164816014159,-0.0011648158747733,0.0011648138592486,-0.001164815486443,0.0011648142344688,-0.0011648161162699,0.0011648136522631,-0.0010623903057795,0.0010623893487514,-0.0010623907658377,0.0010623879793578,-0.0010623909284477,0.0010623887210871,-0.0010623904320332,0.0010623882669346,5.451009899007e-09,-5.6936981957226e-09,-0.0010562477534371,0.0010562475109587,1.5374582149422e-09,-1.8372088788681e-09,-0.0011648119727287,0.0011648178098777,-0.0011648139313721,0.0011648159651839,-0.0011648168753125,0.0011648129411599,-0.0011648172870822,0.0011648124113591,-0.0010623946533099,0.0010623845720807,-0.0010623858586091,0.0010623932504302,0.61621359616404,131329,3014,0.0043914963372296,0.0043914963363489,0.0043914963361707,41.414712698373,9.3717701586987e-05,9.3717701586987e-05,9.3717701586987e-05,2550253.2008266,0.013262171970142
9619200,0.83047862574376,0.013269381258409,0.0044231270867413,0.0044231270861032,0.0044231270855642,-0.0010683575398926,0.0010683579592132,5.4817919794297e-09,-5.053067307027e-09,-9.7980436764913e-11,5.1851427739181e-10,-0.0011797910429928,0.0011797958144709,-0.001179795660368,0.0011797912449644,-0.0011797915242853,0.0011797954687727,-0.0011797947769923,0.0011797920463122,-0.0010740307546468,0.001074039827845,-0.0010740392047497,0.0010740313907787,1.1977527314325e-09,-2.1845410521362e-09,1.3277072272598e-09,-2.2734848094649e-09,-0.0010683582231355,0.0010683572755368,-0.0011797925251316,0.0011797945429156,-0.0011797942855838,0.0011797925500755,-0.0011797941083728,0.0011797927069927,-0.0011797947507207,0.0011797921073926,-0.0010740360747754,0.0010740350264384,-0.0010740366234132,0.0010740335705193,-0.0010740362561058,0.0010740348316793,-0.0010740364917489,0.0010740336417145,5.4646437892363e-09,-5.7243523035253e-09,-0.0010683578795831,0.001068357619231,1.6648992794993e-09,-1.9827929489041e-09,-0.0011797905236148,0.0011797963586634,-0.0011797924843158,0.0011797945093739,-0.0011797953476632,0.0011797915591672,-0.0011797959403007,0.0011797908537179,-0.0010740405891415,0.0010740300576821,-0.0010740314468984,0.0010740390839229,0.60938555785337,131329,3014,0.0044417392772559,0.0044417392763579,0.0044417392766459,40.447974208071,8.5983793664568e-05,8.5983793664568e-05,8.5983793664568e-05,2556189.1194812,0.013414941045963
9819200,0.84282517747988,0.013425747278669,0.0044752490935169,0.004475249092898,0.0044752490922539,-0.0010798835493184,0.001079883995599,5.4070567945383e-09,-4.9535516436328e-09,-1.8005570153956e-10,6.2690329012305e-10,-0.0011938826753185,0.0011938872050458,-0.0011938870785846,0.0011938828497208,-0.0011938829387437,0.0011938870753481,-0.0011938862953184,0.0011938835511655,-0.0010851886152392,0.0010851981407231,-0.0010851974249153,0.0010851893373873,1.1005571991518e-09,-2.0891627587122e-09,1.2329218530814e-09,-2.1809091542064e-09,-0.0010798842477461,0.001079883296798,-0.0011938841780214,0.0011938859102383,-0.0011938857188525,0.001193884138212,-0.0011938855441819,0.0011938842941237,-0.0011938862845614,0.001193883599003,-0.0010851939357487,0.0010851933083331,-0.0010851948474992,0.0010851915013044,-0.0010851941284662,0.0010851931108825,-0.0010851947212988,0.0010851915750343,5.3817528585561e-09,-5.6559481523134e-09,-0.0010798839093083,0.0010798836351099,1.7069172784959e-09,-2.04046999366e-09,-0.0011938821269409,0.0011938877765593,-0.0011938839618856,0.0011938860511885,-0.0011938867463181,0.0011938831853688,-0.0011938875309342,0.0011938822876399,-0.0010851988955527,0.0010851879277081,-0.0010851893620426,0.0010851973336187,0.61214217164068,131329,3014,0.0044895563525029,0.0044895563517301,0.0044895563514637,39.873840967313,8.1390727738503e-05,8.1390727738503e-05,8.1390727738503e-05,2554346.8621256,0.013560354411883
10019200,0.85388840727812,0.013566992055802,0.004522330685891,0.0045223306852824,0.004522330684629,-0.0010896882976728,0.0010896887587923,5.467232335805e-09,-4.9963678933317e-09,-7.1035961135443e-11,5.3541276750748e-10,-0.0012059575979064,0.0012059626201239,-0.0012059624222448,0.001205957843527,-0.0012059583122773,0.0012059620409082,-0.0012059613083186,0.0012059588760616,-0.0010947125058528,0.0010947208992829,-0.0010947202416116,0.0010947131735781,1.1699745478613e-09,-2.1687651711796e-09,1.1910305534596e-09,-2.1481819148225e-09,-0.0010896890079053,0.0010896880481671,-0.0012059591484268,0.0012059612799085,-0.0012059610548005,0.0012059591431211,-0.0012059609449705,0.001205959229426,-0.0012059612689844,0.0012059589498209,-0.0010947179171417,0.0010947159817195,-0.0010947175782807,0.001094715426948,-0.0010947179632361,0.0010947159315248,-0.0010947175179754,0.0010947154244079,5.4379672497157e-09,-5.725626032055e-09,-0.0010896886724153,0.0010896883836388,1.7829094006358e-09,-2.1309033515418e-09,-0.0012059570623866,0.0012059631803802,-0.0012059593431021,0.0012059610101325,-0.0012059621089616,0.0012059581587179,-0.001205962558025,0.0012059575970486,-0.0010947217269344,0.001094711742955,-0.00109471325082,0.0010947200995318,0.61575181231004,131329,3014,0.0045302309181906,0.0045302309173778,0.0045302309173328,39.083921110022,7.5071368880174e-05,7.5071368880174e-05,7.5071368880174e-05,2548271.6616342,0.013684064752158
10219200,0.86368773855704,0.013693267122742,0.0045644223748721,0.0045644223742771,0.0045644223735933,-0.0010977319063956,0.0010977323812735,5.423335963162e-09,-4.9411688152139e-09,-7.4882257221973e-11,5.5106405443023e-10,-0.0012159647397834,0.0012159695152261,-0.0012159693050523,0.0012159649973202,-0.001215965217678,0.0012159691715355,-0.0012159684177493,0.0012159658030396,-0.0011025600412836,0.0011025691059399,-0.0011025684238269,0.0011025607322299,1.1269763260121e-09,-2.1286882859771e-09,1.1349134128002e-09,-2.0952181802131e-09,-0.0010977326252173,0.0010977316620662,-0.0012159663150461,0.0012159681484079,-0.0012159679542604,0.0012159662800655,-0.0012159678550395,0.0012159663565482,-0.0012159683740631,0.0012159658820845,-0.0011025654594547,0.0011025641778522,-0.0011025657529893,0.0011025629915072,-0.0011025654879237,0.0011025641459329,-0.001102565705268,0.0011025629813157,5.3930804444473e-09,-5.6942948969643e-09,-0.0010977322942768,0.0010977319929475,1.8172937213654e-09,-2.1796266978123e-09,-0.0012159641982627,0.0012159700807284,-0.0012159662742016,0.001215968113663,-0.0012159689942034,0.0012159653108865,-0.0012159697020957,0.001215964490611,-0.0011025699547552,0.0011025592608773,-0.0011025608046429,0.0011025682829788,0.62007541768243,131329,3014,0.0045635984943266,0.0045635984935283,0.0045635984933989,38.044485270008,6.6755882160068e-05,6.6755882160068e-05,6.6755882160068e-05,2539387.6500072,0.013785563582692
10419200,0.87272488494299,0.013810910411209,0.0046036368043614,0.0046036368037742,0.0046036368030738,-0.0011063819895265,0.0011063824586921,5.4007738781241e-09,-4.9239056309452e-09,1.3383924706758e-10,3.356587669139e-10,-0.0012264007227658,0.0012264055842616,-0.0012264052404908,0.0012264011148905,-0.0012264013075678,0.00122640513423,-0.0012264045280444,0.0012264017451348,-0.0011111032312871,0.001111112221359,-0.0011111116888442,0.0011111037730553,9.0008132756872e-10,-1.883033333172e-09,1.1623502677637e-09,-2.1055650180442e-09,-0.0011063826970208,0.0011063817508539,-0.0012264024220022,0.0012264040934495,-0.0012264040408876,0.0012264022473484,-0.0012264037701197,0.0012264024940275,-0.00122640433595,0.0012264019716391,-0.0011111084462801,0.0011111074947005,-0.0011111088947156,0.0011111061521431,-0.0011111088096035,0.0011111071256722,-0.0011111086789955,0.0011111063058966,5.3817842070102e-09,-5.6888212084171e-09,-0.0011063823776058,0.0011063820701786,1.7943552340616e-09,-2.1627002623445e-09,-0.0012264002544135,0.0012264060771343,-0.0012264022835465,0.0012264041577011,-0.0012264050092618,0.0012264013466046,-0.0012264057392046,0.0012264005058339,-0.0011111131523427,0.001111102368711,-0.0011111039057063,0.0011111114890529,0.62506671061051,131329,3014,0.0045994798708321,0.0045994798701201,0.0045994798699274,37.717636740361,6.4141093922887e-05,6.4141093922887e-05,6.4141093922887e-05,2528974.7065135,0.013894717123929
10619200,0.88117629393756,0.013918808443703,0.0046396028151944,0.0046396028146068,0.0046396028139017,-0.0011148198027455,0.0011148202389483,5.500327737175e-09,-5.0547190691551e-09,7.1893631663608e-10,-2.8599513839778e-10,-0.0012365361545598,0.0012365417048543,-0.001236541000143,0.0012365369056104,-0.0012365373839783,0.0012365406052796,-0.0012365404231206,0.0012365373978231,-0.0011194008563249,0.0011194088514946,-0.0011194087474799,0.0011194009573215,9.4957166456444e-10,-1.9240037105441e-09,1.2702651403992e-09,-2.2054931227872e-09,-0.0011148204891296,0.0011148195521731,-0.0012365380205423,0.0012365400434061,-0.0012365399624485,0.0012365378752885,-0.0012365396450991,0.0012365381701223,-0.0012365400218938,0.0012365378345686,-0.0011194058764356,0.0011194043235989,-0.0011194057228821,0.0011194035574572,-0.0011194063238378,0.0011194038806566,-0.001119405475745,0.0011194037474556,5.5064621394791e-09,-5.8176500279027e-09,-0.0011148201766706,0.0011148198645694,1.7894108709615e-09,-2.1619159068648e-09,-0.0012365358653674,0.0012365420163722,-0.001236538145008,0.0012365398450664,-0.0012365409571474,0.0012365369498486,-0.0012365414268322,0.0012365363671252,-0.0011194100059607,0.0011193997518416,-0.0011194013093044,0.0011194083469237,0.61395642795876,131329,3014,0.0046344792240636,0.0046344792232543,0.0046344792231166,37.647310134088,6.3578481072702e-05,6.3578481072702e-05,6.3578481072702e-05,2525234.6864119,0.014001198993195
10819200,0.8891065991873,0.014018245588263,0.0046727485300503,0.0046727485294665,0.0046727485287458,-0.0011227686906002,0.0011227691062356,5.430739412874e-09,-5.0071216852225e-09,8.434592569575e-10,-4.3416170154039e-10,-0.0012460858609887,0.0012460914945804,-0.0012460907063246,0.0012460866970371,-0.0012460872271168,0.0012460902585561,-0.0012460901987632,0.0012460871180186,-0.0011271788853646,0.0011271865819081,-0.0011271865922727,0.0011271788746644,5.8262963740441e-10,-1.5236116762312e-09,1.3378281594381e-09,-2.2428948795432e-09,-0.0011227693517938,0.0011227684446963,-0.0012460878390823,0.0012460897186608,-0.0012460898524442,0.0012460874819476,-0.0012460892565791,0.0012460880574437,-0.0012460896360995,0.0012460877169756,-0.0011271836017211,0.001127182360615,-0.0011271834816554,0.0011271815595798,-0.001127184615298,0.001127181344405,-0.001127182950825,0.0011271820358962,5.4599209363397e-09,-5.7701220559084e-09,-0.0011227690534508,0.0011227687429014,1.7039798427325e-09,-2.0749938495975e-09,-0.0012460856358335,0.001246091739902,-0.0012460878949841,0.0012460895930777,-0.0012460907365358,0.001246086668805,-0.001246091115995,0.0012460861732813,-0.0011271877744053,0.001127177743748,-0.0011271792416202,0.0011271861768114,0.60387279328668,131329,3014,0.0046674493328115,0.0046674493320957,0.0046674493318037,37.649664260376,6.3597314083006e-05,6.3597314083006e-05,6.3597314083006e-05,2527035.9398727,0.014101517663614
11019200,0.89661145747278,0.014110514907353,0.0047035049697475,0.0047035049691606,0.0047035049684453,-0.0011305184343036,0.0011305188214749,5.3874941504577e-09,-4.9916653000515e-09,1.0947739025264e-09,-7.1606538616457e-10,-0.0012553575556089,0.0012553628322974,-0.0012553618916101,0.0012553585439301,-0.0012553586084616,0.0012553619078425,-0.0012553620568551,0.0012553582902364,-0.0011347339303817,0.0011347429092381,-0.0011347431273231,0.0011347337103605,3.9416143165462e-10,-1.3076586504957e-09,1.4347451694519e-09,-2.3145734389609e-09,-0.0011305190683875,0.0011305181870242,-0.0012553596251876,0.0012553609628888,-0.0012553612026824,0.0012553591628384,-0.0012553604195307,0.0012553599273928,-0.0012553613480532,0.0012553590361841,-0.0011347383542133,0.0011347389836367,-0.0011347399405743,0.0011347364679368,-0.0011347397412035,0.0011347375935053,-0.0011347392257033,0.0011347371288422,5.4441051660889e-09,-5.7503198833218e-09,-0.0011305187808865,0.0011305184744155,1.6174227356104e-09,-1.9836766319523e-09,-0.0012553574293109,0.0012553629772986,-0.0012553591372396,0.0012553613828298,-0.0012553620291078,0.0012553584084424,-0.0012553628421471,0.0012553574777574,-0.001134744185042,0.001134732702437,-0.0011347341412475,0.00113474265127,0.59321240732985,131329,3014,0.0046995921939715,0.0046995921932125,0.0046995921929776,37.826070225192,6.5008561801534e-05,6.5008561801534e-05,6.5008561801534e-05,2533269.5914875,0.014199328817371
11219200,0.90367960754401,0.014197371596824,0.0047324571995705,0.0047324571989807,0.0047324571982726,-0.0011376888528451,0.0011376892224521,5.3426109118451e-09,-4.964732169899e-09,1.1118911607236e-09,-7.5196744002853e-10,-0.0012639387112112,0.0012639445979328,-0.0012639436489173,0.0012639397087939,-0.0012639404112152,0.0012639430263473,-0.001263943217812,0.0012639400505194,-0.0011417279029568,0.0011417348387531,-0.0011417350946976,0.0011417276474773,1.5642370869114e-10,-1.0388959035278e-09,1.524188436243e-09,-2.3756463920623e-09,-0.0011376894640472,0.0011376886108749,-0.0012639408157809,0.0012639426931296,-0.0012639430656469,0.0012639402204775,-0.0012639420720716,0.0012639411968045,-0.001263942430328,0.0012639408764332,-0.0011417321058289,0.0011417311362797,-0.0011417318997886,0.0011417304111283,-0.0011417339223925,0.0011417293153577,-0.0011417309714538,0.0011417312884778,5.4230168189116e-09,-5.7226533488096e-09,-0.0011376891872572,0.0011376888875511,1.5287862448061e-09,-1.8876421055059e-09,-0.0012639386121583,0.0012639447151315,-0.0012639408816001,0.0012639425606895,-0.0012639438213937,0.0012639395378964,-0.0012639439520051,0.0012639392892952,-0.0011417361119343,0.0011417266810058,-0.0011417280497879,0.001141734644022,0.5926375713398,131329,3014,0.0047293314520847,0.004729331451308,0.0047293314510658,37.936121785902,6.588897428722e-05,6.588897428722e-05,6.588897428722e-05,2538267.4819495,0.014289834413754
11419200,0.91026614210075,0.014278926767553,0.004759642256478,0.0047596422558934,0.0047596422551816,-0.0011440532783085,0.0011440536360442,5.3231105881549e-09,-4.956877612615e-09,1.1490268921348e-09,-8.0140323838706e-10,-0.0012715967716742,0.0012716025109349,-0.0012716015463135,0.0012715977845282,-0.0012715983429582,0.0012716010666946,-0.0012716012975709,0.0012715979427138,-0.0011479491967648,0.0011479565608837,-0.0011479568587475,0.0011479488993957,1.5518590343079e-10,-1.0239092618925e-09,1.6020766200239e-09,-2.4400530612353e-09,-0.0011440538768361,0.0011440530371606,-0.0012715988518439,0.0012716006283756,-0.0012716009940821,0.0012715982648651,-0.0012715999481216,0.0012715992955582,-0.0012716005075327,0.0012715987710828,-0.001147953285667,0.00114795297388,-0.0011479537149006,0.0011479516066627,-0.0011479552038378,0.0011479510485147,-0.0011479527354469,0.0011479525336874,5.4234164084103e-09,-5.7179312865359e-09,-0.0011440536039185,0.0011440533099132,1.4625198336701e-09,-1.8156693548122e-09,-0.0012715966963252,0.001271602603869,-0.0012715987634536,0.0012716006506708,-0.0012716017503094,0.0012715975817729,-0.0012716019902919,0.0012715972242052,-0.0011479578417637,0.0011479479692743,-0.0011479492849055,0.0011479564228376,0.59626754171859,131329,3014,0.0047557274526914,0.0047557274519552,0.0047557274516056,37.863875801045,6.531100640836e-05,6.531100640836e-05,6.531100640836e-05,2539023.2773304,0.01437017296432
11619200,0.91633528111885,0.014354487538356,0.0047848291800732,0.0047848291794827,0.0047848291788,-0.0011495187088417,0.0011495190577232,5.3108097677012e-09,-4.9533696402517e-09,1.1864127434345e-09,-8.4830108698409e-10,-0.0012782411591221,0.0012782466912675,-0.0012782457111523,0.0012782421885076,-0.0012782425392864,0.0012782454393855,-0.0012782457032371,0.0012782421045264,-0.0011532991693223,0.0011533071665929,-0.0011533074999972,0.0011532988416845,3.6667144254643e-10,-1.2396428340271e-09,1.6551982586681e-09,-2.4966327698262e-09,-0.0011495193042463,0.0011495184618962,-0.0012782431591148,0.0012782448932449,-0.0012782451196554,0.0012782427059657,-0.0012782441744077,0.0012782436337561,-0.0012782449904735,0.001278242857666,-0.001153303264095,0.0011533035891558,-0.0011533044731093,0.0011533014369736,-0.0011533049728183,0.0011533018758418,-0.0011533035984565,0.0011533022598258,5.4308681086484e-09,-5.717716374866e-09,-0.001149519026678,0.0011495187395111,1.418151652264e-09,-1.7626882293493e-09,-0.0012782411008681,0.0012782467674552,-0.001278242921182,0.0012782450636026,-0.0012782459395339,0.0012782419611138,-0.0012782463634687,0.001278241417055,-0.0011533084538938,0.0011532979326859,-0.001153299213382,0.0011533070803263,0.59873866671654,131329,3014,0.004778394693811,0.0047783946929365,0.0047783946930267,37.584070843423,6.3072566747386e-05,6.3072566747386e-05,6.3072566747386e-05,2536605.0856584,0.014439168776573
11819200,0.92185071076448,0.014423662797015,0.0048078875996313,0.0048078875990536,0.0048078875983297,-0.0011539311379638,0.0011539314859389,5.2990250235994e-09,-4.947325358371e-09,1.2392539087026e-09,-9.0758965670016e-10,-0.0012837129406109,0.0012837178925898,-0.0012837168744383,0.001283714009375,-0.0012837137397534,0.0012837172198489,-0.0012837175139082,0.0012837132753693,-0.0011576248996018,0.0011576347602337,-0.0011576351208996,0.0011576245406877,7.7369013502339e-10,-1.6697369956993e-09,1.6782991017661e-09,-2.5392387263892e-09,-0.001153931743217,0.0011539308803054,-0.0012837148188269,0.0012837162141256,-0.0012837161848469,0.0012837146204289,-0.0012837154972011,0.0012837152945155,-0.0012837169491674,0.0012837138847769,-0.0011576290802692,0.0011576310833536,-0.0011576322667886,0.0011576269552299,-0.0011576302781576,0.0011576298815736,-0.0011576316589407,0.0011576275208587,5.4334985041151e-09,-5.7202024119781e-09,-0.0011539314538295,0.0011539311695034,1.3927153593253e-09,-1.7371506747393e-09,-0.0012837129029397,0.0012837179451376,-0.0012837140903002,0.001283716873972,-0.0012837171340359,0.0012837137536437,-0.0012837181520333,0.0012837126117576,-0.0011576360631818,0.0011576236458611,-0.0011576249073368,0.0011576347080701,0.60218599247719,131329,3014,0.0047966947079779,0.0047966947071911,0.0047966947067921,37.033313216703,5.8666505733628e-05,5.8666505733628e-05,5.8666505733628e-05,2531680.7335731,0.014494876042086
12019200,0.92690974384765,0.014489215789278,0.0048297385970492,0.0048297385964711,0.0048297385957576,-0.0011582613632077,0.0011582617331908,5.2907444441537e-09,-4.9137863949045e-09,7.8062317885067e-10,-4.1953663326736e-10,-0.0012889834111996,0.0012889889210697,-0.0012889881848731,0.0012889841982771,-0.0012889847660199,0.0012889876966075,-0.0012889876747942,0.0012889846156374,-0.0011619471445927,0.0011619545999593,-0.0011619546396671,0.0011619471083723,6.1284314330391e-10,-1.5064840090579e-09,1.7044439203737e-09,-2.5636397103975e-09,-0.0011582619784408,0.0011582611176044,-0.001288985179185,0.0012889873570294,-0.0012889874143377,0.0012889848919487,-0.0012889866166488,0.0012889856741397,-0.0012889872347237,0.0012889850982618,-0.0011619513930997,0.0011619508632503,-0.0011619519388909,0.0011619493681108,-0.0011619528363863,0.0011619494126809,-0.0011619511939801,0.0011619500619082,5.4273134014187e-09,-5.7074937556894e-09,-0.0011582616876738,0.00115826140825,1.3615099203065e-09,-1.6990205072956e-09,-0.0012889832391213,0.0012889891100701,-0.0012889852578891,0.0012889872095399,-0.001288988316234,0.0012889840698333,-0.001288988461017,0.0012889838022857,-0.0011619557372795,0.0011619460525513,-0.001161947290702,0.0011619544146978,0.61930375843106,131329,3014,0.0048146534269869,0.0048146534262557,0.0048146534259974,36.631074367843,5.5448594942742e-05,5.5448594942742e-05,5.5448594942742e-05,2521282.6563226,0.014549546021454
12219200,0.93164493674493,0.014552703826605,0.0048509012761576,0.0048509012755755,0.0048509012748721,-0.001163056644745,0.0011630570120057,5.2776397717865e-09,-4.9036605998876e-09,8.6569361094854e-10,-5.0829261012731e-10,-0.0012946478800236,0.0012946524346207,-0.0012946516464795,0.001294648719311,-0.0012946482890477,0.0012946521556321,-0.0012946521902267,0.0012946480819929,-0.0011668125579974,0.0011668230200864,-0.0011668231187741,0.001166812469009,8.377433859343e-10,-1.7456677767573e-09,1.7413078260367e-09,-2.6131367033623e-09,-0.0011630572647398,0.0011630563916141,-0.0012946495872827,0.0012946509326854,-0.0012946508505573,0.0012946494378142,-0.0012946501743289,0.0012946500972359,-0.0012946518218438,0.0012946484932636,-0.0011668168132771,0.0011668192851642,-0.0011668205282604,0.0011668146227451,-0.0011668180033957,0.0011668180875979,-0.0011668199102386,0.0011668151879228,5.4302964991106e-09,-5.7041878493297e-09,-0.0011630569648103,0.0011630566915454,1.3264647843231e-09,-1.6569705879212e-09,-0.0012946477401825,0.0012946525916116,-0.0012946487334885,0.0012946517166932,-0.0012946518175068,0.0012946485510919,-0.0012946529359868,0.0012946473084794,-0.0011668241809917,0.0011668114450245,-0.0011668126495798,0.0011668228926169,0.63790519696261,131329,3014,0.0048345402017067,0.0048345402008856,0.0048345402008828,36.590976037425,5.5127808299397e-05,5.5127808299397e-05,5.5127808299397e-05,2505845.6384815,0.01461008715724
12419200,0.93611523611533,0.014610604652007,0.0048702015512952,0.0048702015507162,0.0048702015499958,-0.0011678152467822,0.0011678156226998,5.2699141975622e-09,-4.8865787473147e-09,7.0851836277978e-10,-3.4031274167934e-10,-0.0013002727740053,0.0013002782063876,-0.0013002775127408,0.0013002735192054,-0.0013002740595749,0.0013002770515869,-0.0013002769750868,0.0013002739634081,-0.0011716034862717,0.001171610984271,-0.0011716109671165,0.0011716035055222,7.3824557972648e-10,-1.6420957587562e-09,1.7808259143147e-09,-2.6488452674975e-09,-0.0011678158693688,0.0011678149997788,-0.0013002744469484,0.0013002767380107,-0.0013002767144573,0.0013002742398629,-0.0013002759522984,0.0013002749870937,-0.0013002766451424,0.0013002743360125,-0.001171607707046,0.0011716072736125,-0.0011716084423317,0.0011716055852925,-0.0011716090832664,0.0011716058897047,-0.0011716077328511,0.0011716062437354,5.4312093454591e-09,-5.7013469724694e-09,-0.0011678155690603,0.0011678152999063,1.288631183496e-09,-1.6153023655333e-09,-0.0013002725939594,0.0013002784032713,-0.0013002745396474,0.0013002765760072,-0.0013002776515815,0.0013002733835144,-0.0013002777649736,0.0013002731464546,-0.0011716120847937,0.0011716024306785,-0.0011716036066137,0.0011716108237283,0.61827140295372,131329,3014,0.0048542744874107,0.0048542744867188,0.0048542744863372,36.717315580543,5.6138524644348e-05,5.6138524644348e-05,5.6138524644348e-05,2496113.0801766,0.014670168737908
12619200,0.94027866539152,0.014661526980123,0.0048871756606648,0.0048871756600791,0.0048871756593796,-0.0011716676400537,0.0011716680204737,5.2618416503495e-09,-4.8737268953418e-09,6.5175475675133e-10,-2.7820339490078e-10,-0.0013049497457216,0.0013049549018068,-0.0013049542443399,0.0013049504549643,-0.0013049507586737,0.0013049540208875,-0.0013049539004451,0.0013049507057756,-0.0011753905520638,0.0011753987904131,-0.001175398730915,0.0011753906207177,8.1485845288975e-10,-1.7255901599933e-09,1.7915642419914e-09,-2.6660669079998e-09,-0.0011716682680021,0.0011716673921296,-0.0013049513704081,0.0013049534844269,-0.0013049534132884,0.0013049512087299,-0.0013049526932276,0.001304951911716,-0.0013049536301766,0.0013049510183655,-0.0011753948101669,0.0011753950547504,-0.0011753962830697,0.0011753926269808,-0.0011753960977827,0.0011753937600989,-0.0011753956151307,0.0011753932411993,5.4346838541388e-09,-5.6997969533509e-09,-0.0011716679624401,0.0011716676976851,1.2779551449358e-09,-1.5990990732386e-09,-0.001304949546862,0.0013049551187154,-0.001304951251008,0.0013049535336695,-0.0013049543710821,0.0013049503309155,-0.0013049547093717,0.0013049498687722,-0.0011753998733832,0.0011753895172248,-0.0011753906781202,0.0011753986272092,0.58731727071443,131329,3014,0.0048702504724301,0.004870250471611,0.0048702504715913,36.603607937415,5.5228863499318e-05,5.5228863499318e-05,5.5228863499318e-05,2496026.9702939,0.014718812221049
12819200,0.94415133976344,0.014709300148351,0.0049031000500749,0.0049031000494934,0.0049031000487825,-0.001175193264137,0.0011751936564542,5.2653417664233e-09,-4.8652649633774e-09,5.327716924258e-10,-1.4598018387618e-10,-0.0013091984042024,0.0013092042322033,-0.0013092036448438,0.0013091990412502,-0.0013092000768712,0.0013092026890993,-0.0013092024749849,0.0013092001175207,-0.0011788539891726,0.0011788600484836,-0.0011788598958715,0.0011788541510025,8.0477851818967e-10,-1.7214907338751e-09,1.7922832180258e-09,-2.6721669876399e-09,-0.0011751939006192,0.0011751930196331,-0.0013091999937859,0.0013092028452591,-0.0013092027830839,0.0013091998259575,-0.0013092020598506,0.0013092005363744,-0.0013092022525218,0.0013092003820326,-0.0011788582884087,0.0011788562733031,-0.0011788575001811,0.0011788561020788,-0.0011788595862976,0.0011788549612337,-0.0011788568231274,0.0011788567241301,5.4435784270627e-09,-5.708846260489e-09,-0.0011751935919298,0.0011751933281604,1.2735182646853e-09,-1.5949838522205e-09,-0.001309198166458,0.00130920448752,-0.0013092006079253,0.0013092021598103,-0.0013092037409805,0.0013091989488198,-0.0013092033334981,0.0013091992342895,-0.0011788610968676,0.0011788529953291,-0.0011788541450888,0.0011788598483747,0.59135073469147,131329,3014,0.0048848709476234,0.004884870946923,0.0048848709465778,36.464685103299,5.4117480826391e-05,5.4117480826391e-05,5.4117480826391e-05,2497147.0582035,0.014763329255832
13019200,0.9476745218929,0.014752924083546,0.0049176413618032,0.0049176413612092,0.0049176413605341,-0.0011775778307438,0.0011775782287245,5.2371957567352e-09,-4.8316121484478e-09,5.1182563790162e-10,-1.1920520089235e-10,-0.0013122363378065,0.0013122427664931,-0.001312242192291,0.0013122369636769,-0.0013122386261414,0.0013122406107661,-0.0013122403708848,0.0013122386922467,-0.0011811833210326,0.0011811874423225,-0.0011811872637737,0.0011811835068236,1.0036847348119e-09,-1.9339341365808e-09,1.754104243148e-09,-2.6461358331066e-09,-0.0011775784761809,0.0011775775828837,-0.0013122378636475,0.0013122414482554,-0.0013122412637822,0.0013122378151389,-0.0013122406931964,0.0013122383687254,-0.0013122402345941,0.0013122388707338,-0.0011811877072261,0.0011811835772425,-0.0011811849516678,0.0011811853735203,-0.0011811886976746,0.0011811825815453,-0.0011811844340317,0.0011811858381946,5.4248274990672e-09,-5.6886085706777e-09,-0.0011775781610497,0.0011775778979975,1.2989696876618e-09,-1.6189400874916e-09,-0.0013122360819947,0.0013122430409249,-0.0013122391754328,0.0013122400649796,-0.0013122422771768,0.0013122368819081,-0.001312241253243,0.0013122377827283,-0.0011811884956647,0.0011811823163508,-0.0011811834890961,0.0011811872341882,0.5930321022696,131329,3014,0.0048947598850773,0.004894759884241,0.0048947598841995,35.905643964729,4.9645151717829e-05,4.9645151717829e-05,4.9645151717829e-05,2496145.8387476,0.01479344263311
13219200,0.95085675575082,0.014792506207093,0.0049308354029852,0.0049308354023935,0.0049308354017139,-0.0011793194014154,0.0011793198142719,5.2484415712421e-09,-4.8283493487123e-09,3.7441635760199e-10,3.4264357482693e-11,-0.0013145602196016,0.0013145654070932,-0.0013145649130623,0.0013145607657575,-0.0013145612488263,0.0013145645109555,-0.0013145641605492,0.00131456142554,-0.0011828800833667,0.0011828880144038,-0.0011828877226052,0.001182880373958,1.0566497163134e-09,-1.995616390109e-09,1.7120966175693e-09,-2.6114705907917e-09,-0.0011793200584081,0.0011793191569675,-0.0013145617032664,0.0013145641296848,-0.0013145639139357,0.0013145616875526,-0.0013145634100862,0.0013145621762133,-0.0013145640889326,0.0013145615395035,-0.0011828845793761,0.0011828840256098,-0.0011828854428628,0.0011828821993285,-0.0011828854471179,0.0011828831523431,-0.0011828849890001,0.0011828826022347,5.4378825984193e-09,-5.7064243386535e-09,-0.0011793197410585,0.0011793194740753,1.3432479952546e-09,-1.6688601396153e-09,-0.001314559905702,0.0013145657390297,-0.0013145618656627,0.0013145638958491,-0.0013145649482111,0.0013145607344358,-0.001314565119588,0.0013145604405506,-0.001182889042148,0.0011828791022589,-0.0011828803108125,0.0011828877411347,0.59512912755349,131329,3014,0.0049019825809589,0.0049019825803143,0.0049019825798063,35.183657667757,4.386926134206e-05,4.386926134206e-05,4.386926134206e-05,2493435.1377606,0.01481543869841
13419200,0.95373539069828,0.014827715857165,0.0049425719530055,0.0049425719524068,0.0049425719517532,-0.0011807164068468,0.0011807168264792,5.2417094977847e-09,-4.814917211996e-09,3.2020468461374e-10,9.5759061273469e-11,-0.0013164885734548,0.0013164933880902,-0.0013164929264209,0.0013164890872269,-0.0013164892305046,0.001316492864769,-0.0013164924695296,0.0013164894518177,-0.0011842268887745,0.0011842359120481,-0.0011842355766175,0.0011842272300393,1.1122417649978e-09,-2.0594752721426e-09,1.6634170167124e-09,-2.5708881260174e-09,-0.0011807170710875,0.0011807161618496,-0.001316490037438,0.0013164921321868,-0.0013164918841525,0.0013164900525879,-0.0013164914482144,0.0013164904713008,-0.0013164924325853,0.001316489531002,-0.0011842314742092,0.0011842318460056,-0.0011842333126213,0.0011842290450639,-0.0011842322037173,0.0011842311122008,-0.0011842329246406,0.0011842293806588,5.4384328819027e-09,-5.7085837727431e-09,-0.0011807167509673,0.0011807164819335,1.3873647231953e-09,-1.7146212443215e-09,-0.0013164882262823,0.0013164937543081,-0.0013164898826031,0.0013164922148383,-0.0013164929352487,0.0013164890820275,-0.0013164934708253,0.001316488423791,-0.0011842369441724,0.0011842259062358,-0.0011842271453073,0.0011842356129017,0.58608787298842,131329,3014,0.0049077764243009,0.0049077764234963,0.0049077764234135,34.453088131286,3.8024705050285e-05,3.8024705050285e-05,3.8024705050285e-05,2491393.0197378,0.014833084646578
13619200,0.9563709657839,0.0148595242307,0.0049531747441832,0.0049531747435859,0.0049531747429309,-0.0011822071790159,0.0011822075998877,5.2308793517558e-09,-4.8034516500846e-09,3.4741108435926e-10,6.8964673823613e-11,-0.0013184597437413,0.0013184647464878,-0.0013184642642565,0.0013184602785984,-0.0013184605924797,0.0013184640313226,-0.0013184636520584,0.0013184607981381,-0.0011856639120365,0.0011856723437838,-0.0011856720212964,0.0011856642338474,1.0852446390257e-09,-2.0316964823833e-09,1.6295410216551e-09,-2.5363297308842e-09,-0.001182207843663,0.0011822069348883,-0.0013184612349618,0.0013184634623106,-0.0013184632321428,0.0013184612326251,-0.001318462802102,0.0013184616468561,-0.0013184635902088,0.0013184609034689,-0.0011856684975719,0.0011856682690065,-0.0011856697137288,0.0011856660881196,-0.0011856692213675,0.0011856675431222,-0.001185669334029,0.0011856664197192,5.4368790923699e-09,-5.7106615092697e-09,-0.0011822075253431,0.0011822072530432,1.4194945573274e-09,-1.7508672943237e-09,-0.0013184593927221,0.0013184651155912,-0.0013184612450724,0.0013184633803856,-0.0013184642777138,0.0013184602695193,-0.0013184646620666,0.0013184597620948,-0.0011856734087036,0.0011856628954231,-0.001185664161152,0.0011856720473766,0.57890325524276,131329,3014,0.0049139588241732,0.0049139588234443,0.0049139588230957,33.908215485461,3.366572388369e-05,3.366572388369e-05,3.366572388369e-05,2491150.1010153,0.014851913189335
13819200,0.95880658271771,0.014888908635641,0.0049629695458287,0.0049629695452295,0.0049629695445831,-0.0011837779421574,0.0011837783539485,5.1836209510558e-09,-4.7642053531497e-09,5.0593781230007e-10,-9.890046389401e-11,-0.001320466345533,0.0013204713604504,-0.0013204707826731,0.001320466975501,-0.0013204672417347,0.0013204705974578,-0.0013204703340743,0.001320467330864,-0.0011871866226701,0.00118719500717,-0.001187194804877,0.0011871868271962,1.0739436581544e-09,-2.0185337753589e-09,1.6000698719527e-09,-2.5052468291617e-09,-0.0011837786011889,0.0011837776945439,-0.001320467886141,0.0013204700271526,-0.001320469805703,0.0013204678752748,-0.0013204693834934,0.0013204682803467,-0.0013204702096611,0.0013204674980321,-0.0011871911377683,0.0011871910107924,-0.0011871924421443,0.0011871887370509,-0.0011871918369888,0.0011871903091113,-0.0011871920715997,0.0011871890551089,5.4045526353327e-09,-5.6792487050858e-09,-0.0011837782847737,0.0011837780108938,1.4378409445344e-09,-1.770153593464e-09,-0.001320466033248,0.0013204716913503,-0.0013204678404957,0.0013204700011358,-0.0013204708416844,0.001320466919883,-0.0013204712972819,0.0013204663413056,-0.0011871961476904,0.0011871855268944,-0.0011871868113512,0.0011871947776667,0.57842618047142,131329,3014,0.0049204726990349,0.0049204726982632,0.0049204726981207,33.507824006644,3.0462592053151e-05,3.0462592053151e-05,3.0462592053151e-05,2491431.4511411,0.014871750690179
14019200,0.96109491050146,0.014916517763019,0.004972172588288,0.0049721725876879,0.0049721725870432,-0.0011857471883446,0.0011857475921378,5.1985080654411e-09,-4.7870662905873e-09,5.9723766603456e-10,-1.9883237568976e-10,-0.0013228444811166,0.0013228500572937,-0.0013228494222181,0.0013228451668871,-0.0013228459338097,0.0013228487359339,-0.0013228485465486,0.0013228459481584,-0.0011891223616362,0.0011891291783204,-0.0011891290530544,0.0011891224927663,8.6545785312097e-10,-1.7958731137025e-09,1.6036400295247e-09,-2.495662505628e-09,-0.0011857478367754,0.0011857469434102,-0.0013228461190835,0.0013228486224926,-0.0013228485297071,0.0013228459827835,-0.0013228479700409,0.0013228465288753,-0.0013228482987239,0.0013228462379086,-0.001189126783569,0.0011891252779537,-0.0011891265558671,0.0011891245358199,-0.0011891277540726,0.0011891242931811,-0.0011891260417781,0.001189124992134,5.4328911147881e-09,-5.7115550341496e-09,-0.0011857475283129,0.0011857472516992,1.446578958594e-09,-1.7832644135257e-09,-0.0013228441906881,0.0013228503660611,-0.0013228464950058,0.001322848175125,-0.0013228495105435,0.0013228450812036,-0.0013228494822614,0.0013228449889683,-0.0011891303734634,0.0011891212170139,-0.0011891225040515,0.0011891289935232,0.57821463622012,131329,3014,0.004928638671326,0.0049286386707128,0.004928638670344,33.391103664283,2.9528829314267e-05,2.9528829314267e-05,2.9528829314267e-05,2491613.6354008,0.014896618609583
14219200,0.96324055018085,0.014941419680504,0.0049804732274468,0.004980473226836,0.0049804732262213,-0.0011874581066748,0.0011874584971557,5.1872843536708e-09,-4.7891967662674e-09,7.1130236884795e-10,-3.2775239256586e-10,-0.0013249507890416,0.0013249566134049,-0.0013249559082278,0.0013249515462344,-0.0013249525060243,0.0013249550286126,-0.0013249549338951,0.0013249524256366,-0.0011907764639891,0.0011907826116748,-0.0011907825776698,0.0011907765037854,7.2044579544976e-10,-1.6345865783881e-09,1.6046760101984e-09,-2.4826373995369e-09,-0.0011874587412602,0.0011874578621873,-0.0013249525072985,0.0013249551007622,-0.0013249550935704,0.001324952281759,-0.0013249544370235,0.0013249529238235,-0.0013249545836732,0.0013249528206186,-0.001190780787412,0.00119077881356,-0.001190779973652,0.0011907786546343,-0.0011907819553454,0.001190777638354,-0.0011907793673615,0.0011907792095093,5.4403874624857e-09,-5.7178129617389e-09,-0.0011874584397342,0.0011874581636948,1.4554809387917e-09,-1.7907733063988e-09,-0.0013249505270705,0.0013249568933204,-0.0013249530197366,0.0013249545172436,-0.0013249560328239,0.0013249514245034,-0.0013249558281552,0.0013249515067066,-0.0011907838672054,0.001190775258809,-0.0011907765528349,0.0011907824804105,0.55856767112822,131329,3014,0.0049357334141799,0.0049357334133873,0.0049357334133415,33.234002988089,2.8272023904712e-05,2.8272023904712e-05,2.8272023904712e-05,2493790.3305157,0.01491822556593
14419200,0.96523978672643,0.014964888432135,0.0049882961446565,0.004988296144044,0.0049882961434343,-0.0011888094176636,0.0011888098000069,5.1821468385007e-09,-4.7924992715546e-09,7.6814676305543e-10,-3.9374132529632e-10,-0.0013266417164006,0.001326646080741,-0.0013266453419683,0.0013266425086542,-0.001326641982244,0.0013266459482205,-0.001326645903279,0.0013266418519124,-0.0011920676450832,0.0011920783779408,-0.0011920783923766,0.0011920676376623,6.082851613806e-10,-1.5087423181086e-09,1.6042942480471e-09,-2.4698846038834e-09,-0.0011888100422053,0.0011888091750669,-0.0013266434879897,0.0013266445165414,-0.0013266445754379,0.0013266431948661,-0.0013266438447568,0.001326643910142,-0.0013266454824115,0.0013266423188665,-0.0011920719049386,0.0011920746425931,-0.0011920757130563,0.001192069863559,-0.001192073221548,0.0011920733200047,-0.0011920750340199,0.0011920704920742,5.4506720715332e-09,-5.7285326062611e-09,-0.0011888097469473,0.0011888094702824,1.4703264770354e-09,-1.8061281928764e-09,-0.0013266414632015,0.0013266463521705,-0.0013266424731584,0.0013266454606631,-0.0013266454824777,0.0013266423703046,-0.0013266467815713,0.0013266409483254,-0.0011920796747333,0.0011920664000852,-0.0011920677039624,0.0011920782762833,0.56383593762628,131329,3014,0.004941336943695,0.0049413369428701,0.0049413369427768,32.955946783009,2.6047574264076e-05,2.6047574264076e-05,2.6047574264076e-05,2496406.8323828,0.01493529116785
14619200,0.96701814211794,0.014985886997723,0.0049952956665186,0.0049952956659083,0.0049952956652965,-0.0011883457734042,0.0011883461613687,5.1708287729657e-09,-4.7755412815507e-09,6.7774412861739e-10,-2.9681818287885e-10,-0.0013264595819178,0.0013264649458729,-0.0013264642650257,0.0013264603156354,-0.0013264608498766,0.0013264638109038,-0.0013264636969054,0.0013264607887636,-0.0011915383953586,0.0011915458782576,-0.0011915458243213,0.0011915384557871,7.2927409977611e-10,-1.6367020190275e-09,1.5416841511686e-09,-2.4131221387131e-09,-0.0011883464036755,0.0011883455306943,-0.0013264613018576,0.0013264634326882,-0.001326463416006,0.0013264610852398,-0.0013264628065141,0.0013264616790985,-0.0013264633380838,0.0013264611931249,-0.001191542778177,0.0011915420204552,-0.0011915431774344,0.001191540647735,-0.001191543853252,0.0011915409401044,-0.0011915426180452,0.0011915411556423,5.4459847076113e-09,-5.7278059224608e-09,-0.0011883461073804,0.0011883458269229,1.5231110111806e-09,-1.8634149507465e-09,-0.0013264592792434,0.0013264652668945,-0.0013264613913421,0.0013264632721704,-0.0013264643638164,0.0013264602194062,-0.0013264646337957,0.0013264598268428,-0.0011915471725247,0.0011915371526339,-0.0011915384972537,0.0011915457328234,0.5664570653174,131329,3014,0.0049394154008522,0.0049394154000179,0.0049394153998737,31.823450499281,1.698760399425e-05,1.698760399425e-05,1.698760399425e-05,2493689.6359481,0.014929443711928
14819200,0.96862023898775,0.015004938097135,0.0050016460329883,0.0050016460323789,0.0050016460317677,-0.0011880591956257,0.0011880595850693,5.1488086286072e-09,-4.7519442724232e-09,6.4539195801282e-10,-2.6252306327709e-10,-0.0013264194525198,0.0013264241098829,-0.0013264234515121,0.0013264201638522,-0.0013264200264664,0.0013264236693443,-0.001326423530135,0.0013264199903122,-0.0011912035383902,0.0011912130142928,-0.0011912129362406,0.0011912036211893,8.144060379926e-10,-1.7272440404721e-09,1.4978575972897e-09,-2.3738707004036e-09,-0.0011880598288133,0.0011880589515118,-0.0013264211419573,0.0013264226277588,-0.0013264225579102,0.0013264209779907,-0.0013264220324938,0.0013264214872119,-0.0013264232074272,0.0013264203586195,-0.0011912079825465,0.0011912090953595,-0.0011912103131575,0.0011912057883413,-0.0011912088885804,0.0011912081846398,-0.0011912098382091,0.0011912062118221,5.4336759211657e-09,-5.7172606124951e-09,-0.0011880595314394,0.0011880592488296,1.5561784151117e-09,-1.8986082376451e-09,-0.0013264191243581,0.0013264244559573,-0.0013264205894436,0.0013264231093101,-0.0013264235328633,0.0013264200855278,-0.0013264244957196,0.0013264189990773,-0.0011912143198447,0.0011912022826305,-0.0011912036537751,0.0011912128561504,0.56962155963547,131329,3014,0.0049382279585434,0.004938227957778,0.0049382279576554,30.871247605656,9.3699808452465e-06,9.3699808452465e-06,9.3699808452465e-06,2489922.0951577,0.014925831084775
15019200,0.97003494662896,0.015021698768841,0.0050072329235572,0.0050072329229475,0.0050072329223368,-0.0011868623788862,0.0011868627811552,5.1960983014695e-09,-4.7871352515982e-09,4.2716979213842e-10,-3.0179660090924e-11,-0.0013254287783955,0.0013254344974587,-0.0013254339732048,0.0013254293558989,-0.0013254303751868,0.001325433035212,-0.001325432735921,0.0013254304990001,-0.0011899542063796,0.0011899603189191,-0.0011899600788319,0.0011899544540052,8.5699278253717e-10,-1.7722904938265e-09,1.4592200855155e-09,-2.3371900524797e-09,-0.0011868630195999,0.0011868621400458,-0.0013254304120744,0.0013254330714476,-0.0013254329721154,0.0013254302781265,-0.0013254325041603,0.0013254307296319,-0.0013254324844678,0.0013254307958753,-0.0011899588277561,0.0011899562245539,-0.0011899574761552,0.0011899566003784,-0.001189959626113,0.0011899554212601,-0.001189957052704,0.0011899569726798,5.4842764946471e-09,-5.7719659374615e-09,-0.0011868627229094,0.0011868624366782,1.6144907700623e-09,-1.9616071151903e-09,-0.0013254283613294,0.0013254349330588,-0.0013254310355111,0.0013254323768413,-0.0013254339731598,0.001325429359401,-0.0013254338070762,0.0013254294024413,-0.0011899615780794,0.0011899530024378,-0.0011899544119548,0.001189960067008,0.56738227893659,131329,3014,0.0049332663997048,0.0049332663988859,0.004933266398759,29.526017725296,-1.3918581976354e-06,-1.3918581976354e-06,-1.3918581976354e-06,2482658.9314953,0.014910726668838
15219200,0.97119739599519,0.015034842220552,0.0050116140741268,0.0050116140735177,0.0050116140729074,-0.001182978053418,0.0011829784756787,5.1859884655534e-09,-4.7569408810743e-09,9.5681847102897e-11,3.247813068599e-10,-0.0013216705920156,0.0013216750749814,-0.0013216747616126,0.0013216709584578,-0.0013216709463002,0.0013216748566922,-0.0013216743078987,0.0013216713196188,-0.0011859674123991,0.0011859768359383,-0.0011859763464166,0.0011859679079535,1.232078292359e-09,-2.1733700511508e-09,1.3415222271944e-09,-2.2417302062437e-09,-0.0011829787153309,0.0011829778133762,-0.0013216720328445,0.0013216738433458,-0.0013216735093807,0.0013216721337098,-0.0013216733675,0.0013216722567954,-0.0013216742905508,0.0013216713809959,-0.0011859723824315,0.0011859723927153,-0.0011859739219643,0.0011859698742779,-0.0011859725332295,0.001185972240028,-0.0011859738201581,0.0011859699227262,5.4733115307368e-09,-5.7668235393817e-09,-0.0011829784104893,0.001182978118162,1.7106475372449e-09,-2.0645601272818e-09,-0.0013216700354149,0.0013216756506884,-0.0013216717634088,0.0013216740408324,-0.0013216746304203,0.0013216710943083,-0.0013216755436981,0.0013216700572862,-0.001185978018785,0.001185966283787,-0.0011859677666109,0.0011859764343488,0.54391445742787,131329,3014,0.0049171614814609,0.0049171614806547,0.0049171614805327,26.884420705264,-2.2524634357886e-05,-2.2524634357886e-05,-2.2524634357886e-05,2466860.7011785,0.014861693419876
15419200,0.97225531485297,0.015048602495316,0.0050162008323813,0.0050162008317723,0.0050162008311623,-0.0011822373301401,0.0011822377389911,5.0926970112491e-09,-4.6763231526553e-09,3.335039183901e-10,7.2196188220713e-11,-0.0013210152526789,0.0013210205387451,-0.0013210200806925,0.0013210157636692,-0.0013210164776195,0.0013210194488594,-0.0013210190716049,0.0013210166792913,-0.0011852172615388,0.0011852241316989,-0.0011852238167846,0.0011852175796043,1.2482427282961e-09,-2.1908342326908e-09,1.3392012826597e-09,-2.2406659861362e-09,-0.0011822379858516,0.0011822370829057,-0.0013210167362286,0.0013210192643422,-0.0013210189250883,0.0013210168418046,-0.0013210187893076,0.0013210169583887,-0.0013210189991456,0.0013210167962383,-0.0011852220627621,0.0011852198549038,-0.0011852213925048,0.0011852195454431,-0.0011852221908502,0.0011852197261806,-0.0011852213050203,0.0011852195787375,5.3998848378131e-09,-5.6916335457962e-09,-0.0011822376798838,0.0011822373888208,1.6806305865657e-09,-2.0325673294927e-09,-0.0013210147733794,0.0013210210365536,-0.0013210171947117,0.0013210187340204,-0.0013210200354061,0.0013210158133708,-0.0013210202151387,0.0013210155088743,-0.0011852254012431,0.0011852160389745,-0.0011852175078459,0.0011852238431866,0.61488003952218,131329,3014,0.0049140905201403,0.0049140905193664,0.0049140905192511,25.931696368259,-3.0146429053929e-05,-3.0146429053929e-05,-3.0146429053929e-05,2459404.1306843,0.014852343520305
15619200,0.9732528113593,0.015061863079542,0.0050206210271234,0.0050206210265142,0.0050206210259043,-0.001182545063837,0.0011825454599273,5.1075215550166e-09,-4.7039741409366e-09,5.361710017557e-10,-1.4539488416844e-10,-0.0013215052876041,0.0013215090917986,-0.0013215085025654,0.0013215059298252,-0.001321505030576,0.0013215094830119,-0.0013215092617672,0.001321505076209,-0.0011855703322219,0.001185582094006,-0.0011855819338336,0.0011855704961253,9.3075281797797e-10,-1.8517779847368e-09,1.420488629002e-09,-2.3034308993153e-09,-0.0011825457038075,0.0011825448195928,-0.0013215069168435,0.0013215076707452,-0.0013215075277353,0.0013215068257982,-0.0013215071305504,0.0013215072055102,-0.0013215090127485,0.0013215053706811,-0.0011855748904071,0.0011855780621706,-0.0011855793652502,0.0011855726074575,-0.0011855755424717,0.0011855774071067,-0.0011855790159469,0.0011855729042049,5.4351957128548e-09,-5.7243845366877e-09,-0.0011825454058549,0.0011825451174948,1.6357543992377e-09,-1.9846551143251e-09,-0.00132150488379,0.0013215095135334,-0.0013215056486221,0.0013215088678208,-0.0013215085412516,0.0013215058948591,-0.0013215103147696,0.0013215039968779,-0.001185583436986,0.0011855690385376,-0.0011855704707877,0.001185581912227,0.62695262394617,131329,3014,0.0049153673573923,0.004915367356639,0.0049153673565277,25.554211181201,-3.316631055039e-05,-3.316631055039e-05,-3.316631055039e-05,2449382.6730304,0.014856234589499
15819200,0.97417294241939,0.015075021834736,0.0050250072788549,0.0050250072782454,0.0050250072776358,-0.001182101271377,0.0011821016580504,5.0999847965535e-09,-4.7058908343829e-09,6.9092793121421e-10,-3.1119088027339e-10,-0.0013212248875256,0.0013212292030792,-0.0013212285157947,0.0013212256279893,-0.0013212251528086,0.0013212290713123,-0.0013212289663321,0.0013212250822665,-0.0011851880342804,0.0011851983997291,-0.0011851983558795,0.0011851880834303,7.6286680835299e-10,-1.6716453565656e-09,1.4683098840904e-09,-2.3407280178399e-09,-0.0011821019014052,0.0011821010276285,-0.0013212266028419,0.0013212276952443,-0.0013212276576841,0.0013212264064897,-0.0013212271171132,0.0013212269304999,-0.001321228612176,0.0013212254826192,-0.0011851924271196,0.0011851945331975,-0.0011851957112299,0.0011851902711196,-0.0011851933626199,0.0011851935936573,-0.0011851952213461,0.0011851907091747,5.4463520533892e-09,-5.7329539788971e-09,-0.0011821016072101,0.0011821013217693,1.5901320405871e-09,-1.9359852514795e-09,-0.0013212245425792,0.0013212295657024,-0.0013212256915454,0.0013212285359251,-0.001321228621719,0.0013212255253985,-0.0013212299484449,0.0013212240742736,-0.0011851997960895,0.0011851866880776,-0.0011851880856069,0.001185198305508,0.66920158032952,131329,3014,0.0049135281770711,0.0049135281762563,0.0049135281761375,24.792451214833,-3.9260390281333e-05,-3.9260390281333e-05,-3.9260390281333e-05,2435419.473475,0.014850638365914
16019200,0.97505158287266,0.015087554506125,0.0050291848359843,0.0050291848353749,0.0050291848347654,-0.0011826631126546,0.0011826634600296,4.7839147383356e-09,-4.4281621530976e-09,1.3085417191252e-09,-9.7287449794013e-10,-0.0013219959365222,0.0013220017937082,-0.0013220007239165,0.0013219970588753,-0.0013219979769856,0.0013219998834765,-0.0013220002400808,0.0013219974446642,-0.0011858496836852,0.0011858548458265,-0.0011858552706537,0.0011858492637501,8.910563147673e-10,-1.8099628359109e-09,1.5077113623048e-09,-2.389321737251e-09,-0.0011826637275126,0.0011826628448014,-0.0013219976924356,0.0013220002454941,-0.0013220001311767,0.0013219975711731,-0.0013219996446108,0.0013219980393492,-0.0013219998147211,0.0013219979165791,-0.0011858535561518,0.0011858514977148,-0.0011858527786208,0.0011858513044251,-0.001185854372884,0.001185850677211,-0.0011858523444473,0.0011858516828908,5.1656217963882e-09,-5.4454801154969e-09,-0.001182663425676,0.0011826631465865,1.4802217361244e-09,-1.8182709252478e-09,-0.0013219958126475,0.0013220019341454,-0.0013219982417678,0.0013219996255162,-0.0013220010594086,0.001321996725509,-0.0013220009543311,0.0013219967031081,-0.0011858564421952,0.001185848125838,-0.0011858494533203,0.0011858550461717,0.66743247835103,131329,3014,0.0049158588686294,0.0049158588678632,0.0049158588677503,24.593444806167,-4.0852441550665e-05,-4.0852441550665e-05,-4.0852441550665e-05,2422989.6344664,0.014857739386839
16219200,0.97591860825749,0.01509986185411,0.005033287285313,0.0050332872847033,0.0050332872840939,-0.0011842366745718,0.0011842370411152,5.2489521027045e-09,-4.8747508895888e-09,1.0428876291459e-09,-6.8675691351829e-10,-0.0013237925280389,0.0013237967899014,-0.0013237958758092,0.0013237934954497,-0.0013237926564164,0.0013237967937247,-0.0013237969546592,0.0013237923200264,-0.001187521983784,0.0011875334452926,-0.0011875336659885,0.0011875217678068,4.3332420174619e-11,-9.0220240966656e-10,1.6926140459075e-09,-2.5220101508246e-09,-0.0011842372727642,0.001184236442561,-0.0013237945635864,0.0013237949594454,-0.0013237953704462,0.0013237939187574,-0.0013237942058509,0.0013237950710218,-0.0013237962172014,0.0013237931049503,-0.0011875259329631,0.0011875300214457,-0.0011875306643196,0.0011875243153466,-0.0011875281110924,0.0011875278342142,-0.001187529557481,0.0011875253749519,5.6356041166921e-09,-5.9125724096773e-09,-0.0011842369955969,0.0011842367196781,1.4307414627716e-09,-1.7653526556587e-09,-0.001323792338219,0.00132379699654,-0.0013237929941995,0.0013237964598713,-0.0013237961534941,0.001323793219438,-0.0013237977533282,0.0013237914970183,-0.0011875349377688,0.0011875205391808,-0.0011875218191838,0.0011875335702877,0.66426057434517,131329,3014,0.0049223844840929,0.0049223844833442,0.0049223844832339,24.944761734661,-3.8041906122711e-05,-3.8041906122711e-05,-3.8041906122711e-05,2417427.1908295,0.014877612447547
16419200,0.97671396556189,0.01510993407058,0.0050366446908032,0.0050366446901932,0.005036644689584,-0.0011833919596478,0.0011833923153167,5.0157925860971e-09,-4.6524109192753e-09,1.2045556710629e-09,-8.6067457451195e-10,-0.0013231383630606,0.0013231440608026,-0.0013231430486169,0.0013231394284822,-0.0013231400868555,0.0013231424680466,-0.0013231427489131,0.0013231396308581,-0.0011867034030956,0.0011867098766326,-0.0011867102171701,0.0011867030676703,3.2716164470867e-10,-1.2060993253207e-09,1.6869680572264e-09,-2.5339476280424e-09,-0.0011833925612881,0.0011833917132847,-0.0013231402846578,0.0013231423450951,-0.0013231425805343,0.0013231398144036,-0.0013231416055937,0.001323140775426,-0.0013231421328379,0.0013231402945862,-0.0011867071707005,0.0011867066369252,-0.0011867074876974,0.0011867053400483,-0.0011867089658139,0.0011867048344266,-0.0011867065735886,0.0011867062044767,5.42211197126e-09,-5.6960369470988e-09,-0.0011833922735957,0.0011833920009252,1.3789436499533e-09,-1.7099813648901e-09,-0.0013231382337387,0.0013231442062984,-0.0013231403419351,0.0013231422185365,-0.0013231433959177,0.0013231390834817,-0.001323143471895,0.0013231388822386,-0.0011867114232495,0.0011867019063768,-0.0011867031459995,0.0011867100920413,0.5998214342535,131329,3014,0.0049188829757293,0.0049188829749185,0.0049188829748047,24.073613606336,-4.501109114931e-05,-4.501109114931e-05,-4.501109114931e-05,2407746.3728974,0.014866955816833
16619200,0.97746955170096,0.015121355174106,0.0050404517253116,0.0050404517247016,0.0050404517240925,-0.00118364051942,0.0011836408769124,5.0929895089606e-09,-4.7276020788252e-09,1.1653373512733e-09,-8.1916450996887e-10,-0.001323481549858,0.0013234859797867,-0.0013234849927255,0.0013234825902381,-0.0013234819541733,0.0013234857068284,-0.0013234859590096,0.0013234815266659,-0.0011870022122286,0.0011870127326059,-0.0011870130451368,0.0011870019029828,2.7352135367709e-10,-1.1479771496523e-09,1.7491730685871e-09,-2.5921902796554e-09,-0.001183641119906,0.0011836402760619,-0.001323483480281,0.0013234842550876,-0.0013234845234144,0.0013234829773079,-0.001323483471748,0.0013234840157106,-0.0013234853313181,0.0013234822016336,-0.0011870059894348,0.0011870094821048,-0.0011870102920563,0.0011870041995373,-0.0011870079385746,0.0011870075252235,-0.0011870093008153,0.0011870051420836,5.5126590637555e-09,-5.7836869710978e-09,-0.0011836408329835,0.0011836405629344,1.3381063482402e-09,-1.6658132745479e-09,-0.0013234814168196,0.0013234861291518,-0.0013234822036356,0.0013234854625027,-0.0013234853446678,0.0013234822402448,-0.0013234866853631,0.0013234807750031,-0.0011870142613857,0.0011870007303066,-0.0011870019415481,0.0011870129634425,0.70236007862639,131329,3014,0.0049199140668063,0.0049199140660518,0.0049199140659418,23.766448052263,-4.7468415581894e-05,-4.7468415581894e-05,-4.7468415581894e-05,2403182.8292957,0.014870095781488
16819200,0.97819566721265,0.015132380633973,0.0050441268786008,0.0050441268779905,0.0050441268773816,-0.0011842087011382,0.0011842090577533,5.0171947821434e-09,-4.6528795101366e-09,1.1849670808926e-09,-8.400405262209e-10,-0.0013242494538311,0.0013242552019812,-0.0013242542024301,0.0013242505067631,-0.0013242512260296,0.0013242535609815,-0.0013242538271109,0.0013242507847307,-0.0011876792683595,0.0011876855695908,-0.0011876858960541,0.0011876789465862,3.0240944814174e-10,-1.1791437139211e-09,1.7922059335117e-09,-2.637238257402e-09,-0.0011842093023073,0.0011842084562108,-0.0013242513425951,0.0013242535189905,-0.0013242537698614,0.0013242508570235,-0.001324252708526,0.0013242519051409,-0.0013242532426569,0.00132425141637,-0.0011876829332721,0.0011876824318463,-0.0011876832642795,0.001187681121928,-0.0011876848999676,0.0011876804569247,-0.0011876822646726,0.0011876820728611,5.4517068202753e-09,-5.7198966706124e-09,-0.001184209012696,0.0011842087457737,1.2839457072812e-09,-1.6082884501271e-09,-0.00132424933976,0.001324255332377,-0.0013242514441485,0.0013242533481101,-0.0013242545819513,0.0013242501292347,-0.0013242545306207,0.0013242500558429,-0.001187687097941,0.0011876777882918,-0.0011876789579807,0.0011876858399455,0.70571910740217,131329,3014,0.0049222710787904,0.0049222710780176,0.004922271077911,23.643635498183,-4.8450916014532e-05,-4.8450916014532e-05,-4.8450916014532e-05,2393010.9470733,0.014877276975801
17019200,0.97888927385247,0.015142695518176,0.0050475651733353,0.005047565172725,0.0050475651721161,-0.0011845307134576,0.0011845310749238,5.0339632212908e-09,-4.664754497011e-09,1.1072311471426e-09,-7.5666939468116e-10,-0.0013247671143057,0.0013247725126466,-0.0013247715621378,0.0013247681181476,-0.0013247685224756,0.0013247712357764,-0.0013247714436444,0.0013247681397316,-0.0011880936202564,0.0011881008931971,-0.0011881011614212,0.0011880933576095,3.5222456594495e-10,-1.2322279244739e-09,1.8254023907789e-09,-2.6732550504252e-09,-0.0011845313185032,0.0011845304694578,-0.0013247689564328,0.0013247708764533,-0.0013247710965195,0.0013247685020411,-0.0013247700462781,0.0013247695388486,-0.0013247709134947,0.0013247687165273,-0.0011880973129937,0.0011880977267782,-0.001188098597207,0.0011880954656411,-0.0011880992579121,0.0011880957743245,-0.0011880976080818,0.0011880964052223,5.4795762683534e-09,-5.7464859849154e-09,-0.0011845310266695,0.0011845307612399,1.2536013357221e-09,-1.5763208144223e-09,-0.0013247669811579,0.0013247726625259,-0.0013247687541807,0.0013247710092383,-0.0013247719310755,0.0013247677513785,-0.0013247721693682,0.0013247673885883,-0.0011881023935888,0.0011880921676578,-0.0011880933156722,0.0011881011579511,0.69246305204022,131329,3014,0.0049236073673846,0.0049236073665143,0.0049236073664013,23.416456379982,-5.0268348960142e-05,-5.0268348960142e-05,-5.0268348960142e-05,2384271.9255778,0.014881350172012
17219200,0.97954436423704,0.015152164348146,0.0050507214499916,0.0050507214493816,0.0050507214487729,-0.0011844284802916,0.0011844288572633,5.0940722047085e-09,-4.7104631605838e-09,8.7179805069739e-10,-5.0463459023025e-10,-0.0013248330391843,0.0013248387985493,-0.0013248379936017,0.0013248338980712,-0.0013248347578761,0.0013248372123816,-0.0013248372426361,0.0013248345534424,-0.0011880584076936,0.0011880645842069,-0.0011880646727738,0.0011880583268506,3.6957310153199e-10,-1.2504559471534e-09,1.8347041267404e-09,-2.6831676530775e-09,-0.0011844290933877,0.0011844282437465,-0.0013248348166559,0.0013248372265618,-0.0013248374349876,0.0013248343748829,-0.0013248363916904,0.0013248354059711,-0.0013248367936816,0.0013248350489886,-0.00118806223857,0.0011880612793781,-0.0011880621622052,0.0011880603796812,-0.001188064171722,0.0011880593378107,-0.0011880611813498,0.0011880613139139,5.5458894021797e-09,-5.8117775853606e-09,-0.0011844288006562,0.0011844285364423,1.2420578675436e-09,-1.5635948818673e-09,-0.001324832832563,0.0013248390219601,-0.0013248350686474,0.0013248369051811,-0.0013248382980356,0.0013248335965757,-0.0013248380571682,0.0013248337141575,-0.0011880660050028,0.0011880570411382,-0.0011880581734306,0.001188064773988,0.67476320857022,131329,3014,0.0049231844534552,0.0049231844525846,0.0049231844525044,22.993434306724,-5.3652525546205e-05,-5.3652525546205e-05,-5.3652525546205e-05,2376682.9004236,0.014880066185266
17419200,0.98016972058888,0.015160800110747,0.0050536000375251,0.0050536000369154,0.0050536000363066,-0.0011845861223332,0.0011845864871623,4.9369850312021e-09,-4.5650455152284e-09,1.0315271464361e-09,-6.7734856017232e-10,-0.001325140980295,0.0013251452284671,-0.001325144327626,0.0013251419342412,-0.0013251412999819,0.0013251450405098,-0.0013251451916846,0.0013251409737688,-0.0011882600948204,0.0011882703277134,-0.0011882705407452,0.0011882598884995,7.1976041159796e-10,-1.625924356649e-09,1.8371212953231e-09,-2.7077110823256e-09,-0.0011845867403472,0.0011845858687731,-0.0013251426431026,0.0013251437729418,-0.0013251437627764,0.0013251424181811,-0.0013251429480339,0.0013251432176325,-0.0013251448664036,0.0013251413446049,-0.0011882638355001,0.0011882671161053,-0.0011882682626668,0.0011882617120496,-0.0011882653100211,0.0011882656356257,-0.001188267506718,0.0011882624172253,5.408209362034e-09,-5.6727550281102e-09,-0.0011845864363778,0.0011845861727399,1.2369735721006e-09,-1.5570911903447e-09,-0.0013251408190707,0.0013251454064771,-0.0013251415449288,0.0013251448008107,-0.0013251446858768,0.0013251415786911,-0.0013251459471959,0.0013251401916665,-0.0011882718180134,0.0011882586525065,-0.0011882597861806,0.001188270598379,0.64748127733344,131329,3014,0.0049238387952217,0.004923838794445,0.0049238387944335,22.736836770311,-5.5705305837511e-05,-5.5705305837511e-05,-5.5705305837511e-05,2372869.1379496,0.01488206127348
17619200,0.98067981013292,0.015167560321124,0.0050558534409845,0.0050558534403748,0.0050558534397651,-0.0011797623060001,0.0011797627244708,5.1423350632525e-09,-4.7169253581093e-09,1.4916510128502e-10,2.6695438172688e-10,-0.0013203498487842,0.0013203549891806,-0.0013203546410461,0.0013203502501455,-0.0013203508922722,0.0013203540812382,-0.0013203535744696,0.0013203512242835,-0.0011833811432348,0.0011833884766346,-0.0011833880285526,0.0011833815969319,1.0237928440203e-09,-1.9493019905446e-09,1.6893968787877e-09,-2.5759352263776e-09,-0.001179762959096,0.0011797620709683,-0.0013203512434915,0.0013203538030713,-0.0013203535984151,0.0013203512152157,-0.0013203530878252,0.0013203517092702,-0.0013203535855199,0.0013203512561753,-0.0011833856384661,0.0011833845070028,-0.001183385879415,0.0011833832885673,-0.0011833865206034,0.001183383621125,-0.0011833854158437,0.0011833837010306,5.5960747243467e-09,-5.8695542460292e-09,-0.0011797626510914,0.0011797623789299,1.3698019994598e-09,-1.7001853468871e-09,-0.0013203493655815,0.0013203554912011,-0.0013203515098755,0.0013203534654299,-0.0013203546863735,0.0013203502092674,-0.0013203547135436,0.0013203500586244,-0.0011833897017766,0.0011833799678997,-0.0011833811995855,0.0011833883769743,0.6239055950094,131329,3014,0.0049038382483696,0.004903838247528,0.0049038382474327,19.885911729142,-7.851270616686e-05,-7.851270616686e-05,-7.851270616686e-05,2352685.507907,0.014821167926456
17819200,0.98115670124778,0.015173657188112,0.0050578857299804,0.0050578857293707,0.0050578857287613,-0.0011789594044868,0.0011789598161971,5.0480416161467e-09,-4.6293535763671e-09,2.5625695393772e-10,1.5225147870419e-10,-0.0013195842529426,0.0013195889604681,-0.0013195885471508,0.0013195847194224,-0.0013195849291367,0.0013195884193538,-0.0013195879910827,0.0013195851824529,-0.0011825750157213,0.0011825834057461,-0.0011825830374687,0.0011825753893504,1.1547979032223e-09,-2.0899797942394e-09,1.6695215410129e-09,-2.5644700589898e-09,-0.0011789600584003,0.0011789591618935,-0.0013195856158787,0.0013195878063412,-0.0013195875213522,0.0013195856676803,-0.0013195871091606,0.0013195860625145,-0.0013195880355164,0.0013195851809905,-0.0011825794458159,0.0011825795014679,-0.0011825809718424,0.0011825769976234,-0.0011825801283079,0.0011825788155642,-0.0011825806079204,0.0011825773096014,5.5181959315492e-09,-5.7921606301745e-09,-0.0011789597465273,0.0011789594737239,1.3837040979661e-09,-1.7147449376898e-09,-0.0013195837933589,0.0013195894386333,-0.0013195855083759,0.0013195878423818,-0.0013195886250663,0.0013195846459508,-0.0013195891002263,0.0013195840463537,-0.0011825846884301,0.0011825737820625,-0.0011825750245643,0.0011825833546532,0.60341924316212,131329,3014,0.0049005093226201,0.0049005093218126,0.0049005093217181,19.211125296849,-8.3910997625209e-05,-8.3910997625209e-05,-8.3910997625209e-05,2348503.4730323,0.014811032803915
18019200,0.98162078470054,0.015179584573944,0.0050598615252577,0.005059861524648,0.0050598615240387,-0.0011793408031679,0.0011793411968472,4.9788913084647e-09,-4.5758064608418e-09,5.4417028232435e-10,-1.5388637046525e-10,-0.0013200173631987,0.0013200229073636,-0.0013200223179539,0.0013200180054249,-0.0013200189334925,0.0013200214707288,-0.0013200212562797,0.0013200189728581,-0.0011829488511288,0.0011829548012903,-0.0011829546492895,0.0011829489990112,1.0852323399976e-09,-2.015491446208e-09,1.6879046839375e-09,-2.5787217857061e-09,-0.0011793414458712,0.0011793405537682,-0.0013200188123523,0.001320021667202,-0.0013200214281861,0.001320018817008,-0.0013200209538412,0.0013200192734644,-0.0013200211915182,0.001320019080995,-0.0011829530659381,0.0011829511089882,-0.001182952518395,0.0011829506685493,-0.0011829538702108,0.0011829503052911,-0.0011829520949819,0.0011829510373742,5.4710313123371e-09,-5.7429856587303e-09,-0.0011793411358185,0.0011793408637818,1.3630228283529e-09,-1.6918044612115e-09,-0.0013200169939492,0.0013200232945963,-0.0013200193950053,0.0013200210133046,-0.0013200224949698,0.0013200178321844,-0.0013200222552246,0.0013200179462365,-0.0011829561948534,0.0011829474924081,-0.0011829487338817,0.0011829548818353,0.60266014649724,131329,3014,0.0049020907559217,0.004902090755144,0.0049020907550571,19.169499168427,-8.4244006652586e-05,-8.4244006652586e-05,-8.4244006652586e-05,2351997.46069,0.014815847164243
18219200,0.98203364870813,0.015184963803755,0.0050616546018614,0.0050616546012515,0.0050616546006424,-0.0011769839153446,0.0011769843235832,5.0478217670394e-09,-4.632325231291e-09,3.1657592217583e-10,8.8163888300789e-11,-0.0013176691881514,0.0013176738818132,-0.0013176734297833,0.0013176696934597,-0.0013176698526681,0.0013176733522051,-0.0013176729693964,0.0013176700604377,-0.001180541583356,0.0011805501189114,-0.0011805497964148,0.0011805419111499,1.0502712586948e-09,-1.9780793698088e-09,1.6324586633361e-09,-2.5210808156699e-09,-0.0011769845643513,0.001176983674168,-0.0013176706169498,0.0013176726615464,-0.0013176724419238,0.0013176706035065,-0.0013176719852307,0.0013176710429832,-0.0013176729386561,0.0013176701347279,-0.0011805459929686,0.0011805462349493,-0.0011805476272303,0.0011805436223888,-0.0011805467657689,0.0011805454592528,-0.0011805472174619,0.0011805439800433,5.5448916369549e-09,-5.8213267562282e-09,-0.0011769842568444,0.0011769839816306,1.4253128887873e-09,-1.7591929937734e-09,-0.0013176687258522,0.0013176743626396,-0.0013176704158468,0.0013176727915168,-0.0013176735226306,0.0013176696048877,-0.0013176740801712,0.001317668922907,-0.001180551465675,0.0011805402843166,-0.0011805415595584,0.0011805501013399,0.61339063514765,131329,3014,0.0048923182417324,0.0048923182408868,0.0048923182407891,17.685175041909,-9.6118599664725e-05,-9.6118599664725e-05,-9.6118599664725e-05,2344771.9636561,0.014786094410487
18419200,0.98240661614152,0.015189861874052,0.0050632872919602,0.0050632872913504,0.0050632872907415,-0.0011750084783609,0.001175008895366,5.1330246346797e-09,-4.7094677775803e-09,1.740408117609e-10,2.400282361845e-10,-0.0013156979744403,0.0013157017169295,-0.0013157013516825,0.001315698393058,-0.0013156976261929,0.0013157022010371,-0.0013157017133098,0.0013156979387216,-0.0011785374415437,0.0011785490024442,-0.0011785485730856,0.0011785378765578,9.1227491232278e-10,-1.8309418380609e-09,1.6006272532845e-09,-2.481197265041e-09,-0.0011750091276378,0.001175008245726,-0.0013156994401965,0.0013157004591146,-0.0013157003240999,0.0013156993429266,-0.0013156997991837,0.001315699851566,-0.0013157016458201,0.0013156980496268,-0.0011785419698668,0.0011785450016082,-0.0011785462915272,0.0011785396999554,-0.0011785428817511,0.0011785440848474,-0.0011785458125719,0.0011785401291498,5.6381034273987e-09,-5.9171411480467e-09,-0.0011750088256172,0.0011750085477097,1.4754919375871e-09,-1.8125078413355e-09,-0.0013156974486797,0.0013157022615043,-0.0013156982552487,0.0013157015730975,-0.001315701389725,0.0013156983590949,-0.0013157028999286,0.0013156967261127,-0.0011785503294736,0.0011785361679609,-0.0011785374738257,0.0011785489243285,0.61738716823212,131329,3014,0.0048841273697496,0.0048841273689978,0.0048841273689155,16.426414074109,-0.00010618868740713,-0.00010618868740713,-0.00010618868740713,2336689.6571291,0.014761157835852
18619200,0.98276146863582,0.015194477653668,0.0050648258851658,0.0050648258845557,0.0050648258839469,-0.0011745127813123,0.0011745131673319,4.9423780446257e-09,-4.5488180386137e-09,6.1574897552676e-10,-2.3559132843487e-10,-0.0013152299506301,0.001315235441351,-0.001315234810636,0.0013152306336006,-0.0013152314961086,0.0013152340295799,-0.0013152338734689,0.0013152314759993,-0.0011780395940699,0.0011780456097453,-0.0011780455279253,0.0011780397037923,9.5944966745121e-10,-1.8821753274607e-09,1.5903429349606e-09,-2.4751990402564e-09,-0.0011745134169914,0.001174512531219,-0.0013152314852823,0.0013152341178121,-0.0013152339600644,0.0013152314078446,-0.0013152334620593,0.0013152318837008,-0.0013152337088874,0.0013152316826822,-0.0011780438219515,0.0011780419316347,-0.0011780432684843,0.0011780415211225,-0.001178044651631,0.0011780410955993,-0.0011780428152439,0.0011780419080771,5.4781837665993e-09,-5.7518046680803e-09,-0.0011745131114317,0.0011745128370081,1.4585321157862e-09,-1.789314130358e-09,-0.0013152295596169,0.0013152358533447,-0.0013152319502238,0.0013152335805081,-0.0013152349892574,0.0013152304556219,-0.001315234890536,0.0013152304302996,-0.0011780471045725,0.0011780381510516,-0.0011780394446797,0.0011780457368687,0.61178946981352,131329,3014,0.0048820720628739,0.0048820720619748,0.0048820720624459,15.967386595694,-0.00010986090723444,-0.00010986090723444,-0.00010986090723444,2334170.4507135,0.014754900853214
18819200,0.98310538480284,0.015199259617734,0.0050664198731881,0.0050664198725787,0.0050664198719668,-0.0011745540480714,0.0011745544269627,5.0181343928507e-09,-4.6313841898039e-09,7.5461831686959e-10,-3.828866607224e-10,-0.0013153043607557,0.0013153087890496,-0.0013153080665694,0.0013153051360885,-0.0013153047984228,0.0013153084846107,-0.0013153084325404,0.0013153046746299,-0.0011780823108523,0.0011780920508506,-0.0011780920664389,0.0011780823115585,6.089582540941e-10,-1.5062805906656e-09,1.6323223733916e-09,-2.4951043642465e-09,-0.0011745546691209,0.0011745538055097,-0.0013153060644813,0.0013153072942002,-0.0013153073540926,0.0013153057700991,-0.0013153065987226,0.0013153065068889,-0.0013153080710802,0.0013153050801987,-0.0011780863969282,0.0011780885054061,-0.001178089571545,0.0011780843571884,-0.0011780877487586,0.0011780871472445,-0.0011780888660183,0.0011780850040978,5.5701589557615e-09,-5.8443724510804e-09,-0.0011745543745394,0.0011745541001715,1.4412320044104e-09,-1.7726475657454e-09,-0.0013153040160621,0.0013153091531634,-0.0013153051896951,0.0013153080981594,-0.001315308301264,0.0013153049024745,-0.0013153093963386,0.0013153036836314,-0.0011780936056475,0.0011780808057313,-0.0011780820892527,0.0011780922413802,0.64923264878197,131329,3014,0.0048822432619679,0.0048822432611318,0.0048822432612938,15.791144105259,-0.00011127084715793,-0.00011127084715793,-0.00011127084715793,2334013.4142056,0.014755422027448
19019200,0.98345077850911,0.015204373763977,0.005068124588603,0.0050681245879938,0.0050681245873806,-0.0011756537826817,0.0011756541361613,4.8783401082936e-09,-4.5171203692499e-09,1.204058068029e-09,-8.6227672350858e-10,-0.0013164887800407,0.0013164950665021,-0.001316494059782,0.0013164898400434,-0.0013164911818476,0.0013164927955928,-0.0013164930754131,0.0013164907267829,-0.0011792316389397,0.0011792358143449,-0.0011792361590271,0.0011792313003338,4.4043069380846e-10,-1.326354785485e-09,1.6818826819483e-09,-2.5348705861589e-09,-0.0011756543861337,0.0011756535323421,-0.0013164906215926,0.0013164934307347,-0.0013164935981346,0.0013164902204755,-0.0013164926980642,0.0013164911054718,-0.0013164925421985,0.0013164913064922,-0.0011792353180897,0.0011792326639598,-0.0011792336002471,0.0011792334042648,-0.001179236958923,0.0011792310162266,-0.0011792327594757,0.0011792341936997,5.4570009279557e-09,-5.7297961460726e-09,-0.0011756540951915,0.001175653823247,1.3796261479564e-09,-1.7093414689385e-09,-0.0013164885912261,0.0013164952722336,-0.0013164913804677,0.0013164926024025,-0.0013164944605808,0.0013164894406417,-0.0013164938557811,0.0013164899206939,-0.00117923752683,0.0011792299718902,-0.0011792312149915,0.0011792362026931,0.687193980828,131329,3014,0.0048868035951216,0.004886803594361,0.0048868035942784,16.172030350062,-0.00010822375719951,-0.00010822375719951,-0.00010822375719951,2334555.3908425,0.014769306966864
19219200,0.98381840274633,0.015209986875408,0.0050699956257467,0.0050699956251373,0.0050699956245243,-0.0011785256190457,0.0011785259580626,4.9970291170729e-09,-4.6502229222347e-09,1.4714575796281e-09,-1.1468765092981e-09,-0.0013195166958391,0.001319520633105,-0.0013195194549424,0.0013195179274449,-0.0013195166796562,0.0013195207792439,-0.0013195212585845,0.0013195160251227,-0.0011821948794877,0.0011822068693216,-0.0011822074119241,0.0011821943426307,-9.7250934817643e-11,-7.5231748767672e-10,1.8056483331411e-09,-2.6274237579746e-09,-0.0011785261994907,0.0011785253772562,-0.0013195187961475,0.0013195187367224,-0.0013195192415442,0.0013195180577695,-0.0013195179028485,0.0013195193845218,-0.0013195204213,0.0013195169101896,-0.0011821982770659,0.0011822040017647,-0.0011822045356992,0.0011821967637735,-0.0011822007893053,0.0011822014792381,-0.001182203263854,0.0011821979875692,5.598359914771e-09,-5.8662658682516e-09,-0.0011785259219014,0.0011785256548118,1.2956966764736e-09,-1.6196849326489e-09,-0.0013195166147805,0.0013195207304744,-0.0013195167429314,0.0013195207217407,-0.0013195199719209,0.001319517410721,-0.0013195219127864,0.0013195153465217,-0.0011822086631742,0.0011821931333092,-0.0011821943113271,0.0011822074001287,0.70678359812917,131329,3014,0.0048987120462486,0.0048987120455005,0.0048987120454252,17.485222698199,-9.7718218414409e-05,-9.7718218414409e-05,-9.7718218414409e-05,2339763.6316552,0.014805564823373
19419200,0.98419490169683,0.01521560426231,0.0050718680880474,0.0050718680874378,0.0050718680868251,-0.0011803175702835,0.0011803178987462,4.9150799017417e-09,-4.5785641195384e-09,1.6672080598794e-09,-1.3548342670961e-09,-0.0013214763634639,0.0013214830598928,-0.0013214817575466,0.0013214777192361,-0.0013214791672327,0.0013214803851203,-0.0013214810094705,0.0013214783677933,-0.0011840710496303,0.0011840748335434,-0.0011840755212844,0.0011840703690016,-2.077976618846e-10,-6.3533693404719e-10,1.8558384107404e-09,-2.672362921453e-09,-0.0011803181428753,0.0011803173257408,-0.0013214785198734,0.0013214811069919,-0.0013214816827356,0.0013214777104151,-0.0013214802369375,0.0013214791446819,-0.0013214801011795,0.0013214793245183,-0.0011840742130757,0.0011840722006139,-0.0011840726531992,0.0011840727811161,-0.0011840769367371,0.0011840694666087,-0.0011840712766223,0.0011840741092498,5.5362464711764e-09,-5.8012104821784e-09,-0.001180317866202,0.0011803176023803,1.2370028148543e-09,-1.5574653172389e-09,-0.0013214763583098,0.0013214830810034,-0.0013214791322091,0.0013214804269122,-0.0013214823593207,0.0013214771175549,-0.0013214815737052,0.0013214777792191,-0.0011840766910025,0.0011840692397709,-0.0011840703750692,0.0011840754713075,0.69265168859189,131329,3014,0.0049061428920573,0.0049061428912008,0.0049061428911253,18.222048088409,-9.1823615292726e-05,-9.1823615292726e-05,-9.1823615292726e-05,2341455.8372554,0.0148281922689
19619200,0.98456813838169,0.015221027110657,0.0050736757041627,0.0050736757035532,0.0050736757029407,-0.0011811505061046,0.0011811508426313,4.9860390892225e-09,-4.6415280681507e-09,1.5479107434481e-09,-1.2264199749469e-09,-0.0013224443359648,0.001322448718467,-0.0013224474905629,0.0013224456173108,-0.0013224447735561,0.0013224484104992,-0.0013224489444604,0.0013224440645175,-0.0011849552155643,0.0011849658998612,-0.0011849664964234,0.0011849546259759,-1.9820005816454e-10,-6.4605503830396e-10,1.8742427014114e-09,-2.6917455216238e-09,-0.0011811510832406,0.0011811502650814,-0.0013224464682639,0.0013224467896952,-0.0013224473598587,0.0013224456649163,-0.0013224459084407,0.0013224471049496,-0.0013224480689671,0.0013224449878259,-0.0011849584752747,0.0011849631706369,-0.0011849636302281,0.0011849570358161,-0.0011849612105613,0.0011849604250319,-0.0011849622486561,0.001184958369326,5.616357953708e-09,-5.8810805038511e-09,-0.00118115080592,0.0011811505423673,1.2292101907666e-09,-1.5493507268988e-09,-0.0013224442919627,0.0013224487788015,-0.0013224447762702,0.0013224484139231,-0.0013224480620515,0.0013224450460386,-0.0013224495555028,0.0013224434292702,-0.0011849677221779,0.0011849534417103,-0.0011849545704265,0.0011849665070092,0.67639367256692,131329,3014,0.0049095971882096,0.0049095971873526,0.0049095971872753,18.456041369548,-8.9951669043615e-05,-8.9951669043615e-05,-8.9951669043615e-05,2340828.5648069,0.014838712103819
19819200,0.98493498018921,0.015226195075675,0.0050753983591687,0.0050753983585593,0.0050753983579471,-0.0011817176078856,0.0011817179519481,4.9304516484983e-09,-4.5785579407272e-09,1.4197998142667e-09,-1.0896363371226e-09,-0.0013231187796321,0.0013231245661975,-0.0013231234192854,0.0013231199799689,-0.0013231206535379,0.0013231228224037,-0.0013231232605077,0.0013231200403857,-0.0011855631337771,0.001185569343045,-0.0011855698432275,0.0011855626400984,7.932514866507e-12,-8.6693057623363e-10,1.8599079721814e-09,-2.6901319226679e-09,-0.0011817181951765,0.001181717364255,-0.0013231207897027,0.0013231227598336,-0.0013231232009493,0.0013231201163233,-0.0013231218964007,0.0013231214086259,-0.0013231225266622,0.0013231208208788,-0.0011855664675179,0.0011855665386956,-0.0011855671534028,0.0011855648740743,-0.001185568911963,0.0011855640847597,-0.0011855659165241,0.0011855660623432,5.5700678467801e-09,-5.8348572269405e-09,-0.0011817179115388,0.0011817176478623,1.2305408542333e-09,-1.5507698016353e-09,-0.0013231186904849,0.0013231246718006,-0.0013231207002606,0.0013231227815553,-0.0013231239545248,0.0013231194454885,-0.0013231239241138,0.0013231193520496,-0.0011855711308886,0.001185561395191,-0.001185562523795,0.0011855699138121,0.65787306480377,131329,3014,0.004911949084795,0.004911949083962,0.004911949083894,18.558115319002,-8.913507744798e-05,-8.913507744798e-05,-8.913507744798e-05,2340519.2402667,0.014845874739491
20019200,0.98528972323652,0.015231384274404,0.0050771280920784,0.005077128091469,0.005077128090857,-0.0011817958975096,0.0011817962590634,4.9719786969343e-09,-4.6027764696324e-09,1.126813203336e-09,-7.764955629465e-10,-0.0013232727631973,0.0013232772541962,-0.0013232762917117,0.0013232737790568,-0.0013232733026971,0.0013232768460699,-0.0013232770653443,0.0013232729083992,-0.0011856638702485,0.0011856736738929,-0.0011856739545682,0.0011856635965421,2.3139989426236e-10,-1.1054668129058e-09,1.8278346124431e-09,-2.6708972614215e-09,-0.001181796500048,0.0011817956561179,-0.001323274630384,0.001323275591236,-0.0013232758916923,0.0013232740987758,-0.0013232747577468,0.001323275219479,-0.001323276503858,0.0013232735150115,-0.0011856674524713,0.0011856706191559,-0.0011856714019752,0.001185665694219,-0.0011856695606328,0.0011856685028088,-0.0011856703316767,0.0011856667152251,5.6151775651798e-09,-5.8817093489932e-09,-0.0011817962107634,0.0011817959453708,1.259458198946e-09,-1.5817105482108e-09,-0.001323272568628,0.0013232774658728,-0.0013232734647831,0.0013232766889053,-0.0013232767303205,0.0013232733419632,-0.0013232778533372,0.0013232720952917,-0.0011856753758485,0.0011856622183794,-0.0011856633675112,0.0011856741363721,0.68048787721668,131329,3014,0.0049122740727928,0.0049122740719496,0.0049122740718792,18.401293725732,-9.0389650194144e-05,-9.0389650194144e-05,-9.0389650194144e-05,2339185.8933157,0.014846865222941
20219200,0.98563515130674,0.015236589653295,0.0050788632183751,0.0050788632177656,0.005078863217154,-0.0011820720541721,0.0011820724248757,4.8919368358641e-09,-4.5138422388651e-09,9.6369394457621e-10,-6.0278592471553e-10,-0.0013236395657185,0.0013236458343444,-0.0013236449753303,0.0013236404778621,-0.001323641929956,0.0013236436020341,-0.0013236436995905,0.0013236416573345,-0.0011859845422952,0.0011859885881904,-0.0011859887471373,0.0011859843890528,5.3554741818018e-10,-1.4311291851549e-09,1.7882622676967e-09,-2.6498321257179e-09,-0.0011820726705159,0.0011820718081684,-0.0013236412678778,0.0013236443370587,-0.0013236444462109,0.0013236409277307,-0.0013236435410071,0.0013236418184405,-0.0013236433297749,0.001323642071166,-0.001185988245281,0.00118598541218,-0.0011859864229011,0.0011859862585449,-0.0011859899001693,0.0011859837502071,-0.0011859855776118,0.0011859870540592,5.54329386006e-09,-5.8108138707426e-09,-0.0011820723726553,0.0011820721060036,1.2823734974581e-09,-1.6058759469157e-09,-0.0013236393078887,0.0013236461093382,-0.0013236421568673,0.0013236433795435,-0.0013236453597348,0.0013236400956862,-0.0013236445610409,0.0013236407700751,-0.0011859902504552,0.0011859829295765,-0.0011859840955366,0.0011859889946045,0.69909043101066,131329,3014,0.0049134196018967,0.0049134196011438,0.0049134196010863,18.35243300703,-9.0780535943762e-05,-9.0780535943762e-05,-9.0780535943762e-05,2336774.6287396,0.014850354664776
20419200,0.98597812254325,0.01524176472392,0.0050805882419169,0.0050805882413071,0.0050805882406959,-0.0011829279202338,0.0011829283025154,4.9551044657246e-09,-4.5655109375395e-09,7.6669139063371e-10,-3.9239745170367e-10,-0.0013246125494313,0.0013246169733217,-0.0013246162385343,0.0013246133374785,-0.0013246130199627,0.0013246166356151,-0.0013246165863456,0.0013246128942894,-0.001186895584977,0.0011869050332437,-0.0011869050450742,0.0011868955792571,6.2896197221696e-10,-1.5300828858747e-09,1.774727081504e-09,-2.6408786712198e-09,-0.0011829285447395,0.0011829276776303,-0.0013246141827429,0.0013246155452465,-0.0013246155952912,0.0013246139023795,-0.0013246147615286,0.0013246147212079,-0.0013246163012386,0.0013246132225886,-0.0011868994629389,0.0011869016812785,-0.0011869027614982,0.0011868974082177,-0.0011869009774472,0.001186900160372,-0.0011869019855685,0.0011868981340249,5.6131032977825e-09,-5.8818399127105e-09,-0.0011829282450538,0.0011829279772884,1.2988545703844e-09,-1.6237164223132e-09,-0.001324612220222,0.0013246173202234,-0.0013246133218975,0.0013246163374851,-0.0013246165601605,0.0013246130184501,-0.0013246175317367,0.0013246119229522,-0.0011869066410207,0.0011868940269925,-0.0011868952052128,0.0011869053721643,0.69998783383798,131329,3014,0.0049169689014404,0.0049169689006543,0.0049169689005925,18.615911007304,-8.8672711941569e-05,-8.8672711941569e-05,-8.8672711941569e-05,2335944.2622033,0.014861163437223
20619200,0.98630822791742,0.015246201223127,0.0050820670749859,0.005082067074376,0.005082067073765,-0.0011828200742595,0.0011828204675424,4.9499571149138e-09,-4.5493564979289e-09,5.6885365244081e-10,-1.8160958006964e-10,-0.0013246135305823,0.0013246176823546,-0.001324617072805,0.0013246141933114,-0.0013246137258979,0.0013246176206086,-0.0013246174246817,0.0013246137469093,-0.0011868133696963,0.0011868234121716,-0.0011868232769262,0.0011868135117277,8.4886738048511e-10,-1.764273470458e-09,1.7250301110248e-09,-2.6033528626377e-09,-0.0011828207104933,0.0011828198308957,-0.0013246150430951,0.0013246163758348,-0.0013246162872222,0.0013246149017913,-0.0013246156330813,0.0013246155397208,-0.0013246172834142,0.0013246139305141,-0.001186817434502,0.0011868198730537,-0.0011868211165233,0.0011868152167485,-0.0011868185940182,0.0011868187089439,-0.0011868205163767,0.0011868157651627,5.6141373189586e-09,-5.8855937218577e-09,-0.0011828204058534,0.0011828201355173,1.3416632146686e-09,-1.6696626188943e-09,-0.0013246131209955,0.0013246181101188,-0.001324614112634,0.0013246172373217,-0.0013246173228479,0.0013246139465564,-0.0013246184634837,0.0013246126816397,-0.0011868249753235,0.0011868118564197,-0.0011868130668833,0.001186823673625,0.63099508376165,131329,3014,0.0049165222950888,0.0049165222942338,0.0049165222941909,18.385408055124,-9.0516735559006e-05,-9.0516735559006e-05,-9.0516735559006e-05,2333001.5836133,0.014859806073336
20819200,0.9866172404315,0.015250691802107,0.0050835639346458,0.0050835639340359,0.0050835639334253,-0.0011818642748711,0.0011818646887332,4.9848103846409e-09,-4.564642325722e-09,2.3508677878969e-10,1.7495497812787e-10,-0.0013236729046479,0.0013236783050498,-0.0013236779033677,0.0013236733597043,-0.0013236743122737,0.0013236770326562,-0.0013236765875156,0.001323674582531,-0.0011858458896033,0.0011858519623481,-0.0011858515765113,0.0011858462853486,9.8776127695245e-10,-1.9126459568208e-09,1.65084389979e-09,-2.5371084017599e-09,-0.0011818649254377,0.0011818640377547,-0.0013236743005353,0.0013236771155801,-0.0013236769383081,0.0013236742487617,-0.0013236764276566,0.001323674742794,-0.0013236765912704,0.0013236746203623,-0.0011858502264099,0.0011858481517324,-0.0011858495019711,0.001185847905425,-0.0011858511038443,0.0011858472692377,-0.0011858490413491,0.0011858483152546,5.6504252256821e-09,-5.925636794334e-09,-0.0011818646184561,0.0011818643447178,1.4040900189843e-09,-1.7364840884266e-09,-0.0013236723671802,0.001323678861355,-0.0013236748415673,0.0013236765052101,-0.0013236780343325,0.0013236732328347,-0.0013236777784748,0.0013236733652426,-0.0011858534376596,0.0011858444699823,-0.0011858457209186,0.0011858520864131,0.67643099974745,131329,3014,0.0049125593297879,0.0049125593289348,0.0049125593288918,17.704703892896,-9.5962368856832e-05,-9.5962368856832e-05,-9.5962368856832e-05,2330171.879368,0.014847739498447
21019200,0.98690175045566,0.015254687235234,0.0050848957456882,0.0050848957450783,0.005084895744468,-0.0011803628628589,0.0011803632803287,4.9289930595278e-09,-4.5046237394251e-09,1.483883147212e-10,2.6686009390143e-10,-0.0013222151790605,0.0013222191234534,-0.0013222187797929,0.0013222155758017,-0.0013222151655423,0.0013222192723571,-0.0013222187629904,0.0013222154999502,-0.0011843414630432,0.0011843515329417,-0.0011843510838042,0.0011843419191809,1.3074595365403e-09,-2.2536592725724e-09,1.5681302578877e-09,-2.4726654484052e-09,-0.0011803635244289,0.0011803626183492,-0.0013222164518064,0.0013222180580623,-0.0013222176806568,0.0013222166002073,-0.0013222174360898,0.0013222168260291,-0.0013222189109885,0.0013222153925989,-0.00118434596366,0.001184347556813,-0.0011843491427682,0.0011843434046746,-0.0011843463127237,0.0011843472059161,-0.00118434894412,0.001184343549759,5.6034867119744e-09,-5.8828413205299e-09,-0.0011803632105272,0.0011803629322336,1.4795368914283e-09,-1.8168174132104e-09,-0.0013222145845346,0.0013222197369787,-0.0013222157510474,0.0013222186889811,-0.0013222188625985,0.001322215497643,-0.0013222200182111,0.0013222142173749,-0.0011843530164751,0.0011843400301167,-0.001184341342416,0.0011843516109651,0.6560204740369,131329,3014,0.0049063342946615,0.0049063342938133,0.0049063342937728,16.748822818176,-0.0001036094174546,-0.0001036094174546,-0.0001036094174546,2322001.9986974,0.014828787729441
21219200,0.9871499859168,0.015258196895255,0.0050860656323618,0.0050860656317519,0.0050860656311417,-0.0011772252661729,0.0011772257003189,4.9208050999584e-09,-4.4791098811501e-09,-1.2177464575051e-10,5.5740433709188e-10,-0.0013190643190994,0.0013190682888174,-0.0013190681190922,0.0013190645457114,-0.0013190643290068,0.0013190684198479,-0.0013190677074476,0.0013190648667258,-0.0011811673447112,0.0011811769869349,-0.0011811763295039,0.0011811679963895,1.5886973938769e-09,-2.5497224270242e-09,1.4508145620278e-09,-2.3661318064561e-09,-0.0011772259421459,0.0011772250240125,-0.0013190654494083,0.0013190673707499,-0.0013190668137538,0.0013190657811644,-0.0013190668323534,0.0013190657370267,-0.0013190680242058,0.0013190645855435,-0.0011811721226837,0.0011811727025672,-0.0011811744949005,0.0011811693612341,-0.0011811719477941,0.0011811728727638,-0.0011811745590214,0.0011811692389175,5.5950036938307e-09,-5.8836087137925e-09,-0.0011772256263857,0.0011772253396529,1.5847024017235e-09,-1.9330121133362e-09,-0.0013190636022248,0.001319069027581,-0.0013190650530146,0.0013190676989001,-0.0013190680856322,0.0013190645799721,-0.0013190691081036,0.0013190634352194,-0.0011811784218001,0.0011811659541942,-0.0011811673527458,0.0011811769318496,0.65967491139088,131329,3014,0.004893324811647,0.0048933248109567,0.0048933248107084,14.936059441592,-0.00011811152446726,-0.00011811152446726,-0.00011811152446726,2308658.7507904,0.014789179996232
21419200,0.98737641747609,0.015261422962871,0.0050871409882334,0.005087140987624,0.0050871409870137,-0.0011753328817295,0.0011753332999919,4.7985666076134e-09,-4.3730412134751e-09,9.0802189467206e-11,3.2647903281906e-10,-0.0013171659864293,0.0013171707673929,-0.0013171704635475,0.0013171663430479,-0.0013171668953782,0.001317169994127,-0.0013171694434573,0.0013171672712177,-0.0011792643086197,0.0011792713071971,-0.0011792708181041,0.0011792648006503,1.816046758372e-09,-2.7964453260884e-09,1.3790839977747e-09,-2.3129485051365e-09,-0.0011753335583722,0.0011753326229434,-0.0013171670948197,0.0013171698679372,-0.0013171691706641,0.0013171675630598,-0.0013171693886225,0.0013171673226514,-0.0013171697852646,0.0013171669688822,-0.0011792690584059,0.001179267078157,-0.0011792690430276,0.0011792661200978,-0.0011792684915273,0.001179267649219,-0.0011792692986245,0.0011792658079117,5.4944002594318e-09,-5.7822265293604e-09,-0.0011753332342921,0.0011753329470695,1.6346461873281e-09,-1.9819656169285e-09,-0.0013171653141145,0.0013171714584865,-0.0013171675511956,0.0013171693412843,-0.0013171704866025,0.0013171663254959,-0.0013171707850668,0.0013171659002895,-0.0011792728521575,0.0011792628065099,-0.0011792642420108,0.0011792713353193,0.66373848473892,131329,3014,0.0048854783121852,0.004885478311345,0.0048854783114352,13.800457516277,-0.00012719633986979,-0.00012719633986979,-0.00012719633986979,2299374.6092631,0.014765291814351
21619200,0.98759138253646,0.015264515379762,0.0050881717938638,0.0050881717932544,0.0050881717926439,-0.00117456623881,0.0011745666598359,4.9421360739001e-09,-4.5136482434974e-09,8.1830586602338e-12,4.1270118996782e-10,-0.0013164171013434,0.0013164212286261,-0.0013164209781519,0.0013164174043959,-0.0013164172622293,0.0013164212040957,-0.0013164205980238,0.0013164176926807,-0.0011784998096745,0.0011785092078796,-0.0011785086674833,0.0011785003683665,1.3236409255327e-09,-2.2685231621415e-09,1.3959250622329e-09,-2.2989416677042e-09,-0.0011745669014103,0.0011745659968162,-0.0013164183838518,0.0013164201563841,-0.0013164197668611,0.0013164185436078,-0.0013164196446937,0.0013164186419401,-0.0013164207371088,0.0013164175923196,-0.0011785045505462,0.0011785050015763,-0.001178506602911,0.001178501985438,-0.0011785046501446,0.0011785049001233,-0.0011785065168909,0.0011785020061868,5.6504847032769e-09,-5.936408636497e-09,-0.0011745665923269,0.0011745663060202,1.6490749337163e-09,-1.9943670898073e-09,-0.0013164163945245,0.0013164219565851,-0.001316417946617,0.0013164205233953,-0.0013164209729339,0.0013164174126018,-0.0013164219762668,0.0013164162845826,-0.0011785107411291,0.0011784983273394,-0.0011784997641041,0.0011785092217395,0.66921247943246,131329,3014,0.0048822996461883,0.0048822996453192,0.0048822996455653,13.269393521779,-0.00013144485182577,-0.00013144485182577,-0.00013144485182577,2294807.1093782,0.014755614960707
21819200,0.9878072036536,0.015267572823332,0.0050891909417208,0.0050891909411115,0.0050891909405001,-0.0011753999675128,0.0011754003651061,4.9329027397368e-09,-4.5289545800758e-09,4.0752864569138e-10,-1.5465460129044e-11,-0.0013173035997997,0.0013173081006274,-0.0013173075940804,0.0013173041593583,-0.0013173041533992,0.001317307682606,-0.0013173073742841,0.0013173042866045,-0.0011793593117298,0.0011793680678772,-0.0011793678223465,0.0011793595750763,9.0126095506051e-10,-1.8157364234398e-09,1.461553344067e-09,-2.3390341938257e-09,-0.0011754006052921,0.0011753997268647,-0.0013173051250883,0.0013173067838302,-0.0013173066584551,0.0013173050190218,-0.0013173062132263,0.0013173054445235,-0.0013173072257277,0.00131730447779,-0.0011793637000685,0.0011793642185115,-0.0011793655011412,0.0011793614517829,-0.0011793644448163,0.0011793634748829,-0.0011793651026408,0.0011793617961529,5.6692952978614e-09,-5.9507598917818e-09,-0.0011754003070631,0.0011754000252561,1.5987754323315e-09,-1.9388062912398e-09,-0.0013173030309665,0.0013173086882514,-0.0013173046646891,0.0013173071757338,-0.0013173077373563,0.0013173040200874,-0.0013173085887788,0.0013173030438247,-0.0011793697442563,0.001179357689392,-0.0011793590843756,0.0011793682603573,0.65989248257995,131329,3014,0.0048857568161235,0.0048857568151657,0.004885756815499,13.593386986614,-0.00012885290410709,-0.00012885290410709,-0.00012885290410709,2296900.8743275,0.014766140518641
22019200,0.98802569252731,0.015270615189621,0.0050902050638171,0.0050902050632084,0.0050902050625951,-0.0011764900972408,0.0011764904742707,4.9229616093727e-09,-4.5384605832622e-09,8.0992867794073e-10,-4.4126549593611e-10,-0.0013184512523652,0.0013184561382703,-0.0013184553767462,0.0013184520673044,-0.0013184522092343,0.0013184553141898,-0.0013184553012293,0.0013184520473137,-0.0011804677639318,0.0011804758460782,-0.0011804758904745,0.0011804677203137,4.9853809436355e-10,-1.3858632942468e-09,1.5389623673783e-09,-2.392463896898e-09,-0.0011764907128297,0.0011764898583158,-0.0013184530076608,0.0013184545858242,-0.0013184547151187,0.0013184526509284,-0.0013184539525243,0.0013184533994817,-0.0013184548758788,0.0013184525166852,-0.0011804717744448,0.0011804723543652,-0.0011804733278705,0.0011804698239504,-0.0011804731534274,0.0011804709699282,-0.0011804726230773,0.0011804704822443,5.6820251303855e-09,-5.964604717479e-09,-0.0011764904261309,0.0011764901449132,1.5317602923333e-09,-1.8729577670729e-09,-0.0013184508267934,0.0013184565804489,-0.0013184525442886,0.0013184549826095,-0.0013184556731713,0.0013184517739837,-0.0013184563506418,0.0013184509727753,-0.001180477663009,0.0011804659971787,-0.0011804673487621,0.0011804762150331,0.64982771860968,131329,3014,0.0048902770545058,0.0048902770537478,0.0048902770535333,14.052882498139,-0.00012517694001489,-0.00012517694001489,-0.00012517694001489,2301377.15476,0.014779902454518
22219200,0.98824773364303,0.015273680721622,0.0050912269078175,0.0050912269072084,0.0050912269065962,-0.001177712337428,0.0011777126978389,5.0188733550994e-09,-4.6507050230363e-09,1.0337292368696e-09,-6.836948050636e-10,-0.0013197274746735,0.0013197328722406,-0.0013197319730382,0.0013197284268741,-0.0013197288918351,0.0013197315872323,-0.0013197317473154,0.0013197285562195,-0.0011817049374979,0.0011817121333421,-0.0011817123572594,0.0011817047290954,3.0393307536108e-11,-8.8568549024344e-10,1.6218561434274e-09,-2.4481058131387e-09,-0.0011777129308552,0.001177712104009,-0.001319729458304,0.0013197310929487,-0.0013197315169113,0.001319728805014,-0.001319730384408,0.0013197299217068,-0.001319731049635,0.0013197292975578,-0.0011817087329138,0.0011817088746891,-0.0011817095041057,0.0011817071335015,-0.0011817108339614,0.0011817067640423,-0.0011817084305575,0.0011817081518277,5.8033941407044e-09,-6.0784006644439e-09,-0.0011777126550101,0.00117771237997,1.4652220743538e-09,-1.7978156917588e-09,-0.0013197271353533,0.0013197332299606,-0.0013197291113194,0.0013197313733312,-0.0013197323621921,0.001319728037686,-0.0013197326886073,0.0013197275888184,-0.0011817140224121,0.0011817031033533,-0.0011817043985724,0.0011817126364606,0.64497826491097,131329,3014,0.0048953450031855,0.004895345002351,0.0048953450025872,14.582342798593,-0.00012094125761126,-0.00012094125761126,-0.00012094125761126,2307096.1675254,0.014795331809327
22419200,0.98846976611257,0.015276885382677,0.0050922951281692,0.0050922951275603,0.0050922951269474,-0.0011784904627556,0.0011784908054102,4.8453676288743e-09,-4.4955253911381e-09,1.402067601209e-09,-1.0740774894347e-09,-0.0013205487513556,0.001320553977975,-0.0013205528419149,0.00132054994151,-0.0013205501193819,0.0013205527399545,-0.0013205531668648,0.0013205495180408,-0.0011824919234705,0.0011824994345732,-0.0011824999166016,0.00118249143807,1.1554138444213e-11,-8.6550820658678e-10,1.67643508119e-09,-2.5015191577773e-09,-0.0011784910468069,0.0011784902209852,-0.0013205507856665,0.0013205521429915,-0.0013205525802268,0.0013205501215095,-0.0013205514025169,0.0013205512896641,-0.0013205524018237,0.0013205503302365,-0.0011824953477858,0.0011824965244424,-0.0011824971310192,0.0011824937617229,-0.0011824975495525,0.0011824943140566,-0.0011824960241478,0.0011824948285465,5.6518238095445e-09,-5.9283846046256e-09,-0.0011784907709792,0.0011784904966695,1.4120031009804e-09,-1.7461191874633e-09,-0.0013205485407312,0.0013205542031689,-0.0013205501809443,0.0013205526828989,-0.001320553371862,0.0013205494136977,-0.0013205539613934,0.0013205487005447,-0.0011825014547751,0.0011824899545603,-0.0011824912162615,0.0011825000913903,0.67139743190681,131329,3014,0.0048985714357339,0.0048985714349601,0.0048985714346579,14.871169433993,-0.00011863064452806,-0.00011863064452806,-0.00011863064452806,2310869.440095,0.01480515467644
22619200,0.98868955847092,0.015280095348697,0.0050933651168423,0.005093365116233,0.0050933651156214,-0.0011789815119183,0.0011789818563941,4.9370872468442e-09,-4.5849894533665e-09,1.3650295333436e-09,-1.0344271140794e-09,-0.0013211016669252,0.0013211071900277,-0.0013211060791304,0.0013211028315486,-0.001321103270637,0.0013211057167589,-0.0013211061169326,0.0013211026956301,-0.0011830047550032,0.0011830116958101,-0.0011830121548415,0.0011830042992712,-1.3232387265046e-10,-7.1206289699669e-10,1.7189132319827e-09,-2.5359001439833e-09,-0.0011789820927877,0.0011789812751266,-0.0013211037521691,0.0013211053053471,-0.0013211058337599,0.0013211029960799,-0.0013211045300711,0.0013211042889682,-0.0013211052938048,0.0013211035648819,-0.0011830081969994,0.0011830087772345,-0.0011830092789987,0.0011830067177304,-0.0011830106436283,0.0011830063211753,-0.001183008045019,0.0011830079073519,5.7579324406458e-09,-6.0307369418908e-09,-0.0011789818196226,0.0011789815482609,1.3753273614579e-09,-1.7051232475082e-09,-0.0013211014514727,0.0013211074212953,-0.0013211033274581,0.0013211056650241,-0.0013211066121112,0.0013211022995326,-0.0013211069151696,0.0013211018737389,-0.0011830137010796,0.0011830028020536,-0.001183004034593,0.0011830123711885,0.67880651622808,131329,3014,0.0049006077707195,0.004900607769895,0.0049006077698261,15.008159739585,-0.00011753472208332,-0.00011753472208332,-0.00011753472208332,2311313.1923538,0.014811355369014
22819200,0.98890633113362,0.015283251129605,0.0050944170438117,0.0050944170432023,0.0050944170425912,-0.0011793636250951,0.0011793639633405,4.8237396710054e-09,-4.4764441551156e-09,1.4136399760338e-09,-1.0881141090374e-09,-0.0013215488319487,0.0013215540352506,-0.0013215528998874,0.0013215500204025,-0.001321550197447,0.0013215527996183,-0.0013215532409458,0.0013215495804446,-0.0011834103809659,0.0011834178442537,-0.001183418350307,0.0011834098852548,-7.646299705772e-12,-8.4622306805805e-10,1.7439882535779e-09,-2.569407110533e-09,-0.0011793642071734,0.0011793633808509,-0.001321550846326,0.001321552224647,-0.001321552676279,0.0013215501648612,-0.0013215514350021,0.0013215513905653,-0.0013215524899417,0.0013215503757198,-0.0011834137161837,0.0011834150411037,-0.0011834156399053,0.0011834121438718,-0.0011834160301047,0.0011834127183519,-0.0011834144623366,0.0011834132646743,5.6623129716373e-09,-5.9317283952398e-09,-0.0011793639285999,0.0011793636594584,1.3478660358531e-09,-1.6738033767499e-09,-0.0013215486340607,0.001321554250957,-0.0013215502203078,0.0013215527843157,-0.001321553457545,0.0013215494617769,-0.001321554011812,0.001321548783395,-0.0011834198701199,0.0011834084027141,-0.0011834096190208,0.0011834185726808,0.67692182353233,131329,3014,0.0049021924438187,0.0049021924429668,0.0049021924430328,15.09020967363,-0.00011687832261096,-0.00011687832261096,-0.00011687832261096,2310882.2128366,0.014816181188286
23019200,0.98911922736648,0.015286125273975,0.0050953750919351,0.0050953750913258,0.0050953750907145,-0.0011796097045905,0.0011796100570628,4.945438959411e-09,-4.5846707712785e-09,1.2171233141888e-09,-8.7632906098402e-10,-0.0013218565545186,0.0013218620994034,-0.0013218610841778,0.0013218576231733,-0.001321858170467,0.0013218606144849,-0.0013218609050821,0.0013218577046255,-0.0011836718684585,0.001183678575452,-0.0011836789280161,0.0011836715235211,2.5360205024806e-11,-8.8173854024652e-10,1.7617255176262e-09,-2.5892350342643e-09,-0.0011796102947755,0.0011796094664686,-0.0013218585295333,0.001321860327003,-0.0013218607576156,0.0013218578704457,-0.001321859528623,0.0013218590861153,-0.0013218602099903,0.00132185844408,-0.0011836753843263,0.0011836755878411,-0.0011836762103689,0.0011836737863492,-0.001183677678681,0.0011836732846882,-0.0011836750471858,0.0011836748989715,5.7910366021011e-09,-6.0602602615619e-09,-0.0011796100147988,0.0011796097464459,1.329508158409e-09,-1.6551393204828e-09,-0.0013218562974263,0.0013218623737189,-0.0013218582561994,0.001321860534388,-0.0013218615927371,0.0013218571150525,-0.0013218617494713,0.0013218568352203,-0.0011836805342683,0.0011836699606544,-0.0011836711599338,0.0011836792440165,0.6326038289527,131329,3014,0.0049032130774537,0.0049032130766061,0.0049032130766028,15.108068540437,-0.0001167354516765,-0.0001167354516765,-0.0001167354516765,2310598.7620015,0.0148192896871
23219200,0.98932808656189,0.015289077540051,0.0050963591806269,0.0050963591800175,0.0050963591794064,-0.0011798270176923,0.0011798273776742,4.9086694552823e-09,-4.5409935720576e-09,1.0992041772434e-09,-7.5038120313403e-10,-0.0013220893295641,0.0013220947333606,-0.0013220937907647,0.0013220903256387,-0.0013220908237298,0.0013220933703864,-0.0013220935724381,0.0013220904466012,-0.0011838834098339,0.0011838902363466,-0.0011838904988957,0.0011838831547185,2.0321478457764e-10,-1.0721677968149e-09,1.7687566854249e-09,-2.6071331831727e-09,-0.001179827617137,0.0011798267777921,-0.0013220911943208,0.0013220930708791,-0.0013220933893346,0.0013220906476054,-0.0013220922758311,0.0013220917485802,-0.0013220930064843,0.0013220910572179,-0.0011838869848869,0.0011838871891663,-0.0011838879441886,0.0011838852528082,-0.0011838890535684,0.0011838851125719,-0.0011838868949214,0.0011838862532823,5.764482278788e-09,-6.0337103187621e-09,-0.0011798273314005,0.0011798270635072,1.3172448067224e-09,-1.6427801227831e-09,-0.0013220890351779,0.0013220950445916,-0.0013220909440777,0.0013220932547865,-0.0013220942719549,0.0013220898462268,-0.001322094461247,0.0013220895333364,-0.0011838921604035,0.0011838815385846,-0.0011838827273453,0.0011838908759159,0.65900390428646,131329,3014,0.004904114105899,0.0049041141049931,0.0049041141049436,15.109151287816,-0.00011672678969747,-0.00011672678969747,-0.00011672678969747,2312812.0472945,0.014822032195882
23419200,0.98953226449877,0.015291931556845,0.005097310519558,0.0050973105189487,0.0050973105183379,-0.0011799358547618,0.001179936223877,4.8346881268317e-09,-4.4578850708476e-09,9.3961862311957e-10,-5.8002844011754e-10,-0.0013222382387892,0.0013222429997946,-0.0013222421591748,0.0013222391330214,-0.0013222391335385,0.0013222422372962,-0.0013222423202478,0.0013222388753915,-0.0011839980355595,0.0011840062832243,-0.0011840064274414,0.0011839978995687,3.9642277001082e-10,-1.2787229645199e-09,1.7657700063933e-09,-2.615590965697e-09,-0.0011799364645293,0.0011799356136955,-0.0013222399660609,0.001322241476416,-0.0013222416733777,0.001322239540503,-0.0013222406894932,0.0013222405099422,-0.0013222419116863,0.0013222393272813,-0.0011840016626336,0.0011840031841071,-0.0011840040848188,0.0011839997866617,-0.0011840034723436,0.0011840013670523,-0.0011840031627021,0.0011840006578528,5.6999860637502e-09,-5.9684669880187e-09,-0.0011799361728415,0.0011799359053872,1.3157551964937e-09,-1.6404865431739e-09,-0.0013222378898336,0.0013222433664149,-0.0013222393082347,0.0013222420672943,-0.0013222425944301,0.0013222386993162,-0.0013222432720406,0.0013222378980646,-0.0011840081598598,0.0011839962111988,-0.0011839973986521,0.0011840068788484,0.65256752226058,131329,3014,0.0049045655458872,0.0049045655450298,0.0049045655450333,15.055186618262,-0.00011715850705391,-0.00011715850705391,-0.00011715850705391,2312609.3845294,0.014823407063506
23619200,0.98974505971323,0.015294978202903,0.0050983260682441,0.0050983260676347,0.0050983260670241,-0.0011819345428307,0.0011819349228446,4.8677929821481e-09,-4.4821669212302e-09,7.9979965784593e-10,-4.3024776328499e-10,-0.0013242996408417,0.0013243037360342,-0.0013243029775694,0.0013243004536624,-0.0013242998388159,0.001324303671297,-0.0013243036471623,0.0013242996883137,-0.0011860306823075,0.0011860408892164,-0.0011860409223146,0.0011860306590388,2.0413259922412e-10,-1.0734112074619e-09,1.8250843147418e-09,-2.6635780711084e-09,-0.0011819351522442,0.001181934313049,-0.0013243013773272,0.0013243022016228,-0.0013243025177095,0.0013243008337375,-0.001324301369932,0.0013243019707462,-0.0013243032298497,0.0013243001499892,-0.0011860342682355,0.001186037829607,-0.0011860385894479,0.0011860325365518,-0.0011860364063698,0.0011860356799794,-0.0011860375090538,0.0011860335744495,5.7430304370682e-09,-6.0094995055034e-09,-0.0011819348649619,0.0011819346003211,1.274673469277e-09,-1.5970240909809e-09,-0.0013242992588519,0.0013243041349364,-0.00132430004563,0.0013243034669374,-0.0013243033894817,0.0013243000441184,-0.001324304642035,0.00132429866979,-0.0011860427119817,0.0011860289225858,-0.0011860300676527,0.001186041454033,0.66669415508844,131329,3014,0.0049128529371664,0.0049128529363745,0.0049128529363492,16.005928476675,-0.0001095525721866,-0.0001095525721866,-0.0001095525721866,2320139.2704572,0.014848639151307
23819200,0.98997041905056,0.015298386360854,0.0050994621208944,0.0050994621202849,0.0050994621196744,-0.0011844831704305,0.0011844835271566,4.8013133581727e-09,-4.4372795033335e-09,1.1476262309829e-09,-8.0277465966755e-10,-0.0013269435370482,0.0013269491970438,-0.0013269482254413,0.0013269445625,-0.00132694536011,0.0013269475052388,-0.0013269477431611,0.0013269449471057,-0.0011886323491255,0.0011886380840988,-0.0011886383824969,0.0011886320575294,4.3342156424977e-10,-1.3192618750913e-09,1.8592743194522e-09,-2.7123706384831e-09,-0.0011844837755702,0.0011844829216232,-0.0013269452777774,0.0013269476595864,-0.0013269478339822,0.0013269448746863,-0.0013269468127869,0.0013269458822175,-0.0013269473120246,0.001326945421923,-0.0011886357926859,0.0011886351674264,-0.0011886360961322,0.0011886338878985,-0.0011886376752524,0.0011886332768027,-0.0011886351404305,0.0011886347943416,5.702466558208e-09,-5.9654243443811e-09,-0.0011844834794652,0.0011844832177229,1.2168538563617e-09,-1.5351046998405e-09,-0.0013269432756631,0.0013269494752948,-0.0013269454117514,0.0013269474588742,-0.0013269487664305,0.0013269440229613,-0.0013269485894837,0.001326944075381,-0.0011886400276565,0.0011886304581482,-0.0011886315713491,0.0011886388197102,0.70079570901769,131329,3014,0.0049234205211259,0.0049234205203106,0.0049234205202949,17.238728791476,-9.9690169668194e-05,-9.9690169668194e-05,-9.9690169668194e-05,2329289.291968,0.014880815264362
24019200,0.99019230694525,0.015301780275746,0.0051005934258585,0.0051005934252489,0.0051005934246386,-0.001184915033081,0.0011849154354696,4.9664604900411e-09,-4.5568064109862e-09,4.3430952390687e-10,-3.7243437826775e-11,-0.0013274762729389,0.0013274793565979,-0.0013274788322763,0.0013274768511495,-0.001327475381633,0.0013274803830101,-0.001327480083167,0.0013274755063195,-0.0011890971729496,0.0011891102194528,-0.0011891099783158,0.0011890974220055,1.0474231014567e-10,-9.6482706298963e-10,1.8630189581195e-09,-2.6932321114045e-09,-0.0011849156497135,0.0011849148184097,-0.001327477942864,0.0013274778904419,-0.0013274782705274,0.0013274773347989,-0.0013274770279046,0.0013274785658801,-0.0013274797456359,0.0013274758866921,-0.0011891009072692,0.0011891070113615,-0.001189107689056,0.0011890992546765,-0.0011891032301544,0.0011891046796565,-0.0011891065168619,0.0011891003807025,5.8573136850876e-09,-6.1229412758764e-09,-0.0011849153661811,0.0011849151019316,1.2546319245912e-09,-1.5759129652054e-09,-0.0013274757721059,0.001327479875928,-0.001327475710049,0.0013274800564744,-0.0013274791426667,0.0013274765431194,-0.0013274812177855,0.0013274743475178,-0.0011891119231361,0.0011890955261414,-0.0011890966635244,0.0011891106814686,0.70866617348133,131329,3014,0.0049252117180108,0.0049252117171255,0.0049252117170989,17.342819602884,-9.8857443176929e-05,-9.8857443176929e-05,-9.8857443176929e-05,2328007.6366985,0.014886271355923
24219200,0.99041034752212,0.015304966676173,0.0051016555593341,0.0051016555587245,0.0051016555581144,-0.0011852728906525,0.0011852732848507,4.8780701432467e-09,-4.4766259669731e-09,5.2095558857613e-10,-1.3272562532325e-10,-0.0013279275255804,0.0013279316447223,-0.0013279310668657,0.0013279281571544,-0.0013279277342737,0.0013279315702306,-0.001327931340529,0.0013279277889471,-0.0011894969129177,0.0011895067463156,-0.0011895065731636,0.0011894970931827,5.5327298154869e-10,-1.4464050138564e-09,1.8086018969572e-09,-2.6675733658812e-09,-0.0011852735176178,0.0011852726574692,-0.0013279290664059,0.001327930308474,-0.0013279304060157,0.0013279287407239,-0.0013279294995963,0.0013279296330659,-0.0013279311521498,0.0013279280193971,-0.0011895007378742,0.0011895034479911,-0.0011895044623162,0.0011894987468547,-0.0011895023957783,0.0011895017835338,-0.0011895036209397,0.0011894995390307,5.7861174297313e-09,-6.0532751457759e-09,-0.0011852732204887,0.0011852729545908,1.2780904847424e-09,-1.6011451713788e-09,-0.0013279270393221,0.0013279321489217,-0.0013279280326681,0.0013279312750452,-0.0013279314017108,0.0013279278253693,-0.0013279324529051,0.0013279266507748,-0.00118950850693,0.0011894952096368,-0.0011894963642587,0.0011895072467524,0.68010473712344,131329,3014,0.0049266959816346,0.0049266959807726,0.0049266959807523,17.418081238944,-9.825535008845e-05,-9.825535008845e-05,-9.825535008845e-05,2325890.5509813,0.014890792865473
24419200,0.99062456037898,0.015308093975424,0.0051026979924176,0.0051026979918081,0.0051026979911981,-0.0011856231135412,0.0011856235219866,4.8978021453888e-09,-4.482237804653e-09,2.709592961442e-10,1.3377352166368e-10,-0.0013283409165638,0.001328344621863,-0.0013283442026485,0.0013283413898271,-0.0013283406893785,0.0013283449841203,-0.0013283445682244,0.0013283409303148,-0.001189870010237,0.001189880794538,-0.0011898804367724,0.0011898703760676,6.2321405785781e-10,-1.520426647811e-09,1.7740538203726e-09,-2.6364981915777e-09,-0.0011856237494353,0.001185622885676,-0.0013283423717484,0.0013283433718637,-0.0013283434258543,0.0013283420900083,-0.0013283425881599,0.0013283429126078,-0.0013283444831715,0.0013283410569549,-0.0011898739998504,0.0011898773328589,-0.0011898784007671,0.0011898719571296,-0.0011898755215669,0.0011898758051824,-0.001189877623826,0.001189872683166,5.8118362695678e-09,-6.0806167169214e-09,-0.0011856234513742,0.0011856231837396,1.3141812068133e-09,-1.6390959900073e-09,-0.0013283403355365,0.0013283452219685,-0.0013283410891451,0.0013283445867122,-0.001328344451325,0.00132834114414,-0.0013283457915711,0.0013283396810696,-0.0011898824888105,0.0011898683723245,-0.0011898695543484,0.001189881203627,0.67934994022855,131329,3014,0.0049281484088815,0.0049281484080184,0.0049281484080189,17.491699841573,-9.7666401267412e-05,-9.7666401267412e-05,-9.7666401267412e-05,2325838.318148,0.014895216143136
24619200,0.99083410127282,0.015311303267242,0.005103767756357,0.0051037677557475,0.0051037677551376,-0.001185849735598,0.001185850126144,4.7684388585249e-09,-4.3707845640024e-09,5.3809319526931e-10,-1.5354083455055e-10,-0.0013286225933198,0.0013286280074053,-0.0013286274223657,0.0013286232321005,-0.0013286241717853,0.0013286265625785,-0.0013286263475412,0.0013286242118714,-0.0011901218863786,0.0011901274546087,-0.0011901272999967,0.0011901220488671,1.145910209025e-09,-2.0806130160241e-09,1.7058087692842e-09,-2.600760779126e-09,-0.0011858503788631,0.001185849482452,-0.0013286239452312,0.0013286268610059,-0.0013286265878796,0.0013286239907553,-0.0013286261428664,0.0013286244183774,-0.0013286263800705,0.0013286242203904,-0.0011901259026324,0.0011901239637021,-0.0011901254260389,0.0011901234662619,-0.0011901266443643,0.0011901232183521,-0.0011901250351608,0.0011901238042308,5.7042099375372e-09,-5.9751694809092e-09,-0.0011858500654938,0.0011858497958128,1.3420114999993e-09,-1.6694887048837e-09,-0.0013286220813314,0.0013286285377261,-0.0013286244777063,0.0013286262602336,-0.0013286277499502,0.0013286229079291,-0.0013286274852547,0.0013286230473718,-0.0011901292735234,0.0011901201211177,-0.0011901213274393,0.0011901279694193,0.70944813179428,131329,3014,0.0049290882665384,0.0049290882656544,0.0049290882656322,17.49779528702,-9.7617637703837e-05,-9.7617637703837e-05,-9.7617637703837e-05,2325166.051971,0.014898078601394
24819200,0.99103893994233,0.015314203574362,0.0051047345253968,0.0051047345247873,0.0051047345241776,-0.0011860393038913,0.0011860397046931,4.7883029711605e-09,-4.3804413904636e-09,3.6691232584501e-10,2.9388741899991e-11,-0.0013288963692297,0.0013289013188888,-0.0013289008414695,0.0013288969001408,-0.0013288974640361,0.0013289003586448,-0.0013289000155764,0.0013288976319742,-0.0011903418335401,0.0011903485980002,-0.0011903483170191,0.0011903421219521,1.1391244874515e-09,-2.0710684537583e-09,1.6689626724628e-09,-2.561161521772e-09,-0.0011860399509584,0.001186039057182,-0.0013288976861989,0.0013289002076429,-0.0013288999372665,0.0013288977290993,-0.0013288995123592,0.0013288981367435,-0.0013289000903258,0.0013288975975979,-0.0011903459615927,0.0011903449941607,-0.0011903464509011,0.0011903435324269,-0.0011903466662906,0.0011903442860806,-0.0011903460756675,0.0011903438551656,5.7317729030958e-09,-6.0048741587458e-09,-0.0011860396400258,0.0011860393681359,1.3837588889981e-09,-1.7138777692988e-09,-0.0013288957856701,0.0013289019212121,-0.0013288978442293,0.0013288999810036,-0.001328901106558,0.0013288966385662,-0.0013289012375101,0.0013288963836441,-0.0011903503818595,0.0011903401012857,-0.0011903413403189,0.0011903490486389,0.66112595606724,131329,3014,0.0049298747263524,0.0049298747254297,0.0049298747254724,17.493842382025,-9.7649260943796e-05,-9.7649260943796e-05,-9.7649260943796e-05,2323124.940703,0.014900475177668
25019200,0.99125076694577,0.015317166102071,0.0051057220346332,0.0051057220340236,0.0051057220334141,-0.0011879215656725,0.00118792194191,4.6697596136963e-09,-4.2848841709063e-09,7.4644961435902e-10,-3.7653126152254e-10,-0.0013308432902996,0.0013308479128642,-0.0013308472001588,0.0013308440559036,-0.0013308441529837,0.001330847182485,-0.0013308471246419,0.0013308440357361,-0.0011922535015455,0.0011922612224694,-0.0011922612272818,0.0011922534969083,1.2081084031085e-09,-2.1454987586364e-09,1.6806768612642e-09,-2.5778331739047e-09,-0.001187922202771,0.0011879213043991,-0.0013308446634521,0.0013308467455299,-0.0013308464327361,0.0013308447477129,-0.0013308460435878,0.0013308451182039,-0.0013308471226724,0.0013308440784107,-0.0011922573902146,0.0011922578558753,-0.001192259359548,0.0011922549077005,-0.0011922580227103,0.0011922572236069,-0.0011922590210349,0.0011922551905867,5.638873703632e-09,-5.9116063648952e-09,-0.0011879218897184,0.0011879216174611,1.376902791359e-09,-1.7065118724102e-09,-0.0013308428217159,0.0013308483993977,-0.0013308443854367,0.0013308469550643,-0.0013308475896264,0.001330843669261,-0.0013308482063229,0.0013308429264421,-0.001192263158134,0.0011922516061894,-0.0011922528515743,0.0011922618350281,0.65362908497774,131329,3014,0.0049376790910486,0.0049376790901932,0.0049376790902093,18.391868348167,-9.0465053214665e-05,-9.0465053214665e-05,-9.0465053214665e-05,2331086.1670561,0.01492423824608
25219200,0.99148061064022,0.015320494154142,0.0051068313853235,0.0051068313847137,0.0051068313841044,-0.0011913467867801,0.0011913471934068,5.042670784869e-09,-4.6268692954367e-09,2.8059947829031e-10,1.2401650314566e-10,-0.001334361118465,0.001334366855932,-0.0013343664295482,0.0013343615977496,-0.0013343628313055,0.001334365278318,-0.001334364874125,0.0013343630603213,-0.0011957288403057,0.0011957341842877,-0.0011957338389824,0.0011957291852202,9.8568228568273e-11,-9.5690255204859e-10,1.7605669407524e-09,-2.5888575810647e-09,-0.0011913474044811,0.0011913465753143,-0.0013343627963195,0.0013343653822982,-0.0013343657612059,0.0013343621894211,-0.0013343645849533,0.0013343633527904,-0.0013343645287958,0.0013343634471334,-0.0011957327956567,0.0011957307531935,-0.001195731421958,0.0011957311442267,-0.0011957349989115,0.0011957285453705,-0.0011957303040634,0.0011957322128676,6.0120789194688e-09,-6.2812065593336e-09,-0.0011913471243358,0.0011913468554607,1.3189609239727e-09,-1.644409170958e-09,-0.0013343605209405,0.0013343674723352,-0.0013343632092357,0.0013343649025363,-0.0013343666985741,0.0013343613308911,-0.001334366113285,0.0013343617960777,-0.0011957359406004,0.0011957271313086,-0.0011957283260711,0.0011957346532718,0.67455041494119,131329,3014,0.0049518808637231,0.0049518808629113,0.0049518808629098,20.100759408732,-7.6793924730144e-05,-7.6793924730144e-05,-7.6793924730144e-05,2345928.1262905,0.014967481857369
25419200,0.99171745256488,0.015324220845043,0.0051080736156241,0.0051080736150142,0.0051080736144051,-0.0011933323474343,0.0011933327406756,5.1014703432299e-09,-4.7000939185924e-09,3.2597247035302e-10,6.3568008217454e-11,-0.0013364451772427,0.0013364513034275,-0.0013364508544531,0.0013364456795832,-0.0013364472473917,0.0013364493684374,-0.0013364490122285,0.0013364474285161,-0.0011977588694852,0.0011977633302336,-0.0011977630273298,0.0011977591779354,-1.2385380754812e-10,-7.1661885228229e-10,1.7690658149596e-09,-2.5817193232445e-09,-0.0011933329506591,0.0011933321370214,-0.0013364469570131,0.0013364497264524,-0.0013364502447954,0.0013364462118584,-0.0013364489151615,0.0013364475303572,-0.0013364485371503,0.0013364479460825,-0.0011977627810264,0.001197759947498,-0.0011977604422821,0.0011977613032996,-0.0011977652820313,0.0011977574387778,-0.0011977591840232,0.0011977625147581,6.0931907883216e-09,-6.3602594584982e-09,-0.0011933326768281,0.0011933324108452,1.3149744859909e-09,-1.6383158256643e-09,-0.0013364445861729,0.0013364519127772,-0.0013364475932215,0.0013364490247526,-0.0013364511398109,0.0013364453968251,-0.0013364502289929,0.0013364461873445,-0.001197765122353,0.0011977571373529,-0.0011977583139668,0.001197763832936,0.72789747972331,131329,3014,0.0049601135366527,0.0049601135357626,0.0049601135357436,21.026359508603,-6.9389123931176e-05,-6.9389123931176e-05,-6.9389123931176e-05,2352999.282664,0.014992551760037
25619200,0.99194659649404,0.015327847453737,0.0051092824851885,0.0051092824845785,0.0051092824839696,-0.001193411302781,0.0011934116757593,4.811680788043e-09,-4.4308884199885e-09,7.4675995434893e-10,-3.8146301709609e-10,-0.0013366380476466,0.0013366430891321,-0.0013366423738116,0.0013366388162612,-0.0013366392361142,0.0013366420334372,-0.0013366419832658,0.0013366391112597,-0.0011978828585405,0.001197889911176,-0.0011978899172949,0.001197882857721,4.4858076958636e-10,-1.3278655796401e-09,1.7019990261606e-09,-2.5482108197609e-09,-0.0011934119126516,0.0011934110654471,-0.0013366397056586,0.0013366416341277,-0.0013366417933746,0.001336639319523,-0.0013366408875608,0.0013366402110643,-0.001336641643064,0.0013366394937678,-0.0011978866067695,0.0011978866923976,-0.0011978876156666,0.0011978846995088,-0.00119788826236,0.0011978850308119,-0.0011978867753056,0.0011978854899295,5.8258649537071e-09,-6.0973741611695e-09,-0.0011934116242991,0.0011934113537893,1.3772356753073e-09,-1.705650150147e-09,-0.0013366375651903,0.0013366435891489,-0.0013366394489616,0.0013366418244913,-0.0013366427775538,0.0013366384147457,-0.001336643075195,0.0013366379937804,-0.0011978918934452,0.0011978809318826,-0.0011978821605928,0.0011978905614499,0.73244076263304,131329,3014,0.0049604414800803,0.0049604414791652,0.0049604414791398,20.943814687675,-7.0049482498597e-05,-7.0049482498597e-05,-7.0049482498597e-05,2349165.3902698,0.014993553300474
25819200,0.99215839161108,0.015331105647932,0.0051103685499203,0.0051103685493101,0.0051103685487013,-0.0011920554557298,0.0011920558471313,4.8507250839137e-09,-4.4517917922284e-09,4.5320334400776e-10,-6.6843177633865e-11,-0.0013353618962641,0.0013353669256067,-0.0013353663961357,0.0013353624788855,-0.0013353630341058,0.0013353659217656,-0.0013353656493267,0.001335363131685,-0.0011965528776215,0.0011965598032636,-0.0011965595897183,0.001196553096605,6.1473619486237e-10,-1.5038732397784e-09,1.6001613349826e-09,-2.4545710154051e-09,-0.0011920560789949,0.0011920552234439,-0.0013353634523428,0.00133536557283,-0.0013353656285118,0.0013353631709242,-0.001335364899542,0.0013353638847373,-0.0013353654370387,0.0013353633852622,-0.0011965569229341,0.0011965562846219,-0.0011965573338223,0.0011965548944394,-0.0011965582281509,0.0011965549746867,-0.001196556664656,0.0011965555132724,5.8676372642387e-09,-6.1443304626279e-09,-0.0011920557890575,0.0011920555133769,1.4690329211409e-09,-1.8035353699677e-09,-0.0013353612873283,0.0013353675529748,-0.0013353633867884,0.0013353655716032,-0.001335366682836,0.0013353621949595,-0.0013353668914826,0.0013353618641792,-0.0011965617227234,0.0011965510112034,-0.0011965523107115,0.0011965603245328,0.71386865101644,131329,3014,0.0049548205910393,0.0049548205901642,0.0049548205901509,20.110443658829,-7.6716450729367e-05,-7.6716450729367e-05,-7.6716450729367e-05,2339423.0720882,0.014976439920242
26019200,0.9923597296341,0.015334075376487,0.0051113584594388,0.0051113584588285,0.0051113584582199,-0.0011915037489881,0.0011915041277615,4.6814587970002e-09,-4.295109190539e-09,6.202819787525e-10,-2.4793968749509e-10,-0.0013348718468578,0.0013348763085945,-0.0013348756746979,0.0013348725336936,-0.0013348725384382,0.0013348757498353,-0.0013348756070446,0.0013348725062998,-0.0011960255807086,0.0011960336914499,-0.0011960336084696,0.001196025668319,9.9303480867418e-10,-1.9096482381197e-09,1.5326333938845e-09,-2.4109333088875e-09,-0.0011915043779103,0.0011915034984308,-0.0013348732998578,0.0013348750593837,-0.0013348748763994,0.0013348732569922,-0.0013348744452799,0.0013348736705999,-0.0013348755087198,0.0013348726455179,-0.0011960295991893,0.0011960301998313,-0.0011960315353607,0.0011960272832932,-0.0011960303165856,0.0011960294796614,-0.0011960311549559,0.001196027610603,5.7173092935962e-09,-5.9975715557176e-09,-0.0011915040778678,0.0011915037984703,1.5342242481494e-09,-1.8729470542237e-09,-0.0013348712645436,0.0013348769091229,-0.0013348728463731,0.0013348754454749,-0.0013348759977428,0.0013348722133992,-0.0013348768130787,0.0013348712739716,-0.0011960357137512,0.0011960236092736,-0.0011960249594655,0.0011960342689959,0.6868883947423,131329,3014,0.0049525335275896,0.0049525335267432,0.0049525335267329,19.716900483384,-7.9864796132929e-05,-7.9864796132929e-05,-7.9864796132929e-05,2334272.6512676,0.014969477203369
26219200,0.99255487349242,0.015337133361244,0.005112377787691,0.0051123777870807,0.0051123777864722,-0.0011915314876162,0.0011915318907023,4.9093628820986e-09,-4.4988447220878e-09,2.5355098689728e-10,1.4631347051803e-10,-0.0013349416934485,0.0013349469001932,-0.0013349464965841,0.0013349421500266,-0.0013349429622134,0.0013349457662981,-0.001334945344942,0.0013349432087316,-0.0011960734724978,0.001196079870951,-0.0011960795091252,0.0011960738390973,6.4677456818455e-10,-1.5366701627887e-09,1.502761804691e-09,-2.3574861514156e-09,-0.0011915321168755,0.0011915312610374,-0.0013349432258525,0.0013349455711076,-0.0013349456056752,0.0013349429662499,-0.0013349449627139,0.0013349435936771,-0.0013349451676657,0.0013349434267668,-0.0011960777513649,0.0011960761179977,-0.0011960771903305,0.0011960757003633,-0.0011960788885395,0.0011960749766924,-0.0011960766027434,0.0011960762377257,5.9470770788187e-09,-6.2283796198074e-09,-0.001191531829178,0.0011915315487247,1.5576355668026e-09,-1.8976479488048e-09,-0.0013349409839653,0.0013349476285164,-0.0013349434121614,0.0013349453179621,-0.0013349467019431,0.0013349419477204,-0.0013349467041222,0.0013349418242713,-0.0011960817773549,0.0011960716187279,-0.0011960729839705,0.0011960803136234,0.72525110137048,131329,3014,0.0049526488023653,0.004952648801525,0.0049526488014998,19.629345685042,-8.0565234519665e-05,-8.0565234519665e-05,-8.0565234519665e-05,2333197.4045213,0.014969828501523
26419200,0.99274846374551,0.01534025730127,0.0051134191010331,0.0051134191004226,0.0051134190998143,-0.0011922652097683,0.0011922655928593,4.7383301280906e-09,-4.3477837400735e-09,5.5834062195961e-10,-1.8131665119488e-10,-0.0013357649516696,0.0013357696835794,-0.0013357690879616,0.0013357656002164,-0.0013357658725166,0.0013357688958873,-0.0013357687059084,0.0013357658876459,-0.0011968554778279,0.0011968629381333,-0.0011968628062979,0.0011968556140847,7.8167608744779e-10,-1.682314475727e-09,1.5018621438809e-09,-2.3661139439111e-09,-0.0011922658337672,0.0011922649684673,-0.0013357664818724,0.0013357683562093,-0.0013357683054838,0.0013357663074574,-0.0013357677541588,0.0013357668426097,-0.0013357685204592,0.0013357661143584,-0.001196859530346,0.0011968594124421,-0.0011968605861128,0.0011968573753427,-0.0011968604858567,0.0011968584526809,-0.0011968600895879,0.0011968578208218,5.8005244251369e-09,-6.0820372354668e-09,-0.001192265541421,0.0011922652608023,1.5645390292301e-09,-1.9048576162015e-09,-0.0013357643306663,0.0013357703227279,-0.0013357662049569,0.0013357685662793,-0.0013357693917114,0.0013357652991678,-0.0013357699565664,0.0013357646114303,-0.0011968649767724,0.0011968534927858,-0.0011968548620384,0.0011968635075179,0.74503105885696,131329,3014,0.0049556913486161,0.0049556913478015,0.0049556913477739,19.918365496182,-7.8253076030541e-05,-7.8253076030541e-05,-7.8253076030541e-05,2333063.2192023,0.014979094951854
26619200,0.99294696000183,0.01534342858185,0.0051144761945597,0.0051144761939491,0.0051144761933411,-0.0011940278988859,0.0011940282931941,5.1317417106368e-09,-4.7297513682835e-09,3.1525656465776e-10,7.5280934219135e-11,-0.0013376531977198,0.0013376591123072,-0.0013376586757571,0.0013376536870954,-0.0013376550297438,0.0013376574150721,-0.0013376570443211,0.0013376552255685,-0.0011986902575388,0.0011986955429933,-0.001198695230862,0.001198690573977,1.6094504067176e-10,-1.0225586296497e-09,1.541512692997e-09,-2.3725595343679e-09,-0.0011940285118121,0.0011940276798684,-0.0013376549697227,0.0013376575425277,-0.0013376578889544,0.0013376543981557,-0.0013376568939079,0.0013376553800004,-0.0013376565949989,0.0013376557164692,-0.0011986945248483,0.001198691801893,-0.001198692514446,0.0011986928344093,-0.0011986963521758,0.0011986899679391,-0.0011986915890177,0.0011986937114574,6.2023453666653e-09,-6.4847262789458e-09,-0.0011940282366428,0.0011940279550572,1.5214907372083e-09,-1.86223912702e-09,-0.001337652507274,0.0013376598211083,-0.0013376554335026,0.0013376570132063,-0.0013376589196697,0.001337653445885,-0.0013376583768961,0.0013376538682673,-0.0011986974915401,0.0011986883618143,-0.0011986897039624,0.0011986960506002,0.73848802245981,131329,3014,0.0049630003023033,0.0049630003014755,0.0049630003015116,20.75704270929,-7.1543658325682e-05,-7.1543658325682e-05,-7.1543658325682e-05,2336724.6065204,0.015001353811319
26819200,0.99314889492488,0.015346570233244,0.0051155234116911,0.0051155234110804,0.0051155234104727,-0.0011956101899646,0.00119561053621,4.4172358130663e-09,-4.0631392242387e-09,1.1451697863785e-09,-8.1028335287036e-10,-0.0013393573324199,0.0013393616169532,-0.0013393606505317,0.0013393583520678,-0.0013393580453565,0.0013393610344548,-0.0013393612879719,0.0013393576170453,-0.0012003320633721,0.0012003402525161,-0.001200340564663,0.0012003317564519,7.131477952057e-10,-1.6044475274794e-09,1.5754959465475e-09,-2.4313480701732e-09,-0.0011956107911687,0.0011956099345703,-0.0013393589414024,0.0013393602098894,-0.001339360197059,0.0013393587285307,-0.001339359553435,0.0013393593561907,-0.0013393609796812,0.0013393579681919,-0.0012003355022349,0.0012003373433584,-0.0012003384596272,0.0012003334000875,-0.0012003366425205,0.001200336198419,-0.0012003378699924,0.0012003339378142,5.5271934940328e-09,-5.8079150864161e-09,-0.0011956105028257,0.0011956102229013,1.5070929510213e-09,-1.8459951866436e-09,-0.0013393569055943,0.0013393620609192,-0.0013393581275487,0.0013393609574707,-0.0013393611678716,0.0013393578363666,-0.0013393623066808,0.0013393565728738,-0.001200342521959,0.0012003298476409,-0.0012003311780661,0.0012003410922419,0.72122275615383,131329,3014,0.004969561092266,0.0049695610913633,0.0049695610913343,21.49518695899,-6.5638504328077e-05,-6.5638504328077e-05,-6.5638504328077e-05,2339668.8955417,0.015021334586217
27019200,0.9933476954835,0.015349572411255,0.0051165241376946,0.0051165241370838,0.0051165241364763,-0.0011962075707852,0.001196207960176,5.3168119688087e-09,-4.919760641513e-09,3.5037533674456e-10,3.4761547646816e-11,-0.0013400441319817,0.0013400504706282,-0.0013400500132645,0.0013400446425006,-0.0013400462671875,0.0013400484702209,-0.0013400481296576,0.0013400464329384,-0.0012009638516851,0.0012009686685751,-0.0012009683876359,0.0012009641386249,-1.0272172866268e-10,-7.3627068974097e-10,1.5842488975603e-09,-2.3953238753659e-09,-0.0011962081712537,0.0011962073592695,-0.0013400460475431,0.0013400487563543,-0.0013400492663328,0.0013400453130779,-0.0013400480676963,0.0013400465000388,-0.0013400475125642,0.0013400470923047,-0.001200968155917,0.0012009648887362,-0.0012009654015403,0.0012009666695894,-0.0012009703885175,0.0012009626483708,-0.0012009642739027,0.0012009677507029,6.4207957004517e-09,-6.6998346983548e-09,-0.0011962079042381,0.0011962076262798,1.4817489874091e-09,-1.8187357369305e-09,-0.0013400434542328,0.0013400511665825,-0.001340046630139,0.0013400481090274,-0.0013400502893312,0.0013400443689383,-0.0013400494413654,0.0013400450972807,-0.0012009706457505,0.0012009619280837,-0.0012009632387938,0.0012009692355467,0.70228868617623,131329,3014,0.0049720383669208,0.0049720383660134,0.0049720383659977,21.7146917094,-6.38824663248e-05,-6.38824663248e-05,-6.38824663248e-05,2340579.5701073,0.015028879790751
27219200,0.99354104752308,0.015352398121762,0.005117466041197,0.0051174660405862,0.0051174660399788,-0.0011964294988137,0.0011964298594753,4.5979306474925e-09,-4.2296003364366e-09,9.0425759296301e-10,-5.5289246151482e-10,-0.0013403278207565,0.0013403325226623,-0.0013403317093476,0.0013403286872087,-0.0013403288202554,0.001340331654971,-0.001340331726894,0.0013403285733911,-0.0012011997990914,0.0012012071913641,-0.001201207321113,0.0012011996751628,5.4782159901379e-10,-1.4300385737664e-09,1.5801190300742e-09,-2.4283728901583e-09,-0.0011964301035564,0.0011964292543106,-0.0013403294652015,0.0013403310803616,-0.0013403311745675,0.001340329145166,-0.0013403304163219,0.0013403298883821,-0.0013403313899018,0.0013403289530396,-0.0012012034347377,0.0012012040867941,-0.0012012050795052,0.0012012014549203,-0.0012012047977492,0.0012012027185516,-0.00120120438272,0.0012012021009712,5.7305142156655e-09,-6.0104770711689e-09,-0.0011964298183928,0.0011964295394678,1.4980263703227e-09,-1.8360947011555e-09,-0.0013403273105155,0.0013403330502847,-0.00134032897945,0.0013403315000466,-0.0013403321629442,0.0013403282357239,-0.0013403328426996,0.0013403274322482,-0.0012012093953615,0.0012011976505775,-0.0012011989720029,0.0012012079715521,0.68192143155587,131329,3014,0.0049729586723163,0.004972958671442,0.0049729586714244,21.739865942018,-6.3681072463852e-05,-6.3681072463852e-05,-6.3681072463852e-05,2341080.4101224,0.015031682850444
27419200,0.99373053205118,0.01535525893095,0.0051184196442597,0.0051184196436487,0.0051184196430416,-0.001196893711194,0.0011968941068107,5.4210972706702e-09,-5.0180590126829e-09,2.6989556034648e-10,1.2196999501802e-10,-0.0013408305349103,0.0013408371773965,-0.0013408367657158,0.0013408309995216,-0.0013408329041058,0.0013408349434105,-0.0013408345444175,0.0013408331280099,-0.0012016765985394,0.001201680800149,-0.0012016804596113,0.0012016769447692,-9.3774055009061e-12,-8.4006601152691e-10,1.5848526347576e-09,-2.4053531744806e-09,-0.0011968943193961,0.0011968934982209,-0.001340832427438,0.0013408354863435,-0.001340835935704,0.0013408317536315,-0.0013408348027499,0.0013408328746558,-0.0013408339651565,0.0013408337489026,-0.0012016810677843,0.0012016768595082,-0.0012016774468615,0.0012016795006643,-0.001201683176148,0.00120167474357,-0.0012016763793148,0.0012016805221289,6.5520131406725e-09,-6.8299883934841e-09,-0.0011968940474277,0.0011968937702001,1.4748237319121e-09,-1.8106911308642e-09,-0.0013408298268161,0.0013408379038422,-0.0013408332834812,0.0013408345652481,-0.0013408370310119,0.0013408307368706,-0.0013408358923403,0.0013408317560051,-0.0012016827746385,0.0012016746804769,-0.0012016759822965,0.0012016813682581,0.70215249087089,131329,3014,0.0049748834936199,0.0049748834928169,0.0049748834928347,21.891706777542,-6.2466345779662e-05,-6.2466345779662e-05,-6.2466345779662e-05,2342925.3007165,0.015037544001419
27619200,0.99391884497057,0.01535814785814,0.0051193826199898,0.0051193826193788,0.0051193826187717,-0.0011978093796286,0.0011978097442932,4.5383405766342e-09,-4.166152155382e-09,8.6814918410894e-10,-5.1252834196391e-10,-0.0013418104523723,0.0013418149761549,-0.0013418141841134,0.0013418112977711,-0.0013418113112119,0.0013418142493915,-0.0013418142920422,0.0013418110935261,-0.0012026197684916,0.0012026273993788,-0.0012026274997188,0.0012026196733037,6.0591538867667e-10,-1.4933095905862e-09,1.6071646414978e-09,-2.4600213380166e-09,-0.0011978099885543,0.0011978091349701,-0.0013418120376475,0.0013418135931802,-0.0013418136509806,0.0013418117541523,-0.0013418129138757,0.0013418124761277,-0.0013418140223798,0.0013418114055136,-0.0012026233520335,0.001202624347682,-0.0012026253847638,0.0012026213259515,-0.0012026246735856,0.0012026230206599,-0.0012026247086214,0.0012026219518808,5.6996794605284e-09,-5.9769947110908e-09,-0.0011978097000143,0.0011978094235038,1.4714382187195e-09,-1.8065994635971e-09,-0.0013418099300915,0.0013418155160509,-0.001341811464523,0.0013418140999884,-0.0013418146450479,0.0013418108387767,-0.0013418154217748,0.0013418099385549,-0.0012026296068326,0.0012026176164124,-0.0012026189164297,0.0012026282044394,0.71253170111104,131329,3014,0.0049786800766229,0.0049786800757996,0.0049786800757823,22.281318988215,-5.9349448094281e-05,-5.9349448094281e-05,-5.9349448094281e-05,2344446.6680741,0.015049106069492
27819200,0.99410331174646,0.015361026693535,0.0051203422317881,0.005120342231177,0.0051203422305701,-0.0011982946074296,0.0011982949919417,4.9780389531506e-09,-4.5860163401723e-09,5.4465064059091e-10,-1.6616233109014e-10,-0.0013423640620226,0.0013423696151983,-0.0013423690291674,0.0013423647013376,-0.0013423656411896,0.0013423681698341,-0.0013423679673143,0.0013423656686404,-0.0012031332421679,0.0012031392661556,-0.0012031391239038,0.0012031333901995,3.941855632317e-10,-1.2696244188161e-09,1.6127856627206e-09,-2.4556498938533e-09,-0.0011982952213618,0.0011982943775924,-0.0013423657581738,0.0013423681210932,-0.0013423683174648,0.001342365337214,-0.0013423674330572,0.0013423662076837,-0.0013423675962437,0.0013423660812068,-0.0012031372934494,0.001203135741187,-0.0012031366290844,0.0012031354277524,-0.0012031389060587,0.0012031341226288,-0.0012031358068946,0.0012031362008891,6.1446158122048e-09,-6.4209479550946e-09,-0.0011982949371458,0.0011982946618013,1.4549478402834e-09,-1.7889657140607e-09,-0.0013423634372683,0.0013423702582505,-0.0013423659050914,0.0013423679083819,-0.0013423693972267,0.001342364335562,-0.0013423692184444,0.0013423643928877,-0.0012031413592925,0.0012031312023706,-0.0012031324918391,0.0012031399711545,0.72383698966019,131329,3014,0.0049806922040402,0.004980692203176,0.0049806922031569,22.443447402644,-5.8052420778844e-05,-5.8052420778844e-05,-5.8052420778844e-05,2344444.6948809,0.015055234534159
28019200,0.99428465366452,0.015363909399947,0.0051213031339253,0.0051213031333142,0.0051213031327074,-0.0011988987385417,0.0011988991064964,4.3018404515506e-09,-3.9264584115672e-09,8.7794838810292e-10,-5.1916744379096e-10,-0.0013430453128796,0.0013430493083815,-0.0013430485084053,0.0013430461665221,-0.0013430457986094,0.0013430489546072,-0.0013430489990066,0.0013430455792014,-0.0012037732714535,0.0012037815656757,-0.0012037816699489,0.0012037731724636,8.1418716947438e-10,-1.7178886730332e-09,1.6246648657961e-09,-2.4918683015193e-09,-0.0011988993563884,0.0011988984882795,-0.001343046750378,0.0013430480736409,-0.0013430480022843,0.0013430465962221,-0.0013430473916229,0.0013430471904471,-0.0013430488946678,0.0013430457255726,-0.0012037766795632,0.0012037786874546,-0.0012037798868932,0.0012037744944885,-0.0012037777515519,0.0012037776109965,-0.0012037793313479,0.00120377499943,5.4916259819488e-09,-5.767530045622e-09,-0.0011988990598462,0.0011988987848442,1.4551213870993e-09,-1.7887187757222e-09,-0.0013430447900271,0.0013430498492934,-0.0013430459348877,0.0013430488223554,-0.001343048988285,0.0013430456887686,-0.0013430501310772,0.0013430444214544,-0.0012037837960448,0.0012037710938805,-0.0012037723832225,0.0012037824087652,0.73612814598877,131329,3014,0.004983197301922,0.0049831973011548,0.0049831973011973,22.670289829805,-5.6237681361562e-05,-5.6237681361562e-05,-5.6237681361562e-05,2344039.4221462,0.015062864613437
28219200,0.99446569279348,0.015366844454261,0.0051222814853633,0.0051222814847523,0.0051222814841458,-0.0012000085422824,0.0012000089303168,5.0355711048181e-09,-4.6401550298019e-09,5.0980949131705e-10,-1.2755732062318e-10,-0.0013442434019911,0.0013442489889283,-0.0013442484248957,0.0013442440194452,-0.0013442449720223,0.0013442475528902,-0.0013442473213674,0.0013442450285146,-0.0012049361328279,0.0012049422679899,-0.0012049420973939,0.0012049363085938,4.3583755463869e-10,-1.3154117146118e-09,1.6467057955367e-09,-2.4932531344362e-09,-0.0012000091598297,0.0012000083123781,-0.001344245082807,0.0013442475103651,-0.0013442476820174,0.0013442446864382,-0.0013442468019748,0.0013442455525628,-0.0013442469726087,0.0013442454185415,-0.0012049402347716,0.0012049386905048,-0.0012049396126874,0.0012049383378992,-0.0012049418375869,0.001204937081417,-0.0012049387954766,0.0012049391066346,6.2314060918213e-09,-6.5045702939601e-09,-0.0012000088721994,0.0012000086000038,1.4196853545869e-09,-1.7501969098623e-09,-0.0013442427673926,0.0013442496418674,-0.0013442452267016,0.0013442473004963,-0.0013442488027252,0.0013442436439714,-0.0013442485828917,0.001344243742241,-0.0012049443614865,0.0012049340919115,-0.0012049353539998,0.0012049430019774,0.74949207817555,131329,3014,0.0049877990422993,0.0049877990414886,0.0049877990414744,23.163174309982,-5.2294605520144e-05,-5.2294605520144e-05,-5.2294605520144e-05,2343579.073491,0.015076880128702
28419200,0.9946411566694,0.015369748821922,0.0051232496079167,0.0051232496073057,0.0051232496066993,-0.0012002051596985,0.0012002055361092,4.1783397968226e-09,-3.7942917492857e-09,8.0699791829695e-10,-4.3881379336336e-10,-0.0013445331997996,0.0013445371360116,-0.0013445363770111,0.0013445340126304,-0.0013445337057647,0.0013445367626863,-0.0013445367490785,0.0013445335443897,-0.0012051733925092,0.00120518127526,-0.0012051813215336,0.0012051733520721,8.8851053928325e-10,-1.7990623756624e-09,1.6367440861303e-09,-2.5096984564146e-09,-0.0012002057848461,0.0012002049105777,-0.0013445345454459,0.0013445359944171,-0.0013445358765193,0.0013445344375797,-0.0013445353080009,0.0013445349884162,-0.0013445367518126,0.001344533583257,-0.0012051767201365,0.0012051784776649,-0.001205179734373,0.0012051744763966,-0.0012051777113775,0.0012051774842551,-0.001205179219008,0.0012051749406244,5.3932898525206e-09,-5.669136368893e-09,-0.0012002054849926,0.001200205210227,1.4409424238157e-09,-1.7745101200221e-09,-0.0013445326514128,0.0013445377028907,-0.0013445338563744,0.0013445366161202,-0.0013445368506482,0.0013445335408721,-0.0013445379145341,0.0013445323522194,-0.0012051835006247,0.0012051712199616,-0.0012051724998541,0.001205182122717,0.76402646739013,131329,3014,0.0049886147120595,0.0049886147112642,0.004988614710836,23.17635138446,-5.2189188924321e-05,-5.2189188924321e-05,-5.2189188924321e-05,2341369.4107386,0.01507936624653
28619200,0.99481154780732,0.015372588738138,0.0051241962466557,0.0051241962460449,0.0051241962454374,-0.0012004537321796,0.0012004541128248,4.1556547303653e-09,-3.7677202982017e-09,7.3967184400349e-10,-3.6687180449467e-10,-0.0013448789111742,0.0013448828718322,-0.0013448821559452,0.0013448796803951,-0.0013448794517292,0.0013448824638548,-0.0013448823985003,0.0013448793419922,-0.0012054719355098,0.0012054796265253,-0.0012054796227369,0.0012054719443681,9.4013851010607e-10,-1.8561056127697e-09,1.6256177522366e-09,-2.5037790287896e-09,-0.0012004543619157,0.0012004534827077,-0.0013448802151247,0.0013448817709973,-0.0013448816229594,0.0013448801380133,-0.0013448810956551,0.0013448806485756,-0.0013448824509419,0.0013448793304462,-0.0012054752990164,0.0012054767891978,-0.0012054780922348,0.0012054730172264,-0.0012054762095519,0.0012054758745976,-0.0012054776139687,0.0012054734442403,5.3836130795512e-09,-5.6590210573206e-09,-0.0012004540595375,0.0012004537850619,1.4492941341179e-09,-1.7823430930831e-09,-0.0013448783333413,0.0013448834677968,-0.0013448796255656,0.0013448822934693,-0.0013448826102474,0.0013448792283775,-0.0013448835977277,0.0013448781170056,-0.0012054818431952,0.0012054697702449,-0.0012054710564998,0.0012054804620798,0.76896222517237,131329,3014,0.0049896458793412,0.0049896458785521,0.0049896458784974,23.222734493211,-5.1818124054308e-05,-5.1818124054308e-05,-5.1818124054308e-05,2338654.3334204,0.015082508881344
28819200,0.99498341479009,0.015375374637768,0.0051251248798658,0.005125124879255,0.0051251248786476,-0.0012019118218858,0.0012019121984832,4.1963691789197e-09,-3.8120943191941e-09,7.5618998873844e-10,-3.8723092506693e-10,-0.0013464458052155,0.0013464500877605,-0.0013464493652071,0.001346446580886,-0.0013464466421512,0.0013464493834062,-0.0013464493336543,0.0013464465164452,-0.001206998304825,0.0012070052390406,-0.0012070052513838,0.0012069982969594,8.2947012244199e-10,-1.7363968231329e-09,1.6509167648039e-09,-2.5210598170867e-09,-0.0012019124455188,0.0012019115744981,-0.0013464471553793,0.0013464489410623,-0.0013464488624382,0.0013464470083691,-0.0013464482429647,0.0013464476109238,-0.0013464493270946,0.0013464465635286,-0.001207001640266,0.0012070024318857,-0.0012070036483215,0.0012069994432206,-0.0012070027303995,0.0012070013366969,-0.0012070030804096,0.0012069999588424,5.4422355452045e-09,-5.7153204084729e-09,-0.0012019121462191,0.0012019118737784,1.4230738817462e-09,-1.7535859571233e-09,-0.0013464452340854,0.0013464506772827,-0.0013464467933924,0.0013464492360538,-0.0013464498357504,0.00134644611201,-0.0013464505198807,0.0013464453041313,-0.0012070074675548,0.0012069961265712,-0.0012069973932634,0.0012070061085044,0.74978588623867,131329,3014,0.0049956916293141,0.0049956916285849,0.0049956916285397,23.910099685395,-4.631920251684e-05,-4.631920251684e-05,-4.631920251684e-05,2338054.148365,0.01510092292437
29019200,0.99514626924775,0.015377864284839,0.0051259547622226,0.0051259547616116,0.0051259547610044,-0.0012014148375329,0.0012014152345807,5.1732391971524e-09,-4.7691699480141e-09,4.1955808020041e-10,-2.7680506085422e-11,-0.00134602337597,0.0013460282754466,-0.0013460277657424,0.0013460239394145,-0.0013460241563446,0.0013460276293792,-0.0013460273252176,0.0013460242857316,-0.0012065170985902,0.0012065256630159,-0.0012065254194392,0.0012065173490791,7.1836161998834e-10,-1.6182338978483e-09,1.602840470856e-09,-2.466973775287e-09,-0.0012014154684931,0.0012014146032253,-0.0013460249997122,0.0013460268545489,-0.0013460268491347,0.0013460247805031,-0.0013460261867972,0.0013460254278955,-0.0013460270607045,0.0013460245914514,-0.0012065215091541,0.0012065217741579,-0.0012065229117416,0.0012065194027876,-0.0012065226820724,0.0012065205958984,-0.0012065223074232,0.0012065199583741,6.4232924052967e-09,-6.6979945513347e-09,-0.0012014151726085,0.0012014148990844,1.4486125674393e-09,-1.7809501251668e-09,-0.0013460226850985,0.0013460289845134,-0.0013460244379834,0.0013460273498792,-0.001346028127364,0.0013460235810398,-0.0013460286530827,0.0013460229326482,-0.0012065277891019,0.0012065150271673,-0.0012065163084993,0.0012065264072641,0.71130445520961,131329,3014,0.0049936315736961,0.0049936315728777,0.0049936315728199,23.56785853142,-4.905713174864e-05,-4.905713174864e-05,-4.905713174864e-05,2334683.3755417,0.015094650803693
29219200,0.99530769587361,0.015380270830332,0.0051267569440536,0.0051267569434426,0.0051267569428355,-0.0012023166361055,0.0012023169969283,2.1754414589332e-09,-1.8066744335127e-09,1.1094832671066e-09,-7.5912821521294e-10,-0.0013469738529852,0.0013469770650211,-0.0013469761163758,0.0013469748549582,-0.001346974979438,0.0013469760694126,-0.0013469762769848,0.0013469745964152,-0.0012074425345946,0.0012074451092947,-0.0012074453785834,0.001207442267474,1.2875872779705e-09,-2.2234757347249e-09,1.6314952420303e-09,-2.5265260807863e-09,-0.0012023172643556,0.0012023163682474,-0.001346974501322,0.0013469766210418,-0.001346976251341,0.0013469746435434,-0.0013469759507798,0.001346974925502,-0.0013469769825974,0.0013469739326021,-0.0012074439405542,0.0012074442374374,-0.0012074457831916,0.0012074413957545,-0.0012074444009804,0.0012074437755066,-0.001207445528547,0.0012074415953676,3.4560370132651e-09,-3.7354423606235e-09,-0.0012023169556751,0.0012023166769018,1.4933732431784e-09,-1.8308693558744e-09,-0.0013469733629111,0.0013469775726953,-0.0013469750202027,0.0013469760339106,-0.001346976688602,0.001346974284568,-0.0013469773718978,0.0013469734748175,-0.0012074475232772,0.0012074401674033,-0.0012074414933897,0.0012074461092195,0.69517197464162,131329,3014,0.0049973704582859,0.0049973704573933,0.0049973704573348,23.974203627123,-4.5806370983014e-05,-4.5806370983014e-05,-4.5806370983014e-05,2337977.1583574,0.015106037066621
29419200,0.99546828360988,0.015382494493821,0.0051274981652169,0.0051274981646053,0.0051274981639987,-0.0012033705220608,0.0012033709316521,7.4671803354723e-09,-7.0500593998188e-09,1.3150183053287e-10,2.758927857236e-10,-0.0013480641683494,0.0013480706266833,-0.001348070301761,0.0013480645466534,-0.0013480649711643,0.0013480699597246,-0.0013480694464674,0.0013480653093561,-0.0012084989230622,0.0012085115723709,-0.0012085111209047,0.0012084993794401,1.64810514587e-10,-1.0300161826612e-09,1.5869751957007e-09,-2.4215138330166e-09,-0.0012033711442772,0.0012033703090186,-0.001348066645963,0.0013480683486666,-0.001348068696403,0.0013480660791373,-0.0013480676754997,0.0013480670873344,-0.0013480683074791,0.0013480664869117,-0.0012085055177875,0.0012085054907854,-0.0012085062280857,0.0012085038287595,-0.0012085074036491,0.0012085035979683,-0.001208505268161,0.0012085047420269,8.7415971162086e-09,-9.0154428311747e-09,-0.0012033708631968,0.0012033705901182,1.415536556271e-09,-1.7467673120165e-09,-0.0013480633863074,0.0013480714275193,-0.0013480653351646,0.0013480695965028,-0.0013480705919875,0.0013480642592571,-0.0013480708780924,0.0013480638533842,-0.0012085136126668,0.0012084969356083,-0.0012084981954205,0.0012085122543794,0.65090116416875,131329,3014,0.0050017399005087,0.0050017398996484,0.0050017398996803,24.456963996709,-4.1944288026324e-05,-4.1944288026324e-05,-4.1944288026324e-05,2341101.6766566,0.015119343453149
29619200,0.99562840118781,0.015384677522943,0.0051282258415913,0.0051282258409791,0.0051282258403731,-0.0012045399499611,0.0012045403402949,6.4209631092787e-09,-6.0230789246615e-09,4.217272727566e-10,-3.6423396290245e-11,-0.0013492325429437,0.0013492384366778,-0.0013492379235928,0.0013492331098259,-0.0013492335248667,0.0013492375894879,-0.0013492373024542,0.001349233636498,-0.0012096553393734,0.0012096657362307,-0.0012096655055653,0.0012096555759287,3.0962142267369e-10,-1.1820263140435e-09,1.60711181225e-09,-2.4475155728331e-09,-0.0012045405654823,0.001204539724362,-0.001349234697265,0.0013492364877445,-0.0013492367299953,0.001349234224311,-0.0013492357984572,0.0013492351422642,-0.0013492364797336,0.0013492345040863,-0.0012096608186586,0.0012096608015167,-0.0012096616129743,0.0012096589931037,-0.0012096625326373,0.0012096590812388,-0.0012096607409992,0.0012096598171686,7.7200325783628e-09,-7.9942967096642e-09,-0.0012045402816331,0.0012045400082104,1.4246923842138e-09,-1.7564241110079e-09,-0.0013492318460924,0.0013492391509864,-0.0013492337751994,0.0013492373421484,-0.0013492383100771,0.0013492327266316,-0.0013492386288626,0.0013492322845197,-0.0012096679075699,0.0012096532259897,-0.001209654488137,0.001209666538024,0.64191650217436,131329,3014,0.0050065879096643,0.0050065879088182,0.005006587908806,24.997698881041,-3.7618408951669e-05,-3.7618408951669e-05,-3.7618408951669e-05,2346378.1336049,0.015134105873639
29819200,0.9957887381387,0.015387002724504,0.0051290009087782,0.0051290009081661,0.0051290009075601,-0.0012059034248331,0.0012059037886253,3.6718936285819e-09,-3.2987733956195e-09,9.0080642257036e-10,-5.4444680681789e-10,-0.0013505895020833,0.0013505935133858,-0.0013505927039167,0.001350590365132,-0.0013505904202284,0.0013505927275921,-0.0013505927905969,0.0013505901814701,-0.0012110107052048,0.0012110165109756,-0.0012110166317753,0.0012110105828511,6.4357301374639e-10,-1.5312809684727e-09,1.6427325526826e-09,-2.495645798945e-09,-0.0012059040332148,0.0012059031798528,-0.0013505907898444,0.0013505924321378,-0.0013505924630961,0.0013505905256599,-0.0013505917250117,0.0013505912481156,-0.0013505928206111,0.001350590197366,-0.0012110133940237,0.0012110143620932,-0.0012110154041134,0.0012110113329014,-0.0012110147194176,0.001211013033849,-0.0012110147270884,0.0012110119583844,4.9988208129261e-09,-5.2726683623655e-09,-0.00120590374358,0.0012059034694827,1.4431674321668e-09,-1.7746379970274e-09,-0.0013505889424867,0.0013505940898367,-0.0013505904979046,0.0013505926549778,-0.0013505932376882,0.0013505898337775,-0.0013505939531404,0.0013505889926702,-0.0012110188773742,0.0012110083858618,-0.0012110096716172,0.0012110174995609,0.67837952420184,131329,3014,0.0050122403488298,0.0050122403480273,0.0050122403480063,25.634510175573,-3.2523918595418e-05,-3.2523918595418e-05,-3.2523918595418e-05,2351717.3132611,0.015151318327663
30019200,0.99594574800331,0.015389317320179,0.0051297724406697,0.0051297724400578,0.0051297724394516,-0.0012065898274885,0.0012065902102508,6.4806480810026e-09,-6.0901081787285e-09,5.3775124800968e-10,-1.6080693092923e-10,-0.0013513015589399,0.0013513077706268,-0.0013513071875363,0.0013513021959521,-0.0013513028119717,0.0013513066517785,-0.0013513064497557,0.0013513028384006,-0.0012116973243577,0.0012117071974294,-0.0012117070525736,0.0012116974751912,3.0495016304268e-10,-1.1727711761272e-09,1.6222537185442e-09,-2.4583819928147e-09,-0.0012065904370665,0.0012065896002507,-0.0013513037725633,0.0013513057622831,-0.0013513060073802,0.0013513032965385,-0.0013513050603918,0.0013513042299774,-0.0013513055563277,0.0013513037772438,-0.0012117028114545,0.0012117022565848,-0.0012117030552104,0.0012117009952141,-0.00121170455352,0.0012117005083349,-0.0012117021698786,0.0012117018321954,7.8138844122537e-09,-8.0881341337012e-09,-0.0012065901553314,0.0012065898819765,1.4276427481411e-09,-1.7593664113873e-09,-0.0013513008859101,0.0013513084608995,-0.0013513030105882,0.0013513064566096,-0.0013513076181403,0.0013513017683858,-0.0013513077446444,0.0013513015181526,-0.0012117094422233,0.0012116951368696,-0.0012116964017183,0.0012117080711909,0.68873329014913,131329,3014,0.0050150861138188,0.0050150861129526,0.0050150861129214,25.914297717183,-3.0285618262538e-05,-3.0285618262538e-05,-3.0285618262538e-05,2353533.7954892,0.015159984889356
30219200,0.99609759313193,0.015391451933631,0.005130483978487,0.0051304839778754,0.0051304839772691,-0.0012068797027564,0.0012068800821753,5.3636536868263e-09,-4.9764209945193e-09,6.4064469780306e-10,-2.678763211505e-10,-0.0013516240289178,0.001351629370715,-0.0013516287218175,0.001351624731894,-0.0013516251550543,0.0013516283781818,-0.0013516282488272,0.0013516251088992,-0.0012119898888849,0.0012119980587009,-0.0012119979869067,0.0012119899673102,5.2126250838176e-10,-1.4041214884862e-09,1.6091302245797e-09,-2.45832984521e-09,-0.0012068803172813,0.0012068794671873,-0.0013516258405933,0.0013516277651539,-0.001351627874635,0.0013516254992476,-0.0013516270799127,0.0013516262792584,-0.0013516277678401,0.0013516256356768,-0.0012119943240345,0.001211994169836,-0.0012119951300223,0.0012119923461473,-0.0012119957627929,0.0012119927261687,-0.0012119943952603,0.0012119930305127,6.7127430827772e-09,-6.9890677777769e-09,-0.0012068800298705,0.0012068797546062,1.4520375128978e-09,-1.7860243610935e-09,-0.0013516233761403,0.0013516300407851,-0.0013516253219275,0.0013516282153645,-0.001351629182821,0.0013516242739194,-0.0013516295216799,0.0013516238103661,-0.0012120003636631,0.001211987639826,-0.001211988925295,0.0012119989749359,0.66008544195099,131329,3014,0.0050162879697299,0.0050162879687788,0.0050162879687836,25.990786460647,-2.9673708314825e-05,-2.9673708314825e-05,-2.9673708314825e-05,2354066.5382456,0.01516364531385
30419200,0.99624204263246,0.015393363407738,0.0051311211365224,0.0051311211359112,0.0051311211353048,-0.001206632706993,0.001206633096747,5.2753293968375e-09,-4.8778428234265e-09,5.0514865140839e-10,-1.2078577890089e-10,-0.0013513726431918,0.0013513778050651,-0.0013513772397442,0.0013513732625283,-0.0013513736413765,0.0013513769411874,-0.0013513767077888,0.0013513736990406,-0.0012117189941711,0.0012117271954745,-0.0012117270195445,0.0012117191764334,5.9725421245836e-10,-1.4837269994895e-09,1.5802770949086e-09,-2.432264277633e-09,-0.0012066333281023,0.0012066324752176,-0.0013513743666854,0.0013513762878927,-0.0013513763481759,0.0013513740750144,-0.0013513756235817,0.001351374784459,-0.0013513763276297,0.0013513741244414,-0.0012117234481997,0.0012117232873719,-0.0012117243029385,0.0012117214154595,-0.0012117247492418,0.0012117219816514,-0.001211723635838,0.001211722032259,6.6335141332849e-09,-6.9117215481805e-09,-0.0012066330402798,0.001206632762995,1.4841547127099e-09,-1.8203937319858e-09,-0.0013513719336081,0.0013513785321609,-0.0013513738669965,0.0013513767190408,-0.0013513776540779,0.0013513728515411,-0.0013513780496899,0.0013513723312931,-0.0012117294755255,0.0012117167705143,-0.0012117180793609,0.0012117280622029,0.62526766436005,131329,3014,0.0050152638414798,0.0050152638406187,0.0050152638405124,25.786959517772,-3.1304323857826e-05,-3.1304323857826e-05,-3.1304323857826e-05,2354675.5061479,0.015160525094296
30619200,0.99637848347755,0.01539529283208,0.0051317642779694,0.0051317642773588,0.0051317642767519,-0.0012061472814319,0.0012061476611477,3.9441585149589e-09,-3.562523815637e-09,6.9802965508495e-10,-3.3134932821135e-10,-0.0013508396044148,0.0013508438187176,-0.0013508431284319,0.0013508403495026,-0.0013508405274085,0.0013508430291214,-0.0013508429334171,0.0013508404477735,-0.0012111941349243,0.001211200206939,-0.001211200166702,0.0012111941963065,1.022723080436e-09,-1.9398598909171e-09,1.5342586000517e-09,-2.4132553782578e-09,-0.0012061479110598,0.0012061470310644,-0.0013508408359164,0.0013508427929709,-0.0013508425883689,0.0013508408081517,-0.0013508421773528,0.0013508412052335,-0.0013508430663712,0.0013508403626148,-0.0012111974133078,0.0012111974732895,-0.0012111988270891,0.0012111950708536,-0.0012111980823446,0.0012111967940125,-0.0012111984797245,0.0012111953753431,5.3230784458427e-09,-5.6060816690532e-09,-0.0012061476103639,0.0012061473316936,1.5154274442318e-09,-1.8569229935419e-09,-0.0013508389406873,0.0013508444984866,-0.0013508406895472,0.0013508428694154,-0.001350843600194,0.0013508398824371,-0.0013508442232724,0.0013508391335905,-0.0012112025841213,0.0012111918339145,-0.0012111931468632,0.0012112011420556,0.66318500888615,131329,3014,0.0050132509213232,0.0050132509203893,0.0050132509202383,25.454006578344,-3.396794737325e-05,-3.396794737325e-05,-3.396794737325e-05,2355631.8478328,0.015154391990067
30819200,0.99651491847594,0.01539731680068,0.0051324389341693,0.005132438933559,0.0051324389329521,-0.001207479005912,0.0012074793384487,7.7660297181229e-09,-7.4238907689389e-09,3.3036604295592e-10,-6.3508295159294e-14,-0.0013521860461771,0.0013521932379197,-0.0013521928260245,0.0013521865116506,-0.0013521874736372,0.0013521919458584,-0.0013521916748714,0.0013521875682442,-0.0012125380271148,0.0012125496546015,-0.0012125494391255,0.0012125382400587,7.0043817717204e-11,-9.2188372571366e-10,1.7811273846114e-09,-2.603319549961e-09,-0.0012074795826669,0.0012074787601292,-0.001352188624837,0.0013521908647296,-0.001352191253447,0.0013521880028012,-0.0013521900471319,0.0013521891973635,-0.0013521903502326,0.0013521889369605,-0.0012125445964053,0.0012125436386264,-0.0012125442450806,0.0012125429426138,-0.0012125468606986,0.0012125413695132,-0.0012125431015581,0.0012125440379602,9.2199393659459e-09,-9.4228581507987e-09,-0.0012074792734142,0.0012074790704791,1.3063103982905e-09,-1.5653324991078e-09,-0.0013521852847034,0.0013521940163134,-0.0013521875988365,0.0013521918239374,-0.0013521932090935,0.0013521861320216,-0.0013521929368035,0.0013521862806184,-0.0012125518361023,0.0012125358959174,-0.0012125369914103,0.0012125506402069,0.69236589993782,131329,3014,0.0050187719690772,0.0050187719658421,0.0050187719681054,26.086918053995,-2.8904655568041e-05,-2.8904655568041e-05,-2.8904655568041e-05,2359494.5391678,0.015171206240793
31019200,0.99665572377636,0.015399471328669,0.0051331571101676,0.0051331571095516,0.0051331571089501,-0.001209924101149,0.0012099244008846,3.5791106476853e-10,-5.0249079630992e-11,1.7825307695556e-09,-1.5000482476734e-09,-0.001354694277687,0.0013546960110833,-0.0013546946521905,0.001354695691158,-0.0013546951694589,0.0013546952477429,-0.0013546959853294,0.0013546942558239,-0.0012150379222858,0.001215038496553,-0.0012150392953604,0.0012150371284121,8.2019319676585e-10,-1.7041928873014e-09,2.0363641134962e-09,-2.8843997331116e-09,-0.0012099246749302,0.0012099238266306,-0.0013546945538989,0.0013546959416375,-0.0013546958484182,0.0013546944100097,-0.0013546949681104,0.0013546952760738,-0.001354696960663,0.0013546933288797,-0.0012150367374332,0.0012150402259304,-0.0012150413878547,0.0012150345617914,-0.0012150383397678,0.0012150386161518,-0.0012150405720109,0.0012150353269929,1.8274460517775e-09,-2.0642408627998e-09,-0.0012099243686785,0.0012099241329561,1.0843129672773e-09,-1.3750863977603e-09,-0.0013546940693813,0.0013546962347215,-0.0013546947348685,0.0013546956901151,-0.001354695598023,0.0013546947459225,-0.0013546966954834,0.0013546935200581,-0.0012150411444477,0.0012150353251781,-0.0012150363168659,0.0012150400614004,0.71216092394792,131329,3014,0.0050289090567297,0.0050289090557597,0.0050289090558998,27.296379484578,-1.9228964123374e-05,-1.9228964123374e-05,-1.9228964123374e-05,2361498.7015787,0.015202081441108
31219200,0.99680131252109,0.015401813808883,0.0051339379369057,0.0051339379362889,0.0051339379356883,-0.0012125655303714,0.0012125658729079,9.6787899096709e-09,-9.3283768117858e-09,7.6813171657391e-10,-4.3397820602841e-10,-0.0013574166555553,0.0013574258528945,-0.0013574251433937,0.0013574174198943,-0.0013574187748173,0.001357423867715,-0.0013574238716942,0.0013574185948493,-0.0012177351674897,0.0012177490832345,-0.0012177491438194,0.0012177351124218,-7.3218584985878e-10,-4.77536623606e-11,2.2585739361552e-09,-3.0168665254963e-09,-0.0012125660804593,0.0012125653223168,-0.0013574201346636,0.0013574225782491,-0.0013574234643577,0.0013574190136251,-0.0013574214034142,0.0013574210692154,-0.0013574215959791,0.0013574209183187,-0.0012177427083841,0.0012177420870868,-0.0012177420888386,0.0012177416942902,-0.0012177466505402,0.0012177381300313,-0.001217740119158,0.00121774362401,1.1151808370615e-08,-1.1369574026318e-08,-0.0012125658097312,0.0012125655931552,8.5465120125716e-10,-1.1241429995854e-09,-0.0013574161884866,0.00135742633577,-0.0013574186103363,0.0013574240360615,-0.0013574258410601,0.0013574167240566,-0.001357424865191,0.0013574175778491,-0.0012177512916303,0.0012177330190291,-0.0012177338216391,0.0012177503788576,0.74546454005379,131329,3014,0.0050398602878003,0.0050398602867692,0.0050398602869832,28.60236762192,-8.7810590246365e-06,-8.7810590246365e-06,-8.7810590246365e-06,2362733.1145146,0.015235438186843
31419200,0.99694554335295,0.015404020213832,0.0051346734052224,0.0051346734046042,0.0051346734040049,-0.0012138895262992,0.0012138897977288,-8.8714521385209e-10,1.1668413171517e-09,2.0970574111591e-09,-1.8458387700103e-09,-0.0013588543659821,0.0013588553549379,-0.0013588537970967,0.0013588559787958,-0.0013588554157329,0.0013588544322325,-0.0013588554249809,0.0013588542469843,-0.0012191250864992,0.0012191231502086,-0.0012191242002595,0.0012191240435501,5.0560760144988e-10,-1.3612805312701e-09,2.3951585275961e-09,-3.2179418403424e-09,-0.0012138900732778,0.0012138892502271,-0.0013588542834708,0.0013588556461452,-0.0013588557370289,0.001358853949554,-0.0013588544159038,0.0013588552590005,-0.0013588567089974,0.0013588530144635,-0.0012191221446967,0.0012191266755482,-0.0012191275584487,0.0012191201730059,-0.0012191246320386,0.0012191241781757,-0.001219126302048,0.0012191213799867,6.4058496721603e-10,-8.5083736132618e-10,-0.0012138897660843,0.0012138895574734,7.6798969711839e-10,-1.029055399858e-09,-0.0013588543435648,0.0013588553922216,-0.0013588547199754,0.0013588551371557,-0.0013588549492473,0.0013588548264139,-0.0013588558941197,0.0013588537526883,-0.0012191258322518,0.0012191224602208,-0.0012191232002402,0.0012191249923847,0.71243067642044,131329,3014,0.0050453496638701,0.0050453496627974,0.0050453496628924,29.221731216007,-3.8261502719435e-06,-3.8261502719435e-06,-3.8261502719435e-06,2361121.6532296,0.01525216114573
31619200,0.99708165861603,0.015405999873503,0.0051353332917798,0.0051353332911603,0.0051353332905625,-0.0012136268536147,0.0012136271500999,3.7909827139039e-09,-3.4866311657524e-09,1.3483965163532e-09,-1.0653318834893e-09,-0.001358644160053,0.0013586486662965,-0.0013586476024733,0.0013586452790032,-0.0013586455258175,0.00135864743122,-0.0013586478819967,0.0013586448993011,-0.001218872531727,0.0012188780002206,-0.0012188785155756,0.0012188720244103,1.4801415898458e-10,-9.9684153253206e-10,2.4957880119974e-09,-3.3152173754785e-09,-0.0012136274115741,0.0012136265917679,-0.0013586455063537,0.0013586475203444,-0.0013586478667599,0.0013586449354197,-0.0013586462321757,0.001358646560774,-0.0013586477487971,0.0013586450734152,-0.0012188742168157,0.0012188768320047,-0.0012188775372113,0.0012188725561816,-0.0012188773137574,0.0012188737233267,-0.0012188759781171,0.0012188740698876,5.3212425130468e-09,-5.5329207495396e-09,-0.0012136271065149,0.0012136268968031,6.3472576741644e-10,-8.95599876715e-10,-0.001358643931781,0.0013586489112332,-0.0013586450502332,0.0013586479124384,-0.0013586485584101,0.0013586443233033,-0.0013586485842587,0.0013586441736545,-0.0012188803837791,0.0012188701990813,-0.001218870855729,0.0012188796354461,0.68058195197227,131329,3014,0.0050442610148143,0.005044261014051,0.0050442610139894,29.011651870103,-5.5067850391732e-06,-5.5067850391732e-06,-5.5067850391732e-06,2358583.799099,0.01524884672308
31819200,0.99720893694526,0.015407783576384,0.0051359278594064,0.0051359278587878,0.0051359278581896,-0.0012130323980298,0.0012130327102973,2.741418358198e-09,-2.421409890237e-09,1.1918095817413e-09,-8.9143995541539e-10,-0.0013580556430878,0.0013580591466102,-0.0013580581763875,0.0013580566685335,-0.0013580566992056,0.0013580582219999,-0.0013580585474437,0.0013580561978582,-0.0012182693659709,0.0012182733991273,-0.0012182737859776,0.0012182689857153,5.0914727034972e-10,-1.3764196393689e-09,2.5498789140226e-09,-3.3840075217502e-09,-0.0012130329712777,0.001213032136579,-0.0013580564539434,0.0013580585409698,-0.0013580586508443,0.001358056112044,-0.0013580572218837,0.0013580575304536,-0.0013580589834769,0.0013580558049719,-0.0012182701313697,0.0012182731767686,-0.0012182741140985,0.0012182681844918,-0.0012182728204684,0.001218270477097,-0.0012182727606067,0.0012182694909656,4.2850652543743e-09,-4.4855969486805e-09,-0.0012130326533298,0.0012130324545575,5.8896123457974e-10,-8.3843994202942e-10,-0.0013580553746285,0.0013580594319675,-0.0013580562582378,0.0013580586683958,-0.0013580591029106,0.0013580557429931,-0.0013580592942239,0.001358055426246,-0.0012182757123728,0.0012182671060831,-0.0012182677143116,0.0012182750074469,0.65806101886616,131329,3014,0.0050417965865693,0.0050417965856011,0.0050417965856545,28.629823366884,-8.5614130649316e-06,-8.5614130649316e-06,-8.5614130649316e-06,2356116.695581,0.015241340210434
32019200,0.99733018811053,0.01540965549788,0.0051365518332377,0.0051365518326217,0.0051365518320209,-0.0012130268638569,0.0012130272011319,5.6380585273586e-09,-5.2930366928917e-09,7.7288548958471e-10,-4.4354483965667e-10,-0.0013580346207789,0.0013580403690358,-0.001358039661479,0.0013580353836273,-0.0013580359916736,0.0013580391317987,-0.0013580391455045,0.0013580358020758,-0.0012182529885754,0.0012182612291279,-0.0012182613030819,0.0012182529199384,4.5747225121414e-10,-1.3196946382384e-09,2.5642397447686e-09,-3.3935658022542e-09,-0.0012130274472215,0.0012130266173175,-0.0013580362641351,0.0013580389303211,-0.001358039071342,0.0013580358939204,-0.0013580375999859,0.0013580373553145,-0.0013580387671262,0.0013580362211527,-0.0012182567142701,0.0012182580497111,-0.0012182589420537,0.0012182548033863,-0.0012182594914703,0.0012182552621694,-0.0012182575449742,0.0012182561545583,7.1862207747705e-09,-7.3839038990397e-09,-0.001213027130327,0.001213026934238,5.5222208149447e-10,-7.9843504397512e-10,-0.00135803422763,0.0013580407797106,-0.0013580356866237,0.0013580394408052,-0.0013580404737984,0.0013580345730761,-0.0013580400392904,0.0013580348833513,-0.0012182633879449,0.0012182508838346,-0.0012182514626704,0.001218262709365,0.71766731134542,131329,3014,0.0050417735664507,0.005041773565525,0.0050417735655691,28.559398644123,-9.1248108470123e-06,-9.1248108470123e-06,-9.1248108470123e-06,2356888.0895553,0.015241268806744
32219200,0.99744706977272,0.015411502971437,0.0051371676577565,0.0051371676571405,0.0051371676565398,-0.0012133988004178,0.0012133991623293,9.497287118633e-09,-9.1278693667977e-09,3.7294289532113e-10,-1.5458857977794e-11,-0.0013584590988909,0.001358467973492,-0.0013584675189125,0.0013584596087241,-0.0013584609836817,0.0013584662243587,-0.0013584659363825,0.0013584610957357,-0.0012186523226127,0.0012186660776222,-0.0012186658485121,0.0012186525565878,2.9697522141472e-10,-1.1461103597513e-09,2.5522943120693e-09,-3.369815240386e-09,-0.0012133993901941,0.0012133985721246,-0.0013584619663551,0.0013584653098397,-0.0013584655529127,0.001358461496359,-0.0013584639812687,0.001358463059205,-0.0013584643451136,0.0013584627261841,-0.0012186599085306,0.0012186590330131,-0.0012186598046082,0.0012186581268817,-0.0012186628813421,0.0012186560482078,-0.001218658313428,0.0012186595743523,1.1048926616464e-08,-1.1246412989274e-08,-0.0012133990791081,0.0012133988832367,5.4187104612326e-10,-7.8789055416087e-10,-0.0013584585777323,0.0013584685126259,-0.0013584608197744,0.0013584663905008,-0.0013584682137398,0.0013584589163664,-0.0013584669826843,0.0013584600247555,-0.0012186680976777,0.00121865035922,-0.0012186509274802,0.0012186674240403,0.7334116477215,131329,3014,0.0050433159085009,0.0050433159076199,0.0050433159076641,28.694040908548,-8.0476727316133e-06,-8.0476727316133e-06,-8.0476727316133e-06,2355924.8205936,0.015245967975538
32419200,0.99756061307333,0.015413345215611,0.0051377817391484,0.0051377817385312,0.0051377817379318,-0.0012140334359375,0.0012140338024144,3.578787111275e-09,-3.2050321757024e-09,7.2865417211521e-10,-3.701320187209e-10,-0.0013591690437401,0.0013591729619211,-0.0013591722633976,0.0013591697974447,-0.0013591699473235,0.0013591721916679,-0.0013591721376611,0.0013591698253761,-0.0012193324817003,0.0012193378992255,-0.0012193379038959,0.0012193324839113,7.619808225578e-10,-1.6604888333787e-09,2.5190427303947e-09,-3.3818463905011e-09,-0.0012140340502561,0.0012140331868768,-0.0013591699059239,0.0013591723064278,-0.0013591722633677,0.0013591697162098,-0.0013591710259929,0.0013591709423611,-0.0013591726048826,0.001359169399801,-0.0012193343470657,0.001219336600924,-0.0012193377194703,0.0012193321675807,-0.0012193366615398,0.0012193342768738,-0.0012193365530905,0.0012193332869341,5.1435117374235e-09,-5.3415065898167e-09,-0.0012140337170773,0.0012140335208851,5.9956312464045e-10,-8.4639465145968e-10,-0.0013591686198869,0.0013591734034647,-0.0013591696816239,0.0013591724612645,-0.0013591730658408,0.0013591689971755,-0.0013591730912965,0.0013591688463223,-0.001219340070117,0.0012193303669958,-0.0012193309758193,0.0012193393586221,0.75109666869636,131329,3014,0.005045947390767,0.0050459473882138,0.0050459473899562,28.971619950425,-5.8270403966028e-06,-5.8270403966028e-06,-5.8270403966028e-06,2355630.8108031,0.015253985093745
32619200,0.99767379393948,0.015415034340206,0.0051383447806811,0.0051383447800605,0.0051383447794645,-0.0012155573646014,0.0012155577250462,1.9535595806252e-09,-1.5858432421069e-09,8.5426988205326e-10,-5.0287795889413e-10,-0.0013607877672197,0.0013607904408961,-0.0013607896626805,0.0013607886005266,-0.0013607885107257,0.0013607898303573,-0.0013607898678895,0.0013607882973473,-0.001220918151287,0.0012209211160282,-0.0012209212142976,0.0012209180586427,8.1503506449807e-10,-1.7173509856614e-09,2.4792827571343e-09,-3.3451354057377e-09,-0.0012155579775388,0.0012155571115564,-0.0013607881242222,0.0013607902878635,-0.0013607902137918,0.001360787970945,-0.0013607890374465,0.0013607891352167,-0.0013607908339378,0.0013607873705268,-0.0012209184660087,0.0012209213503246,-0.0012209225286723,0.0012209162633606,-0.0012209206597839,0.0012209191473347,-0.0012209214193353,0.0012209173252082,3.5348018399361e-09,-3.7370625118349e-09,-0.0012155576449848,0.0012155574442585,6.5024360526891e-10,-9.0205922506281e-10,-0.0013607873625135,0.0013607908634216,-0.0013607882141725,0.0013607901309803,-0.0013607904944568,0.0013607877705481,-0.0013607908010099,0.0013607873387749,-0.0012209233683456,0.0012209159530994,-0.0012209166034314,0.0012209226186299,0.69654115353075,131329,3014,0.0050522656691943,0.0050522656680268,0.0050522656683528,29.721014451455,1.6811561163629e-07,1.6811561163629e-07,1.6811561163629e-07,2354912.887436,0.015273232602518
32819200,0.99777665568984,0.015416442355139,0.0051388141189923,0.0051388141183706,0.0051388141177757,-0.0012140527670975,0.001214053133996,3.7868627812356e-09,-3.4126627808475e-09,5.2334838924242e-10,-1.6201260697901e-10,-0.0013592906294066,0.0013592946407152,-0.0013592940821279,0.0013592912428156,-0.0013592914579688,0.0013592939463788,-0.0013592937526562,0.0013592914757976,-0.0012193875287026,0.0012193934275661,-0.0012193932952359,0.0012193876676104,9.5024097258899e-10,-1.8735321039575e-09,2.2924813336076e-09,-3.1782532439087e-09,-0.0012140533935868,0.0012140525069518,-0.0013592915219375,0.0013592939521016,-0.0013592938051416,0.0013592914443926,-0.001359292840723,0.0013592923948775,-0.0013592942088949,0.0013592910571873,-0.0012193899777706,0.0012193915126445,-0.00121939282179,0.001219387673963,-0.0012193917503466,0.0012193897343103,-0.0012193919214018,0.001219388526014,5.3760551298531e-09,-5.5878674371913e-09,-0.0012140530557872,0.001214052845667,8.0157478338177e-10,-1.0644482375135e-09,-0.0013592900621329,0.0013592952266541,-0.0013592913286563,0.0013592940800001,-0.0013592947623941,0.0013592905660508,-0.00135929486394,0.0013592903398899,-0.0012193956379238,0.0012193853737946,-0.0012193861387994,0.0012193947737155,0.64446385070439,131329,3014,0.0050460280488952,0.0050460280477418,0.0050460280496424,28.866656698685,-6.6667464105199e-06,-6.6667464105199e-06,-6.6667464105199e-06,2349085.9514076,0.015254233665343
33019200,0.99787327321362,0.015417882842687,0.0051392942815075,0.0051392942808858,0.0051392942802935,-0.0012135714857735,0.0012135718623415,3.3455956958774e-09,-2.9607285454811e-09,5.3223808555065e-10,-1.6033168968282e-10,-0.001358761044635,0.0013587646791298,-0.0013587641095485,0.0013587616688125,-0.001358761778052,0.0013587640801146,-0.0013587638783743,0.0013587618038826,-0.0012188788867367,0.0012188841785507,-0.0012188840379233,0.001218879028049,1.0718661837672e-09,-1.993684847381e-09,2.1490658838769e-09,-3.0319200342748e-09,-0.0012135721156255,0.0012135712319566,-0.0013587618054824,0.0013587641256277,-0.0013587638924686,0.0013587618076686,-0.0013587631033957,0.001358762581837,-0.0013587644756187,0.0013587612474921,-0.0012188810731737,0.0012188825292979,-0.0012188839054726,0.0012188786860148,-0.001218882499534,0.001218881099049,-0.0012188831770117,0.0012188793637442,4.9417250983374e-09,-5.1605090408147e-09,-0.0012135717828798,0.0012135715648944,9.4390655374388e-10,-1.215140857075e-09,-0.0013587604323643,0.0013587653095008,-0.0013587617001599,0.001358764161764,-0.001358764755467,0.0013587610260681,-0.0013587650509556,0.0013587606048256,-0.0012188864517087,0.0012188766614707,-0.0012188775375685,0.0012188854833341,0.69524391118947,131329,3014,0.0050440324795145,0.0050440324784071,0.0050440324788053,28.558608469616,-9.1311322430723e-06,-9.1311322430723e-06,-9.1311322430723e-06,2349093.3964127,0.015248153062394
33219200,0.9979665803418,0.01541934907095,0.0051397830242621,0.0051397830236402,0.0051397830230481,-0.001213980081989,0.0012139804565726,3.5248266914935e-09,-3.1426236209467e-09,5.6735190690634e-10,-1.9855774572658e-10,-0.0013591910378896,0.0013591948185999,-0.0013591942249754,0.0013591916861205,-0.0013591918098806,0.0013591941810215,-0.001359194006702,0.001359191808094,-0.0012193024500148,0.0012193080328965,-0.0012193079197566,0.0012193025674155,9.3834858165859e-10,-1.8507718387532e-09,2.0343649367668e-09,-2.9090669711369e-09,-0.0012139807067924,0.0012139798312562,-0.0013591919459672,0.001359194117277,-0.0013591939670378,0.001359191865743,-0.0013591931662605,0.0013591926516338,-0.0013591944470066,0.0013591914092938,-0.0012193048723416,0.0012193061503609,-0.0012193074303556,0.0012193025843546,-0.0012193063219841,0.0012193046949865,-0.0012193066884483,0.0012193032761959,5.1349356275943e-09,-5.3604050239531e-09,-0.0012139803812951,0.0012139801569308,1.0633829478221e-09,-1.3425223952447e-09,-0.0013591903941842,0.0013591954803517,-0.0013591917571879,0.0013591942373917,-0.0013591948499836,0.0013591910639697,-0.0013591952153342,0.0013591905732942,-0.0012193103800665,0.0012193001551565,-0.0012193011154158,0.0012193093226836,0.72923013729145,131329,3014,0.0050457265253123,0.0050457265242463,0.0050457265246135,28.726228588237,-7.7901712941048e-06,-7.7901712941048e-06,-7.7901712941048e-06,2349947.133939,0.015253313029082
33419200,0.99805809912388,0.015420816297889,0.0051402720999085,0.0051402720992864,0.0051402720986945,-0.0012149135327026,0.0012149139026242,3.7707507757992e-09,-3.3935801556322e-09,6.6325842367514e-10,-3.0053986753688e-10,-0.0013601914749017,0.0013601955286329,-0.0013601948728976,0.0013601921850744,-0.0013601923603529,0.0013601947771721,-0.0013601946728685,0.0013601922885953,-0.0012202748425815,0.0012202807046323,-0.0012202806610887,0.0012202748908103,7.2469650457042e-10,-1.6225257775873e-09,1.9410958499199e-09,-2.8032748837962e-09,-0.0012149141487966,0.0012149132860443,-0.0013601925952415,0.0013601946137532,-0.0013601945978714,0.001360192380937,-0.0013601937169592,0.0013601932481937,-0.0013601948841733,0.0013601921201316,-0.0012202774942753,0.0012202785928668,-0.0012202797135773,0.0012202753662593,-0.0012202791027364,0.0012202769774255,-0.0012202788936611,0.0012202761384426,5.3967802113632e-09,-5.627371519957e-09,-0.0012149138322569,0.001214913602758,1.1662713172706e-09,-1.4515800579021e-09,-0.001360190823694,0.0013601961972011,-0.0013601923050644,0.0013601948358984,-0.0013601955013575,0.0013601915594357,-0.0013601958900313,0.0013601910460181,-0.0012202831409748,0.001220272460989,-0.0012202734945932,0.0012202820064077,0.74278857279431,131329,3014,0.0050495967227679,0.0050495967217576,0.0050495967221183,29.176347453935,-4.1892203685237e-06,-4.1892203685237e-06,-4.1892203685237e-06,2351546.5060725,0.015265102878003
33619200,0.99814676828054,0.01542223793401,0.0051407459786154,0.0051407459779932,0.0051407459774014,-0.0012154748216704,0.0012154751555011,5.7414368123406e-09,-5.3867214662392e-09,1.1444579922998e-09,-7.665219535746e-10,-0.0013608269432284,0.0013608329193115,-0.0013608319479356,0.0013608279683335,-0.001360828528553,0.0013608314807337,-0.0013608317191783,0.001360828101189,-0.0012208728952118,0.0012208810124936,-0.0012208812756146,0.0012208725893816,9.9886652871951e-10,-1.8546022051205e-09,1.7765131415909e-09,-2.6010810858177e-09,-0.0012154754386995,0.0012154745443576,-0.0013608288245693,0.0013608312570909,-0.0013608310537289,0.0013608287769845,-0.0013608304886128,0.0013608293463765,-0.0013608311802743,0.0013608287023036,-0.001220877427951,0.0012208769276776,-0.001220878310137,0.0012208751853398,-0.0012208784240472,0.0012208758975182,-0.0012208777977405,0.0012208756615491,7.3929762545914e-09,-7.605373125601e-09,-0.0012154750939994,0.0012154748738207,1.202686850654e-09,-1.4700983677687e-09,-0.0013608264302793,0.0013608334443607,-0.0013608282997028,0.0013608316946055,-0.0013608327254814,0.0013608271958231,-0.0013608327799644,0.0013608270255172,-0.0012208836008477,0.0012208703209115,-0.0012208713636986,0.0012208824852478,0.7430322633133,131329,3014,0.0050519240176971,0.0050519240307275,0.005051923997872,29.431149985951,-2.15080011239e-06,-2.15080011239e-06,-2.15080011239e-06,2351443.749895,0.015272193729191
33819200,0.99823304424728,0.015423625512576,0.0051412085047773,0.0051412085043154,0.0051412085034834,-0.0012162004452358,0.0012162008291045,1.2041096306303e-09,-8.0886838103795e-10,3.3104151679125e-10,5.6342910174534e-11,-0.0013616263503286,0.0013616280485216,-0.0013616276084157,0.0013616268439983,-0.0013616266170762,0.0013616279200346,-0.0013616275666381,0.0013616267918244,-0.001221641973229,0.0012216441165025,-0.0012216438202587,0.0012216422676659,-1.9642668905017e-11,-8.1122689162678e-10,1.8864976820614e-09,-2.6908383888811e-09,-0.0012162010472755,0.0012162002291312,-0.001361626751922,0.0013616278533181,-0.0013616283086328,0.0013616260629927,-0.0013616269656144,0.0013616273985905,-0.0013616284673979,0.0013616259374297,-0.0012216420110094,0.0012216446273275,-0.0012216451684613,0.0012216404421623,-0.0012216445267262,0.0012216420986781,-0.0012216439037117,0.0012216416644638,2.8350639531541e-09,-3.0992273651432e-09,-0.0012162007670535,0.0012162005059288,1.4644315685032e-09,-1.7862130252711e-09,-0.0013616254911244,0.0013616289244798,-0.0013616267968827,0.0013616277389846,-0.0013616280506434,0.0013616264052635,-0.0013616290436508,0.0013616252926913,-0.001221646573641,0.0012216395606088,-0.0012216408397511,0.0012216452000361,0.74517939351047,131329,3014,0.0050549327437158,0.0050549327481697,0.0050549327408137,29.774880113747,5.9904090997503e-07,5.9904090997503e-07,5.9904090997503e-07,2351133.5028318,0.015281360071145
34019200,0.99831730719148,0.015424938642729,0.0051416462148254,0.0051416462143796,0.0051416462135243,-0.0012170849560075,0.001217085265743,8.2687646559157e-09,-7.9498450963952e-09,1.6732640296384e-09,-1.3749006264355e-09,-0.0013625786999634,0.0013625871159552,-0.0013625858162698,0.0013625800537291,-0.0013625809607682,0.0013625849850977,-0.0013625856405881,0.0013625801285586,-0.001222562856447,0.0012225748489491,-0.001222575558494,0.0012225621450899,1.1452853189468e-09,-2.0522192026746e-09,1.4918870582131e-09,-2.360075772998e-09,-0.0012170855498376,0.0012170846745107,-0.0013625816722724,0.0013625843465836,-0.0013625840534113,0.0013625817383672,-0.0013625837605049,0.0013625820148211,-0.0013625839538637,0.0013625818600554,-0.0012225701200235,0.0012225680878521,-0.0012225695437967,0.0012225677288346,-0.0012225705760468,0.0012225676245153,-0.0012225692889515,0.0012225679304086,9.9581702733808e-09,-1.021399070883e-08,-0.0012170852371096,0.0012170849823322,1.2610922154691e-09,-1.5727418899619e-09,-0.0013625783316972,0.0013625875000946,-0.001362580559777,0.0013625853914379,-0.0013625867592884,0.0013625791116662,-0.0013625865428323,0.0013625792013696,-0.0012225777527753,0.0012225599996435,-0.0012225611309758,0.0012225765258112,0.72426717580464,131329,3014,0.005058599868569,0.0050585998740456,0.0050585998637326,30.203603321964,4.0288265757134e-06,4.0288265757134e-06,4.0288265757134e-06,2350475.0018721,0.015292531901351
34219200,0.9983981252529,0.015426162887152,0.0051420542962989,0.0051420542958582,0.0051420542949949,-0.0012173925412216,0.0012173929111952,1.4536481135185e-09,-1.0748784207903e-09,5.5821285668628e-10,-1.9020466243695e-10,-0.0013629351853341,0.0013629373258563,-0.0013629367429578,0.0013629358219687,-0.0013629357369365,0.0013629369103683,-0.0013629367304482,0.0013629357392063,-0.0012228934639925,0.0012228955062503,-0.0012228953863932,0.0012228935855216,2.9257808033547e-11,-8.675815821657e-10,1.7115392089153e-09,-2.5213270283467e-09,-0.0012173931353557,0.0012173923197194,-0.0013629357838349,0.0013629369326521,-0.0013629373552142,0.0013629351292946,-0.0013629361604187,0.0013629363144227,-0.0013629374206833,0.0013629350958649,-0.0012228938314899,0.0012228957037501,-0.0012228962677762,0.0012228922100605,-0.0012228960595487,0.0012228934640059,-0.0012228951390429,0.0012228932941947,3.1188183508873e-09,-3.3953449318371e-09,-0.0012173928628202,0.0012173925872678,1.587665659551e-09,-1.9230681293828e-09,-0.0013629343497047,0.0013629381783195,-0.0013629358699,0.0013629367781458,-0.0013629372297352,0.0013629353380305,-0.001362938180693,0.0013629342661319,-0.0012228981331334,0.0012228908822978,-0.0012228922637229,0.0012228966608022,0.70594539279676,131329,3014,0.0050598753450689,0.0050598753506586,0.0050598753401962,30.330156969642,5.0412557571349e-06,5.0412557571349e-06,5.0412557571349e-06,2350352.5496919,0.015296417879172
34419200,0.99847650329582,0.015427355403837,0.0051424518018601,0.0051424518014235,0.0051424518005539,-0.0012180903085026,0.0012180906436741,5.8977157121863e-09,-5.5538723214247e-09,1.2170985953557e-09,-8.9032047467358e-10,-0.0013636567454901,0.0013636629004791,-0.0013636618950557,0.0013636578048067,-0.0013636583395388,0.0013636614386662,-0.0013636617505267,0.0013636578508799,-0.001223602854352,0.0012236115459982,-0.0012236119128298,0.0012236024867394,6.7301176903544e-10,-1.5514471291493e-09,1.4849433991147e-09,-2.3288382947995e-09,-0.0012180909019964,0.001218090052787,-0.0013636589196088,0.0013636609287648,-0.001363660940738,0.0013636586812974,-0.0013636603307601,0.0013636592771531,-0.0013636608613612,0.0013636587847496,-0.0012236078137746,0.0012236071013177,-0.0012236081906768,0.0012236057651719,-0.0012236088861354,0.0012236060204805,-0.0012236076365234,0.0012236062691535,7.5984475828186e-09,-7.8707757108518e-09,-0.0012180906107122,0.001218090339222,1.4731946154157e-09,-1.8034021892422e-09,-0.0013636561531285,0.0013636635089565,-0.0013636581814128,0.0013636616006434,-0.0013636626356573,0.0013636570661328,-0.0013636629180045,0.0013636566589853,-0.0012236143929892,0.0012236000556616,-0.0012236013514313,0.0012236129992704,0.70868167614411,131329,3014,0.005062768048536,0.0050627680540139,0.0050627680438454,30.662344249738,7.6987539979017e-06,7.6987539979017e-06,7.6987539979017e-06,2351382.6373558,0.015305229100924
34619200,0.99855715068753,0.015428635223237,0.005142878408326,0.0051428784078935,0.0051428784070178,-0.0012208663007536,0.001220866634099,4.801307172891e-09,-4.4603214725936e-09,1.2006191990253e-09,-8.7695576489747e-10,-0.0013664777148807,0.0013664829728961,-0.001366481979189,0.001366478763324,-0.0013664791530921,0.0013664816672087,-0.0013664819680208,0.0013664786759833,-0.0012264302414544,0.0012264371517222,-0.001226437509248,0.0012264298807232,3.4700762444611e-10,-1.1984675229009e-09,1.5640665219609e-09,-2.3841896751416e-09,-0.0012208668812233,0.0012208660561586,-0.0013664795932351,0.0013664812986779,-0.0013664815105816,0.0013664791476011,-0.0013664806308348,0.0013664800176752,-0.0013664813548096,0.0013664793401051,-0.0012264339201348,0.0012264340073365,-0.0012264348221872,0.00122643209407,-0.0012264355323052,0.0012264323868599,-0.0012264340035606,0.0012264328723762,6.5185644887412e-09,-6.7926988177726e-09,-0.0012208666025244,0.0012208663300981,1.4891188637056e-09,-1.8213522734677e-09,-0.0013664771054061,0.0013664835973401,-0.0013664789999481,0.001366481822428,-0.0013664827142199,0.0013664780308551,-0.0013664831532468,0.001366477468754,-0.0012264400164719,0.0012264274236784,-0.001226428733333,0.0012264386094008,0.73613945470221,131329,3014,0.005074276390402,0.0050742763957146,0.0050742763857398,32.08543886928,1.9083510954242e-05,1.9083510954242e-05,1.9083510954242e-05,2354684.5043145,0.015340284668413
34819200,0.99863998810342,0.015429961487833,0.0051433204965237,0.0051433204960952,0.0051433204952136,-0.0012237700912618,0.0012237703851586,3.7040833780895e-09,-3.3913998480038e-09,1.1784099313267e-09,-8.8243859251849e-10,-0.0013694659392502,0.0013694702800517,-0.0013694693557003,0.0013694669135715,-0.001369467240376,0.0013694691114088,-0.0013694694597344,0.0013694667066108,-0.001229399479079,0.0012294045455352,-0.0012294049716279,0.001229399090851,1.0954299509351e-10,-9.4445311551371e-10,1.6424649519008e-09,-2.4494439274006e-09,-0.001223770645233,0.0012237698334461,-0.0013694674890022,0.0013694689602521,-0.0013694693277588,0.0013694668770724,-0.0013694682048798,0.0013694679476799,-0.0013694691088325,0.0013694670886147,-0.0012294019657924,0.0012294026708578,-0.001229403313998,0.0012294003417692,-0.0012294039856972,0.0012294006272033,-0.0012294022147508,0.0012294012910131,5.4595229093815e-09,-5.717556399812e-09,-0.0012237703702763,0.0012237701045311,1.4964748458383e-09,-1.8110284875287e-09,-0.0013694652986259,0.0013694709576087,-0.0013694670699065,0.0013694693045717,-0.001369470048685,0.0013694662027702,-0.0013694706169462,0.001369465505472,-0.001229407423294,0.001229396614939,-0.0012293979574114,0.0012294060901144,0.74236296759168,131329,3014,0.0050863145109672,0.0050863145157111,0.0050863145075869,33.573947788418,3.0991582307343e-05,3.0991582307343e-05,3.0991582307343e-05,2357285.0568488,0.015376956753733
35019200,0.9987224344909,0.015431239829454,0.005143746610397,0.0051437466099727,0.005143746609084,-0.0012257577472498,0.0012257580938898,-1.5445406800483e-11,3.7332549969166e-10,7.9381768306174e-10,-4.4991870570414e-10,-0.0013715414447963,0.0013715427537473,-0.001371542028766,0.0013715422227214,-0.0013715421567236,0.0013715421758184,-0.0013715421849558,0.0013715419697542,-0.0012314410602631,0.0012314401723392,-0.0012314402398939,0.0012314409970008,-2.2647425996614e-10,-5.8991092876576e-10,1.7824785334501e-09,-2.5728737589258e-09,-0.0012257583190063,0.0012257575244912,-0.0013715416861894,0.0013715427149593,-0.0013715432963733,0.0013715408766926,-0.0013715418833078,0.0013715422793228,-0.0013715431857668,0.001371541013391,-0.001231439781843,0.0012314419968043,-0.001231442385285,0.0012314383889196,-0.0012314424326396,0.001231439330634,-0.0012314410474433,0.0012314396753862,1.7251637691958e-09,-1.9995240675593e-09,-0.001225758056957,0.0012257577821542,1.5806057929015e-09,-1.9135341872853e-09,-0.001371540661355,0.0013715435543959,-0.0013715421717238,0.0013715421637819,-0.0013715426093844,0.0013715416436438,-0.0013715435582404,0.001371540572708,-0.0012314429529454,0.0012314383282175,-0.0012314397010093,0.0012314414862889,0.72136733481772,131329,3014,0.0050945548537004,0.0050945548586481,0.0050945548494622,34.58328949637,3.9066315970958e-05,3.9066315970958e-05,3.9066315970958e-05,2358785.7135813,0.015402061113232
35219200,0.99880309878149,0.015432453576859,0.0051441511928651,0.0051441511924432,0.0051441511915508,-0.0012272705137853,0.0012272708410343,5.7805951923143e-09,-5.4440410299305e-09,1.2225355522604e-09,-9.0411995928527e-10,-0.0013731085270035,0.0013731145340874,-0.0013731135307392,0.0013731095853452,-0.0013731100411034,0.0013731131546334,-0.0013731134830027,0.0013731095352438,-0.0012329830588705,0.0012329918047322,-0.0012329921885722,0.0012329826823194,4.2536227265234e-10,-1.2836287235861e-09,1.6048498333501e-09,-2.431677738338e-09,-0.0012272710939258,0.0012272702630505,-0.001373110713298,0.0013731125544497,-0.0013731127194928,0.0013731103202882,-0.0013731118621715,0.0013731111587789,-0.0013731125569722,0.001373110504044,-0.0012329877099557,0.0012329876642721,-0.0012329885837748,0.0012329858691121,-0.0012329892665866,0.0012329861006887,-0.0012329877841845,0.0012329866121202,7.5532973071285e-09,-7.8165576522351e-09,-0.0012272708083722,0.0012272705445627,1.4063839890522e-09,-1.7262919223197e-09,-0.0013731079343563,0.0013731151450414,-0.0013731098279209,0.0013731133753484,-0.0013731143114151,0.00137310880485,-0.0013731146343381,0.0013731083559738,-0.0012329946915666,0.0012329802189387,-0.0012329814630378,0.0012329933603847,0.70214462640526,131329,3014,0.0051008261698623,0.0051008261743885,0.0051008261659238,35.344719226906,4.515775381525e-05,4.515775381525e-05,4.515775381525e-05,2360486.1947294,0.01542116662032
35419200,0.99888105446954,0.01543358844856,0.0051445294834317,0.0051445294830124,0.0051445294821159,-0.0012284464472923,0.0012284467942852,4.9962045252048e-09,-4.6398087686741e-09,1.0058304493937e-09,-6.6534071023919e-10,-0.0013743172422814,0.0013743224996146,-0.0013743216315021,0.0013743181642873,-0.0013743185425213,0.0013743213327431,-0.0013743214876484,0.0013743182101774,-0.0012341780754307,0.0012341855033311,-0.0012341857193655,0.0012341778662501,5.1418434608414e-10,-1.3850093841751e-09,1.6264096144332e-09,-2.4643851303079e-09,-0.0012284470429664,0.0012284462007248,-0.001374319048668,0.0013743208992709,-0.0013743210135596,0.0013743187046939,-0.0013743201995516,0.0013743195021266,-0.0013743209711416,0.001374318770518,-0.0012341820157377,0.0012341821101432,-0.001234183062646,0.0012341800592841,-0.0012341834862503,0.001234180629799,-0.0012341823015206,0.0012341807625529,6.7731519467397e-09,-7.0398873219218e-09,-0.0012284467529978,0.0012284464866441,1.420825780483e-09,-1.7446132713798e-09,-0.0013743165718244,0.001374323188475,-0.001374318416016,0.0013743214642995,-0.0013743223452275,0.0013743174511956,-0.0013743227385007,0.001374316933385,-0.0012341883270276,0.0012341752958731,-0.0012341765552368,0.0012341869839896,0.68162530082105,131329,3014,0.0051057010527054,0.0051057010571425,0.0051057010486617,35.929892356588,4.9839138852701e-05,4.9839138852701e-05,4.9839138852701e-05,2362528.56234,0.015436017488831
35619200,0.99895710283979,0.015434651526928,0.0051448838428873,0.0051448838424702,0.0051448838415705,-0.0012300458537258,0.0012300462269503,4.0262789645296e-09,-3.6430849525495e-09,6.5835488129853e-10,-2.8753465877825e-10,-0.0013759307082285,0.0013759350716861,-0.001375934419271,0.001375931413805,-0.0013759317414456,0.0013759341713397,-0.0013759340589286,0.0013759316764276,-0.0012357925316898,0.0012357983947892,-0.00123579834083,0.0012357925789753,3.8040337289678e-10,-1.2495019054348e-09,1.694821792603e-09,-2.5303972527087e-09,-0.0012300464616996,0.0012300456212109,-0.001375932098968,0.0013759338811268,-0.0013759340852885,0.0013759316710119,-0.001375933140984,0.001375932604968,-0.0013759339772685,0.0013759318002628,-0.0012357955150035,0.0012357959319731,-0.001235796792618,0.0012357936567401,-0.0012357972507782,0.001235794179302,-0.001235795904951,0.001235794489789,5.8029771489726e-09,-6.075286382936e-09,-0.001230046174552,0.0012300459041105,1.4464912563321e-09,-1.7770099245666e-09,-0.0013759299158811,0.0013759358811699,-0.0013759317517012,0.0013759341617545,-0.001375935023122,0.0013759308117851,-0.0013759354610868,0.001375930251745,-0.0012358011154351,0.0012357898555839,-0.0012357911343805,0.0012357997398998,0.65730119115085,131329,3014,0.0051123312750462,0.0051123312797316,0.0051123312708411,36.73802665941,5.6304213275284e-05,5.6304213275284e-05,5.6304213275284e-05,2365878.2590681,0.015456215338078
35819200,0.99903172443147,0.015435763853503,0.0051452546184119,0.0051452546179966,0.0051452546170947,-0.0012319913152015,0.0012319916734787,4.7093838260274e-09,-4.342118596728e-09,9.1410755964152e-10,-5.6200050168221e-10,-0.0013778696632473,0.0013778746066528,-0.0013778737941936,0.0013778705293299,-0.0013778708351934,0.0013778735686683,-0.00137787364682,0.0013778705794634,-0.0012377452964364,0.0012377524311775,-0.0012377525704993,0.0012377451702088,7.6858278285309e-10,-1.6633727825849e-09,1.6557465469899e-09,-2.5153711253814e-09,-0.0012319919267883,0.0012319910638038,-0.001377871252186,0.0013778732235131,-0.0013778731836662,0.0013778710659583,-0.0013778725173193,0.0013778717131398,-0.00137787337614,0.0013778708899441,-0.0012377490596119,0.001237749212501,-0.0012377503780693,0.001237746919223,-0.0012377502292114,0.0012377480314711,-0.0012377497646923,0.0012377474712336,6.5152637141658e-09,-6.7770254809353e-09,-0.0012319916243095,0.0012319913627209,1.3695829975619e-09,-1.6876456465251e-09,-0.0013778689705503,0.0013778753184545,-0.0013778707169276,0.0013778736928259,-0.0013778745065618,0.0013778698176533,-0.0013778749258312,0.0013778692727107,-0.0012377552270405,0.001237742549727,-0.0012377437640034,0.0012377539255654,0.69619442035258,131329,3014,0.0051203957588662,0.0051203957628787,0.0051203957554176,37.723701765771,6.4189614126165e-05,6.4189614126165e-05,6.4189614126165e-05,2370578.84673,0.015480782241107
36019200,0.9991019875229,0.015436876938408,0.0051456256467132,0.0051456256463001,0.0051456256453948,-0.0012325753610957,0.0012325757102694,5.8449878042818e-09,-5.4862935743796e-09,1.2580136303707e-09,-9.1742777632883e-10,-0.0013784803030991,0.0013784861934608,-0.0013784851568089,0.0013784813938022,-0.001378481668164,0.0013784849600395,-0.0013784852790962,0.0013784811720236,-0.0012383389711532,0.0012383482066277,-0.0012383485898935,0.0012383385920692,1.4513313875048e-09,-2.3929076377848e-09,1.5326616904226e-09,-2.4323687880816e-09,-0.001232575988479,0.0012325750847467,-0.0013784822042011,0.0013784844980408,-0.0013784840283336,0.0013784824475193,-0.0013784838998834,0.0013784825549919,-0.0013784847288574,0.0013784817631783,-0.0012383440740126,0.0012383436385017,-0.0012383453079185,0.0012383414155645,-0.0012383441860674,0.0012383435221111,-0.0012383452193831,0.0012383414417912,7.6720327089023e-09,-7.9319444889523e-09,-0.0012325756645027,0.0012325754051475,1.2868557927624e-09,-1.6027116716703e-09,-0.0013784797435812,0.0013784867714519,-0.0013784813946277,0.0013784852396275,-0.0013784860133448,0.0013784805379967,-0.0013784864136408,0.0013784800102324,-0.0012383511097841,0.0012383361064723,-0.0012383372729496,0.0012383498689956,0.73586529603328,131329,3014,0.0051228168926727,0.0051228168965776,0.0051228168890903,37.994222142658,6.6353777141261e-05,6.6353777141261e-05,6.6353777141261e-05,2371323.3791367,0.015488158643147
36219200,0.99916672783616,0.015437867988178,0.0051459559966362,0.0051459559962247,0.005145955995317,-0.0012323909523247,0.0012323913273984,4.7898554367925e-09,-4.4059378266238e-09,6.0343978374059e-10,-2.3163485600827e-10,-0.0013783487337106,0.0013783535205635,-0.0013783529039876,0.001378349404623,-0.0013783496820628,0.0013783527072393,-0.0013783525551478,0.0013783496567433,-0.0012381788891853,0.0012381864131014,-0.0012381863277013,0.0012381789817772,1.1922078640881e-09,-2.1288713992268e-09,1.5838147224996e-09,-2.4807971132615e-09,-0.0012323915912963,0.001232390690196,-0.001378350139762,0.0013783523225756,-0.0013783520223265,0.0013783502104609,-0.0013783516884609,0.001378350525233,-0.0013783525248644,0.0013783497290668,-0.0012381830432091,0.0012381828018969,-0.0012381842917703,0.0012381805512747,-0.0012381835640239,0.0012381822752705,-0.001238183997688,0.0012381807863102,6.6180191045297e-09,-6.882428795407e-09,-0.0012323912707612,0.001232391007285,1.396354271159e-09,-1.7177328920863e-09,-0.0013783479241874,0.0013783543500811,-0.00137834967633,0.0013783527157823,-0.001378353520711,0.0013783487892592,-0.0013783539704372,0.0013783482155515,-0.0012381891366579,0.0012381762061309,-0.001238177449109,0.0012381878170148,0.71361273965439,131329,3014,0.0051220528115773,0.0051220528152903,0.0051220528080747,37.867343329726,6.5338746637806e-05,6.5338746637806e-05,6.5338746637806e-05,2368231.5627875,0.015485832658105
36419200,0.99922385790778,0.015438730193035,0.005146243398255,0.005146243397845,0.0051462433969352,-0.0012306316390141,0.001230632017649,5.5084028556033e-09,-5.1213003437311e-09,5.1778327125295e-10,-1.418296676716e-10,-0.0013765869713074,0.0013765921692346,-0.0013765916072026,0.0013765875875169,-0.001376587848026,0.0013765914272285,-0.0013765912138695,0.0013765878844445,-0.0012364054935933,0.0012364145305475,-0.0012364143806636,0.0012364056489329,1.6928591518577e-09,-2.6653011037338e-09,1.4551909421426e-09,-2.3830176031173e-09,-0.0012306322951193,0.0012306313632392,-0.0013765884691037,0.0013765908785834,-0.0013765902646299,0.0013765888570668,-0.001376590350496,0.0013765887495065,-0.0013765911236964,0.0013765880141319,-0.0012364106780158,0.0012364098795395,-0.001236411750959,0.0012364078185729,-0.0012364103695849,0.0012364101841019,-0.0012364118696701,0.0012364076390574,7.3501241768694e-09,-7.616314905043e-09,-0.0012306319601487,0.0012306316948825,1.428438512184e-09,-1.752000543439e-09,-0.0013765861186709,0.001376593041317,-0.0013765878798248,0.0013765913988382,-0.0013765921924391,0.0013765870049708,-0.0013765926762697,0.0013765863945157,-0.0012364172512627,0.0012364028155327,-0.0012364040800643,0.0012364159045469,0.70434246897239,131329,3014,0.0051147597630651,0.0051147597666224,0.0051147597596575,36.901879917244,5.7615039337954e-05,5.7615039337954e-05,5.7615039337954e-05,2359753.2809742,0.01546361471124
36619200,0.99927567856445,0.015439466449957,0.0051464888172287,0.0051464888168197,0.0051464888159084,-0.0012297245913177,0.0012297249656209,4.1153271193461e-09,-3.7284801290208e-09,1.5760380295906e-11,3.6433987166701e-10,-0.0013756702261474,0.0013756741364525,-0.0013756739351079,0.0013756704832343,-0.0013756707762542,0.0013756737373776,-0.0013756732009613,0.001375671130731,-0.001235494242194,0.0012355007546079,-0.0012355003423538,0.001235494789421,1.3975194582562e-09,-2.3337856852324e-09,1.5104624429138e-09,-2.4098254355998e-09,-0.0012297252304972,0.0012297243273679,-0.001375671178886,0.001375673437269,-0.0013756730013852,0.0013756713564836,-0.0013756728124999,0.0013756714761782,-0.0013756736335585,0.0013756707265876,-0.0012354981735873,0.0012354975156924,-0.0012354992015064,0.0012354955608087,-0.0012354983146718,0.0012354973906842,-0.0012354990092245,0.0012354956068071,5.987598764909e-09,-6.2248465933271e-09,-0.0012297249042547,0.0012297246522847,1.5605538604155e-09,-1.8519492731915e-09,-0.0013756691576282,0.001375675246206,-0.0013756710200311,0.0013756735212337,-0.001375674295572,0.0013756701096477,-0.0013756748597363,0.0013756694163885,-0.0012355033399666,0.0012354917008685,-0.0012354930472079,0.0012355020308244,0.66675553890637,131329,3014,0.0051109996440192,0.0051109996459728,0.0051109996431743,36.39587948569,5.3567035885521e-05,5.3567035885521e-05,5.3567035885521e-05,2355079.506469,0.01545215946883
36819200,0.999324126498,0.015440135387597,0.0051467117964424,0.0051467117960356,0.0051467117951187,-0.0012298311952029,0.001229831654214,8.8935324081015e-10,-4.2318355897394e-10,-8.0739635159568e-10,1.27403397796e-09,-0.0013757490336269,0.0013757504160275,-0.0013757506810659,0.0013757488228679,-0.0013757491049158,0.0013757504886735,-0.0013757492901247,0.0013757501247371,-0.0012355915844711,0.0012355921730413,-0.0012355910386616,0.0012355927398286,3.2791376720462e-10,-1.2004187414984e-09,1.7342162543131e-09,-2.5746937449597e-09,-0.0012298318476247,0.0012298310032585,-0.0013757489253831,0.0013757507372567,-0.0013757509691337,0.0013757484603985,-0.0013757499658775,0.0013757494466456,-0.0013757508019571,0.0013757486533247,-0.0012355919565274,0.0012355923481254,-0.0012355932049057,0.0012355901285191,-0.0012355938103029,0.0012355904834199,-0.0012355922435444,0.0012355910334477,2.7159510342661e-09,-2.9971194326469e-09,-0.0012298315646599,0.0012298312833477,1.7241125711915e-09,-2.0649315729343e-09,-0.0013757476658063,0.0013757518064875,-0.0013757497259649,0.0013757498667904,-0.0013757507708993,0.0013757487361497,-0.0013757513654776,0.0013757480225392,-0.0012355945421866,0.0012355892739014,-0.001235590739879,0.0012355929757745,0.64958126437273,131329,3014,0.0051114415303613,0.0051114415334393,0.0051114415274164,36.429632529213,5.3837060233706e-05,5.3837060233706e-05,5.3837060233706e-05,2356860.1620903,0.015453504059833
37019200,0.99937002057558,0.015440812859556,0.0051469376204289,0.0051469376200227,0.0051469376191047,-0.0012304165865557,0.0012304169755009,4.0413957084294e-09,-3.6439492330875e-09,3.1624428907169e-10,7.1386567836413e-11,-0.0013763012773488,0.001376305394874,-0.0013763049626223,0.001376301764172,-0.0013763020518946,0.0013763047577618,-0.0013763043942374,0.0013763022376163,-0.0012361579823733,0.0012361641667344,-0.0012361638700636,0.0012361582894162,1.0261597687234e-09,-1.9507622549713e-09,1.5513634285087e-09,-2.4378043479863e-09,-0.0012304172269029,0.0012304163365276,-0.0013763024034978,0.001376304479235,-0.0013763042832476,0.0013763023676041,-0.0013763038573973,0.0013763027734609,-0.0013763046481347,0.0013763020259905,-0.0012361614748277,0.0012361612155916,-0.0012361625832057,0.0012361591166267,-0.0012361621741975,0.0012361605122643,-0.0012361622021028,0.0012361594383285,5.923886843088e-09,-6.1937995410874e-09,-0.0012304169152557,0.001230416645412,1.5243887780574e-09,-1.8524075416035e-09,-0.001376300314012,0.0013763063786247,-0.001376302178064,0.0013763046345122,-0.0013763054679891,0.0013763012605656,-0.0013763059833581,0.0013763006214954,-0.0012361668947618,0.0012361552987063,-0.0012361566325203,0.0012361654803852,0.68962108937575,131329,3014,0.0051138678081073,0.0051138678109935,0.0051138678052049,36.716290029655,5.6130320237242e-05,5.6130320237242e-05,5.6130320237242e-05,2361648.7224522,0.015460893614222
37219200,0.99941457742229,0.015441516920616,0.0051471723074488,0.0051471723070434,0.0051471723061243,-0.0012319213527076,0.0012319217729053,6.4456347485182e-10,-2.1606735858463e-10,-1.7190427997166e-10,5.9464616608546e-10,-0.0013778371397008,0.0013778387560331,-0.0013778386276225,0.0013778373221612,-0.0013778376510133,0.0013778383857632,-0.0013778376570014,0.0013778382010326,-0.0012376897511089,0.0012376893993854,-0.0012376887373487,0.0012376904311813,-9.7261560644744e-11,-7.4710005351061e-10,1.8165291034041e-09,-2.6334852438594e-09,-0.0012319219735226,0.0012319211533618,-0.001377837256153,0.0013778388512555,-0.0013778393569235,0.001377836515435,-0.0013778380078757,0.0013778378493288,-0.0013778388826155,0.0013778370184038,-0.0012376894389763,0.0012376902612768,-0.0012376907914141,0.00123768792967,-0.001237691966107,0.0012376877237789,-0.0012376895017558,0.0012376891636382,2.5246552073988e-09,-2.8003355476712e-09,-0.0012319217004038,0.0012319214239944,1.6424303990258e-09,-1.9769248479206e-09,-0.0013778359827508,0.001377839934227,-0.0013778379976062,0.0013778380405504,-0.0013778389494049,0.001377837001775,-0.0013778394784349,0.0013778363535182,-0.0012376920044205,0.0012376871989276,-0.0012376886111834,0.0012376905019411,0.73362849864892,131329,3014,0.0051201058742446,0.0051201058769163,0.0051201058717036,37.496247475113,6.2369979800901e-05,6.2369979800901e-05,6.2369979800901e-05,2367872.2946105,0.015479898089171
37419200,0.99945695401129,0.015442138777108,0.0051473795929458,0.0051473795925409,0.0051473795916209,-0.0012327955986645,0.0012327960206892,-3.3628716931664e-09,3.7955588078132e-09,-6.4907934613035e-10,1.0799479997417e-09,-0.0013787817804252,0.0013787804077854,-0.0013787806125579,0.0013787816284597,-0.0013787820236646,0.0013787803121233,-0.0013787792555881,0.0013787828977072,-0.0012386021831423,0.0012385941556149,-0.0012385931774282,0.0012386032104562,-9.983117445811e-10,2.1809780775801e-10,2.0527279534101e-09,-2.8153271512865e-09,-0.0012327961925804,0.0012327954277442,-0.0013787805960673,0.001378781815404,-0.001378782894687,0.0013787792721119,-0.0013787807669941,0.001378781377341,-0.001378781729514,0.0013787804636861,-0.001238597615047,0.0012385993212521,-0.0012385991651847,0.00123859678963,-0.00123860163634,0.0012385952865455,-0.0012385971231412,0.0012385987520024,-1.468012435169e-09,1.1941058797674e-09,-0.0012327959484452,0.0012327956699669,1.7797917532895e-09,-2.1126370899459e-09,-0.00137878040978,0.0013787818062658,-0.0013787825810413,0.001378779760325,-0.0013787807258365,0.0013787815127921,-0.0013787812935481,0.0013787808282248,-0.0012385966541363,0.0012385997381777,-0.0012386012498305,0.0012385950785323,0.68665852951644,131329,3014,0.0051237303492889,0.005123730351334,0.0051237303473174,37.94260946978,6.5940875758239e-05,6.5940875758239e-05,6.5940875758239e-05,2368867.2120397,0.015490942402106
37619200,0.99949621137647,0.015442694023212,0.0051475646749808,0.005147564674576,0.005147564673655,-0.0012327815620341,0.001232781908706,2.1285502186049e-09,-1.7768878362375e-09,5.1845610705122e-10,-1.8116469618995e-10,-0.0013787704795536,0.0013787734779043,-0.0013787729320192,0.0013787710917169,-0.0013787714387568,0.0013787726756793,-0.0013787725107856,0.0013787714245833,-0.001238579032663,0.0012385812949268,-0.0012385811849903,0.001238579201176,2.5554643325313e-11,-8.5058799981165e-10,1.7818668017084e-09,-2.5842252736919e-09,-0.0012327821375554,0.0012327813330702,-0.0013787712931365,0.0013787729023014,-0.0013787733144303,0.0013787706397155,-0.0013787720519163,0.0013787718529378,-0.0013787729686739,0.0013787710026504,-0.0012385800504166,0.0012385808103499,-0.0012385814878956,0.0012385785608245,-0.0012385823799113,0.0012385785049311,-0.0012385802988024,0.0012385796818218,4.0935429624842e-09,-4.3397813176009e-09,-0.0012327818622409,0.0012327816080313,1.5307766609708e-09,-1.8316905247589e-09,-0.0013787695611394,0.0013787744261363,-0.0013787714557088,0.0013787726835192,-0.0013787735051748,0.0013787705129384,-0.0013787740006129,0.0013787698853366,-0.0012385841447252,0.0012385762433632,-0.0012385775530679,0.0012385827680394,0.66415580545782,131329,3014,0.0051236719811382,0.0051236719809098,0.0051236719801572,37.916700229878,6.5733601839026e-05,6.5733601839026e-05,6.5733601839026e-05,2369293.0472216,0.015490764388936
37819200,0.99953154975923,0.01544317381914,0.0051477246069571,0.0051477246065538,0.0051477246056294,-0.0012317288750275,0.001231729236841,3.3239980577293e-09,-2.9534313918748e-09,7.0163028479407e-10,-3.4537540901833e-10,-0.0013776779196622,0.001377681814006,-0.0013776811427216,0.0013776786459935,-0.0013776789708586,0.0013776808998024,-0.0013776808302962,0.0013776788627234,-0.0012374932604545,0.001237497754949,-0.0012374977497932,0.0012374932819421,3.235725932087e-10,-1.1776452551539e-09,1.6918749231876e-09,-2.5151286361639e-09,-0.0012317294697909,0.0012317286428119,-0.0013776791063093,0.0013776808362357,-0.0013776810707838,0.001377678642174,-0.0013776800799199,0.0013776796130861,-0.0013776809324578,0.0013776788015781,-0.0012374955342697,0.001237496004775,-0.0012374968429406,0.0012374937626487,-0.001237497344421,0.0012374941884988,-0.0012374959130496,0.0012374946318312,5.2843446643096e-09,-5.5527735831669e-09,-0.0012317291900737,0.0012317289206151,1.4872725224924e-09,-1.8130449317219e-09,-0.0013776770673168,0.0013776826864886,-0.0013776789186193,0.0013776809590423,-0.0013776818007813,0.0013776779880867,-0.0013776822803799,0.0013776773835762,-0.0012375006795522,0.0012374903874005,-0.0012374916899081,0.0012374992887057,0.64016453417717,131329,3014,0.0051193079462597,0.0051193079477866,0.0051193079437932,37.336038617876,6.1088308943004e-05,6.1088308943004e-05,6.1088308943004e-05,2366184.3071631,0.015477467785525
38019200,0.9995626873146,0.015443615698315,0.0051478719000153,0.0051478718996123,0.0051478718986873,-0.001229841015102,0.0012298413632371,4.5196819369957e-09,-4.1637489973262e-09,8.2346548557702e-10,-4.8310381056903e-10,-0.0013757065368558,0.0013757112691547,-0.0013757105302092,0.0013757073310548,-0.0013757076535502,0.0013757102905477,-0.0013757103186052,0.0013757074478784,-0.0012355501449616,0.0012355569431708,-0.0012355570464591,0.0012355500887334,8.0761325386371e-10,-1.6940159171163e-09,1.5647021244618e-09,-2.4176509659485e-09,-0.0012298416172529,0.0012298407615055,-0.0013757080413154,0.0013757099807098,-0.0013757099139697,0.0013757078752213,-0.0013757093192722,0.001375708438744,-0.0013757101195694,0.0013757076851201,-0.0012355538771302,0.0012355537786569,-0.0012355549889238,0.0012355517415899,-0.0012355548768759,0.0012355527790672,-0.0012355544485693,0.0012355522104107,6.5069558069078e-09,-6.7677323978914e-09,-0.001229841320813,0.0012298410566919,1.4746338806531e-09,-1.7914460981985e-09,-0.0013757057182403,0.0013757121111515,-0.0013757075439329,0.0013757104126209,-0.0013757112297525,0.0013757066297354,-0.0013757117160357,0.0013757060153328,-0.0012355599198011,0.0012355472250688,-0.0012355485112518,0.0012355585638623,0.66570161367147,131329,3014,0.0051114814635466,0.0051114814644173,0.0051114814617967,36.307728624471,5.2861828995766e-05,5.2861828995766e-05,5.2861828995766e-05,2360372.7665992,0.015453621963558
38219200,0.99959108913679,0.01544402232224,0.0051480074413238,0.0051480074409213,0.0051480074399952,-0.0012290499841528,0.0012290503593896,1.3115301667125e-09,-9.2735950303904e-10,1.410734827137e-10,2.3338196516469e-10,-0.0013748748890133,0.0013748770996298,-0.0013748768016128,0.0013748752435976,-0.001374875587921,0.0013748765492161,-0.0013748760959583,0.0013748758611552,-0.0012347448598247,0.001234745651051,-0.0012347452994499,0.0012347453279051,2.1366602618932e-10,-1.0508994730623e-09,1.7248755374758e-09,-2.5368172658559e-09,-0.0012290505787904,0.0012290497647121,-0.0013748752621836,0.0013748769653435,-0.0013748772595735,0.0013748747177101,-0.0013748761526243,0.0013748757741197,-0.0013748770204421,0.0013748749711112,-0.0012347453581152,0.0012347457889537,-0.0012347465956802,0.0012347436911089,-0.0012347473416433,0.0012347438125121,-0.0012347455213389,0.0012347446598534,3.3052576322952e-09,-3.5565033950273e-09,-0.0012290503028792,0.0012290500404993,1.6362694070634e-09,-1.9424167198849e-09,-0.0013748738002354,0.0013748782225475,-0.0013748757745474,0.0013748763843566,-0.0013748772324504,0.0013748748042796,-0.0013748777893197,0.0013748741203832,-0.0012347484448711,0.0012347421367864,-0.001234743519272,0.0012347470292337,0.67076548375104,131329,3014,0.0051082021666642,0.0051082021665761,0.005108202166308,35.86811860146,4.9344948811683e-05,4.9344948811683e-05,4.9344948811683e-05,2357189.7034447,0.015443630687944
38419200,0.9996234160065,0.015444517533536,0.0051481725117559,0.0051481725113546,0.0051481725104257,-0.0012362301411027,0.0012362304392717,3.8901153464112e-09,-3.5834592436034e-09,1.459598691556e-09,-1.1748626499878e-09,-0.0013821183435447,0.0013821230939411,-0.0013821219581662,0.0013821195348149,-0.001382119916509,0.0013821216548683,-0.0013821221754233,0.0013821192180324,-0.0012420343119762,0.0012420393963296,-0.0012420399857587,0.0012420337464806,-5.7225545047387e-11,-7.5359098685308e-10,1.8127055580523e-09,-2.5972380409524e-09,-0.0012362306841189,0.0012362298966792,-0.0013821200412311,0.0013821216052087,-0.0013821220679225,0.0013821193454524,-0.0013821207401212,0.0013821206535041,-0.0013821216661844,0.0013821197712165,-0.0012420366310765,0.0012420376089509,-0.0012420381467224,0.0012420351695248,-0.001242039098816,0.0012420351322349,-0.0012420368881024,0.0012420363672523,5.9408630814167e-09,-6.1928564150169e-09,-0.0012362304167309,0.0012362301627505,1.3167178473207e-09,-1.6241441654812e-09,-0.0013821177590402,0.00138212369781,-0.0013821194872051,0.0013821220945439,-0.0013821229164129,0.0013821185738181,-0.001382123280217,0.00138211808419,-0.0012420425975778,0.001242031165185,-0.0012420323310971,0.0012420413479002,0.71254270485257,131329,3014,0.0051379667922702,0.0051379667931455,0.0051379667903992,39.65921611076,7.9673728886079e-05,7.9673728886079e-05,7.9673728886079e-05,2376179.9408069,0.015534310639596
38619200,0.99965332903081,0.015444977601049,0.0051483258675934,0.0051483258671924,0.005148325866263,-0.0012364554837623,0.0012364558104562,2.1300019356088e-09,-1.7948602593099e-09,9.2253352194004e-10,-6.0454456934309e-10,-0.0013824173499086,0.0013824206064323,-0.001382419810306,0.0013824182011919,-0.0013824185828947,0.0013824195105441,-0.001382419635899,0.001382418279247,-0.0012422621863249,0.0012422641115801,-0.001242264305179,0.0012422620233106,-4.7707624304554e-10,-3.1111593327253e-10,1.9553137379073e-09,-2.7213775926015e-09,-0.0012364560317344,0.0012364552627917,-0.0013824183785812,0.0013824197890618,-0.0013824205189225,0.0013824174135224,-0.001382418816946,0.0013824190969417,-0.0013824198064524,0.0013824181522125,-0.0012422626859748,0.0012422641481196,-0.0012422643840771,0.0012422615355081,-0.0012422658945821,0.0012422609299237,-0.0012422627567332,0.0012422631004599,4.1842880162851e-09,-4.4388014883085e-09,-0.0012364557751297,0.0012364555182981,1.410773876003e-09,-1.7212051635696e-09,-0.0013824165595218,0.0013824214175245,-0.001382418377793,0.0013824197250431,-0.0013824205750848,0.0013824174345601,-0.0013824209779519,0.0013824169079226,-0.0012422671667961,0.0012422591898342,-0.0012422604189371,0.0012422658494129,0.71626666516089,131329,3014,0.0051389011970873,0.0051389011977187,0.0051389011954288,39.752269676331,8.0418157410652e-05,8.0418157410652e-05,8.0418157410652e-05,2376434.8697434,0.015537159798505
38819200,0.99968087143544,0.015445402687291,0.0051484675630073,0.0051484675626066,0.0051484675616766,-0.001236484214277,0.001236484609975,-2.2876778293068e-09,2.688654479863e-09,-1.7175454384011e-10,5.6539140438658e-10,-0.0013824875856589,0.0013824872582079,-0.001382487141664,0.0013824877573817,-0.0013824881414245,0.0013824868471178,-0.0013824861425299,0.0013824886687819,-0.0012423165698103,0.0012423104260357,-0.0012423097817026,0.0012423172273645,-1.3118750940105e-09,5.6281188314139e-10,2.2367060376112e-09,-2.9703365210631e-09,-0.0012364847800642,0.0012364840444112,-0.0013824869603985,0.0013824880863938,-0.0013824893516294,0.0013824854630767,-0.0013824869153951,0.0013824879031074,-0.0013824880042496,0.0013824868547227,-0.0012423125524537,0.0012423149523685,-0.0012423145764727,0.0012423119963852,-0.0012423172373485,0.0012423102629942,-0.0012423122550565,0.0012423143039011,-2.5632447740434e-10,-1.6314864768551e-11,-0.0012364845474436,0.0012364842757201,1.6541796896224e-09,-1.9856534685907e-09,-0.0013824863670827,0.0013824884903152,-0.0013824884292416,0.0013824865563686,-0.0013824874994872,0.0013824874073059,-0.0013824880011144,0.0013824867904352,-0.001242313186714,0.0012423138815909,-0.0012423152770027,0.0012423116567602,0.71845446575129,131329,3014,0.0051390207003289,0.0051390207007843,0.005139020698054,39.755849562321,8.0446796498566e-05,8.0446796498566e-05,8.0446796498566e-05,2374496.1626697,0.015537525495618
38880000,0.99968903036408,0.015445528768001,0.005148509589911,0.0051485095895102,0.0051485095885802,-0.001236489178074,0.0012364895906603,-2.4337241320454e-09,2.8540954892243e-09,-1.373747422371e-10,5.5025531690131e-10,-0.0013825049650745,0.0013825045719595,-0.0013825044253038,0.0013825051659,-0.001382505534871,0.00138250414472,-0.0013825034474046,0.0013825060541002,-0.0012423305074212,0.0012423240700799,-0.0012423234249826,0.0012423311671821,-1.1293658756547e-09,3.9536989216972e-10,2.2319017221463e-09,-2.9488869890555e-09,-0.0012364897441907,0.0012364890249233,-0.001382504246564,0.0013825054928728,-0.0013825066316556,0.00138250288765,-0.0013825043162559,0.0013825051937278,-0.0013825053933494,0.0013825041436226,-0.0012423264025039,0.0012423286711811,-0.0012423284173545,0.0012423257833643,-0.0012423308373586,0.0012423242251539,-0.0012423262044195,0.0012423279506266,-4.0833529775459e-10,1.3161633050557e-10,-0.0012364895225743,0.0012364892451703,1.6473166742534e-09,-1.9823962084801e-09,-0.0013825037668243,0.0013825057881238,-0.0013825058229433,0.001382503861615,-0.0013825048031348,0.0013825047919589,-0.0013825053018591,0.0013825041712082,-0.001242326834079,0.0012423278098194,-0.0012423292146526,0.0012423253082767,0.7191051994729,131329,3014,0.0051390414038367,0.0051390414046225,0.0051390414017673,39.755983826594,8.0447870612756e-05,8.0447870612756e-05,8.0447870612756e-05,2373808.9964805,0.015537589080972
