time,ASR_ext,ASR_strain,ASR_strain_xx,ASR_strain_yy,ASR_strain_zz,disp_x_101,disp_x_102,disp_x_103,disp_x_104,disp_x_105,disp_x_106,disp_x_p1_neg,disp_x_p1_pos,disp_x_p2_neg,disp_x_p2_pos,disp_x_p3_neg,disp_x_p3_pos,disp_x_p4_neg,disp_x_p4_pos,disp_x_p5_neg,disp_x_p5_pos,disp_x_p6_neg,disp_x_p6_pos,disp_y_101,disp_y_102,disp_y_103,disp_y_104,disp_y_105,disp_y_106,disp_y_p1_neg,disp_y_p1_pos,disp_y_p2_neg,disp_y_p2_pos,disp_y_p3_neg,disp_y_p3_pos,disp_y_p4_neg,disp_y_p4_pos,disp_y_p5_neg,disp_y_p5_pos,disp_y_p6_neg,disp_y_p6_pos,disp_y_p7_neg,disp_y_p7_pos,disp_y_p8_neg,disp_y_p8_pos,disp_z_101,disp_z_102,disp_z_103,disp_z_104,disp_z_105,disp_z_106,disp_z_p1_neg,disp_z_p1_pos,disp_z_p2_neg,disp_z_p2_pos,disp_z_p3_neg,disp_z_p3_pos,disp_z_p4_neg,disp_z_p4_pos,disp_z_p5_neg,disp_z_p5_pos,disp_z_p6_neg,disp_z_p6_pos,humidity,ndof,nelem,strain_xx,strain_yy,strain_zz,temp,thermal_strain_xx,thermal_strain_yy,thermal_strain_zz,vonmises,vstrain
2419200,0,0,0,0,0,0,0,0,0,0,0,0,0,0,0,0,0,0,0,0,0,0,0,0,0,0,0,0,0,0,0,0,0,0,0,0,0,0,0,0,0,0,0,0,0,0,0,0,0,0,0,0,0,0,0,0,0,0,0,0,0,0,0,0,0,0,0,0,0,0,0,0,0,0,0
2919200,0.076434434698232,0.0015963594979598,0.00053211983265328,0.00053211983265328,0.00053211983265328,-0.00016643820952056,0.00016642758268407,-3.9200374605023e-09,-3.9200374545172e-09,-3.7994697411751e-09,-3.892466029945e-09,-0.0001662728793595,0.00016626425760815,-0.00016627376289168,0.00016626514114044,-0.00016627369644299,0.0001662650799497,-0.00016627457909425,0.00016626596260121,-0.00016881699905056,0.00016880873329622,-0.0001688178220413,0.00016880955628536,-3.7994681238289e-09,-3.892469523835e-09,-7.9002183874714e-09,6.014132508798e-11,-0.00016643820952139,0.00016642758268325,-0.00016627420929056,0.00016626293173298,-0.0001662724329591,0.0001662664670155,-0.00016627502593557,0.00016626375363228,-0.00016627324960406,0.00016626728891474,-0.00016882090043344,0.00016880484120349,-0.00016881392066597,0.0001688134483742,-0.00016881564777188,0.00016881022276002,-0.00016881640838328,0.00016881087431185,-4.8063824082431e-09,-4.8063823762515e-09,-0.00016643910248842,0.00016642668971625,-8.1976210567964e-10,-8.7845394498792e-09,-0.00016627237620347,0.00016626466352782,-0.00016627594105165,0.00016626291705987,-0.00016627328539383,0.00016626557271806,-0.00016627681355981,0.00016626378956778,-0.0001688200341699,0.00016880735580532,-0.00016881923102355,0.00016880655265726,0.83502648770561,125301,3014,0.00069322930013632,0.00069322930013649,0.00069322930013654,32.411067545019,0.00017448854036016,0.00017448854036016,0.00017448854036016,797951.87359059,0.0020818536326911
3419200,0.1557505950064,0.0031217920390434,0.0010405973463852,0.0010405973463873,0.001040597346271,-0.00028359512302259,0.00028358851153328,-2.0746953409815e-09,-2.0744442689015e-09,-2.019851478512e-09,-2.055948104182e-09,-0.00028831120748523,0.00028830663248642,-0.00028831230236348,0.00028830772810722,-0.00028831231612705,0.00028830772250842,-0.00028831342436188,0.00028830883148582,-0.00028709866296018,0.00028709406794388,-0.00028710056551299,0.0002870959713535,-2.0198486336048e-09,-2.0559481479499e-09,-5.5987568846568e-09,1.4496201467504e-09,-0.00028359512302148,0.00028358851153533,-0.00028831233407208,0.00028830544619188,-0.00028831117577288,0.00028830891440753,-0.00028831344943957,0.00028830654293755,-0.00028831229104737,0.00028831001105961,-0.00028710208155814,0.00028709057167401,-0.00028709714691838,0.00028709946762514,-0.00028709748576988,0.00028709530901409,-0.00028709936594328,0.00028709715552437,-2.048489353777e-09,-2.048238264977e-09,-0.00028359511595108,0.00028358851855414,1.3904608368318e-09,-5.5910941764696e-09,-0.00028831001325528,0.00028830778758517,-0.00028831345280355,0.00028830659550678,-0.00028831113661178,0.00028830891169893,-0.00028831456178204,0.00028830770524291,-0.00028710171839349,0.00028709484306582,-0.00028709980608847,0.00028709292990939,0.77960726241633,125301,3014,0.0011809342873075,0.0011809342873095,0.0011809342872022,31.910911354197,0.00017048729083358,0.00017048729083358,0.00017048729083358,1079299.2229603,0.003549089808395
3919200,0.24277810727555,0.0046972888571254,0.0015657629524084,0.0015657629524098,0.0015657629523071,-0.00040633389149439,0.00040632909381437,-1.4548260538862e-09,-1.4546037650152e-09,-1.4539766053069e-09,-1.4426187992801e-09,-0.00041983137660773,0.00041982803783862,-0.00041983215967056,0.00041982882154961,-0.00041983216626382,0.00041982885085261,-0.00041983297029356,0.00041982965551904,-0.00041056370588349,0.00041056039884167,-0.00041056473339223,0.00041056142704343,-1.4539744216388e-09,-1.4426193342224e-09,-4.918386304271e-09,2.0089583376246e-09,-0.00040633389149352,0.00040632909381571,-0.00041983247794189,0.00041982686197956,-0.00041983105833338,0.00041982999741289,-0.00041983327813469,0.0004198276855288,-0.0004198318584213,0.00041983082084445,-0.00041056704349641,0.00041055694977681,-0.0004105613957822,0.00041056487610832,-0.00041056259152188,0.00041056153794609,-0.00041056358286284,0.00041056259732327,-1.4449717647956e-09,-1.444749455337e-09,-0.00040633389871744,0.00040632908654717,1.8834040843054e-09,-4.9317407425218e-09,-0.00041983022844491,0.00041982917364733,-0.00041983328936662,0.00041982771673348,-0.0004198310301193,0.00041982997598136,-0.00041983409796029,0.00041982852597724,-0.00041056587463512,0.0004105602993666,-0.00041056482346534,0.00041055924750494,0.74640349119053,125301,3014,0.0016916164941191,0.0016916164941202,0.0016916164940274,32.496471004356,0.00017517176803485,0.00017517176803485,0.00017517176803485,1544223.6319701,0.0050877579981054
4419200,0.33801843880207,0.006391497403764,0.0021304991346167,0.0021304991346182,0.0021304991345291,-0.00053865390914521,0.00053865131366348,-5.8330219690063e-10,-5.8308653772417e-10,-6.199724472673e-10,-5.7144214509943e-10,-0.00056326841249406,0.00056326712449217,-0.00056326895408936,0.00056326766675857,-0.00056326896097951,0.00056326771212799,-0.000563269518166,0.00056326826997483,-0.00054469153155611,0.00054468997553181,-0.00054469230756714,0.00054469075223901,-6.1997071928025e-10,-5.7144041128015e-10,-2.3486628114553e-09,1.1822770237723e-09,-0.00053865390914361,0.00053865131366552,-0.00056326896534994,0.00056326652034697,-0.00056326840122983,0.00056326827090805,-0.0005632695216733,0.00056326711582279,-0.00056326895746855,0.00056326886628367,-0.00054469321989566,0.00054468820726816,-0.00054469061922804,0.00054469252050361,-0.00054469100453589,0.00054469049917065,-0.00054469173024475,0.00054469135729478,-2.3290252672297e-10,-2.3268686348781e-10,-0.00053865357316636,0.00053865164960464,1.410237161061e-09,-2.010472012563e-09,-0.00056326750239978,0.00056326804594432,-0.00056326918178059,0.00056326746629275,-0.00056326805192328,0.00056326859615031,-0.00056326974453584,0.00056326802972174,-0.00054469254394278,0.00054469052297796,-0.00054469174024576,0.00054468971858525,0.74424082049435,125301,3014,0.0022418734957526,0.0022418734957535,0.0022418734956743,33.598284871313,0.0001839862789705,0.0001839862789705,0.0001839862789705,1995773.3748283,0.0067483120979248
4919200,0.44138046589701,0.0082146406102674,0.0027382135367806,0.002738213536782,0.0027382135367048,-0.00068084102415605,0.00068083960633547,-9.9874851127149e-11,-9.9663372734728e-11,-1.8125030722165e-10,-9.3758478684011e-11,-0.00072007010528813,0.00072006993316677,-0.00072007049647039,0.00072007032495288,-0.00072007048032176,0.00072007038881977,-0.00072007088427022,0.00072007079336216,-0.00069022799168897,0.00069022743532357,-0.000690228588438,0.00069022803263994,-1.8124925344886e-10,-9.3753808234778e-11,-1.0641043996165e-09,8.6457164028079e-10,-0.00068084102415318,0.00068083960633868,-0.00072007039901505,0.00072006959967791,-0.00072007020273842,0.00072007065844716,-0.00072007078048449,0.00072007006177047,-0.00072007058410013,0.00072007112041853,-0.00069022890110524,0.00069022645888619,-0.0006902276790181,0.00069022900908156,-0.00069022775523032,0.00069022762833091,-0.00069022830011943,0.00069022837231736,4.6181425950902e-10,4.6202571834322e-10,-0.00068084047295387,0.0006808401575055,1.312355849312e-09,-5.1035100705352e-10,-0.00072006925464058,0.00072007081540239,-0.00072007023619057,0.00072007060312811,-0.00072006963897168,0.00072007120034754,-0.00072007064507153,0.00072007101261478,-0.0006902283428321,0.00069022827416197,-0.00069022771579804,0.00069022764656009,0.74696695512676,125301,3014,0.0028328279386218,0.0028328279386225,0.002832827938555,35.342972216827,0.00019794377773461,0.00019794377773461,0.00019794377773461,2441225.5377237,0.0085347514774127
5419200,0.54211708937492,0.0099342777609007,0.0033114259203218,0.0033114259203228,0.0033114259202561,-0.00081147436726701,0.00081147472302747,6.1763230228654e-10,6.1784727471928e-10,4.9296492905392e-10,6.1553182074892e-10,-0.0008690331640505,0.00086903464715862,-0.00086903340759128,0.00086903489133372,-0.00086903338715235,0.00086903497521452,-0.00086903364233886,0.00086903523102594,-0.00082440495409457,0.00082440588326548,-0.00082440545894156,0.00082440638868366,4.9296616874178e-10,6.155382394885e-10,5.0620126455555e-10,7.2928585488811e-10,-0.000811474367263,0.00081147472303161,-0.00086903317789488,0.00086903459924882,-0.0008690333937399,0.0008690349392501,-0.00086903340686697,0.00086903493317981,-0.00086903362261394,0.00086903527306997,-0.0008244050305532,0.00082440574321944,-0.00082440538247681,0.00082440652873703,-0.00082440501578842,0.00082440572963059,-0.00082440548516151,0.00082440644810725,1.283607372617e-09,1.2838222794341e-09,-0.00081147371057822,0.00081147537968898,1.2847563952064e-09,1.1655330600592e-09,-0.00086903250759848,0.00086903536163132,-0.0008690327615152,0.00086903555740858,-0.00086903273212341,0.00086903558680104,-0.00086903302099903,0.00086903581752921,-0.00082440482414067,0.00082440701300975,-0.00082440428575646,0.00082440647405416,0.73229095938568,125301,3014,0.0033754663063757,0.003375466306376,0.0033754663063191,36.272581833316,0.00020538065466653,0.00020538065466653,0.00020538065466653,2800793.1147456,0.010177944871636
5919200,0.63340150124675,0.011268806036026,0.0037562686786948,0.0037562686786953,0.003756268678636,-0.00090933607665224,0.00090933819500905,1.3491939420512e-09,1.3494066771111e-09,1.1763476596806e-09,1.3384653890364e-09,-0.00098804807273857,0.00098805119374093,-0.00098804814282292,0.00098805126443425,-0.0009880481248668,0.00098805137061424,-0.00098804820598347,0.0009880514523311,-0.00092208530167299,0.00092208773526288,-0.00092208566900925,0.00092208810313903,1.1763489173061e-09,1.3384735022628e-09,2.1134661787497e-09,5.8514353224532e-10,-0.00090933607664725,0.0009093381950139,-0.00098804779653765,0.00098805143857187,-0.00098804841901523,0.0009880510196106,-0.00098804785423337,0.00098805162101882,-0.00098804847660401,0.0009880512019378,-0.00092208452173573,0.00092208845358563,-0.00092208644893802,0.00092208738482529,-0.00092208567759661,0.00092208722072453,-0.00092208601789489,0.00092208787398552,2.2061196754406e-09,2.2063323813544e-09,-0.00090933522794014,0.00090933904369727,1.3326406404491e-09,2.9642103979659e-09,-0.00098804753786292,0.00098805182022968,-0.00098804702043185,0.00098805241217919,-0.00098804757481304,0.00098805185779872,-0.00098804710581151,0.00098805249817032,-0.00092208455232872,0.00092208920483163,-0.00092208414417341,0.00092208879613607,0.6360792580923,125301,3014,0.003781797892642,0.0037817978926417,0.0037817978925924,36.778889352529,0.00020943111482024,0.00020943111482024,0.00020943111482024,3042684.1295418,0.011410151793915
6419200,0.71068801700565,0.012314064851694,0.0041046882839161,0.0041046882839163,0.0041046882838621,-0.00098315690008478,0.00098316074628627,2.0554696414016e-09,2.0556819953849e-09,1.835582149843e-09,2.0378240842554e-09,-0.0010796744936303,0.0010796792635012,-0.001079674393119,0.0010796791636007,-0.0010796743784702,0.0010796792920662,-0.00107967428862,0.0010796792028184,-0.0009953723523501,0.00099537624447548,-0.00099537265455327,0.00099537654721718,1.8355833166268e-09,2.0378335350273e-09,3.6661378567086e-09,4.4502416849975e-10,-0.00098315690007904,0.00098316074629169,-0.0010796739363297,0.0010796797909691,-0.0010796749504097,0.0010796786361406,-0.0010796738265511,0.0010796798249228,-0.001079674840524,0.0010796786699745,-0.00099537074413359,0.00099537779185789,-0.00099537426275959,0.00099537499984574,-0.0009953730350145,0.00099537537993639,-0.0009953733135894,0.00099537603966368,3.1001579921837e-09,3.1003703432554e-09,-0.00098315586381558,0.00098316178253397,1.3803437162264e-09,4.704798891741e-09,-0.0010796740748673,0.0010796798047517,-0.0010796728102975,0.0010796807783034,-0.0010796739290483,0.0010796796595534,-0.0010796727250828,0.0010796806937021,-0.0009953710706535,0.0009953781137158,-0.00099537071819426,0.00099537776071768,0.59525943091212,125301,3014,0.0040882075965632,0.0040882075965625,0.0040882075965185,36.741524590916,0.00020913219672733,0.00020913219672733,0.00020913219672733,3244652.9406901,0.01234034853243
6919200,0.78029194763477,0.013329230950909,0.0044430769836533,0.0044430769836531,0.0044430769836029,-0.0010562545082763,0.0010562575445972,1.7908231739048e-09,1.7910347155894e-09,1.560892867912e-09,1.7735666269334e-09,-0.0011693209698832,0.0011693251704387,-0.0011693209081782,0.0011693251093435,-0.0011693208777639,0.0011693252405106,-0.0011693208261813,0.0011693251895295,-0.0010712289404525,0.0010712322537568,-0.001071229292802,0.0010712326066388,1.5608937971803e-09,1.7735774112694e-09,3.2055543136434e-09,3.7631508270214e-10,-0.00105625450827,0.0010562575446031,-0.0011693204795017,0.0011693256332169,-0.0011693213985488,0.0011693246465733,-0.0011693203924948,0.0011693257084094,-0.0011693213114334,0.0011693247216448,-0.0010712275254517,0.0010712336107236,-0.0010712307077908,0.0010712312496842,-0.001071229571576,0.001071231438128,-0.001071229889103,0.0010712321648685,2.7829551755709e-09,2.783166653728e-09,-0.0010562535260139,0.0010562585268401,1.260583484981e-09,4.192282410253e-09,-0.0011693205398158,0.0011693257239473,-0.0011693194409729,0.0011693266011252,-0.0011693204286739,0.001169325613425,-0.0011693193914483,0.0011693265522132,-0.0010712278272373,0.0010712340542786,-0.0010712274226198,0.0010712336491281,0.64378173705164,125301,3014,0.0043915236274772,0.0043915236274762,0.0043915236274366,38.623702568324,0.00022418962054659,0.00022418962054659,0.00022418962054659,3376878.289695,0.013262013671056
7419200,0.84027042418596,0.014081187097643,0.0046937290325639,0.0046937290325635,0.004693729032516,-0.0011049396265116,0.0011049424203115,1.7003331565186e-09,1.7005441486612e-09,1.4671320955333e-09,1.6840373170512e-09,-0.0012375372131135,0.0012375412184052,-0.001237537187886,0.0012375411937874,-0.0012375371473981,0.0012375413235971,-0.0012375371317222,0.0012375413085228,-0.0011209877779504,0.001120990899017,-0.0011209881674654,0.001120991289061,1.4671333378203e-09,1.6840484155964e-09,3.01326488827e-09,3.8762452501279e-10,-0.0011049396265048,0.0011049424203177,-0.0012375367581147,0.001237541647913,-0.0012375376428731,0.001237540764288,-0.0012375366972271,0.0012375417579409,-0.0012375375818754,0.0012375408741936,-0.0011209864638638,0.0011209921576078,-0.0011209894815395,0.0011209900304834,-0.0011209883830137,0.0011209901125906,-0.0011209887293994,0.0011209908808515,2.6183360652776e-09,2.6185469858929e-09,-0.0011049387199357,0.0011049433268693,1.1993866355028e-09,3.92646723468e-09,-0.00123753682319,0.0012375417291282,-0.0012375358278384,0.0012375425731772,-0.0012375367472294,0.0012375416537871,-0.0012375358119666,0.0012375425579179,-0.0011209868110694,0.0011209926289653,-0.0011209863689103,0.0011209921862769,0.55664260548471,125301,3014,0.0045935175414772,0.0045935175414759,0.0045935175414397,40.762297735673,0.00024129838188538,0.00024129838188538,0.00024129838188538,3387824.8714453,0.013876311915603
7919200,0.88532870599367,0.014595053868238,0.0048650179560949,0.0048650179560944,0.0048650179560486,-0.0011332259717113,0.0011332314363323,2.7232482529881e-09,2.723458640208e-09,2.4496534262399e-09,2.7003273053838e-09,-0.0012787150679038,0.001278721395188,-0.0012787148451077,0.0012787211730009,-0.0012787148163288,0.0012787213206192,-0.0012787146030817,0.0012787211079731,-0.0011495596847406,0.0011495649651888,-0.0011495599979501,0.001149565278925,2.449654521852e-09,2.700339084217e-09,5.0307440361448e-09,4.1597548939053e-10,-0.0011332259717042,0.0011332314363387,-0.00127871428098,0.0012787221563292,-0.0012787156320193,0.0012787204118681,-0.0012787140342315,0.0012787220865959,-0.0012787153851601,0.0012787203420117,-0.0011495573962534,0.0011495671967726,-0.0011495622864239,0.0011495630473553,-0.0011495606382902,0.001149563792615,-0.0011495609166497,0.0011495645420711,3.7900021266837e-09,3.7902124713166e-09,-0.0011332249169073,0.0011332324911194,1.3749509182815e-09,6.0923429876919e-09,-0.0012787148817623,0.0012787217284359,-0.0012787130170938,0.0012787230305242,-0.0012787146001632,0.0012787214474556,-0.0012787128047679,0.0012787228188101,-0.0011495581642141,0.0011495670957267,-0.0011495577903358,0.0011495667213214,0.5070717593097,125301,3014,0.0047108702257265,0.004710870225725,0.0047108702256911,40.956004974887,0.0002428480397991,0.0002428480397991,0.0002428480397991,3407689.9410142,0.01423336919557
8419200,0.91888009737538,0.014958459038843,0.0049861530129628,0.0049861530129622,0.0049861530129175,-0.0011507484606659,0.00115075403543,2.7843131647323e-09,2.7845231037306e-09,2.5039431332561e-09,2.7614477237852e-09,-0.0013071185358664,0.0013071250129593,-0.0013071183019567,0.0013071247796582,-0.001307118269488,0.001307124929049,-0.0013071180449246,0.0013071247050863,-0.0011678776005622,0.0011678829995575,-0.0011678779254688,0.0011678833249891,2.5039443338864e-09,2.7614597209297e-09,5.1511062303596e-09,4.1774298613059e-10,-0.0011507484606586,0.0011507540354366,-0.0013071177296782,0.001307125794064,-0.0013071191081323,0.0013071239985622,-0.0013071174680253,0.0013071257148882,-0.001307118846368,0.0013071239192627,-0.0011678752545631,0.0011678852898031,-0.0011678802714542,0.001167881034758,-0.0011678785808343,0.0011678817981804,-0.0011678788660452,0.0011678825687496,3.838924303733e-09,3.8391342216142e-09,-0.0011507474191549,0.0011507550769248,1.3648075947707e-09,6.2008005970335e-09,-0.0013071183844548,0.0013071253129089,-0.0013071164679583,0.0013071266419888,-0.0013071180904377,0.0013071250195102,-0.0013071162434512,0.0013071264180932,-0.0011678760855757,0.0011678851491952,-0.0011678756980673,0.0011678847611614,0.48138031764921,125301,3014,0.0047835685484036,0.004783568548402,0.0047835685483698,41.432191007722,0.00024665752806178,0.00024665752806178,0.00024665752806178,3381710.904101,0.014454648512247
8919200,0.94334197748309,0.015195503259611,0.0050651677532189,0.0050651677532183,0.0050651677531742,-0.0011590783787097,0.0011590842974507,2.9283413807103e-09,2.9285509817777e-09,2.6416590331298e-09,2.9051647892099e-09,-0.0013247664513054,0.00132477325294,-0.0013247661919325,0.0013247729941755,-0.0013247661584021,0.0013247731453593,-0.0013247659086355,0.0013247728961931,-0.0011769056616875,0.0011769113592624,-0.0011769059828489,0.0011769116809478,2.641660333024e-09,2.9051768459555e-09,5.323425542315e-09,5.3347994246371e-10,-0.0011590783787023,0.0011590842974573,-0.0013247656344264,0.0013247740433423,-0.0013247670087987,0.0013247722037819,-0.0013247653463788,0.0013247739406263,-0.0013247667206393,0.0013247721009417,-0.0011769032871777,0.0011769136758808,-0.001176908357345,0.0011769093643439,-0.0011769066569908,0.0011769101405121,-0.0011769069359501,0.0011769109154939,3.9608110570587e-09,3.9610206378326e-09,-0.0011590773602182,0.0011590853159265,1.4553625329677e-09,6.3504765676235e-09,-0.0013247663342757,0.0013247735199644,-0.0013247643716421,0.0013247748431313,-0.0013247660142336,0.0013247732005405,-0.0013247641214369,0.0013247745935374,-0.0011769041564482,0.0011769134928751,-0.0011769037710349,0.0011769131069375,0.43063171924148,125301,3014,0.0048181431037246,0.0048181431037229,0.0048181431036919,41.891214648855,0.00025032971719084,0.00025032971719084,0.00025032971719084,3328282.0629105,0.014559930969545
9419200,0.96008748765254,0.015349399433861,0.0051164664779688,0.0051164664779681,0.0051164664779244,-0.0011614948227223,0.0011615029616438,3.7949684997879e-09,3.7951778119818e-09,3.4762884368921e-09,3.7664134196554e-09,-0.0013328503438287,0.0013328591157074,-0.0013328499123642,0.0013328586848508,-0.0013328498896679,0.0013328588498634,-0.001332849467318,0.0013328584281135,-0.0011799052817205,0.0011799128042211,-0.0011799055486526,0.0011799130716763,3.4762895504322e-09,3.7664257999831e-09,7.1611037234036e-09,4.2905591950509e-10,-0.0011614948227147,0.0011615029616505,-0.0013328492049331,0.001332860230191,-0.0013328510512468,0.0013328575703759,-0.0013328487553822,0.0013328599689662,-0.0013328506015837,0.0013328573090266,-0.0011799019572126,0.0011799160729929,-0.0011799088731459,0.0011799098029192,-0.0011799066126271,0.0011799112189864,-0.0011799068451759,0.0011799119850829,4.9663537217734e-09,4.9665630176737e-09,-0.001161493665484,0.0011615041188667,1.4924880938956e-09,8.3275979175411e-09,-0.0013328504288739,0.0013328592028565,-0.0013328476409653,0.001332860993214,-0.0013328499297898,0.0013328587043903,-0.0013328472192929,0.0013328605721524,-0.001179903262828,0.0011799153433593,-0.0011799029246256,0.0011799150046336,0.40723906797413,125301,3014,0.0048281875850586,0.0048281875850569,0.0048281875850268,41.151422213946,0.00024441137771157,0.00024441137771157,0.00024441137771157,3297011.636421,0.014590534056303
9919200,0.97135168254445,0.015452485692366,0.0051508285641368,0.0051508285641361,0.0051508285640927,-0.0011603885447937,0.0011603979616417,4.2996950736199e-09,4.2999041938785e-09,3.9643471890911e-09,4.2684481718972e-09,-0.0013365515199179,0.0013365614254508,-0.0013365509909021,0.0013365608970426,-0.001336550973635,0.0013365610688943,-0.0013365504537965,0.0013365605496555,-0.0011795011041848,0.0011795096885272,-0.001179501341864,0.0011795099267288,3.9643483422888e-09,4.2684604956898e-09,8.1250799198816e-09,4.7453263385009e-10,-0.0011603885447861,0.0011603979616483,-0.0013365502276137,0.0013365626929297,-0.0013365522831932,0.0013365596295723,-0.0013365496859722,0.0013365623410239,-0.0013365517414393,0.0013365592775417,-0.001179497329749,0.0011795134066609,-0.0011795051162855,0.0011795062086097,-0.0011795025949135,0.0011795079290046,-0.0011795028015033,0.0011795086882937,5.5187694045594e-09,5.5189785031128e-09,-0.0011603873400836,0.0011603991663367,1.5845395423458e-09,9.3391347992543e-09,-0.0013365517190544,0.0013365614092573,-0.001336548523907,0.0013365634053269,-0.0013365511192071,0.0013365608100276,-0.0013365480051534,0.0013365628871838,-0.0011794988566035,0.0011795123981704,-0.0011794985440319,0.001179512085076,0.40432824355073,125301,3014,0.0048236216163045,0.0048236216163028,0.0048236216162733,39.828570370613,0.0002338285629649,0.0002338285629649,0.0002338285629649,3260519.4695258,0.014576670178192
10419200,0.97892127180517,0.015526159411996,0.0051753864706803,0.0051753864706795,0.0051753864706363,-0.0011572045600348,0.001157214903428,4.6646218308285e-09,4.6648308244439e-09,4.3190866721022e-09,4.6316476632844e-09,-0.0013376083024671,0.0013376190129383,-0.00133760770455,0.0013376184156289,-0.0013376076908997,0.001337618591309,-0.0013376071024601,0.0013376180034691,-0.0011771247142309,0.0011771340692689,-0.0011771249284706,0.0011771342840306,4.3190878664075e-09,4.6316599630924e-09,8.7392082867955e-09,5.902576649721e-10,-0.0011572045600273,0.0011572149034347,-0.001337606925854,0.0013376203632542,-0.00133760908115,0.0013376170653216,-0.0013376063190783,0.0013376199464257,-0.0013376084742616,0.0013376166483681,-0.0011771206950117,0.0011771380302481,-0.0011771289476758,0.0011771303230663,-0.0011771262922366,0.0011771322145703,-0.0011771264774701,0.0011771329630443,5.8934125328219e-09,5.8936214923207e-09,-0.0011572033456905,0.0011572161177574,1.7072186834352e-09,9.9625246700334e-09,-0.0013376085798954,0.0013376189243731,-0.001337605147123,0.0013376210171984,-0.0013376079096135,0.0013376182547086,-0.0013376045599741,0.0013376204306598,-0.0011771223508135,0.0011771368480527,-0.0011771220597143,0.0011771365564311,0.42845224819223,125301,3014,0.0048104385699312,0.0048104385699295,0.0048104385699003,38.100565159668,0.00022000452127734,0.00022000452127734,0.00022000452127734,3223795.0862629,0.014536579853001
10919200,0.98447192138886,0.015576080990838,0.0051920269969609,0.0051920269969602,0.0051920269969171,-0.0011552663085918,0.0011552740829534,3.6732505751281e-09,3.6734594889224e-09,3.3625489662608e-09,3.6471465725287e-09,-0.0013402362942608,0.001340244751716,-0.0013402358963923,0.0013402443544552,-0.0013402358659268,0.0013402445125174,-0.0013402354761623,0.0013402441233525,-0.0011759279350202,0.0011759351978055,-0.0011759282103757,0.001175935473683,3.3625502571418e-09,3.6471589245079e-09,7.0095375817348e-09,3.3718584443891e-10,-0.0011552663085842,0.0011552740829601,-0.0013402351687856,0.0013402458569555,-0.0013402370218543,0.0013402432492245,-0.0013402347445566,0.001340245621871,-0.0013402365975125,0.0013402430140147,-0.0011759246425672,0.0011759384413269,-0.0011759315028147,0.0011759322301766,-0.0011759292553756,0.0011759336362958,-0.0011759294884145,0.0011759343959264,4.7706834597186e-09,4.7708923140441e-09,-0.0011552652260905,0.00115527516544,1.3326209455802e-09,8.1036393131168e-09,-0.001340236437954,0.0013402447713413,-0.0013402337076512,0.0013402465743773,-0.0013402359740122,0.001340244308017,-0.0013402333169593,0.0013402461842958,-0.001175926009756,0.0011759376624266,-0.0011759256641999,0.0011759373163482,0.39597081456719,125301,3014,0.0048024165716631,0.0048024165716613,0.0048024165716324,37.946309376268,0.00021877047501014,0.00021877047501014,0.00021877047501014,3171737.4387889,0.014512203793752
11419200,0.98851635043199,0.015612425822708,0.0052041419409175,0.0052041419409167,0.0052041419408737,-0.0011545608661872,0.001154568972785,3.7999380952055e-09,3.8001468938856e-09,3.4825049148065e-09,3.7728453875161e-09,-0.0013407445792636,0.0013407533379793,-0.0013407441525509,0.0013407529118741,-0.0013407441241819,0.0013407530732083,-0.0013407437061174,0.0013407526557431,-0.0011755454180037,0.0011755529497762,-0.0011755456886257,0.0011755532209199,3.4825061639287e-09,3.7728577972878e-09,7.1332467933774e-09,4.6685160446057e-10,-0.0011545608661796,0.0011545689727917,-0.0013407434525845,0.0013407544419055,-0.0013407452792168,0.0013407518079566,-0.0013407430018799,0.0013407541815208,-0.0013407448283992,0.0013407515474465,-0.0011755421267823,0.0011755561878522,-0.0011755489798329,0.0011755499828589,-0.0011755467414637,0.0011755513795583,-0.0011755469706488,0.0011755521444791,4.9032378077448e-09,4.9034465459562e-09,-0.0011545597781249,0.0011545700608326,1.4636957715695e-09,8.2322802724885e-09,-0.0013407447194483,0.0013407533643445,-0.001340741959942,0.0013407551379717,-0.0013407442262005,0.0013407528717139,-0.0013407415412418,0.0013407547198815,-0.0011755434832709,0.0011755554146992,-0.0011755431410305,0.001175555071937,0.39457194111806,125301,3014,0.0047994959336368,0.004799495933635,0.0047994959336064,37.628643243777,0.00021622914595022,0.00021622914595022,0.00021622914595022,3163158.2663794,0.014503317986284
11919200,0.9914475351809,0.015640876772243,0.0052136255907624,0.0052136255907617,0.0052136255907187,-0.0011528746730987,0.0011528832104518,3.9675759667483e-09,3.9677847006069e-09,3.6458716017723e-09,3.9397443305151e-09,-0.0013411876558422,0.0013411967857958,-0.0013411871965097,0.0013411963270707,-0.0013411871701342,0.0013411964901808,-0.001341186719955,0.0013411960406008,-0.0011742568191203,0.0011742647061012,-0.0011742570790559,0.0011742649665582,3.6458728857628e-09,3.9397566992953e-09,7.3241705030474e-09,6.1120357099179e-10,-0.0011528746730911,0.0011528832104585,-0.0013411865193905,0.0013411978971351,-0.0013411883329481,0.0013411952157402,-0.0013411860383123,0.0013411976061589,-0.0013411878517568,0.0013411949246385,-0.0011742535037708,0.001174267964963,-0.0011742603943913,0.0011742617077113,-0.0011742581525513,0.0011742631231288,-0.0011742583719187,0.0011742638824566,5.0622833800706e-09,5.0624920507547e-09,-0.0011528735937097,0.0011528842898262,1.5953597513547e-09,8.4138188796969e-09,-0.0013411878143617,0.0013411967958284,-0.0013411850049306,0.0013411985538818,-0.0013411872883647,0.0013411962704485,-0.0013411845542692,0.0013411981038304,-0.0011742548742785,0.0011742671598545,-0.0011742545420119,0.0011742668270663,0.42516298576731,125301,3014,0.0047925141621885,0.0047925141621867,0.0047925141621582,37.10527631633,0.00021204221053064,0.00021204221053064,0.00021204221053064,3139729.2806587,0.014482088304117
12419200,0.99360551755185,0.015662913294288,0.0052209710981109,0.0052209710981101,0.0052209710980672,-0.0011503752671283,0.0011503834781665,3.8420213372972e-09,3.8422300293924e-09,3.5269447344946e-09,3.8154462255015e-09,-0.0013418632591924,0.0013418720898256,-0.0013418628280116,0.0013418716592522,-0.0013418627983731,0.0013418718182261,-0.0013418623756516,0.001341871396104,-0.0011723219175256,0.0011723295406536,-0.0011723221827634,0.0011723298064128,3.5269460533366e-09,3.8154585501434e-09,7.1941899567513e-09,4.9007482762245e-10,-0.0011503752671207,0.0011503834781732,-0.0013418621267381,0.001341873200198,-0.0013418639604527,0.0013418705488886,-0.0013418616702017,0.0013418729328905,-0.001341863503803,0.0013418702814554,-0.0011723186081767,0.0011723327976531,-0.0011723254920982,0.0011723265494283,-0.0011723232466074,0.0011723279686895,-0.0011723234691702,0.0011723287231532,4.9149022365222e-09,4.9151108721485e-09,-0.0011503742095379,0.0011503845357423,1.457191698088e-09,8.2630358659851e-09,-0.0013418634343254,0.0013418720784571,-0.0013418606588355,0.0013418738606908,-0.0013418629373891,0.001341871582138,-0.0013418602350809,0.0013418734375463,-0.0011723200017513,0.0011723319768037,-0.0011723196654305,0.0011723316399611,0.44663644431852,125301,3014,0.0047821645858196,0.0047821645858178,0.0047821645857895,36.802578992312,0.0002096206319385,0.0002096206319385,0.0002096206319385,3099587.0955054,0.01445062173939
12919200,0.99517551486854,0.015677942265559,0.005225980755201,0.0052259807552002,0.0052259807551573,-0.0011469755024953,0.0011469844065693,4.1072313935473e-09,4.1074400560552e-09,3.7848124501071e-09,4.0793463616512e-09,-0.0013408685323032,0.0013408779515105,-0.0013408680481846,0.0013408774679994,-0.0013408680222728,0.0013408776302244,-0.0013408675474416,0.0013408771559926,-0.0011693829038299,0.0011693910924911,-0.0011693831508183,0.001169391340001,3.7848137302785e-09,4.0793586973993e-09,7.4930932735502e-09,7.2159155052545e-10,-0.0011469755024878,0.001146984406576,-0.0013408673853159,0.0013408790725577,-0.0013408691951587,0.0013408763469608,-0.0013408668799824,0.0013408787559777,-0.0013408686897119,0.0013408760302551,-0.0011693795594186,0.0011693943792818,-0.0011693864952155,0.0011693880532251,-0.0011693842476473,0.0011693895006436,-0.0011693844536151,0.0011693902456885,5.1737004687668e-09,5.1739090580416e-09,-0.0011469744513682,0.001146985457682,1.6757568757189e-09,8.5542424711761e-09,-0.0013408687285258,0.0013408779227842,-0.0013408658746967,0.0013408796768994,-0.0013408681783607,0.0013408773732362,-0.00134086539922,0.0013408792020328,-0.00116938096446,0.0011693935155209,-0.001169380645226,0.0011693931957653,0.41875849256559,125301,3014,0.0047680793274947,0.0047680793274929,0.0047680793274647,36.137129961077,0.00020429703968862,0.00020429703968862,0.00020429703968862,3069837.9554508,0.014407777156813
13419200,0.99629410550564,0.015688411187548,0.0052294703958641,0.0052294703958633,0.0052294703958204,-0.0011438903123309,0.0011439004573076,4.5833882573408e-09,4.5835968660856e-09,4.2431174147344e-09,4.5523507128694e-09,-0.0013376814973654,0.0013376920071162,-0.0013376809128511,0.0013376914232092,-0.0013376808952879,0.0013376915945546,-0.0013376803217305,0.0013376910215964,-0.0011664074646319,0.0011664166641337,-0.0011664076860946,0.0011664168861177,4.2431186801705e-09,4.5523631044467e-09,8.0629328474205e-09,1.1040656586037e-09,-0.0011438903123233,0.0011439004573143,-0.0013376803127296,0.0013376931582113,-0.0013376820974736,0.0013376902721228,-0.0013376797161837,0.0013376927511905,-0.0013376815008145,0.0013376898649763,-0.0011664040243114,0.0011664200364111,-0.0011664111264009,0.0011664135138553,-0.0011664088480947,0.0011664150177,-0.0011664090326566,0.0011664157616057,5.6720975028442e-09,5.6723060394735e-09,-0.0011438892391401,0.0011439015304841,2.0678115968634e-09,9.1437724930857e-09,-0.0013376817117355,0.0013376919709514,-0.0013376786882943,0.001337693690529,-0.0013376810594956,0.0013376913193285,-0.0013376781151798,0.0013376931180245,-0.0011664054454699,0.0011664191148444,-0.0011664051485152,0.0011664188173683,0.40900439415344,125301,3014,0.0047552859566021,0.0047552859566003,0.0047552859565722,34.796595856776,0.00019357276685421,0.00019357276685421,0.00019357276685421,3075490.0638776,0.014368837704884
13919200,0.99711779940641,0.01569595824377,0.0052319860812716,0.0052319860812708,0.0052319860812279,-0.0011414154949176,0.0011414250158277,4.3444942426831e-09,4.3447028156054e-09,4.0116531329858e-09,4.3149167558432e-09,-0.0013357489700477,0.0013357589476524,-0.0013357484340683,0.0013357584122801,-0.0013357484121046,0.0013357585794882,-0.0013357478858415,0.0013357580538241,-0.0011640401113494,0.0011640488025174,-0.0011640403524284,0.0011640490441174,4.0116544110446e-09,4.3149291986763e-09,7.8763413759946e-09,8.1286908049977e-10,-0.00114141549491,0.0011414250158344,-0.001335747772715,0.0013357601170541,-0.0013357496313877,0.0013357572428871,-0.0013357472196833,0.0013357597538105,-0.0013357490782426,0.0013357568795177,-0.0011640366227537,0.0011640522304436,-0.0011640438410099,0.0011640456162063,-0.0011640415088342,0.0011640471477479,-0.001164041710764,0.0011640479018388,5.4377644098534e-09,5.4379729152485e-09,-0.0011414144172059,0.0011414260935251,1.7903339607029e-09,8.9635532018084e-09,-0.0013357491936412,0.0013357588978807,-0.0013357461878485,0.00133576069742,-0.0013357485902064,0.0013357582950628,-0.0013357456614468,0.0013357601716281,-0.001164038091075,0.0011640512945843,-0.0011640377755173,0.0011640509785052,0.40047476240274,125301,3014,0.0047450239185082,0.0047450239185064,0.0047450239184784,33.829548968996,0.00018583639175197,0.00018583639175197,0.00018583639175197,3070010.9310727,0.014337614284104
14419200,0.99772527384288,0.01570126707717,0.0052337556924047,0.005233755692404,0.0052337556923611,-0.0011385100776286,0.0011385200023078,4.5003700601368e-09,4.5005786072952e-09,4.162632393026e-09,4.4699583140771e-09,-0.0013333249477532,0.0013333352766236,-0.0013333243805267,0.0013333347100043,-0.0013333243608267,0.001333334879548,-0.0013333238036883,0.0013333343230086,-0.0011612506913196,0.0011612597133985,-0.001161250922831,0.001161259945431,4.1626336920864e-09,4.4699706724293e-09,8.0942810543991e-09,9.0668105311351e-10,-0.001138510077621,0.0011385200023145,-0.001333323728294,0.0013333364664465,-0.0013333255999727,0.0013333335201901,-0.0013333231464648,0.0013333360744773,-0.0013333250180301,0.0013333331280951,-0.0011612471410941,0.0011612632007976,-0.0011612544730422,0.0011612564580468,-0.0011612521116334,0.001161258031883,-0.001161252305057,0.0011612587827597,5.600151955496e-09,5.6003604367741e-09,-0.0011385089934438,0.0011385210864783,1.8878107615594e-09,9.1874727299852e-09,-0.0013333251880515,0.0013333352131458,-0.0013333221079452,0.0013333370234019,-0.0013333245528183,0.0013333345785295,-0.0013333215509241,0.0013333364669906,-0.0011612486341628,0.0011612622229896,-0.001161248327268,0.0011612619155735,0.38210045494667,125301,3014,0.0047329781457252,0.0047329781457234,0.0047329781456955,32.643518035617,0.00017634814428494,0.00017634814428494,0.00017634814428494,3066008.6407503,0.014300963609755
14919200,0.99816100921195,0.015705226843712,0.0052350756145855,0.0052350756145848,0.0052350756145419,-0.001134281350157,0.0011342928319527,5.1006879530137e-09,5.1008964680555e-09,4.7429920383195e-09,5.0666095544972e-09,-0.0013290522255309,0.0013290639121164,-0.0013290515357516,0.0013290632229441,-0.0013290515260172,0.0013290634027036,-0.0013290508483599,0.0013290627256452,-0.0011570840956782,0.0011570943904563,-0.0011570842910083,0.0011570945863074,4.7429933801548e-09,5.0666218655843e-09,8.8211438945011e-09,1.3804538393095e-09,-0.0011342813501494,0.0011342928319594,-0.0013290509561129,0.0013290651426652,-0.0013290528051563,0.0013290619924041,-0.0013290502627136,0.0013290646393758,-0.0013290521116435,0.0013290614889889,-0.0011570804165518,0.0011570979943064,-0.0011570879701207,0.0011570909824724,-0.001157085567007,0.0011570926412977,-0.0011570857296508,0.0011570933826241,6.2205321774237e-09,6.2207406444669e-09,-0.0011342802459566,0.0011342939361389,2.3663652055791e-09,9.9313671836379e-09,-0.0013290524981481,0.001329063828626,-0.001329049203085,0.0013290656049485,-0.0013290517384698,0.0013290630695645,-0.0013290485267909,0.0013290649292641,-0.0011570819388371,0.0011570969260103,-0.0011570816646809,0.0011570966513329,0.39678962402156,125301,3014,0.0047154440577146,0.0047154440577129,0.0047154440576851,30.580728166019,0.00015984582532815,0.00015984582532815,0.00015984582532815,3072414.5155544,0.014247609034418
15419200,0.9984579156912,0.015708544640586,0.0052361815468767,0.0052361815468759,0.0052361815468331,-0.0011260753925026,0.0011260894044033,6.0749852994868e-09,6.0751938210578e-09,5.6895806167471e-09,6.0354365670264e-09,-0.001322369753684,0.0013223836106127,-0.0013223688709604,0.001322382728496,-0.0013223688759461,0.001322382921715,-0.001322368008187,0.0013223820545549,-0.0011491514292071,0.0011491637917465,-0.0011491515623986,0.0011491639254591,5.6895817795287e-09,6.0354488976147e-09,1.0033399253133e-08,2.1167932881334e-09,-0.001126075392495,0.00112608940441,-0.0013223683938811,0.0013223849185368,-0.0013223702307502,0.0013223814205806,-0.0013223675236786,0.0013223842371838,-0.0013223693604342,0.0013223807391018,-0.0011491475099775,0.001149167617725,-0.0011491554816141,0.0011491600994954,-0.0011491529910026,0.0011491619289709,-0.0011491531008213,0.0011491626437972,7.2125982423099e-09,7.2128067000005e-09,-0.0011260742703768,0.0011260905265149,3.0987760086377e-09,1.1156967961199e-08,-0.0013223701018116,0.0013223834686573,-0.0013223664439155,0.0013223852168569,-0.0013223691466553,0.0013223825141179,-0.0013223655792091,0.0013223843527604,-0.0011491491111531,0.001149166362601,-0.0011491488946553,0.0011491661455819,0.48651353790675,125301,3014,0.0046814261342538,0.0046814261342519,0.004681426134224,27.073080429637,0.0001317846434371,0.0001317846434371,0.0001317846434371,3061642.2936583,0.014144124372595
15919200,0.99868605542729,0.015711673006708,0.0052372243355841,0.0052372243355833,0.0052372243355404,-0.0011186084265357,0.0011186193904627,4.8984118891733e-09,4.8986204048033e-09,4.5562866726874e-09,4.8666977117255e-09,-0.001319497256919,0.0013195084276661,-0.0013194966204156,0.00131950779177,-0.0013194966032197,0.0013195079610184,-0.0013194959762289,0.0013195073346267,-0.0011424172095567,0.0011424270803021,-0.0011424174182811,0.0011424272895478,4.5562879112235e-09,4.86671002975e-09,8.9054741110402e-09,8.9157192856775e-10,-0.0011186084265281,0.0011186193904694,-0.0013194959015959,0.0013195097556862,-0.0013194979757256,0.0013195064637589,-0.0013194952527062,0.0013195092938572,-0.0013194973267223,0.0013195060018036,-0.0011424132556431,0.0011424309733938,-0.0011424213721803,0.0011424233964711,-0.0011424187670003,0.0011424252574665,-0.0011424189416247,0.0011424259889655,6.0010723161836e-09,6.001280804785e-09,-0.0011186073390276,0.0011186204779565,1.8788464016792e-09,1.0002043616154e-08,-0.0013194976336532,0.0013195082303749,-0.0013194942092421,0.0013195102444094,-0.0013194969281566,0.0013195075254957,-0.0013194935822915,0.0013195096180689,-0.0011424149899558,0.0011424297081078,-0.0011424147052554,0.0011424294228859,0.59571470761932,125301,3014,0.0046504776590072,0.0046504776590055,0.0046504776589775,25.355161496747,0.00011804129197398,0.00011804129197398,0.00011804129197398,3002038.8067683,0.014050022484595
16419200,0.99887116644875,0.0157138072457,0.0052379357485815,0.0052379357485807,0.0052379357485379,-0.0011112895092703,0.001111299150801,4.3845828420333e-09,4.3847913654866e-09,4.0613314945812e-09,4.3568248832552e-09,-0.0013171441859651,0.0013171541830525,-0.001317143655002,0.0013171536526971,-0.0013171436282368,0.0013171538115552,-0.0013171431047593,0.0013171532886771,-0.0011359644379674,0.0011359732286691,-0.00113596467064,0.0011359734618637,4.0613329338007e-09,4.3568369707811e-09,8.357947793847e-09,4.1144001421841e-10,-0.0011112895092627,0.0011112991508077,-0.0013171428497227,0.0013171555011377,-0.0013171449912311,0.0013171523346209,-0.0013171422957907,0.0013171551334455,-0.0013171444371854,0.0013171519668024,-0.0011359605223673,0.0011359770970583,-0.001135968586226,0.0011359695934899,-0.0011359659764,0.0011359714432146,-0.0011359661674385,0.0011359721712632,5.4531164029782e-09,5.4533248817858e-09,-0.0011112884558319,0.0011113002042253,1.3799098145847e-09,9.4238020538748e-09,-0.0013171445752998,0.0013171539605146,-0.0013171412872001,0.0013171560537336,-0.0013171439775512,0.0013171533633833,-0.0013171407624734,0.001317155529617,-0.0011359622891357,0.0011359758350694,-0.0011359619838843,0.0011359755292964,0.50210013400473,125301,3014,0.004620147697663,0.0046201476976612,0.0046201476976336,24.41273373702,0.00011050186989616,0.00011050186989616,0.00011050186989616,2934042.9699819,0.013957810078087
16919200,0.99902500631924,0.015716125772262,0.0052387085907687,0.0052387085907679,0.0052387085907251,-0.0011106270661737,0.0011106361821421,4.180885797897e-09,4.1810942469114e-09,3.854320813939e-09,4.1530663131749e-09,-0.0013129782203715,0.0013129878277589,-0.0013129777188426,0.0013129873268372,-0.0013129776915882,0.0013129874881203,-0.0013129771971302,0.0013129869942611,-0.0011350741362484,0.0011350824930324,-0.0011350743929558,0.001135082750261,3.8543221101539e-09,4.1530786719113e-09,8.1021075357167e-09,2.5988592392146e-10,-0.0011106270661661,0.0011106361821488,-0.001312976903188,0.0013129891287804,-0.0013129790360129,0.0013129860258243,-0.0013129763779934,0.0013129887927397,-0.0013129785107048,0.0013129856896575,-0.0011350702729603,0.0011350863120954,-0.0011350782562299,0.0011350789312131,-0.0011350756602756,0.0011350807180153,-0.0011350758732877,0.0011350814775502,5.2902368014853e-09,5.2904452098245e-09,-0.0011106259724261,0.0011106372758756,1.2726167187563e-09,9.2094266424553e-09,-0.00131297855408,0.0013129876631646,-0.001312975330585,0.0013129897486987,-0.0013129779847915,0.001312987094493,-0.0013129748351014,0.0013129892538249,-0.001135071989109,0.001135085145411,-0.0011350716583665,0.0011350848141471,0.65164127745866,125301,3014,0.0046173757768267,0.0046173757768249,0.0046173757767975,23.780232204316,0.00010544185763453,0.00010544185763453,0.00010544185763453,2979619.6296677,0.013949323417814
17419200,0.99914569204672,0.015717757608215,0.0052392525360863,0.0052392525360856,0.0052392525360427,-0.0011013182511468,0.0011013294391758,4.9702064864565e-09,4.9704149664699e-09,4.6308995506975e-09,4.9397540069059e-09,-0.001310189211888,0.0013102005168128,-0.0013101885609346,0.0013101998664669,-0.0013101885425583,0.0013102000328589,-0.0013101879011176,0.0013101993920177,-0.001126563320027,0.0011265733669806,-0.0011265635173227,0.0011265735647979,4.6309006686742e-09,4.9397664305502e-09,8.9344285083736e-09,1.0062063217339e-09,-0.0011013182511392,0.0011013294391825,-0.0013101878704612,0.0013102018305977,-0.0013101899023482,0.0013101985526906,-0.0013101872059413,0.0013102013514629,-0.0013101892377145,0.0013101980734296,-0.0011265594086263,0.0011265772187625,-0.0011265674287095,0.001126569713031,-0.0011265648635113,0.001126571565697,-0.0011265650221461,0.0011265722776746,6.0281719790428e-09,6.0283804229397e-09,-0.001101317208585,0.0011013304817235,1.9479985855245e-09,9.9865947592381e-09,-0.0013101896167794,0.0013102002869332,-0.0013101862078216,0.0013102022600815,-0.0013101888985665,0.0013101995693376,-0.0013101855660468,0.0013102016189165,-0.0011265611480061,0.0011265759250348,-0.0011265608755405,0.0011265756520472,0.58772740813402,125301,3014,0.0045788088725228,0.004578808872521,0.0045788088724936,21.984171982035,9.1073375856279e-05,9.1073375856279e-05,9.1073375856279e-05,2889281.8124769,0.013832097238842
17919200,0.99923789684493,0.015718799867646,0.0052395999558966,0.0052395999558959,0.005239599955853,-0.0010957832267009,0.0010957956763238,5.4496370782398e-09,5.4498454951669e-09,5.0866456890541e-09,5.4150441350893e-09,-0.0013025241006501,0.0013025365484916,-0.0013025233396768,0.0013025357881256,-0.0013025233316418,0.0013025359666766,-0.0013025225819565,0.0013025352175904,-0.001121052398668,0.0011210634646609,-0.0011210525818414,0.0011210636483559,5.0866468337022e-09,5.4150567279325e-09,9.5230969328742e-09,1.3763989807164e-09,-0.0010957832266932,0.0010957956763305,-0.0013025227158819,0.0013025378974733,-0.0013025247244318,0.0013025344391524,-0.0013025219525709,0.0013025373213651,-0.0013025239610071,0.001302533862918,-0.0011210483756924,0.001121067416576,-0.0011210566048026,0.0011210596964561,-0.0011210539901156,0.0011210615945592,-0.0011210541394169,0.0011210623261918,6.5537353502367e-09,6.5539437295473e-09,-0.0010957821383505,0.0010957967646601,2.3506325385101e-09,1.0618521219392e-08,-0.0013025245082701,0.0013025363303193,-0.0013025209084286,0.0013025382691015,-0.0013025236774324,0.0013025355000985,-0.001302520159853,0.0013025375211356,-0.0011210501294989,0.0011210660901883,-0.0011210498664401,0.001121065826608,0.4915601615792,125301,3014,0.0045558385729455,0.0045558385729436,0.0045558385729164,19.504465622066,7.1235724976531e-05,7.1235724976531e-05,7.1235724976531e-05,2919999.2787159,0.013762197570132
18419200,0.99931119027808,0.01571966757019,0.0052398891900781,0.0052398891900773,0.0052398891900345,-0.0010939199753639,0.0010939316679414,5.1676622609063e-09,5.1678706266586e-09,4.8051654840517e-09,5.1336390314985e-09,-0.0012967727690616,0.0012967846509489,-0.0012967720577492,0.0012967839402432,-0.0012967720470686,0.0012967841194522,-0.0012967713460505,0.0012967834190327,-0.0011187542670781,0.0011187647197678,-0.0011187544861131,0.0011187649393237,4.8051666000303e-09,5.1336515458625e-09,9.3164359304001e-09,1.0191103134195e-09,-0.0010939199753562,0.0010939316679481,-0.0012967713633496,0.0012967860256025,-0.0012967734634477,0.0012967825655982,-0.0012967706465573,0.0012967854993158,-0.0012967727465416,0.0012967820391852,-0.001118750172649,0.0011187687491938,-0.0011187585805279,0.0011187609099126,-0.0011187558843515,0.001118762821787,-0.0011187560676218,0.0011187635928094,6.3184459772831e-09,6.3186542792138e-09,-0.001093918840727,0.0010939328025644,2.0480458777513e-09,1.0460108582584e-08,-0.0012967731558209,0.0012967844545107,-0.0012967695574587,0.0012967864887082,-0.0012967723734307,0.0012967836727371,-0.0012967688574564,0.0012967857893152,-0.0011187519638619,0.0011187674515857,-0.0011187516639894,0.0011187671511921,0.51421839069127,125301,3014,0.0045480856359289,0.0045480856359268,0.0045480856359001,17.48088782214,5.5047102577116e-05,5.5047102577116e-05,5.5047102577116e-05,2975159.5818823,0.013738573565291
18919200,0.99937515165364,0.015720533353935,0.0052401777846597,0.0052401777846589,0.0052401777846161,-0.0010917862989682,0.001091795523706,4.2277795302962e-09,4.2279879021365e-09,3.9005715233057e-09,4.2000796242741e-09,-0.001296180552252,0.0012961902783332,-0.001296180044041,0.0012961897707291,-0.0012961800157699,0.0012961899314938,-0.0012961795140438,0.0012961894303664,-0.0011167150023669,0.0011167234534899,-0.0011167152748864,0.0011167237265305,3.9005726855748e-09,4.2000920365971e-09,8.3142702296423e-09,1.415106163216e-10,-0.0010917862989606,0.0010917955237127,-0.0012961791820698,0.0012961916348619,-0.00129618141421,0.001296188414209,-0.0012961786488835,0.0012961912913274,-0.00129618088091,0.0012961880705483,-0.0011167109782722,0.0011167274360063,-0.0011167192989667,0.001116719744029,-0.0011167165820044,0.0011167216220468,-0.0011167168106589,0.0011167223989856,5.3464986036965e-09,5.3467068971862e-09,-0.0010917851962525,0.0010917966264077,1.1673792626001e-09,9.4315927681827e-09,-0.0012961809324388,0.0012961900673464,-0.0012961775932741,0.0012961922542582,-0.0012961803560044,0.0012961894915286,-0.0012961770902074,0.001296191751801,-0.0011167128081035,0.0011167261862617,-0.0011167124607258,0.0011167258383628,0.5877987766322,125301,3014,0.0045392396438624,0.0045392396438605,0.0045392396438334,16.875473749102,5.0203789992818e-05,5.0203789992818e-05,5.0203789992818e-05,2950788.9884669,0.013711695673232
19419200,0.99943547473019,0.015721447100396,0.0052404823668136,0.0052404823668128,0.00524048236677,-0.001089986862744,0.0010899938480505,3.3701253883063e-09,3.3703337690286e-09,3.0727966303487e-09,3.3483024342766e-09,-0.0012978096382942,0.0012978174113362,-0.0012978093090554,0.0012978170827041,-0.0012978092660138,0.0012978172282178,-0.0012978089405956,0.0012978169033986,-0.0011154335226939,0.0011154401536256,-0.0011154338371611,0.0011154404686142,3.0727978952634e-09,3.3483150476891e-09,7.2767463742315e-09,-5.3627393495865e-10,-0.0010899868627363,0.0010899938480573,-0.0012978083385529,0.0012978187095829,-0.0012978106087831,0.0012978157844662,-0.0012978079682363,0.001297818528438,-0.0012978102383528,0.0012978156031947,-0.0011154296814864,0.0011154439706726,-0.0011154376783549,0.0011154366515817,-0.0011154350296897,0.0011154384217772,-0.0011154352907333,0.0011154391994417,4.4385690373803e-09,4.4387773476342e-09,-0.0010899858102299,0.0010899949005506,4.5979789109299e-10,8.3482652996815e-09,-0.0012978099929909,0.0012978172067931,-0.0012978069642045,0.0012978194479216,-0.0012978095988539,0.0012978168132729,-0.0012978066355408,0.0012978191198674,-0.0011154314821462,0.0011154428185364,-0.0011154310981226,0.0011154424339913,0.65664642788028,125301,3014,0.0045317913179896,0.0045317913179877,0.0045317913179606,17.5453298941,5.5562639152797e-05,5.5562639152797e-05,5.5562639152797e-05,2897382.2752771,0.013689085486359
19919200,0.99949364205523,0.01572230553426,0.0052407685114347,0.0052407685114339,0.0052407685113911,-0.0010886499302659,0.0010886560881602,3.0531696998203e-09,3.0533780898953e-09,2.766358627437e-09,3.0335808088651e-09,-0.0012994613108074,0.0012994683685048,-0.0012994610459879,0.0012994681042928,-0.0012994609979045,0.0012994682446728,-0.0012994607364418,0.0012994679838094,-0.0011146319873403,0.0011146379454723,-0.0011146323172642,0.0011146382759175,2.7663597687932e-09,3.0335932214142e-09,6.7781793583372e-09,-6.7161829704054e-10,-0.0010886499302583,0.0010886560881668,-0.0012994600734791,0.0012994696064437,-0.0012994622833031,0.0012994668663625,-0.0012994597623082,0.0012994694843528,-0.0012994619720179,0.0012994667441451,-0.0011146283252543,0.001114641586785,-0.0011146359793359,0.0011146346346197,-0.0011146334303925,0.0011146362883891,-0.0011146337024712,0.0011146370665791,4.0863019821029e-09,4.0865102827395e-09,-0.0010886489131871,0.001088657105225,2.9293996084116e-10,7.8152827629174e-09,-0.0012994616344601,0.0012994681873586,-0.0012994587944827,0.001299470372347,-0.0012994613066574,0.001299467860173,-0.0012994585291493,0.0012994701076235,-0.0011146300582239,0.0011146405305593,-0.001114629660705,0.0011146401325188,0.63949909152816,125301,3014,0.0045262608970422,0.0045262608970405,0.0045262608970133,18.681059624392,6.4648476995135e-05,6.4648476995135e-05,6.4648476995135e-05,2848757.1566258,0.013672297904018
20419200,0.99954558390906,0.015723134739241,0.0052410449130952,0.0052410449130944,0.0052410449130516,-0.001087195127154,0.0010872034485343,3.8785286267598e-09,3.8787369870711e-09,3.5652722707912e-09,3.8540476599601e-09,-0.0012976280897375,0.0012976370032476,-0.00129762765586,0.0012976365699772,-0.001297627621443,0.0012976367238023,-0.0012976271942637,0.0012976362972219,-0.0011132881641082,0.0011132958837109,-0.0011132884445689,0.0011132961646929,3.5652734869088e-09,3.8540602338297e-09,7.5322979852179e-09,2.2498110592707e-10,-0.0010871951271464,0.001087203448541,-0.0012976268628429,0.0012976382153645,-0.0012976288827412,0.0012976353578689,-0.001297626397951,0.0012976379393311,-0.0012976284177353,0.001297635081709,-0.0011132845637788,0.001113299442506,-0.0011132920448839,0.0011132926059129,-0.001113289596105,0.0011132942172079,-0.0011132898253512,0.0011132949800402,4.9160032670041e-09,4.9162115414356e-09,-0.0010871941060483,0.0010872044696262,1.1679786152168e-09,8.5684362913147e-09,-0.0012976283987787,0.001297636851608,-0.0012976254253338,0.0012976388290241,-0.0012976279004563,0.0012976363539023,-0.0012976249959904,0.0012976384002903,-0.0011132862022614,0.0011132984005036,-0.0011132858498993,0.00111329804762,0.69004788769245,125301,3014,0.0045202267144319,0.0045202267144301,0.0045202267144033,18.60194331616,6.4015546529283e-05,6.4015546529283e-05,6.4015546529283e-05,2849674.4292408,0.013653935708851
20919200,0.99958878691527,0.015723777837433,0.0052412592791591,0.0052412592791584,0.0052412592791155,-0.0010817062588174,0.0010817168505244,4.7453000830751e-09,4.7455084475038e-09,4.408253277153e-09,4.7162349355248e-09,-0.0012944298412099,0.0012944406876042,-0.0012944292329126,0.001294440079914,-0.0012944292114021,0.0012944402451597,-0.001294428612801,0.0012944396471573,-0.0011081323667927,0.0011081419348303,-0.0011081325999487,0.0011081421685079,4.4082545339123e-09,4.7162476112864e-09,8.4506433001374e-09,1.0401788410761e-09,-0.0010817062588096,0.0010817168505311,-0.0012944285850752,0.0012944419150197,-0.0012944304890339,0.001294438852507,-0.0012944279601689,0.0012944414774859,-0.0012944298640137,0.0012944384148469,-0.0011081287083866,0.0011081455322976,-0.0011081362583409,0.0011081385710565,-0.0011081338267553,0.0011081402221058,-0.0011081340159456,0.0011081409673988,5.7757703102111e-09,5.7759785702312e-09,-0.0010817052447712,0.0010817178645569,1.9524044605457e-09,9.4749459465523e-09,-0.0012944301861474,0.0012944405133427,-0.0012944269931138,0.0012944423590651,-0.0012944295121836,0.001294439839996,-0.0012944263937909,0.0012944417603519,-0.0011081303451089,0.0011081444156627,-0.0011081300363962,0.0011081441064286,0.64466974006305,125301,3014,0.0044974765414237,0.0044974765414216,0.0044974765413952,17.278377040605,5.342701632484e-05,5.342701632484e-05,5.342701632484e-05,2816652.2251226,0.013584782218376
21419200,0.99962346025793,0.015724291524781,0.0052414305082751,0.0052414305082744,0.0052414305082315,-0.0010773834602667,0.0010773954086583,5.2644375448114e-09,5.2646458660061e-09,4.9065290018776e-09,5.231620833957e-09,-0.001288642106813,0.0012886541588887,-0.0012886413867814,0.0012886534394638,-0.0012886413747713,0.0012886536152652,-0.0012886406661964,0.0012886529072889,-0.0011037993972889,0.0011038100671618,-0.0011037996133201,0.0011038102837143,4.9065300254061e-09,5.2316333747798e-09,9.0922988309127e-09,1.4367979420885e-09,-0.0010773834602591,0.0010773954086649,-0.0012886408029347,0.0012886554259525,-0.0012886426906463,0.0012886521724085,-0.0012886400766748,0.0012886548881202,-0.0012886419642724,0.0012886516344497,-0.0011037956143085,0.001103813777697,-0.0011038033962864,0.001103806573194,-0.0011038009079326,0.0011038082856589,-0.0011038010850036,0.0011038090429252,6.3264556636516e-09,6.3266638847023e-09,-0.0010773824148805,0.0010773964540307,2.3668049103964e-09,1.0145330229464e-08,-0.0012886424718375,0.0012886539771817,-0.0012886390777239,0.0012886557962018,-0.0012886416839829,0.0012886531899435,-0.0012886383696707,0.0012886550887582,-0.0011037972853728,0.0011038126028843,-0.0011037969898654,0.0011038123068559,0.64095610021346,125301,3014,0.0044795379496314,0.0044795379496294,0.0044795379496028,15.2329351561,3.7063481248797e-05,3.7063481248797e-05,3.7063481248797e-05,2838208.2594808,0.013530214105282
21919200,0.99965294451338,0.015724715699267,0.0052415718997703,0.0052415718997696,0.0052415718997267,-0.0010741656642153,0.0010741762036366,4.7287919300349e-09,4.7290002391123e-09,4.3877142023724e-09,4.6991500390743e-09,-0.0012856113930972,0.0012856222431075,-0.0012856107845538,0.0012856216351711,-0.001285610763255,0.0012856218022589,-0.0012856101638585,0.0012856212034611,-0.0011006236370335,0.0011006331620168,-0.0011006238901475,0.001100633415652,4.3877153264894e-09,4.6991627842971e-09,8.5972573909331e-09,8.6054841398469e-10,-0.0010741656642076,0.0010741762036434,-0.0012856100847768,0.0012856235252302,-0.0012856120928609,0.0012856203530572,-0.0012856094595615,0.0012856230890179,-0.0012856114675315,0.0012856199167183,-0.0011006198197899,0.0011006369207454,-0.0011006277073765,0.0011006296569386,-0.0011006251532833,0.0011006313876007,-0.0011006253631488,0.0011006321607532,5.7931768062487e-09,5.7933849980356e-09,-0.0010741646164918,0.0010741772513464,1.8106915113672e-09,9.6561469030462e-09,-0.0012856117610011,0.0012856220488029,-0.0012856084593569,0.0012856240000625,-0.0012856110855008,0.0012856213739193,-0.0012856078593181,0.0012856234006331,-0.0011006215484769,0.0011006357503572,-0.0011006212183288,0.0011006354196877,0.62311101531201,125301,3014,0.0044661878931677,0.0044661878931659,0.0044661878931393,13.996990686584,2.7175925492668e-05,2.7175925492668e-05,2.7175925492668e-05,2834659.7131316,0.013489626481366
22419200,0.99968154790034,0.015725145995829,0.0052417153319577,0.0052417153319569,0.0052417153319141,-0.001075692782534,0.0010756995623758,3.2903763155563e-09,3.2905846001639e-09,2.9932994496094e-09,3.2691313836332e-09,-0.0012866510639474,0.001286658676872,-0.0012866507499891,0.0012866583635205,-0.0012866507053156,0.0012866585085453,-0.0012866503953822,0.0012866581992105,-0.0011021387710371,0.0011021452335624,-0.0011021391035304,0.0011021455665768,2.9933005992756e-09,3.2691441386976e-09,7.0067589283754e-09,-4.257843647792e-10,-0.0010756927825262,0.0010756995623826,-0.001286649826481,0.0012866599117039,-0.0012866519874422,0.0012866571286974,-0.001286649469915,0.0012866597454525,-0.0012866516307622,0.0012866569623195,-0.0011021351153522,0.0011021488627488,-0.0011021427592007,0.001102141937406,-0.0011021402168995,0.0011021435647474,-0.001102140493525,0.0011021443605599,4.3397366545535e-09,4.3399448228706e-09,-0.001075691749955,0.0010757005949411,5.4908932438923e-10,8.058517496528e-09,-0.0012866513742689,0.0012866585140109,-0.0012866484878882,0.001286660645617,-0.0012866509965737,0.0012866581369322,-0.0012866481744929,0.0012866603328309,-0.0011021368316276,0.0011021478347713,-0.0011021364289495,0.0011021474315719,0.65096373206224,125301,3014,0.0044725114789961,0.0044725114789942,0.0044725114789677,14.849369689161,3.399495751329e-05,3.399495751329e-05,3.399495751329e-05,2834792.5893799,0.013508847397184
22919200,0.99970860015901,0.015725512569728,0.0052418375232574,0.0052418375232566,0.0052418375232138,-0.0010751940575951,0.0010752014349349,3.5196031262463e-09,3.5198114114422e-09,3.2171037305717e-09,3.4975132933697e-09,-0.0012875846424755,0.0012875927596443,-0.0012875842831393,0.0012875924009149,-0.0012875842420653,0.0012875925489545,-0.0012875838881531,0.0012875921956409,-0.0011018268360569,0.0011018337897185,-0.001101827147808,0.0011018341019905,3.2171048853217e-09,3.4975259641388e-09,7.119914568534e-09,-8.0486537391324e-11,-0.0010751940575874,0.0010752014349417,-0.0012875834382281,0.0012875939548114,-0.0012875854873732,0.0012875912057565,-0.0012875830405833,0.0012875937468966,-0.0012875850896145,0.001287590997715,-0.0011018232909772,0.0011018373006316,-0.0011018306928736,0.0011018305910927,-0.0011018282465372,0.001101832154251,-0.0011018285027897,0.0011018329347291,4.5448943074222e-09,4.5451024796509e-09,-0.0010751930491529,0.0010752024433634,8.5967821245013e-10,8.1456930826678e-09,-0.0012875849406163,0.0012875926113762,-0.0012875820823506,0.0012875946250398,-0.0012875845180073,0.0012875921893838,-0.0012875817253736,0.0012875942686721,-0.0011018249371099,0.0011018363080706,-0.0011018245546638,0.0011018359251032,0.58748017292924,125301,3014,0.0044704523062483,0.0044704523062464,0.0044704523062199,15.357046847716,3.8056374781725e-05,3.8056374781725e-05,3.8056374781725e-05,2809687.7654508,0.013502604554978
23419200,0.99973387113904,0.015725865622668,0.0052419552075707,0.0052419552075699,0.0052419552075271,-0.0010770490635496,0.0010770567390656,3.6337938583273e-09,3.6340021168181e-09,3.3247457626227e-09,3.6105575939439e-09,-0.0012871371444012,0.0012871455355582,-0.0012871367592601,0.001287145151024,-0.0012871367208701,0.0012871453028167,-0.0012871363419575,0.0012871449245027,-0.0011035075451156,0.001103514740394,-0.0011035078555854,0.0011035150513846,3.3247470422743e-09,3.610570092108e-09,7.1513126828712e-09,1.1649687682867e-10,-0.0010770490635419,0.0010770567390723,-0.0012871359645391,0.0012871467026696,-0.001287137939109,0.0012871439839211,-0.0012871355441757,0.0012871464731051,-0.0012871375186314,0.00128714375423,-0.0011035040791042,0.0011035181669621,-0.0011035113215827,0.0011035116248321,-0.001103508931659,0.0011035131230918,-0.0011035091879501,0.001103513912064,4.6683967443016e-09,4.6686048802373e-09,-0.0010770480460677,0.0010770577565339,1.0597880806869e-09,8.185024502664e-09,-0.0012871374092269,0.0012871454243014,-0.0012871345773818,0.0012871473590049,-0.0012871369603484,0.0012871449760394,-0.0012871341958438,0.0012871469780762,-0.0011035056626498,0.0011035172391433,-0.0011035052801816,0.001103516856154,0.60459639632209,125301,3014,0.0044781334508381,0.0044781334508362,0.00447813345081,15.705477033949,4.0843816271595e-05,4.0843816271595e-05,4.0843816271595e-05,2838731.0601016,0.0135259292794
23919200,0.99975877591769,0.015726276122025,0.0052420920406899,0.0052420920406891,0.0052420920406463,-0.0010788813374479,0.001078887302202,2.9779827747292e-09,2.9781910473372e-09,2.691181027414e-09,2.9588605310183e-09,-0.0012900417018416,0.0012900486063487,-0.0012900414512429,0.0012900483563566,-0.0012900414019296,0.0012900484969603,-0.0012900411555367,0.0012900482511661,-0.001105390651291,0.0011053964516673,-0.0011053909962561,0.0011053967971535,2.6911823999989e-09,2.9588730043413e-09,6.3414809808494e-09,-3.852937829182e-10,-0.0010788813374402,0.0010788873022087,-0.0012900405812019,0.0012900497234678,-0.0012900425718691,0.0012900472392461,-0.0012900402834464,0.0012900496162454,-0.0012900422739995,0.001290047131897,-0.0011053873409256,0.001105399734926,-0.0011053943066072,0.0011053935139099,-0.0011053919767888,0.001105394914126,-0.0011053922617428,0.0011053957080321,3.9825536134856e-09,3.9827617481566e-09,-0.0010788803499862,0.0010788882896501,5.4340183144706e-10,7.3482511072374e-09,-0.0012900419339447,0.0012900485140264,-0.0012900393478448,0.0012900504766424,-0.0012900416218947,0.001290048202593,-0.0012900390974309,0.0012900502268378,-0.0011053888859508,0.0011053989039581,-0.0011053884727771,0.0011053984902634,0.71228945632067,125301,3014,0.0044857366850108,0.0044857366850089,0.0044857366849825,17.00354865781,5.1228389262479e-05,5.1228389262479e-05,5.1228389262479e-05,2817168.313988,0.013549063658752
24419200,0.99978252539041,0.015726648910552,0.0052422163035321,0.0052422163035313,0.0052422163034885,-0.001076689531168,0.001076696251509,3.2691048775018e-09,3.2693131723738e-09,2.9765812897495e-09,3.2490930244384e-09,-0.0012922878775997,0.0012922954198726,-0.0012922875701703,0.0012922951130501,-0.0012922875250029,0.0012922952565216,-0.0012922872233284,0.001292294955446,-0.0011037826679022,0.0011037890894457,-0.0011037829900638,0.0011037894121288,2.9765822341995e-09,3.2491055398685e-09,6.5412629382543e-09,-2.8315271844212e-12,-0.0010766895311604,0.0010766962515156,-0.0012922867813353,0.0012922965054288,-0.0012922886664218,0.0012922940275022,-0.0012922864316693,0.0012922963450184,-0.0012922883166416,0.0012922938669651,-0.0011037794433247,0.0011037922778535,-0.0011037862146271,0.0011037862237359,-0.0011037839664285,0.0011037875771391,-0.0011037842292817,0.0011037883534167,4.2382252714507e-09,4.2384334447971e-09,-0.0010766885791054,0.001076697203558,8.7840920177538e-10,7.5104643984533e-09,-0.0012922881168445,0.0012922953225232,-0.0012922855306219,0.0012922971731828,-0.001292287748755,0.0012922949550504,-0.0012922852253376,0.0012922968685081,-0.0011037809440548,0.0011037914541859,-0.0011037805532997,0.0011037910629091,0.6789410524186,125301,3014,0.0044766732778738,0.0044766732778718,0.0044766732778454,17.881144033282,5.8249152266255e-05,5.8249152266255e-05,5.8249152266255e-05,2749631.6847748,0.013521559197969
24919200,0.99980452211514,0.015726958131508,0.005242319377184,0.0052423193771833,0.0052423193771404,-0.0010770269607893,0.0010770344355172,3.5568480129994e-09,3.5570562810193e-09,3.2531349479016e-09,3.5348008711421e-09,-0.001291635516278,0.0012916437170323,-0.0012916351488227,0.0012916433501839,-0.0012916351088233,0.0012916434994007,-0.0012916347483762,0.0012916431395523,-0.0011041895357506,0.0011041965700076,-0.0011041898469601,0.0011041968817384,3.2531361264599e-09,3.5348135340053e-09,6.7850507511998e-09,3.2886712410926e-10,-0.0010770269607815,0.001077034435524,-0.0012916344296425,0.0012916447871956,-0.0012916362354448,0.0012916422800293,-0.0012916340257454,0.001291644573131,-0.0012916358314335,0.001291642065838,-0.0011041863511053,0.0011041997103205,-0.001104193031591,0.0011041937414408,-0.0011041908252567,0.0011041950575268,-0.0011041910797168,0.001104195838078,4.5340920150424e-09,4.534300155978e-09,-0.0010770260008303,0.0010770353954626,1.2084314891005e-09,7.7602945491078e-09,-0.0012916357384787,0.001291643642879,-0.0012916331168461,0.0012916454074956,-0.0012916353096628,0.0012916432146796,-0.0012916327535007,0.0012916450447595,-0.0011041878066256,0.0011041989173423,-0.0011041874248493,0.0011041985350446,0.60789483588396,125301,3014,0.0044780666911112,0.0044780666911093,0.004478066691083,18.351610901729,6.2012887213829e-05,6.2012887213829e-05,6.2012887213829e-05,2759265.543197,0.013525775357532
25419200,0.99982612593062,0.0157273276753,0.0052424425584481,0.0052424425584473,0.0052424425584045,-0.0010816664245075,0.0010816719120038,2.7944829711399e-09,2.7946911969552e-09,2.5124815303845e-09,2.7764554577798e-09,-0.0012936037433842,0.0012936102376525,-0.0012936035297151,0.0012936100245899,-0.0012936034777966,0.0012936101631577,-0.0012936032686021,0.0012936099545614,-0.0011085099307616,0.0011085153416013,-0.0011085102882868,0.0011085156996478,2.5124827718876e-09,2.7764680970959e-09,5.8856991523299e-09,-2.9651130291926e-10,-0.0010816664244997,0.0010816719120107,-0.0012936027123186,0.0012936112639201,-0.0012936045607669,0.0012936089983314,-0.0012936024490221,0.0012936111917254,-0.0012936042973561,0.0012936089260097,-0.0011085068863662,0.0011085183569551,-0.0011085133326675,0.001108512684309,-0.001108511165087,0.001108513900742,-0.0011085114600279,0.0011085147007495,3.7702659526396e-09,3.770474069723e-09,-0.0010816654662266,0.0010816728702711,6.0126122408821e-10,6.8631602812233e-09,-0.0012936039108762,0.0012936102053005,-0.0012936015438794,0.0012936120259325,-0.0012936036373863,0.0012936099324266,-0.001293601330414,0.0012936118130763,-0.0011085082971288,0.0011085176876711,-0.0011085078722562,0.0011085172622778,0.7372586897946,125301,3014,0.0044972903475975,0.0044972903475956,0.0044972903475691,19.91898807507,7.455190460056e-05,7.455190460056e-05,7.455190460056e-05,2789248.6942701,0.013584194750796
25919200,0.99984623328808,0.015727667106221,0.0052425557020886,0.0052425557020878,0.005242555702045,-0.0010791541006274,0.0010791609419929,3.3153460805412e-09,3.3155543457965e-09,3.0216878440399e-09,3.2952870289785e-09,-0.0012963395166393,0.001296347162747,-0.0012963391994586,0.0012963468461731,-0.0012963391551848,0.0012963469905247,-0.0012963388447908,0.0012963466807292,-0.0011065231226859,0.0011065296433546,-0.0011065234433045,0.0011065299644952,3.0216892498095e-09,3.2952999271341e-09,6.3515384084902e-09,2.793761058556e-10,-0.0010791541006195,0.0010791609419999,-0.0012963384948051,0.0012963481690491,-0.0012963402212795,0.0012963458398802,-0.001296338136797,0.0012963480002832,-0.0012963398631574,0.0012963456709872,-0.0011065201266284,0.0011065325965827,-0.0011065264393475,0.0011065270112834,-0.0011065243447268,0.001106528208567,-0.0011065246053276,0.0011065289841497,4.254676146829e-09,4.2548842996171e-09,-0.0010791531786912,0.0010791618639153,1.122586958989e-09,7.2892603399384e-09,-0.0012963397073718,0.0012963471129324,-0.0012963372665037,0.001296348801147,-0.0012963393307369,0.0012963467369146,-0.0012963369526099,0.0012963484878628,-0.001106521504706,0.001106531899178,-0.0011065211154463,0.0011065315093963,0.72914636768882,125301,3014,0.0044869040016116,0.0044869040016098,0.0044869040015829,20.733852363277,8.1070818906217e-05,8.1070818906217e-05,8.1070818906217e-05,2709356.3554996,0.013552681234106
26419200,0.99986368878867,0.015727988292506,0.0052426627641834,0.0052426627641826,0.0052426627641398,-0.001077114860409,0.001077123829838,4.129045421732e-09,4.1292536729877e-09,3.8092558343785e-09,4.1041586975337e-09,-0.0012942832393652,0.0012942927180439,-0.0012942827569981,0.0012942922362837,-0.0012942827258387,0.0012942923935797,-0.0012942822531554,0.0012942919214951,-0.0011047021236469,0.0011047103793886,-0.0011047024023715,0.0011047106586347,3.8092570345109e-09,4.1041714404624e-09,7.2179497543929e-09,1.0403629785424e-09,-0.0010771148604013,0.0010771238298448,-0.0012942821884085,0.0012942937400896,-0.0012942838079413,0.0012942912142468,-0.0012942816797775,0.0012942934205304,-0.001294283299196,0.0012942908945606,-0.0011046990688832,0.0011047133731081,-0.0011047054571208,0.0011047076649306,-0.0011047033753595,0.0011047088942261,-0.0011047036007378,0.0011047096617043,5.0812852569292e-09,5.0814933885709e-09,-0.0010771139257146,0.001077124764519,1.8737320595953e-09,8.164009982202e-09,-0.0012942834478284,0.0012942926654752,-0.0012942807956049,0.0012942942309956,-0.0012942829041689,0.0012942921224322,-0.0012942803210438,0.0012942937570439,-0.0011047004311459,0.0011047126241138,-0.0011047000795323,0.0011047122719788,0.7920419595447,125301,3014,0.0044784478006817,0.0044784478006798,0.0044784478006536,20.399110735497,7.8392885883979e-05,7.8392885883979e-05,7.8392885883979e-05,2707416.1166372,0.013526960827898
26919200,0.99987993986416,0.015728269866293,0.0052427566221126,0.0052427566221118,0.005242756622069,-0.0010760496492142,0.0010760564108054,3.2845377854782e-09,3.2847460257342e-09,2.9912335927788e-09,3.2646448377529e-09,-0.0012956200095167,0.0012956275941778,-0.0012956196983171,0.0012956272835852,-0.0012956196532406,0.0012956274273177,-0.0012956193486337,0.0012956271233096,-0.0011039517299517,0.001103958182637,-0.0011039520619384,0.0011039585151453,2.9912347977294e-09,3.2646574601633e-09,6.325031944199e-09,2.4426538661416e-10,-0.0010760496492065,0.0010760564108121,-0.0012956189868548,0.001295628602077,-0.0012956207209655,0.0012956262756944,-0.0012956186339287,0.0012956284385765,-0.0012956203679251,0.0012956261120668,-0.0011039487297242,0.0011039611400872,-0.0011039550621516,0.0011039555577105,-0.0011039529537737,0.0011039567463245,-0.0011039532254555,0.0011039575332262,4.220814205288e-09,4.2210223452824e-09,-0.0010760487304958,0.0010760573295104,1.085423346503e-09,7.2597917413603e-09,-0.0012956202043003,0.0012956275391745,-0.001295617767241,0.0012956292361891,-0.0012956198339701,0.001295627169461,-0.0012956174590189,0.0012956289285762,-0.0011039501255481,0.0011039604485697,-0.0011039497247588,0.0011039600472587,0.74688297492095,125301,3014,0.0044740383890836,0.0044740383890815,0.0044740383890556,21.28647830801,8.5491826464082e-05,8.5491826464082e-05,8.5491826464082e-05,2666746.3447409,0.013513581742269
27419200,0.9998950254813,0.01572852412003,0.0052428413733581,0.0052428413733574,0.0052428413733146,-0.0010778717536996,0.0010778783556903,3.2224592758458e-09,3.2226674826911e-09,2.929067918221e-09,3.2027007715722e-09,-0.0012959036091239,0.0012959110618984,-0.001295903309465,0.0012959107628463,-0.0012959032638489,0.0012959109068508,-0.0012959029707564,0.0012959106143569,-0.0011057168843985,0.0011057232070312,-0.0011057172183189,0.0011057235414729,2.9290691677212e-09,3.2027132226422e-09,6.2076824255111e-09,2.374578009226e-10,-0.0010778717536919,0.001077878355697,-0.0012959026050016,0.0012959120514127,-0.0012959043135737,0.0012959097733404,-0.0012959022630635,0.0012959118997112,-0.0012959039715212,0.001295909621512,-0.0011057139386005,0.0011057261107227,-0.0011057201641027,0.0011057206377964,-0.00110571809035,0.0011057217887118,-0.0011057183629097,0.0011057225780091,4.1633959780519e-09,4.1636040837827e-09,-0.0010778708305253,0.0010778792788513,1.0836746985554e-09,7.1471779092974e-09,-0.0012959037810939,0.0012959110295667,-0.0012959013925881,0.0012959127011169,-0.0012959034223082,0.0012959106713975,-0.0012959010958853,0.0012959124050235,-0.0011057152957361,0.001105725460746,-0.0011057148928484,0.0011057250573368,0.72588280929977,125301,3014,0.0044815849864574,0.0044815849864553,0.0044815849864296,22.250371739698,9.3202973917582e-05,9.3202973917582e-05,9.3202973917582e-05,2680646.9021436,0.013536503013214
27919200,0.99990869861739,0.015728767192646,0.0052429223975634,0.0052429223975626,0.0052429223975198,-0.0010791425150132,0.0010791496657355,3.4325792130024e-09,3.4327874030541e-09,3.1323257035116e-09,3.4115693177227e-09,-0.0012965541047234,0.0012965620334889,-0.0012965537618485,0.0012965616912207,-0.0012965537196974,0.0012965618387858,-0.0012965533843057,0.0012965615039927,-0.001106896152737,0.0011069029229451,-0.0011068964764184,0.0011069032471477,3.1323270250981e-09,3.411581968463e-09,6.3968358314865e-09,4.6854453676391e-10,-0.0010791425150054,0.0010791496657424,-0.0012965531039444,0.001296563015432,-0.0012965547626139,0.0012965607092865,-0.0012965527227137,0.0012965628245335,-0.0012965543812688,0.0012965605182611,-0.0011068932252417,0.0011069058026496,-0.001106899403899,0.0011069003674586,-0.0011068973551637,0.0011069015028934,-0.0011068976190944,0.0011069022909441,4.373223776045e-09,4.3734318676291e-09,-0.0010791415922357,0.0010791505884997,1.307276936234e-09,7.334605248859e-09,-0.0012965542735112,0.0012965620081926,-0.001296551852496,0.0012965636250836,-0.0012965538711413,0.001296561606439,-0.0012965515139183,0.0012965632871152,-0.0011068945603804,0.0011069051593426,-0.001106894166602,0.0011069047650427,0.76533978020323,125301,3014,0.0044868527793411,0.0044868527793392,0.0044868527793133,22.918132262534,9.8545058100269e-05,9.8545058100269e-05,9.8545058100269e-05,2683181.5754784,0.013552513665918
28419200,0.99992092754287,0.01572900183435,0.0052430006114648,0.005243000611464,0.0052430006114212,-0.0010784872649087,0.0010784946969212,3.5411769721213e-09,3.5413851657906e-09,3.2391743587703e-09,3.5198609724575e-09,-0.0012975632001346,0.0012975713659092,-0.0012975628367354,0.0012975710031169,-0.0012975627958062,0.0012975711513714,-0.0012975624402672,0.001297570796431,-0.0011064308724505,0.0011064378738919,-0.0011064311899768,0.0011064381919399,3.2391756360487e-09,3.519873577578e-09,6.5020621695365e-09,5.8051363154835e-10,-0.001078487264901,0.001078494696928,-0.0012975621989109,0.0012975723464925,-0.0012975638379456,0.0012975700225425,-0.0012975617985661,0.0012975721359476,-0.0012975634374867,0.0012975698118708,-0.0011064279472834,0.0011064407487783,-0.0011064341151296,0.0011064353170686,-0.0011064320746462,0.0011064364533285,-0.0011064323329865,0.0011064372368342,4.4728028311791e-09,4.4730109247631e-09,-0.0010784863511472,0.0010784956106694,1.4070725163417e-09,7.4302189662932e-09,-0.0012975633775205,0.0012975713326767,-0.0012975609371081,0.0012975729282512,-0.0012975629547936,0.0012975709105663,-0.0012975605784685,0.0012975725702209,-0.0011064292837741,0.0011064400944423,-0.0011064288959634,0.0011064397061101,0.82558911402084,125301,3014,0.0044841453335751,0.0044841453335731,0.0044841453335473,23.441115404741,0.00010272892323793,0.00010272892323793,0.00010272892323793,2654362.0420527,0.013544303023906
28919200,0.99993182711154,0.015729195236774,0.0052430650789393,0.0052430650789385,0.0052430650788957,-0.0010769342743248,0.0010769416831191,3.5322038049219e-09,3.5324120227375e-09,3.2317618881574e-09,3.5112723384521e-09,-0.0012983057901044,0.0012983139295245,-0.0012983054298076,0.0012983135698346,-0.0012983053882113,0.0012983137170271,-0.0012983050356866,0.0012983133651012,-0.001105234599678,0.0011052415825411,-0.001105234917772,0.0011052419011568,3.2317631444905e-09,3.5112849850363e-09,6.4881243639565e-09,5.7650502271456e-10,-0.001076934274317,0.0010769416831258,-0.0012983047907781,0.0012983149085235,-0.0012983064291206,0.0012983125908444,-0.0012983043928247,0.001298314699975,-0.0012983060310529,0.0012983123821691,-0.0011052316795131,0.0011052444527522,-0.0011052378379224,0.001105239030961,-0.0011052357997004,0.0011052401661405,-0.0011052360579746,0.0011052409475247,4.4549742208309e-09,4.4551822948567e-09,-0.0010769333694443,0.001076942587986,1.3946290273052e-09,7.4075359764342e-09,-0.0012983059736762,0.0012983138886525,-0.0012983035402602,0.0012983154843084,-0.0012983055544882,0.001298313470081,-0.0012983031845031,0.0012983151291605,-0.0011052330222227,0.0011052437934925,-0.0011052326341349,0.0011052434048834,0.76400561131051,125301,3014,0.0044777170108004,0.0044777170107984,0.0044777170107722,23.983378713841,0.00010706702971073,0.00010706702971073,0.00010706702971073,2616721.1347388,0.013524783385855
29419200,0.99994162397827,0.015729336993604,0.0052431123312161,0.0052431123312154,0.0052431123311725,-0.0010789997884592,0.0010790067280027,3.3519636560759e-09,3.3521718512451e-09,3.0542109878332e-09,3.3315985814797e-09,-0.0012983005804227,0.0012983083294052,-0.0012983002547115,0.0012983080043008,-0.0012983002108444,0.0012983081503312,-0.001298299892363,0.0012983078324483,-0.0011071963170116,0.0011072029151778,-0.0011071966485168,0.0011072032472045,3.0542122479909e-09,3.3316113162432e-09,6.2847970379714e-09,4.1935201204299e-10,-0.0010789997884514,0.0010790067280096,-0.0012982995909808,0.0012983093010648,-0.00129830124414,0.0012983070326501,-0.001298299225071,0.0012983091256688,-0.0012983008781158,0.0012983068571271,-0.0011071934207521,0.0011072057647871,-0.0011071995447618,0.0011072003976104,-0.0011071975084373,0.0011072015087986,-0.0011071977788465,0.0011072023012671,4.2843817859009e-09,4.2845898161928e-09,-0.0010789988741022,0.0010790076423464,1.2514870404006e-09,7.2146413017341e-09,-0.0012983007455289,0.0012983083054192,-0.0012982983638392,0.0012983099184638,-0.0012983003608986,0.0012983079214053,-0.0012982980419363,0.0012983095971702,-0.0011071947516245,0.0011072051409894,-0.0011071943502782,0.0011072047391216,0.62417410960896,125301,3014,0.0044862695336812,0.0044862695336794,0.0044862695336535,24.7780183359,0.0001134241466872,0.0001134241466872,0.0001134241466872,2639661.0270503,0.013550757500283
29919200,0.99995031690974,0.015729475717944,0.0052431585726628,0.005243158572662,0.0052431585726192,-0.0010843187620639,0.0010843258941482,3.4252680994402e-09,3.425476241611e-09,3.1208611590103e-09,3.4037334277802e-09,-0.0012983272201069,0.0012983351565659,-0.0012983268761858,0.0012983348132504,-0.0012983268345,0.0012983349632664,-0.0012983264983121,0.0012983346276763,-0.0011119206654009,0.0011119274186541,-0.001111920997548,0.0011119277513218,3.1208626437481e-09,3.4037457522474e-09,6.3479405924217e-09,5.0281735606927e-10,-0.0010843187620563,0.001084325894155,-0.001298326232224,0.0012983361245044,-0.0012983278640549,0.001298333845321,-0.0012983258505377,0.0012983359351343,-0.0012983274822544,0.001298333655824,-0.0011119177779315,0.001111930256562,-0.0011119238850034,0.0011119249134294,-0.0011119218568527,0.0011119260055974,-0.001111922129084,0.0011119268093609,4.380662476886e-09,4.380870469532e-09,-0.001084317824975,0.0010843268312239,1.3544172571737e-09,7.2999654132146e-09,-0.0012983273627166,0.0012983351595046,-0.0012983249671743,0.001298336747902,-0.0012983269588364,0.0012983347562402,-0.0012983246279939,0.0012983364093304,-0.0011119190808429,0.0011119296639856,-0.0011119186774281,0.0011119292600497,0.68688558505508,125301,3014,0.0045083010462778,0.0045083010462763,0.0045083010462503,25.464707322266,0.00011891765857813,0.00011891765857813,0.00011891765857813,2711285.3733316,0.013617687915659
30419200,0.99995797212037,0.01572957529226,0.0052431917641014,0.0052431917641007,0.0052431917640579,-0.0010841616686748,0.001084168841452,3.4434738847953e-09,3.4436820415245e-09,3.1432403380476e-09,3.4225486565761e-09,-0.0013012546461312,0.001301262600422,-0.0013012543023579,0.0013012622572554,-0.0013012542599508,0.0013012624048615,-0.0013012539238859,0.0013012620693949,-0.0011118646932151,0.0011118714843024,-0.001111865019521,0.0011118718111297,3.1432417432145e-09,3.4225611999098e-09,6.3568957852727e-09,5.3027391262194e-10,-0.001084161668667,0.0010841688414588,-0.0013012536613397,0.0013012635652936,-0.0013012552871357,0.0013012612923926,-0.0013012532790674,0.0013012633736501,-0.0013012549047489,0.0013012611006224,-0.0011118618148338,0.0011118743131939,-0.0011118678978875,0.0011118689822535,-0.0011118658792118,0.0011118700810609,-0.0011118661456094,0.0011118708718853,4.3751797460561e-09,4.3753877897594e-09,-0.0010841607550471,0.0010841697550665,1.3581027308791e-09,7.2853073904336e-09,-0.0013012548069809,0.0013012625825585,-0.001301252418458,0.001301264165735,-0.0013012544040002,0.0013012621801938,-0.0013012520791409,0.0013012638270274,-0.0011118631292967,0.0011118736978706,-0.0011118627327404,0.0011118733007935,0.56251928746541,125301,3014,0.004507668749432,0.0045076687494301,0.0045076687494047,26.130031884054,0.00012424025507243,0.00012424025507243,0.00012424025507243,2663063.3153147,0.01361581042798
30919200,0.99996478010254,0.015729682246625,0.0052432274155565,0.0052432274155557,0.0052432274155129,-0.0010897728025331,0.0010897793558119,3.2036564569355e-09,3.2038645816363e-09,2.9069090514239e-09,3.1834021738958e-09,-0.0013021942799475,0.0013022017099804,-0.0013021939822742,0.0013022014129135,-0.0013021939368402,0.0013022015592258,-0.0013021936461551,0.0013022012691384,-0.001117083835675,0.0011170901172601,-0.0011170841780676,0.0011170904601733,2.9069103547609e-09,3.1834147756248e-09,6.0810588080974e-09,3.2647626603669e-10,-0.0010897728025253,0.0010897793558188,-0.0013021933100683,0.001302202663357,-0.0013021949521394,0.0013022004595459,-0.0013021929705088,0.0013022025161591,-0.0013021946124655,0.0013022003122211,-0.0011170809943453,0.0011170929135565,-0.0011170870193829,0.001117087663893,-0.0011170850081707,0.0011170887288312,-0.0011170852894257,0.0011170895330152,4.1553186236037e-09,4.1555266168084e-09,-0.0010897718691492,0.0010897802891828,1.1802009824495e-09,7.0304228397905e-09,-0.0013021944075006,0.0013022017237644,-0.0013021920912723,0.0013022033262976,-0.0013021940503453,0.0013022013672253,-0.0013021917971352,0.0013022030327691,-0.0011170822805783,0.0011170923540158,-0.0011170818681751,0.0011170919410917,0.67617106509292,125301,3014,0.0045309146320113,0.0045309146320094,0.004530914631984,27.118978089671,0.00013215182471737,0.00013215182471737,0.00013215182471737,2728221.4116602,0.013686441970164
31419200,0.99997087080502,0.015729781031968,0.0052432603440041,0.0052432603440033,0.0052432603439605,-0.0010893158499881,0.0010893217739206,2.9634071972972e-09,2.9636153842314e-09,2.6790394691832e-09,2.9454221696098e-09,-0.0013067656258606,0.0013067724932472,-0.0013067653790068,0.0013067722470005,-0.0013067653289473,0.0013067723867467,-0.0013067650883253,0.0013067721467235,-0.0011169849374078,0.0011169907083744,-0.001116985284854,0.0011169910563415,2.6790408206615e-09,2.9454349672851e-09,5.7736709543997e-09,1.5336568673426e-10,-0.0010893158499802,0.0010893217739275,-0.0013067646812516,0.0013067734246954,-0.0013067663236027,0.0013067713155616,-0.0013067643875076,0.001306773321374,-0.0013067660297443,0.001306771212113,-0.0011169821636453,0.0011169934419091,-0.0011169880586019,0.0011169883228223,-0.001116986081915,0.0011169893598279,-0.0011169863653143,0.0011169901507393,3.8772132425028e-09,3.8774212926176e-09,-0.0010893149541923,0.0010893226697033,9.7475273979643e-10,6.6864887047275e-09,-0.0013067657621304,0.001306772490461,-0.0013067635454308,0.0013067740986182,-0.0013067654575514,0.0013067721864983,-0.0013067633006039,0.0013067738544004,-0.0011169834477817,0.0011169928909145,-0.0011169830327878,0.0011169924753992,0.69952705654839,125301,3014,0.0045290489185282,0.0045290489185263,0.0045290489185009,28.435970347462,0.00014268776277969,0.00014268776277969,0.00014268776277969,2651325.0317725,0.013680835424924
31919200,0.99997611694862,0.015729868738876,0.00524328957964,0.0052432895796392,0.0052432895795964,-0.0010894387391517,0.0010894455738974,3.313812918143e-09,3.3140211197532e-09,3.0187440099132e-09,3.2939314781838e-09,-0.0013080591868135,0.0013080668398981,-0.0013080588703329,0.0013080665240242,-0.0013080588258448,0.0013080666691645,-0.0013080585169938,0.0013080663609121,-0.0011174051725084,0.0011174116893436,-0.0011174055010257,0.0011174120183824,3.018745275332e-09,3.2939440144166e-09,6.1097350602203e-09,5.1811258984731e-10,-0.0010894387391439,0.0010894455739042,-0.0013080582414487,0.0013080677656649,-0.0013080598156843,0.0013080655982661,-0.0013080578843485,0.0013080675988092,-0.0013080594584696,0.0013080654312833,-0.0011174024094967,0.0011174144036238,-0.0011174082640232,0.0011174093041172,-0.0011174063174551,0.0011174103326065,-0.0011174065842651,0.0011174111178945,4.225506445208e-09,4.2257144924994e-09,-0.0010894378455243,0.0010894464675115,1.3265385412905e-09,7.0183291605382e-09,-0.0013080593255843,0.0013080668404304,-0.0013080570438967,0.0013080683734064,-0.0013080589509207,0.0013080664663833,-0.0013080567315387,0.0013080680616576,-0.0011174036697076,0.0011174138463753,-0.0011174032720528,0.0011174134481992,0.71926751588325,125301,3014,0.0045295672826889,0.0045295672826869,0.0045295672826611,29.268572449772,0.00014934857959817,0.00014934857959817,0.00014934857959817,2632306.1242445,0.013682420358197
32419200,0.99998042464229,0.015729947871236,0.0052433159570933,0.0052433159570925,0.0052433159570497,-0.0010880792700561,0.0010880876374524,3.9022254885135e-09,3.902433691153e-09,3.5894412259756e-09,3.8790407092631e-09,-0.0013077024138524,0.0013077113865312,-0.0013077019797435,0.001307710953029,-0.0013077019444554,0.0013077111068765,-0.0013077015200108,0.0013077106830305,-0.0011162211790967,0.001116228949339,-0.0011162214763607,0.0011162292471244,3.5894425182262e-09,3.8790532643759e-09,6.7532754111564e-09,1.0513973581652e-09,-0.0010880792700484,0.0010880876374592,-0.0013077014420395,0.0013077123293645,-0.001307702951543,0.0013077100102044,-0.0013077009775283,0.001307712054605,-0.0013077024869173,0.0013077097353179,-0.0011162183571716,0.0011162317099114,-0.0011162242982714,0.0011162264865673,-0.0011162223505447,0.001116227552411,-0.0011162225907193,0.001116228328895,4.8190215347883e-09,4.8192295818149e-09,-0.0010880783713633,0.001088088536132,1.8489960681452e-09,7.663789636149e-09,-0.0013077025746804,0.0013077113751789,-0.0013077001309934,0.0013077128325409,-0.0013077020812101,0.0013077108823249,-0.0013076997041392,0.0013077124062961,-0.0011162196200401,0.0011162310989446,-0.001116219250856,0.001116230729239,0.78912843059547,125301,3014,0.0045239368283797,0.0045239368283778,0.0045239368283521,29.29908123388,0.00014959264987104,0.00014959264987104,0.00014959264987104,2617234.9909066,0.013665306919302
32919200,0.99998393417609,0.015730004213354,0.0052433347377996,0.0052433347377988,0.005243334737756,-0.0010850012944445,0.00108500997939,4.0221878605689e-09,4.0223960715905e-09,3.7075871089353e-09,3.9986708012048e-09,-0.0013072740514651,0.0013072832860843,-0.0013072735945075,0.0013072828297336,-0.001307273560172,0.0013072829838229,-0.0013072731128402,0.0013072825370898,-0.0011134997420884,0.0011135077682657,-0.0011135000366644,0.0011135080633633,3.7075883879826e-09,3.9986833987703e-09,6.9585233365559e-09,1.0860742038519e-09,-0.0010850012944368,0.0010850099793968,-0.0013072730511538,0.0013072842574371,-0.0013072745948053,0.0013072818583896,-0.0013072725647274,0.0013072839600516,-0.0013072741082643,0.0013072815608771,-0.0011134968364767,0.001113510611927,-0.0011135029422617,0.0011135052197173,-0.0011135009424847,0.0011135063409484,-0.0011135011809435,0.0011135071166611,4.9393841636161e-09,4.9395922188484e-09,-0.0010850003953155,0.0010850108785057,1.8837645065962e-09,7.8693562458331e-09,-0.001307274241043,0.0013072832467241,-0.0013072717174152,0.0013072847381216,-0.0013072737246199,0.0013072827309176,-0.0013072712676964,0.0013072842890121,-0.0011134981518165,0.0011135099443638,-0.0011134977849879,0.0011135095770135,0.69092321609739,125301,3014,0.0045111859593465,0.0045111859593446,0.0045111859593189,29.174701534268,0.00014859761227415,0.00014859761227415,0.00014859761227415,2578041.4400165,0.013626562848035
33419200,0.99998683429098,0.015730056652527,0.0052433522175237,0.005243352217523,0.0052433522174801,-0.0010868701431582,0.0010868783365714,3.8330928853788e-09,3.8333010619603e-09,3.5189667871272e-09,3.8097801637135e-09,-0.0013057630304318,0.0013057718730558,-0.0013057626063799,0.0013057714496103,-0.0013057625703239,0.0013057716037906,-0.0013057621552621,0.0013057711893272,-0.0011151167584126,0.0011151243798389,-0.0011151170699886,0.0011151246919364,3.5189681598365e-09,3.8097927231258e-09,6.813033457567e-09,8.5337424283036e-10,-0.0010868701431504,0.0010868783365783,-0.0013057620182967,0.0013057728592687,-0.0013057636185012,0.0013057704634062,-0.0013057615627375,0.0013057725945616,-0.0013057631628277,0.0013057701985721,-0.0011151138115684,0.0011151272687637,-0.0011151200168185,0.001115121803027,-0.0011151179734591,0.0011151229367556,-0.0011151182278358,0.0011151237310096,4.774302459043e-09,4.7745104622769e-09,-0.0010868692201797,0.0010868792595367,1.6803584389531e-09,7.7488827197461e-09,-0.0013057632106328,0.0013057718432646,-0.0013057606923741,0.0013057733938069,-0.0013057627264669,0.0013057713597148,-0.0013057602748571,0.001305772976899,-0.0011151151474986,0.001115126610438,-0.0011151147632676,0.0011151262256859,0.77567308772676,125301,3014,0.0045189141750891,0.0045189141750871,0.0045189141750616,29.316002330672,0.00014972801864538,0.00014972801864538,0.00014972801864538,2623156.9238743,0.013650015753553
33919200,0.99998929849191,0.015730100390865,0.0052433667969699,0.0052433667969691,0.0052433667969263,-0.0010858050729626,0.0010858121022323,3.3876793498389e-09,3.3878875507432e-09,3.0910788993085e-09,3.3676302222672e-09,-0.0013079351256847,0.001307942947465,-0.0013079347951181,0.0013079426175052,-0.0013079347507532,0.0013079427624597,-0.0013079344273482,0.0013079424396533,-0.0011142903196621,0.0011142969924688,-0.0011142906519384,0.0011142973252666,3.091080476327e-09,3.367642774937e-09,6.3476800050612e-09,4.279007019207e-10,-0.0010858050729548,0.0010858121022393,-0.0013079341272926,0.0013079439282375,-0.0013079357934963,0.0013079416367417,-0.0013079337559958,0.0013079437468761,-0.0013079354220848,0.0013079414552531,-0.0011142873967487,0.0011142998686011,-0.0011142935748374,0.0011142944491499,-0.0011142915198359,0.0011142955790332,-0.0011142917907479,0.0011142963701311,4.3082142261597e-09,4.308422247246e-09,-0.0010858041705468,0.0010858130046349,1.2481412216571e-09,7.2656835344436e-09,-0.0013079353109165,0.0013079429020026,-0.001307932906688,0.0013079445287486,-0.0013079349218674,0.0013079425135698,-0.0013079325796798,0.0013079442023496,-0.0011142887581749,0.0011142992168337,-0.0011142883562049,0.0011142988143421,0.76303060755973,125301,3014,0.0045145138945618,0.00451451389456,0.0045145138945342,30.069208123689,0.00015575366498951,0.00015575366498951,0.00015575366498951,2571790.9928646,0.013636679034599
34419200,0.99999143905862,0.015730136666029,0.0052433788886911,0.0052433788886903,0.0052433788886475,-0.0010880160209609,0.0010880217838677,2.9023600755978e-09,2.9025682611497e-09,2.619591483396e-09,2.8850400960054e-09,-0.0013097803554519,0.001309787088939,-0.0013097801227885,0.0013097868568823,-0.0013097800709561,0.0013097869950763,-0.001309779843905,0.0013097867686236,-0.0011165797396993,0.0011165853802084,-0.0011165800952356,0.0011165857362661,2.6195928552142e-09,2.8850526357841e-09,5.7797037068757e-09,2.5238311416684e-11,-0.0010880160209531,0.0010880217838746,-0.0013097793907738,0.0013097880431508,-0.001309781087453,0.0013097859026793,-0.0013097791091379,0.0013097879521572,-0.0013097808057027,0.0013097858115587,-0.001116576901675,0.0011165881815155,-0.0011165829332458,0.0011165829349743,-0.0011165809064248,0.0011165840116043,-0.0011165811959664,0.0011165848081306,3.8176674710852e-09,3.817875475672e-09,-0.001088015123889,0.0010880226809265,8.5255332169889e-10,6.6949303747226e-09,-0.0013097805114904,0.0013097870643009,-0.0013097782663639,0.0013097887299966,-0.0013097802214673,0.001309786774894,-0.0013097780348514,0.0013097884990933,-0.0011165782354512,0.0011165875946317,-0.0011165778123392,0.0011165871709982,0.72790058071019,125301,3014,0.004523678747308,0.0045236787473061,0.0045236787472806,31.478311466233,0.00016702649172987,0.00016702649172987,0.00016702649172987,2569709.9432064,0.013664539650222
34919200,0.9999933231693,0.015730169945947,0.005243389981997,0.0052433899819962,0.0052433899819534,-0.0010926406299814,0.0010926450435314,2.3847951602037e-09,2.385003327462e-09,2.1176910748737e-09,2.3704452841414e-09,-0.0013132010921703,0.001313206656617,-0.0013132009648085,0.0013132065298619,-0.0013132009049511,0.0013132066605702,-0.0013132007818296,0.0013132065380472,-0.0011210658168529,0.0011210703573907,-0.001121066195417,0.0011210707364762,2.1176924928467e-09,2.3704578190948e-09,5.0847178425449e-09,-3.1490565899666e-10,-0.0010926406299736,0.0010926450435382,-0.0013132001920459,0.0013132075526196,-0.0013132018649192,0.0013132056338682,-0.0013132000070006,0.001313207558756,-0.0013132016797594,0.0013132056398775,-0.0011210631561282,0.0011210729903478,-0.0011210688561275,0.0011210681035345,-0.00112106691791,0.001121069067606,-0.0011210672257011,0.0011210698667349,3.2841555726545e-09,3.2843635633888e-09,-0.001092639749001,0.0010926459244986,5.0735028785579e-10,5.9861345659775e-09,-0.0013132011972494,0.0013132066732524,-0.0013131991817034,0.001313208323165,-0.001313201014125,0.0013132064907443,-0.0013131990531904,0.0013132081952612,-0.0011210644114807,0.0011210725196644,-0.0011210639679241,0.0011210720755864,0.75808686568768,125301,3014,0.004542849893531,0.004542849893529,0.0045428498935035,33.571147106094,0.00018376917684875,0.00018376917684875,0.00018376917684875,2577675.8404138,0.013722824718373
35419200,0.99999495215944,0.015730195470694,0.0052433984902461,0.0052433984902454,0.0052433984902025,-0.0010962572388304,0.0010962610968533,2.1718054639515e-09,2.1720136633559e-09,1.9116241253422e-09,2.1588491147885e-09,-0.0013179702385358,0.0013179753242357,-0.0013179701529712,0.0013179752392775,-0.0013179700900272,0.0013179753668339,-0.0013179700085127,0.001317975285918,-0.0011247502779669,0.0011247543648306,-0.0011247506648567,0.0011247547522418,1.9116254142186e-09,2.1588616136971e-09,4.7270421387531e-09,-3.8320937013378e-10,-0.0010962572388226,0.0010962610968601,-0.0013179693873829,0.0013179761721141,-0.0013179710041107,0.0013179743914079,-0.0013179692409532,0.0013179762168006,-0.0013179708575664,0.0013179744359672,-0.00112474775936,0.001124756856918,-0.0011247531834492,0.00112475226017,-0.0011247513285271,0.0011247531322634,-0.0011247516422442,0.0011247539303118,3.0489242473395e-09,3.0491322261623e-09,-0.0010962563801555,0.0010962619555149,4.1824177500087e-10,5.6065774656422e-09,-0.0013179703139368,0.001317975365779,-0.0013179684383909,0.00131797696174,-0.0013179701738364,0.0013179752262951,-0.0013179683511054,0.0013179768750635,-0.0011247489512779,0.0011247564654893,-0.0011247485006739,0.0011247560143643,0.67379056419234,125301,3014,0.0045578565596486,0.0045578565596466,0.004557856559621,35.926882589772,0.00020261506071817,0.00020261506071817,0.00020261506071817,2551323.7377152,0.01376847906031
35919200,0.99999626982969,0.015730217638368,0.0052434058794706,0.0052434058794699,0.0052434058794271,-0.0011013791629231,0.0011013844487963,2.7171692335215e-09,2.7173774006622e-09,2.4389308261021e-09,2.7007235533669e-09,-0.0013201398353207,0.0013201461506454,-0.001320139638772,0.0013201459547032,-0.001320139584957,0.0013201460916963,-0.0013201393948869,0.0013201459022247,-0.0011296011829121,0.0011296064323982,-0.0011296015447436,0.0011296067947509,2.4389322391376e-09,2.7007361099209e-09,5.1915776505034e-09,2.4298271522533e-10,-0.0011013791629153,0.0011013844488032,-0.0013201390014702,0.0013201469700867,-0.0013201404726088,0.0013201451352709,-0.0013201387543996,0.00132014691444,-0.0013201402254237,0.0013201450794971,-0.0011295987375328,0.0011296088359619,-0.0011296039901085,0.0011296043912028,-0.0011296022152649,0.0011296052035875,-0.0011296025088714,0.0011296060003642,3.595378919642e-09,3.595586880083e-09,-0.0011013783033205,0.0011013853083858,1.0266207243533e-09,6.0683345097374e-09,-0.0013201398917678,0.001320146221319,-0.0013201379504457,0.0013201476591011,-0.0013201396396901,0.0013201459698575,-0.0013201377557983,0.0013201474650626,-0.0011295998548425,0.0011296084825896,-0.0011295994265371,0.001129608053763,0.72183945217264,125301,3014,0.00457908512798,0.004579085127978,0.0045790851279526,37.534570814497,0.00021547656651598,0.00021547656651598,0.00021547656651598,2587039.5831217,0.01383300534788
36419200,0.99999724168753,0.015730233571224,0.0052434111904227,0.005243411190422,0.0052434111903792,-0.0010999119087906,0.0010999204381857,3.9642033038984e-09,3.964411500597e-09,3.6490012860743e-09,3.9408996797493e-09,-0.0013207841783823,0.001320793300503,-0.0013207837300491,0.0013207928527766,-0.0013207836958533,0.001320793008212,-0.0013207832583952,0.0013207925713525,-0.0011282600917792,0.0011282679926276,-0.0011282603918619,0.001128268293232,3.649002666672e-09,3.9409122163553e-09,6.5649057075676e-09,1.3637227661511e-09,-0.0010999119087828,0.0010999204381926,-0.0013207832850393,0.0013207941591706,-0.0013207846233785,0.0013207919941178,-0.0013207828080017,0.0013207938723802,-0.0013207841462262,0.0013207917072003,-0.0011282575119369,0.0011282705031433,-0.0011282629716899,0.0011282657827317,-0.0011282611831326,0.0011282666760262,-0.0011282614251191,0.0011282674582306,4.8488140828228e-09,4.8490220589987e-09,-0.0010999110427286,0.0010999213042346,2.1192210200025e-09,7.4413470829252e-09,-0.0013207842888594,0.0013207933388269,-0.0013207819949464,0.0013207946205531,-0.0013207837824582,0.001320792833042,-0.0013207815552288,0.0013207941814447,-0.0011282586501031,0.0011282700306352,-0.0011282582777795,0.0011282696577902,0.70447270805609,125301,3014,0.0045730194484935,0.0045730194484916,0.0045730194484661,37.488423787153,0.00021510739029723,0.00021510739029723,0.00021510739029723,2555545.0247343,0.013814586768579
36919200,0.99999794183935,0.015730244117385,0.0052434147058097,0.0052434147058089,0.0052434147057661,-0.0010985673988587,0.0010985770965661,4.4136181070847e-09,4.413826297107e-09,4.0831437676724e-09,4.3874282491375e-09,-0.0013191137815871,0.0013191239247943,-0.0013191132420862,0.0013191233859,-0.0013191132150632,0.0013191235486995,-0.0013191126876079,0.0013191230218427,-0.0011269766515252,0.0011269855064033,-0.001126976934399,0.0011269857897985,4.0831451055265e-09,4.3874408022687e-09,7.1864881573898e-09,1.6409698979127e-09,-0.0010985673988509,0.0010985770965729,-0.0013191128262899,0.0013191248400487,-0.0013191141973698,0.0013191224706545,-0.0013191122658426,0.0013191244700398,-0.0013191136368079,0.0013191221005185,-0.0011269738999734,0.001126988180863,-0.0011269796859365,0.0011269831153541,-0.0011269778067343,0.0011269841125922,-0.0011269780359775,0.0011269848982189,5.3211788031402e-09,5.321386771581e-09,-0.0010985665098187,0.001098577985593,2.4101793981297e-09,8.0839930361354e-09,-0.0013191139341776,0.0013191239304279,-0.0013191114289025,0.0013191252377204,-0.0013191133348785,0.0013191233317451,-0.0013191109000687,0.0013191247094958,-0.0011269751118266,0.0011269876073289,-0.0011269747540162,0.0011269872489972,0.64727478642577,125301,3014,0.0045674430442067,0.0045674430442048,0.0045674430441793,36.862312487928,0.00021009849990343,0.00021009849990343,0.00021009849990343,2561393.7589342,0.013797620579429
37419200,0.9999984821776,0.015730252352607,0.0052434174508839,0.0052434174508831,0.0052434174508403,-0.0011015997253335,0.0011016066348556,3.3429851265109e-09,3.3431933046218e-09,3.0444313108309e-09,3.3227082741901e-09,-0.0013202714804693,0.0013202792167478,-0.0013202711573121,0.0013202788941972,-0.001320271113107,0.0013202790407912,-0.001320270797734,0.0013202787260167,-0.0011298025695274,0.0011298091466339,-0.0011298029077799,0.0011298094854078,3.0444326962376e-09,3.3227208869426e-09,6.1250535301844e-09,5.6113861518367e-10,-0.0011015997253257,0.0011016066348625,-0.0013202705389518,0.0013202801378401,-0.0013202720988158,0.0013202779731137,-0.0013202701755354,0.0013202799658387,-0.0013202717352849,0.0013202778009853,-0.0011297998193584,0.0011298118462043,-0.0011298056579345,0.0011298067858527,-0.0011298037125911,0.0011298077890146,-0.0011298039888518,0.0011298085896473,4.258326479902e-09,4.2585344217848e-09,-0.0011015988285001,0.0011016075316758,1.3714861516424e-09,7.0368364770936e-09,-0.0013202716127194,0.0013202792246272,-0.0013202693329055,0.0013202807423938,-0.0013202712313881,0.001320278843912,-0.001320269014084,0.0013202804241812,-0.0011298010779313,0.0011298113125364,-0.001129800669509,0.001129810903593,0.65462458225499,125301,3014,0.0045800028021498,0.0045800028021479,0.0045800028021225,37.673127361371,0.00021658501889097,0.00021658501889097,0.00021658501889097,2585427.347607,0.013835797531501
37919200,0.99999888071392,0.01573025801148,0.0052434193371749,0.0052434193371742,0.0052434193371314,-0.0011014181649572,0.0011014266183662,3.9369420635636e-09,3.9371502526447e-09,3.6209512741594e-09,3.9134710607336e-09,-0.001320747654268,0.001320756724246,-0.0013207472119531,0.0013207562825377,-0.0013207471770835,0.0013207564379446,-0.0013207467446286,0.0013207560060882,-0.0011296172184291,0.0011296250587309,-0.0011296175229602,0.0011296253637834,3.6209526073378e-09,3.9134836643872e-09,6.7925199628372e-09,1.0815860531496e-09,-0.0011014181649495,0.001101426618373,-0.0013207466801412,0.0013207576684406,-0.0013207481860662,0.0013207553383519,-0.0013207462079405,0.0013207573871323,-0.0013207477137509,0.0013207550569165,-0.0011296143914191,0.0011296278227797,-0.0011296203499558,0.0011296225997499,-0.0011296183938474,0.0011296236554032,-0.0011296186408822,0.0011296244442943,4.8566508207394e-09,4.8568587738572e-09,-0.0011014172637015,0.0011014275196088,1.8803024566389e-09,7.7056338334258e-09,-0.0013207478153715,0.0013207567137412,-0.0013207453595733,0.0013207581665776,-0.0013207473135829,0.0013207562125688,-0.0013207449247783,0.0013207577323917,-0.0011296156625815,0.0011296272200667,-0.0011296152851907,0.0011296268421547,0.61069305856341,125301,3014,0.0045792573060543,0.0045792573060523,0.0045792573060269,37.676456444358,0.00021661165155486,0.00021661165155486,0.00021661165155486,2575636.7549653,0.013833540951839
38419200,0.99999916884482,0.015730262692541,0.0052434208975284,0.0052434208975277,0.0052434208974849,-0.0011015705299253,0.0011015799285963,4.3015987873451e-09,4.3018069693088e-09,3.972170946963e-09,4.2756287791816e-09,-0.0013196222000572,0.0013196321052013,-0.0013196216826351,0.0013196315883858,-0.0013196216539761,0.0013196317506137,-0.001319621147517,0.0013196312447529,-0.0011296583058251,0.0011296669181517,-0.0011296585962731,0.0011296672091209,3.9721722183856e-09,4.2756414681855e-09,7.2837954633388e-09,1.3196239585213e-09,-0.0011015705299175,0.0011015799286031,-0.00131962117953,0.0013196330908148,-0.0013196227031486,0.0013196306027812,-0.0013196206389842,0.0013196327417717,-0.0013196221624883,0.001319630253611,-0.0011296553519634,0.0011296698019625,-0.0011296615501203,0.0011296643253254,-0.0011296595293064,0.0011296654548231,-0.0011296597660184,0.0011296662482558,5.2433700174393e-09,5.2435779619103e-09,-0.0011015696066042,0.0011015808519042,2.1319557206721e-09,8.2172871516652e-09,-0.0013196223881598,0.0013196320761809,-0.0013196197678485,0.0013196335401521,-0.001319621809682,0.0013196314983193,-0.0013196192598599,0.0013196330327725,-0.0011296566711102,0.0011296691293834,-0.0011296563054003,0.0011296687631523,0.69725492786578,125301,3014,0.0045798837035094,0.0045798837035075,0.0045798837034821,37.198496866189,0.00021278797492951,0.00021278797492951,0.00021278797492951,2596172.3464369,0.013835430439734
38880000,0.99999937004982,0.015730266085425,0.0052434220284898,0.0052434220284891,0.0052434220284463,-0.0010990472312058,0.0010990557290386,3.9550101888006e-09,3.9552183906461e-09,3.6412657899472e-09,3.9318453373533e-09,-0.0013205621546974,0.0013205712489395,-0.0013205617128955,0.0013205708077444,-0.0013205616769959,0.0013205709611559,-0.0013205612441769,0.0013205705289355,-0.0011274762716355,0.0011274841500276,-0.0011274765751404,0.001127484454054,3.6412669948691e-09,3.9318580614903e-09,7.0032065212437e-09,9.0703570783144e-10,-0.0010990472311981,0.0010990557290454,-0.0013205611196902,0.0013205722579414,-0.0013205627478891,0.0013205697987512,-0.001320560646534,0.0013205719747125,-0.0013205622746182,0.0013205695153951,-0.0011274732579878,0.0011274871056635,-0.0011274795887738,0.0011274814984336,-0.0011274775088966,0.0011274826859253,-0.0011274777554827,0.0011274834703054,4.8857354279893e-09,4.8859434103121e-09,-0.0010990463187321,0.0010990566414991,1.7232314523738e-09,7.92857250692e-09,-0.0013205623678577,0.0013205711856326,-0.0013205597864251,0.0013205727642758,-0.0013205618661552,0.0013205706845465,-0.0013205593510118,0.0013205723294716,-0.0011274746405694,0.0011274863854061,-0.0011274742644593,0.0011274860087745,0.72416034322609,125301,3014,0.0045694377916173,0.0045694377916154,0.0045694377915899,37.193691631595,0.00021274953305276,0.00021274953305276,0.00021274953305276,2546159.2854539,0.013803704711074
