time,ASR_ext,ASR_strain,ASR_strain_xx,ASR_strain_yy,ASR_strain_zz,disp_x_101,disp_x_102,disp_x_103,disp_x_104,disp_x_105,disp_x_106,disp_x_p1_neg,disp_x_p1_pos,disp_x_p2_neg,disp_x_p2_pos,disp_x_p3_neg,disp_x_p3_pos,disp_x_p4_neg,disp_x_p4_pos,disp_x_p5_neg,disp_x_p5_pos,disp_x_p6_neg,disp_x_p6_pos,disp_y_101,disp_y_102,disp_y_103,disp_y_104,disp_y_105,disp_y_106,disp_y_p1_neg,disp_y_p1_pos,disp_y_p2_neg,disp_y_p2_pos,disp_y_p3_neg,disp_y_p3_pos,disp_y_p4_neg,disp_y_p4_pos,disp_y_p5_neg,disp_y_p5_pos,disp_y_p6_neg,disp_y_p6_pos,disp_y_p7_neg,disp_y_p7_pos,disp_y_p8_neg,disp_y_p8_pos,disp_z_101,disp_z_102,disp_z_103,disp_z_104,disp_z_105,disp_z_106,disp_z_p1_neg,disp_z_p1_pos,disp_z_p2_neg,disp_z_p2_pos,disp_z_p3_neg,disp_z_p3_pos,disp_z_p4_neg,disp_z_p4_pos,disp_z_p5_neg,disp_z_p5_pos,disp_z_p6_neg,disp_z_p6_pos,humidity,humidity_bc,ndof,nelem,strain_xx,strain_yy,strain_zz,temp,temp_bc,thermal_strain_xx,thermal_strain_yy,thermal_strain_zz,vonmises,vstrain
2419200,0,0,0,0,0,0,0,0,0,0,0,0,0,0,0,0,0,0,0,0,0,0,0,0,0,0,0,0,0,0,0,0,0,0,0,0,0,0,0,0,0,0,0,0,0,0,0,0,0,0,0,0,0,0,0,0,0,0,0,0,0,0,0,0,0,0,0,0,0,0,0,0,0,0,0,0,0
2619200,0.021278931843484,0.00043623271533199,0.00014541090511066,0.00014541090511066,0.00014541090511066,-4.0628949064939e-05,4.0628949065006e-05,2.2203968972592e-17,2.4286268712821e-17,7.8922201587189e-17,6.8014236549996e-17,-4.0300974038323e-05,4.0300974038096e-05,-4.0300974038456e-05,4.0300974038185e-05,-4.0300974038301e-05,4.0300974038213e-05,-4.0300974038185e-05,4.0300974038296e-05,-4.0965346963472e-05,4.096534696384e-05,-4.0965346963209e-05,4.0965346963776e-05,-6.62148889453e-17,-5.6750104558555e-17,-4.398946497557e-17,-4.7130913124133e-17,-4.0628949064871e-05,4.0628949064856e-05,-4.0300974037721e-05,4.030097403797e-05,-4.0300974037873e-05,4.0300974037916e-05,-4.0300974037645e-05,4.0300974037907e-05,-4.0300974037717e-05,4.0300974037645e-05,-4.0965346963359e-05,4.0965346963492e-05,-4.0965346963849e-05,4.0965346963383e-05,-4.0965346963777e-05,4.0965346963799e-05,-4.0965346963694e-05,4.0965346963821e-05,-8.8627807187209e-17,-9.0850165766269e-17,-4.0628949064964e-05,4.062894906473e-05,-1.4365553789251e-16,-1.3963176375723e-16,-4.030097403769e-05,4.0300974037732e-05,-4.030097403762e-05,4.0300974037454e-05,-4.0300974037944e-05,4.0300974037791e-05,-4.0300974038116e-05,4.0300974037832e-05,-4.0965346963941e-05,4.096534696364e-05,-4.0965346963909e-05,4.0965346963912e-05,0.81993057060041,0.89147349669472,114808,2744,0.00016927294217307,0.00016927294217262,0.00016927294217255,32.682751960096,32.766434514292,2.3862015680764e-05,2.3862015680764e-05,2.3862015680764e-05,189662.61858405,0.00050794783849358
2819200,0.04323744256962,0.00088379157435527,0.00029459719145163,0.00029459719145184,0.00029459719145179,-7.6932215482045e-05,7.6932215481999e-05,-2.4761832008103e-15,-2.4360003104357e-15,3.5112276881612e-15,-9.7482637781154e-16,-7.6445655674442e-05,7.6445655672023e-05,-7.6445655674572e-05,7.6445655675009e-05,-7.644565567623e-05,7.6445655676097e-05,-7.6445655674034e-05,7.6445655675575e-05,-7.7521978557879e-05,7.752197854964e-05,-7.7521978556509e-05,7.7521978560274e-05,-2.4102241634239e-15,2.0793372129696e-15,1.6279061509375e-15,-7.2470580191168e-16,-7.6932215481871e-05,7.6932215482584e-05,-7.6445655673407e-05,7.6445655676238e-05,-7.6445655672297e-05,7.6445655674558e-05,-7.6445655676542e-05,7.6445655675264e-05,-7.6445655673731e-05,7.6445655679175e-05,-7.7521978558844e-05,7.7521978563423e-05,-7.752197857682e-05,7.7521978562712e-05,-7.7521978563451e-05,7.7521978564965e-05,-7.7521978558024e-05,7.7521978569825e-05,-2.4716285375624e-15,-2.5327516702927e-15,-7.693221548338e-05,7.6932215481016e-05,-3.2622422525032e-15,-9.7566137068544e-16,-7.6445655673084e-05,7.6445655676921e-05,-7.6445655672014e-05,7.6445655672655e-05,-7.6445655672858e-05,7.6445655672991e-05,-7.6445655673785e-05,7.6445655672473e-05,-7.7521978576478e-05,7.7521978560716e-05,-7.7521978565349e-05,7.7521978564941e-05,0.82138593034754,0.8908132454491,114808,2744,0.00032049948776739,0.00032049948776825,0.00032049948776812,32.939522266761,32.948009281858,2.5916178134085e-05,2.5916178134085e-05,2.5916178134085e-05,222184.22897028,0.00096196099495617
3019200,0.06533160067015,0.0013331457289815,0.00044438190965733,0.00044438190966212,0.00044438190966206,-0.00011273330162708,0.00011273330162522,-2.6714264320357e-15,-2.7201588443739e-15,4.5170059653698e-15,-4.1170948138148e-15,-0.00011211132147017,0.00011211132146888,-0.00011211132147044,0.00011211132147023,-0.00011211132147272,0.00011211132146896,-0.00011211132147157,0.00011211132146872,-0.00011354978408904,0.00011354978407747,-0.00011354978408744,0.00011354978408777,-3.7367020227888e-15,4.9046957531468e-15,3.2257801311019e-15,-1.4617935785037e-15,-0.00011273330162649,0.00011273330162807,-0.00011211132146845,0.00011211132147036,-0.0001121113214688,0.00011211132146878,-0.00011211132146835,0.0001121113214715,-0.00011211132146785,0.00011211132147243,-0.00011354978408569,0.00011354978409603,-0.00011354978410679,0.00011354978409259,-0.00011354978409618,0.00011354978409357,-0.00011354978408526,0.0001135497841013,-1.0698276116185e-15,-1.3168862406175e-15,-0.0001127333016278,0.00011273330162672,-3.4623905498748e-15,1.2804902936652e-15,-0.00011211132146881,0.00011211132147008,-0.00011211132146711,0.00011211132146978,-0.00011211132146839,0.00011211132146898,-0.0001121113214684,0.00011211132146931,-0.00011354978410512,0.0001135497840923,-0.0001135497840929,0.00011354978409685,0.82013448622852,0.87828479112878,114808,2744,0.00046961172727739,0.0004696117272821,0.00046961172728201,32.85703830422,32.854863735851,2.525630643376e-05,2.525630643376e-05,2.525630643376e-05,239615.49981723,0.0014098283250241
3219200,0.086783764491784,0.0017625610059829,0.0005875203353236,0.00058752033532962,0.00058752033532966,-0.00014602077760347,0.00014602077760108,-2.4657955356096e-15,-2.4779754900943e-15,5.7380732050556e-15,-6.4581970079851e-15,-0.00014544336632693,0.00014544336632672,-0.0001454433663272,0.00014544336632776,-0.00014544336633067,0.00014544336632475,-0.00014544336632998,0.00014544336632484,-0.00014683964541364,0.00014683964540163,-0.00014683964541209,0.00014683964541038,-5.1235934777362e-15,7.0763720569852e-15,4.5472213796258e-15,-2.2480489707059e-15,-0.00014602077760273,0.00014602077760482,-0.0001454433663262,0.00014544336632766,-0.00014544336632772,0.00014544336632533,-0.00014544336632381,0.00014544336633018,-0.00014544336632497,0.0001454433663299,-0.00014683964540872,0.00014683964542298,-0.00014683964543023,0.00014683964541712,-0.00014683964542272,0.00014683964541616,-0.00014683964540875,0.00014683964542741,-3.1371468093772e-16,-6.2053251374589e-16,-0.0001460207776039,0.00014602077760367,-3.8691906224118e-15,3.0531493754412e-15,-0.00014544336632692,0.00014544336632707,-0.00014544336632404,0.00014544336632825,-0.00014544336632662,0.00014544336632641,-0.00014544336632566,0.00014544336632795,-0.00014683964542749,0.00014683964541822,-0.0001468396454166,0.00014683964542255,0.80676032036907,0.81135500028467,114808,2744,0.00060823481085272,0.00060823481085897,0.00060823481085899,32.292946025701,32.277095363578,2.0743568205607e-05,2.0743568205607e-05,2.0743568205607e-05,155293.58420438,0.0018263704965274
3419200,0.10569472712409,0.0021324740745458,0.00071082469151056,0.00071082469151762,0.00071082469151761,-0.00017199209628173,0.00017199209628096,-6.1464700880138e-16,-5.7155015930748e-16,8.7799613637425e-15,-7.7654125881523e-15,-0.00017168040420602,0.00017168040420838,-0.00017168040420494,0.00017168040420886,-0.00017168040421033,0.00017168040420455,-0.00017168040420994,0.00017168040420275,-0.00017253165579353,0.00017253165578507,-0.00017253165579062,0.00017253165579105,-6.9704635277122e-15,9.4806147854908e-15,6.1207468389149e-15,-3.6990634667385e-15,-0.00017199209628206,0.00017199209628388,-0.00017168040420317,0.00017168040420315,-0.00017168040420421,0.00017168040419993,-0.00017168040420015,0.0001716804042077,-0.00017168040420126,0.00017168040420366,-0.00017253165580028,0.00017253165581831,-0.00017253165582182,0.00017253165580608,-0.00017253165582758,0.00017253165581251,-0.00017253165580653,0.00017253165583034,9.2640919883489e-16,5.8780557235502e-16,-0.00017199209628251,0.00017199209628361,-5.0642938187119e-15,4.8741966848724e-15,-0.00017168040420101,0.00017168040420191,-0.00017168040419881,0.00017168040420418,-0.0001716804042004,0.00017168040420066,-0.00017168040419992,0.00017168040420503,-0.00017253165582429,0.00017253165582068,-0.00017253165581924,0.00017253165582752,0.78590062037495,0.71413774128887,114808,2744,0.00071637702259633,0.00071637702260307,0.00071637702260347,30.397461518263,30.344178988426,5.5796921461048e-06,5.5796921461048e-06,5.5796921461048e-06,86880.153731461,0.0021514422398463
3619200,0.12380025294427,0.0024794228048478,0.00082647426827968,0.00082647426828422,0.00082647426828387,-0.00019839760307906,0.00019839760307381,-3.7062860172342e-15,-3.5968680880478e-15,8.7701792852231e-15,-1.2145231912678e-14,-0.00019846113357191,0.00019846113357194,-0.00019846113357083,0.00019846113357349,-0.00019846113357719,0.00019846113356668,-0.00019846113357752,0.0001984611335658,-0.00019853280163314,0.00019853280161553,-0.00019853280162832,0.00019853280162126,-8.198609832215e-15,1.2666686570832e-14,8.8564206189e-15,-4.3851822121641e-15,-0.00019839760307554,0.00019839760307974,-0.00019846113356871,0.00019846113357023,-0.00019846113357189,0.00019846113356544,-0.00019846113356469,0.00019846113357655,-0.00019846113356611,0.00019846113357366,-0.0001985328016217,0.00019853280164494,-0.00019853280164766,0.00019853280163243,-0.00019853280164612,0.00019853280163142,-0.0001985328016241,0.00019853280164976,2.0347723979235e-15,1.6472290900467e-15,-0.00019839760307554,0.00019839760307929,-4.9035119657812e-15,8.4849613784895e-15,-0.00019846113356761,0.00019846113357047,-0.00019846113356327,0.00019846113357365,-0.00019846113356739,0.00019846113356861,-0.00019846113356418,0.00019846113357308,-0.00019853280164343,0.00019853280164163,-0.0001985328016326,0.00019853280164795,0.77012034117969,0.64656198526755,114808,2744,0.00082631515855489,0.00082631515855989,0.00082631515855895,29.685711982404,29.664996498738,-1.1430414076392e-07,-1.1430414076392e-07,-1.1430414076392e-07,263894.72978799,0.0024820206184354
3819200,0.14143185465078,0.0028152451840375,0.00093841506134314,0.00093841506134753,0.00093841506134682,-0.00022441116748281,0.00022441116747574,-4.6385630285394e-15,-4.4738642599967e-15,9.3548954672372e-15,-1.4689422571753e-14,-0.00022489771776062,0.00022489771775953,-0.00022489771776034,0.0002248977177609,-0.00022489771776718,0.00022489771775313,-0.00022489771776714,0.0002248977177526,-0.00022416862583494,0.00022416862581403,-0.00022416862583168,0.0002241686258223,-8.6935285363178e-15,1.5311201370955e-14,1.1447179708282e-14,-4.8687556746209e-15,-0.00022441116747718,0.00022441116748352,-0.00022489771775569,0.00022489771776028,-0.0002248977177601,0.00022489771775455,-0.0002248977177499,0.0002248977177672,-0.00022489771775359,0.00022489771776291,-0.00022416862581852,0.00022416862584902,-0.00022416862584761,0.0002241686258333,-0.00022416862584677,0.0002241686258292,-0.0002241686258211,0.00022416862585176,2.5000118616478e-15,2.0520696636216e-15,-0.00022441116747784,0.00022441116748252,-5.9899861276826e-15,1.0443379491337e-14,-0.00022489771775637,0.00022489771775834,-0.00022489771775124,0.00022489771776308,-0.00022489771775599,0.00022489771775737,-0.00022489771775239,0.00022489771776278,-0.00022416862584192,0.00022416862584117,-0.00022416862583092,0.00022416862584652,0.7714087882735,0.66302364648837,114808,2744,0.00093460960890822,0.0009346096089127,0.00093460960891198,29.235532598361,29.222629577517,-3.7157392131104e-06,-3.7157392131104e-06,-3.7157392131104e-06,381276.60632521,0.0028077632683521
4019200,0.16086645194291,0.0031844425530005,0.0010614808509975,0.0010614808510019,0.0010614808510011,-0.00025645854997916,0.00025645854997189,-4.3546967004609e-15,-4.1499197674918e-15,1.2150646513465e-14,-1.7570693006801e-14,-0.00025739639994543,0.0002573963999433,-0.00025739639994413,0.00025739639994538,-0.00025739639995236,0.00025739639993557,-0.00025739639995127,0.00025739639993615,-0.00025584631580505,0.00025584631578647,-0.00025584631580375,0.00025584631579496,-1.0575191641037e-14,1.9253514759517e-14,1.3226397413226e-14,-5.8532476578901e-15,-0.00025645854997212,0.00025645854998063,-0.00025739639993671,0.00025739639994384,-0.00025739639994132,0.0002573963999363,-0.00025739639992875,0.00025739639995174,-0.00025739639993385,0.00025739639994692,-0.0002558463157851,0.0002558463158249,-0.00025584631582254,0.00025584631580644,-0.0002558463158233,0.00025584631580027,-0.00025584631578869,0.00025584631583139,2.8914962255986e-15,2.4168526373992e-15,-0.00025645854997337,0.00025645854997896,-7.3109898895715e-15,1.181330822919e-14,-0.00025739639993721,0.00025739639993938,-0.00025739639993216,0.00025739639994609,-0.00025739639993648,0.00025739639993725,-0.0002573963999332,0.00025739639994407,-0.00025584631581044,0.00025584631581005,-0.00025584631580474,0.00025584631581926,0.77300334862251,0.6794853077092,114808,2744,0.0010680066886444,0.0010680066886479,0.001068006688647,30.53233455651,30.568428930085,6.6586764520842e-06,6.6586764520842e-06,6.6586764520842e-06,445390.18333033,0.0032091586028962
4219200,0.18212523295896,0.0035882773432435,0.0011960924477457,0.0011960924477498,0.001196092447748,-0.00029118251153402,0.00029118251152248,-6.5123088659344e-15,-6.2628699098365e-15,1.2212625002648e-14,-2.1966488865314e-14,-0.00029263821745267,0.00029263821744856,-0.00029263821745151,0.00029263821745013,-0.00029263821746105,0.00029263821743917,-0.00029263821746072,0.00029263821743953,-0.00029017546137623,0.00029017546135027,-0.00029017546137529,0.00029017546135935,-1.1246009383309e-14,2.2954475227127e-14,1.5994614316688e-14,-5.391026484312e-15,-0.00029118251152351,0.00029118251153491,-0.00029263821744259,0.00029263821745165,-0.00029263821744846,0.00029263821744358,-0.00029263821743419,0.00029263821746204,-0.00029263821743916,0.00029263821745581,-0.00029017546134914,0.00029017546139416,-0.00029017546138645,0.00029017546137341,-0.00029017546138896,0.00029017546136578,-0.00029017546135254,0.00029017546139931,4.0229138674487e-15,3.5256202358983e-15,-0.00029118251152482,0.00029118251153267,-7.2219705502276e-15,1.4166008414637e-14,-0.00029263821744379,0.00029263821744782,-0.00029263821743752,0.0002926382174547,-0.00029263821744305,0.00029263821744585,-0.00029263821743868,0.00029263821745316,-0.00029017546137609,0.00029017546137953,-0.00029017546136834,0.00029017546138617,0.77489564715988,0.69594696893002,114808,2744,0.0012125249061405,0.0012125249061445,0.0012125249061426,31.775331418825,31.810718622036,1.6602651350601e-05,1.6602651350601e-05,1.6602651350601e-05,491766.08668917,0.0036441991610251
4419200,0.20372566028969,0.0039987383901174,0.0013329127967039,0.0013329127967079,0.0013329127967057,-0.00032444792183449,0.0003244479218194,-8.2311851238269e-15,-7.9269976679236e-15,1.3213437259403e-14,-2.6792341438831e-14,-0.00032645110796586,0.00032645110796149,-0.00032645110796493,0.00032645110796226,-0.00032645110797643,0.00032645110794907,-0.00032645110797552,0.00032645110794871,-0.00032303936495889,0.0003230393649265,-0.00032303936495546,0.00032303936493693,-1.3366385783736e-14,2.6479808707079e-14,1.7084007507062e-14,-6.7526466524564e-15,-0.0003244479218221,0.00032444792183408,-0.00032645110795072,0.00032645110796169,-0.00032645110795871,0.00032645110795313,-0.00032645110794242,0.00032645110797336,-0.00032645110794893,0.00032645110796621,-0.00032303936492586,0.00032303936497434,-0.00032303936496694,0.00032303936495076,-0.00032303936496944,0.00032303936494129,-0.00032303936492901,0.00032303936498306,4.5591548385963e-15,4.0347076248045e-15,-0.00032444792182257,0.00032444792183188,-7.9742122756416e-15,1.587242687296e-14,-0.00032645110795271,0.00032645110795664,-0.00032645110794458,0.00032645110796422,-0.00032645110795153,0.00032645110795609,-0.00032645110794579,0.00032645110796368,-0.00032303936495422,0.00032303936495697,-0.00032303936494511,0.00032303936496769,0.77613009662318,0.70796919803802,114808,2744,0.0013509531453539,0.0013509531453587,0.0013509531453551,31.979847824973,31.986126480591,1.8238782599786e-05,1.8238782599786e-05,1.8238782599786e-05,523014.22997031,0.0040610841709206
4619200,0.22686756484538,0.0044387227602584,0.0014795742534184,0.0014795742534216,0.0014795742534184,-0.00036166943556939,0.00036166943555166,-9.3817326959766e-15,-9.0705385894617e-15,1.3737354316481e-14,-2.985236928061e-14,-0.00036421375120497,0.00036421375119872,-0.00036421375120473,0.00036421375119929,-0.00036421375121736,0.0003642137511856,-0.00036421375121686,0.0003642137511847,-0.00035987093134088,0.00035987093130324,-0.00035987093133945,0.00035987093131417,-1.3594937625164e-14,2.9752826365695e-14,1.9648164467945e-14,-5.9136428716813e-15,-0.00036166943555392,0.00036166943556889,-0.00036421375119049,0.00036421375120272,-0.00036421375119862,0.00036421375119319,-0.00036421375118097,0.00036421375121638,-0.00036421375118783,0.00036421375120931,-0.00035987093130479,0.00035987093135638,-0.00035987093134504,0.00035987093133181,-0.0003598709313525,0.0003598709313228,-0.00035987093130638,0.00035987093136456,5.6323720525471e-15,5.0358093947738e-15,-0.00036166943555494,0.0003616694355663,-7.5525045702873e-15,1.8029508034435e-14,-0.00036421375119356,0.0003642137511981,-0.00036421375118472,0.0003642137512063,-0.00036421375119253,0.00036421375119644,-0.00036421375118572,0.00036421375120647,-0.00035987093133552,0.00035987093134227,-0.00035987093132592,0.00035987093134975,0.77694609089053,0.71700962800632,114808,2744,0.0015058213070676,0.0015058213070713,0.001505821307068,33.0083804629,33.03734704398,2.6467043703201e-05,2.6467043703201e-05,2.6467043703201e-05,526690.07694155,0.0045276842411767
4819200,0.25230540453386,0.004923092964143,0.0016410309880469,0.0016410309880496,0.0016410309880465,-0.0004033364992059,0.00040333649918463,-1.132069391241e-14,-1.0976945366128e-14,1.3054036956064e-14,-3.278103165022e-14,-0.00040644972282391,0.00040644972281524,-0.00040644972282387,0.0004064497228156,-0.00040644972283818,0.00040644972280184,-0.000406449722837,0.00040644972280134,-0.00040113371189161,0.00040113371185171,-0.00040113371188986,0.00040113371186107,-1.3513381293125e-14,3.2189060763936e-14,2.1798319370424e-14,-4.9992590407738e-15,-0.00040333649918699,0.00040333649920468,-0.00040644972280791,0.00040644972282197,-0.00040644972281629,0.0004064497228124,-0.00040644972279648,0.00040644972283583,-0.00040644972280435,0.00040644972282838,-0.00040113371185076,0.00040113371190866,-0.00040113371189132,0.00040113371188369,-0.00040113371190082,0.00040113371186998,-0.00040113371185195,0.00040113371191545,6.1283274896842e-15,5.4866559158397e-15,-0.00040333649918882,0.00040333649920117,-7.6965442876198e-15,1.9054212024549e-14,-0.00040644972281085,0.00040644972281649,-0.00040644972280177,0.0004064497228253,-0.00040644972281029,0.00040644972281609,-0.00040644972280354,0.00040644972282532,-0.00040113371188206,0.00040113371189146,-0.00040113371187272,0.00040113371189876,0.77793123050923,0.72605005797462,114808,2744,0.0016791576905906,0.001679157690593,0.0016791576905895,34.494348558863,34.536567976499,3.8354788470901e-05,3.8354788470901e-05,3.8354788470901e-05,524555.49137097,0.0050501841299508
5019200,0.27980390144702,0.005446237328592,0.0018154124428637,0.0018154124428658,0.0018154124428625,-0.00044779555307771,0.00044779555305511,-1.2215853376565e-14,-1.1808830539693e-14,1.3055968997225e-14,-3.4261585685017e-14,-0.00045154122177972,0.00045154122176997,-0.00045154122177908,0.00045154122177144,-0.00045154122179402,0.00045154122175592,-0.00045154122179282,0.00045154122175627,-0.00044513833426546,0.00044513833422129,-0.00044513833426311,0.00044513833423286,-1.3654612272733e-14,3.3570150925521e-14,2.3020855552194e-14,-4.7451050402982e-15,-0.00044779555305778,0.00044779555307678,-0.0004515412217651,0.00045154122178038,-0.00045154122177388,0.00045154122177041,-0.00045154122175316,0.00045154122179423,-0.00045154122176084,0.0004515412217868,-0.00044513833422297,0.00044513833428481,-0.0004451383342664,0.00044513833425951,-0.00044513833427317,0.00044513833424247,-0.00044513833422303,0.00044513833428875,6.5461456079804e-15,5.8893274380305e-15,-0.00044779555305953,0.00044779555307296,-7.6942943563537e-15,1.9983492459199e-14,-0.00045154122176812,0.00045154122177395,-0.00045154122175836,0.00045154122178324,-0.000451541221767,0.00045154122177321,-0.00045154122176052,0.00045154122178321,-0.00044513833425346,0.0004451383342642,-0.0004451383342438,0.00044513833427001,0.7767822941055,0.72436448347241,114808,2744,0.0018640757006328,0.0018640757006365,0.0018640757006322,35.804688730735,35.842232169202,4.8837509845881e-05,4.8837509845881e-05,4.8837509845881e-05,533789.50734254,0.0056078950392596
5219200,0.30872778233802,0.0059978890954764,0.0019992963651581,0.0019992963651611,0.0019992963651572,-0.00049387858888058,0.00049387858885657,-1.2940386389637e-14,-1.2515078524275e-14,1.2521126392136e-14,-3.5105545196751e-14,-0.00049826596808896,0.00049826596807798,-0.00049826596808867,0.00049826596807953,-0.00049826596810359,0.00049826596806378,-0.00049826596810229,0.00049826596806402,-0.000490789204182,0.00049078920413768,-0.00049078920418023,0.00049078920414765,-1.3011587799042e-14,3.4475593853096e-14,2.4302257582713e-14,-4.2508554334021e-15,-0.00049387858885904,0.00049387858887966,-0.00049826596807204,0.0004982659680887,-0.00049826596808103,0.00049826596807864,-0.00049826596805935,0.00049826596810312,-0.00049826596806773,0.000498265968095,-0.00049078920413721,0.00049078920420143,-0.00049078920418019,0.00049078920417478,-0.00049078920418865,0.00049078920415925,-0.00049078920413885,0.00049078920420544,7.048519966671e-15,6.3377916789323e-15,-0.00049387858886121,0.0004938785888755,-7.5628130788988e-15,2.0840980969396e-14,-0.00049826596807541,0.00049826596808186,-0.00049826596806555,0.0004982659680913,-0.00049826596807411,0.00049826596808157,-0.0004982659680674,0.00049826596809132,-0.00049078920416902,0.00049078920418138,-0.00049078920415985,0.00049078920418739,0.77856400361118,0.73634261842785,114808,2744,0.00205571223868,0.0020557122386832,0.0020557122386791,36.758750563998,36.786222544774,5.6470004511981e-05,5.6470004511981e-05,5.6470004511981e-05,515157.87650914,0.0061861955189485
5419200,0.33875022859513,0.0065644852581853,0.0021881617527277,0.0021881617527307,0.0021881617527269,-0.00054090216221561,0.00054090216219083,-1.3344931475916e-14,-1.2893945195792e-14,1.200616619321e-14,-3.5316829183346e-14,-0.00054609442408983,0.00054609442407797,-0.0005460944240897,0.00054609442407957,-0.00054609442410444,0.00054609442406388,-0.00054609442410309,0.00054609442406407,-0.00053719789580575,0.00053719789576078,-0.00053719789580386,0.00053719789577048,-1.2396591880863e-14,3.4769555461006e-14,2.5115320979478e-14,-3.9725551117564e-15,-0.00054090216219321,0.00054090216221483,-0.00054609442407151,0.0005460944240893,-0.00054609442408066,0.00054609442407912,-0.00054609442405867,0.00054609442410378,-0.00054609442406733,0.00054609442409529,-0.00053719789575967,0.00053719789582537,-0.00053719789580296,0.00053719789579819,-0.00053719789581179,0.00053719789578328,-0.00053719789576233,0.00053719789582905,7.4447872727415e-15,6.6874574674707e-15,-0.00054090216219557,0.00054090216221055,-7.4518311752022e-15,2.1468888257848e-14,-0.00054609442407519,0.00054609442408212,-0.00054609442406519,0.00054609442409171,-0.00054609442407383,0.00054609442408202,-0.00054609442406697,0.00054609442409175,-0.0005371978957924,0.00053719789580552,-0.00053719789578302,0.00053719789581158,0.76958754074142,0.69714498381277,114808,2744,0.002251222052027,0.0022512220520304,0.0022512220520264,37.570644577655,37.593975587268,6.2965156621242e-05,6.2965156621242e-05,6.2965156621242e-05,587306.78376224,0.0067765275579376
5619200,0.36860505716865,0.0071017164313758,0.0023672388104578,0.0023672388104609,0.0023672388104571,-0.0005845161425296,0.00058451614250473,-1.3443254299427e-14,-1.2951339065151e-14,1.1803261862156e-14,-3.5141867616537e-14,-0.00059118029644537,0.00059118029643316,-0.00059118029644545,0.00059118029643485,-0.00059118029645969,0.00059118029641933,-0.00059118029645836,0.00059118029641958,-0.00057954215655028,0.00057954215650567,-0.00057954215654818,0.00057954215651485,-1.2171187002121e-14,3.4648117994367e-14,2.5363872209938e-14,-4.0889339094052e-15,-0.00058451614250719,0.0005845161425289,-0.00059118029642569,0.00059118029644372,-0.00059118029643485,0.00059118029643359,-0.0005911802964128,0.0005911802964581,-0.00059118029642165,0.0005911802964494,-0.00057954215650572,0.0005795421565713,-0.00057954215654878,0.00057954215654399,-0.0005795421565585,0.00057954215652989,-0.00057954215650914,0.00057954215657577,7.7528219801397e-15,6.9621843688701e-15,-0.0005845161425094,0.00058451614252479,-7.470712951318e-15,2.1823303901281e-14,-0.00059118029642916,0.00059118029643647,-0.00059118029641907,0.00059118029644631,-0.00059118029642769,0.00059118029643633,-0.00059118029642084,0.00059118029644616,-0.00057954215653908,0.00057954215655327,-0.00057954215652985,0.00057954215655936,0.73637638295869,0.54647744867083,114808,2744,0.0024325211435845,0.0024325211435882,0.0024325211435842,37.74068488422,37.745845159699,6.4325479073757e-05,6.4325479073757e-05,6.4325479073757e-05,903276.01224667,0.0073242629609675
5819200,0.39591034031555,0.0075711543743339,0.0025237181247779,0.0025237181247799,0.0025237181247761,-0.00062088428982416,0.00062088428979976,-1.3370100284232e-14,-1.2823416674838e-14,1.2451351237414e-14,-3.4417176520059e-14,-0.00062935613789668,0.00062935613788495,-0.00062935613789676,0.00062935613788722,-0.00062935613791151,0.00062935613787073,-0.00062935613790945,0.00062935613787128,-0.00061442820190775,0.00061442820186512,-0.00061442820190492,0.00061442820187229,-1.204322032318e-14,3.4750173700165e-14,2.6964029208593e-14,-3.6643292337278e-15,-0.00062088428980142,0.00062088428982389,-0.00062935613787503,0.00062935613789393,-0.00062935613788406,0.00062935613788282,-0.00062935613786207,0.00062935613790865,-0.00062935613787115,0.00062935613789875,-0.00061442820186094,0.00061442820192836,-0.00061442820190523,0.0006144282019006,-0.00061442820192031,0.00061442820189101,-0.00061442820186987,0.00061442820193709,8.0202402812824e-15,7.1662516641661e-15,-0.00062088428980414,0.00062088428981954,-8.4817702995042e-15,2.190821307207e-14,-0.00062935613787843,0.00062935613788491,-0.00062935613786735,0.00062935613789445,-0.0006293561378766,0.00062935613788511,-0.00062935613786955,0.00062935613789528,-0.00061442820189752,0.00061442820191426,-0.00061442820188998,0.00061442820191967,0.71318193301452,0.45191892595528,114808,2744,0.0025836743046562,0.0025836743046591,0.0025836743046557,36.559671069464,36.526475192265,5.4877368555715e-05,5.4877368555715e-05,5.4877368555715e-05,1008141.5889707,0.0077811533888143
6019200,0.42165134771736,0.0080055696819661,0.0026685232273238,0.0026685232273229,0.0026685232273193,-0.00065594817501244,0.00065594817498798,-1.3336682647029e-14,-1.2716174374271e-14,1.2171450809549e-14,-3.4363023762624e-14,-0.00066611421253109,0.00066611421251893,-0.00066611421253113,0.00066611421252121,-0.0006661142125456,0.00066611421250512,-0.00066611421254392,0.0006661142125057,-0.00064804137867976,0.00064804137863578,-0.00064804137867711,0.00064804137864452,-1.1443591582603e-14,3.5004430638672e-14,2.7565775531538e-14,-3.9204390568073e-15,-0.00065594817498919,0.00065594817501233,-0.0006661142125074,0.00066611421252745,-0.00066611421251729,0.00066611421251639,-0.00066611421249501,0.00066611421254212,-0.00066611421250421,0.00066611421253205,-0.0006480413786318,0.00064804137870232,-0.00064804137867839,0.0006480413786741,-0.0006480413786932,0.0006480413786651,-0.00064804137864339,0.00064804137870961,8.2719531798614e-15,7.3387758054367e-15,-0.00065594817499192,0.00065594817500791,-8.5093871028886e-15,2.27347172347e-14,-0.00066611421251197,0.00066611421251858,-0.00066611421250034,0.00066611421252868,-0.00066611421250966,0.0006661142125182,-0.00066611421250192,0.00066611421252944,-0.00064804137867128,0.00064804137868788,-0.0006480413786635,0.00064804137869388,0.70262235006092,0.42208439038852,114808,2744,0.002729384745444,0.0027293847454463,0.0027293847454428,35.893783358596,35.874525012257,4.955026686877e-05,4.955026686877e-05,4.955026686877e-05,941123.75236871,0.0082217902523833
6219200,0.44669564702825,0.0084330518260488,0.0028110172753521,0.0028110172753502,0.0028110172753465,-0.00069133184187674,0.000691331841852,-1.3412369213533e-14,-1.2721702209765e-14,1.1593279191505e-14,-3.4257526985478e-14,-0.00070297210949898,0.00070297210948636,-0.00070297210949909,0.0007029721094885,-0.00070297210951319,0.00070297210947271,-0.00070297210951152,0.00070297210947334,-0.0006822002371904,0.00068220023714723,-0.00068220023718773,0.00068220023715576,-1.1005604962794e-14,3.4748173761261e-14,2.7949734390094e-14,-4.3912482033228e-15,-0.0006913318418529,0.00069133184187612,-0.00070297210947469,0.00070297210949532,-0.0007029721094848,0.00070297210948412,-0.0007029721094624,0.00070297210950978,-0.00070297210947202,0.00070297210949932,-0.00068220023714197,0.00068220023721219,-0.00068220023718846,0.00068220023718309,-0.00068220023720159,0.00068220023717383,-0.00068220023715312,0.00068220023721844,8.5746792259061e-15,7.5872829195973e-15,-0.00069133184185543,0.00069133184187189,-8.6646470656857e-15,2.3412814166363e-14,-0.00070297210947933,0.0007029721094862,-0.00070297210946779,0.00070297210949669,-0.00070297210947725,0.00070297210948605,-0.00070297210946934,0.00070297210949731,-0.00068220023717953,0.00068220023719695,-0.0006822002371722,0.00068220023720382,0.70746296295732,0.46557179585039,114808,2744,0.0028764024722397,0.0028764024722403,0.0028764024722367,35.771709693238,35.767973188551,4.8573677545908e-05,4.8573677545908e-05,4.8573677545908e-05,857796.22341299,0.0086665760954916
6419200,0.47146206248412,0.0088544375976355,0.0029514791992142,0.0029514791992125,0.0029514791992088,-0.00072666352973662,0.00072666352971174,-1.3536079588678e-14,-1.2785019008247e-14,1.106415855086e-14,-3.387250565938e-14,-0.00073978168550379,0.00073978168549075,-0.00073978168550389,0.00073978168549293,-0.00073978168551765,0.00073978168547738,-0.00073978168551605,0.00073978168547806,-0.00071630984483573,0.00071630984479215,-0.00071630984483323,0.00071630984480096,-1.0473974144927e-14,3.4351891749758e-14,2.8327311090679e-14,-4.6389759295285e-15,-0.00072666352971264,0.00072666352973598,-0.00073978168547909,0.00073978168550022,-0.00073978168548937,0.00073978168548885,-0.0007397816854669,0.00073978168551435,-0.00073978168547679,0.00073978168550369,-0.00071630984478707,0.00071630984485801,-0.00071630984483436,0.00071630984482822,-0.00071630984484652,0.00071630984481974,-0.00071630984479882,0.00071630984486323,8.7548796032612e-15,7.7102497512803e-15,-0.00072666352971504,0.00072666352973185,-8.7654381042357e-15,2.3944121464702e-14,-0.00073978168548389,0.00073978168549095,-0.00073978168547231,0.00073978168550168,-0.0007397816854819,0.0007397816854909,-0.00073978168547378,0.00073978168550222,-0.00071630984482505,0.00071630984484271,-0.00071630984481713,0.00071630984484916,0.70211760560516,0.45785087119184,114808,2744,0.0030231823707393,0.0030231823707399,0.0030231823707363,35.956830031808,35.961982991159,5.0054640254461e-05,5.0054640254461e-05,5.0054640254461e-05,867244.49351445,0.0091108396841602
6619200,0.49673690792678,0.009309016016084,0.0031030053386971,0.0031030053386953,0.0031030053386916,-0.00076492200427284,0.00076492200424839,-1.337986009637e-14,-1.2568230881435e-14,1.068591057023e-14,-3.3165200061198e-14,-0.00077909932306522,0.0007790993230527,-0.00077909932306571,0.00077909932305434,-0.00077909932307896,0.00077909932303936,-0.00077909932307755,0.00077909932304039,-0.0007540301203598,0.00075403012031665,-0.00075403012035747,0.00075403012032652,-9.9726953410029e-15,3.3761733308105e-14,2.8538863451429e-14,-4.9487899943333e-15,-0.00076492200424894,0.00076492200427213,-0.0007790993230415,0.00077909932306284,-0.00077909932305203,0.00077909932305151,-0.00077909932302939,0.00077909932307649,-0.00077909932303967,0.00077909932306603,-0.00075403012031143,0.00075403012038223,-0.00075403012035955,0.00075403012035237,-0.00075403012036945,0.00075403012034327,-0.00075403012032296,0.00075403012038613,8.9410945027592e-15,7.8226286711226e-15,-0.00076492200425108,0.00076492200426823,-8.8250833409382e-15,2.4409813120494e-14,-0.0007790993230463,0.00077909932305353,-0.00077909932303471,0.00077909932306449,-0.00077909932304432,0.00077909932305353,-0.00077909932303563,0.00077909932306491,-0.00075403012034899,0.00075403012036574,-0.00075403012034026,0.00075403012037264,0.74071517757639,0.65548884337107,114808,2744,0.0031820976289565,0.0031820976289561,0.0031820976289525,36.726859368879,36.748640033733,5.6214874951036e-05,5.6214874951036e-05,5.6214874951036e-05,743030.26763793,0.0095920501617581
6819200,0.52340792169811,0.0098248001794919,0.0032749333931663,0.0032749333931647,0.003274933393161,-0.00080821783543502,0.00080821783541057,-1.3429398105077e-14,-1.2542145683375e-14,1.010406707447e-14,-3.2604798063447e-14,-0.0008227896033637,0.00082278960335075,-0.00082278960336415,0.00082278960335247,-0.00082278960337692,0.00082278960333778,-0.00082278960337556,0.00082278960333882,-0.00079771309108623,0.00079771309104315,-0.00079771309108361,0.00079771309105257,-9.4039774208273e-15,3.3189456673116e-14,2.8706534799773e-14,-5.1307256127956e-15,-0.00080821783541123,0.00080821783543445,-0.00082278960333945,0.0008227896033612,-0.00082278960335001,0.00082278960334976,-0.00082278960332748,0.00082278960337455,-0.00082278960333797,0.00082278960336377,-0.00079771309103801,0.00079771309110898,-0.0007977130910862,0.00079771309107837,-0.00079771309109546,0.0007977130910704,-0.00079771309105003,0.00079771309111201,9.1194567009753e-15,7.9595509588289e-15,-0.00080821783541324,0.00080821783543071,-8.8134954596459e-15,2.4750067431841e-14,-0.00082278960334427,0.00082278960335178,-0.00082278960333274,0.00082278960336305,-0.00082278960334252,0.00082278960335189,-0.00082278960333378,0.00082278960336347,-0.00079771309107504,0.00079771309109304,-0.00079771309106647,0.00079771309109952,0.79222278678081,0.89576281890611,114808,2744,0.0033619074890433,0.0033619074890435,0.0033619074890399,38.156066854303,38.1967477665,6.7648534834427e-05,6.7648534834427e-05,6.7648534834427e-05,527429.76534441,0.010136801341386
7019200,0.55181683803427,0.010335648370755,0.0034452161235874,0.0034452161235858,0.0034452161235821,-0.00085308702045793,0.00085308702043335,-1.3523541828315e-14,-1.2570205315602e-14,9.4669890528505e-15,-3.2080843481665e-14,-0.00086860689820865,0.00086860689819515,-0.00086860689820903,0.0008686068981969,-0.00086860689822155,0.00086860689818262,-0.00086860689822009,0.00086860689818365,-0.0008418901195397,0.00084189011949673,-0.00084189011953722,0.00084189011950622,-8.8117013968062e-15,3.2614033075441e-14,2.8823354760415e-14,-5.25492770086e-15,-0.00085308702043406,0.00085308702045731,-0.0008686068981838,0.00086860689820597,-0.00086860689819444,0.00086860689819447,-0.00086860689817209,0.00086860689821892,-0.00086860689818262,0.00086860689820826,-0.00084189011949114,0.00084189011956213,-0.00084189011953948,0.00084189011953114,-0.00084189011954841,0.00084189011952461,-0.00084189011950375,0.00084189011956457,9.2832899312767e-15,8.0645771621152e-15,-0.00085308702043591,0.00085308702045365,-8.7789376918326e-15,2.5030911793415e-14,-0.00086860689818891,0.00086860689819646,-0.00086860689817741,0.00086860689820777,-0.00086860689818707,0.0008686068981968,-0.00086860689817829,0.00086860689820828,-0.00084189011952846,0.00084189011954655,-0.0008418901195198,0.00084189011955281,0.73336568016668,0.60915714949679,114808,2744,0.0035482160401373,0.0035482160401375,0.0035482160401337,39.882033879656,39.931481347351,8.1456271037247e-05,8.1456271037247e-05,8.1456271037247e-05,605594.77302933,0.010701558399622
7219200,0.58040880393418,0.010830612299355,0.0036102040997872,0.0036102040997856,0.0036102040997818,-0.00089548678694884,0.00089548678692435,-1.3555135532267e-14,-1.2482617630592e-14,9.0869869323346e-15,-3.1381445730139e-14,-0.00091239239825629,0.00091239239824236,-0.00091239239825695,0.00091239239824418,-0.00091239239826888,0.00091239239823062,-0.00091239239826757,0.0009123923982315,-0.00088307305000724,0.00088307304996477,-0.00088307305000486,0.00088307304997364,-8.2038082028201e-15,3.2132724249684e-14,2.8963556359705e-14,-5.1935766339165e-15,-0.0008954867869255,0.00089548678694882,-0.00091239239822993,0.00091239239825243,-0.00091239239824075,0.00091239239824083,-0.00091239239821854,0.00091239239826529,-0.00091239239822918,0.00091239239825431,-0.00088307304996227,0.00088307305003136,-0.00088307305001063,0.00088307305000187,-0.00088307305002279,0.00088307304999847,-0.00088307304997784,0.00088307305003798,9.5026802878754e-15,8.159427205688e-15,-0.00089548678692729,0.00089548678694523,-8.7417623569253e-15,2.5124232471944e-14,-0.00091239239823532,0.00091239239824272,-0.00091239239822379,0.00091239239825394,-0.00091239239823349,0.00091239239824346,-0.00091239239822428,0.00091239239825465,-0.00088307305000231,0.00088307305002143,-0.0008830730499942,0.00088307305002743,0.70719547887378,0.49455785239988,114808,2744,0.0037242380492732,0.0037242380492755,0.0037242380492718,40.73729555324,40.76227760199,8.8298364425919e-05,8.8298364425919e-05,8.8298364425919e-05,764916.45172971,0.011235429246173
7419200,0.60852248719203,0.011299590940081,0.0037665303133635,0.0037665303133605,0.0037665303133566,-0.00093546300363103,0.00093546300360674,-1.3473449608598e-14,-1.2338962207586e-14,8.5810327772139e-15,-3.0751942902195e-14,-0.00095415845750587,0.00095415845749195,-0.00095415845750645,0.00095415845749377,-0.00095415845751816,0.00095415845748039,-0.00095415845751691,0.00095415845748121,-0.00092145572169104,0.00092145572164868,-0.00092145572168788,0.0009214557216578,-7.7425575878275e-15,3.1439510132782e-14,2.8791591024893e-14,-5.2669273342794e-15,-0.00093546300360732,0.00093546300363042,-0.00095415845747898,0.00095415845750166,-0.0009541584574898,0.0009541584574902,-0.00095415845746801,0.00095415845751421,-0.00095415845747875,0.00095415845750324,-0.00092145572164449,0.00092145572171373,-0.00092145572169269,0.00092145572168351,-0.00092145572170232,0.00092145572167998,-0.00092145572165944,0.00092145572171795,9.6396025755817e-15,8.2466157186093e-15,-0.00093546300360892,0.00093546300362708,-8.5663853616309e-15,2.5223876486711e-14,-0.00095415845748427,0.00095415845749205,-0.00095415845747285,0.00095415845750338,-0.00095415845748262,0.00095415845749272,-0.00095415845747358,0.00095415845750397,-0.00092145572168288,0.00092145572170196,-0.0009214557216743,0.0009214557217084,0.68502084293238,0.40602158184497,114808,2744,0.003890169281482,0.0038901692814819,0.0038901692814783,41.270194289372,41.285682431796,9.2561554314978e-05,9.2561554314978e-05,9.2561554314978e-05,951910.52457182,0.0117389590428
7619200,0.63497747756159,0.011729802687174,0.0039099342290616,0.003909934229058,0.0039099342290541,-0.00097091291120293,0.00097091291117875,-1.3506603926639e-14,-1.2313961650104e-14,8.085851041165e-15,-3.0093065971609e-14,-0.00099160654129675,0.00099160654128253,-0.00099160654129726,0.00099160654128437,-0.00099160654130857,0.00099160654127112,-0.000991606541307,0.0009916065412722,-0.0009552025767297,0.00095520257668794,-0.00095520257672686,0.00095520257669627,-7.4000386397815e-15,3.0605417966666e-14,2.8480071129847e-14,-5.3147199918936e-15,-0.00097091291117921,0.00097091291120195,-0.00099160654126952,0.00099160654129213,-0.00099160654128027,0.00099160654128065,-0.00099160654125874,0.00099160654130419,-0.00099160654126938,0.00099160654129348,-0.00095520257668257,0.00095520257675138,-0.00095520257672931,0.0009552025767203,-0.0009552025767391,0.00095520257671782,-0.00095520257669749,0.00095520257675388,9.6629106870644e-15,8.2234252505916e-15,-0.00097091291118068,0.00097091291119887,-8.3875084732559e-15,2.5177672015873e-14,-0.00099160654127458,0.00099160654128274,-0.00099160654126335,0.00099160654129374,-0.00099160654127303,0.00099160654128299,-0.00099160654126408,0.00099160654129422,-0.00095520257671922,0.00095520257673849,-0.00095520257671029,0.00095520257674383,0.67223854095155,0.36683891635165,114808,2744,0.0040372888892241,0.004037288889223,0.0040372888892197,41.071446528798,41.066060111062,9.0971572230388e-05,9.0971572230388e-05,9.0971572230388e-05,1115024.2384185,0.012185618990379
7819200,0.65995306694689,0.01213013281152,0.0040433776038437,0.0040433776038398,0.004043377603836,-0.0010044051117059,0.001004405111682,-1.338245330759e-14,-1.2106039233609e-14,7.713251899916e-15,-2.9457960373649e-14,-0.001027076926868,0.0010270769268537,-0.0010270769268685,0.0010270769268556,-0.0010270769268795,0.0010270769268427,-0.001027076926878,0.0010270769268437,-0.00098704160342554,0.00098704160338425,-0.00098704160342246,0.00098704160339322,-7.009021173332e-15,2.9995466012044e-14,2.820805002814e-14,-5.2963676113698e-15,-0.0010044051116824,0.0010044051117049,-0.0010270769268409,0.0010270769268635,-0.0010270769268515,0.0010270769268522,-0.0010270769268305,0.0010270769268753,-0.0010270769268411,0.0010270769268646,-0.00098704160337939,0.00098704160344715,-0.00098704160342654,0.00098704160341691,-0.0009870416034348,0.00098704160341423,-0.00098704160339434,0.00098704160344981,9.7213206673854e-15,8.2029111714003e-15,-0.0010044051116837,0.0010044051117019,-8.2132196800119e-15,2.504255849644e-14,-0.0010270769268459,0.0010270769268541,-0.0010270769268347,0.0010270769268652,-0.0010270769268444,0.0010270769268545,-0.0010270769268356,0.0010270769268656,-0.00098704160341595,0.00098704160343492,-0.00098704160340713,0.00098704160344093,0.66655684579312,0.36272845484214,114808,2744,0.0041762636472954,0.0041762636472942,0.0041762636472906,40.972399403848,40.969513270015,9.0179195230781e-05,9.0179195230781e-05,9.0179195230781e-05,1137708.956706,0.01260773444126
8019200,0.68361203376614,0.012506109549859,0.0041687031832903,0.0041687031832865,0.0041687031832826,-0.0010361060836226,0.001036106083599,-1.3274249811662e-14,-1.1922073920719e-14,7.368799876733e-15,-2.8862853553754e-14,-0.001060699770329,0.0010606997703147,-0.0010606997703295,0.0010606997703166,-0.0010606997703402,0.0010606997703039,-0.0010606997703386,0.0010606997703053,-0.0010171241937969,0.0010171241937564,-0.0010171241937937,0.0010171241937652,-6.5797401699249e-15,2.9490775547639e-14,2.8012085426489e-14,-5.1852533587751e-15,-0.0010361060835993,0.0010361060836217,-0.0010606997703023,0.001060699770325,-0.0010606997703126,0.0010606997703138,-0.0010606997702922,0.0010606997703368,-0.0010606997703026,0.0010606997703258,-0.0010171241937508,0.0010171241938182,-0.0010171241937984,0.0010171241937885,-0.0010171241938049,0.0010171241937855,-0.0010171241937656,0.00101712419382,9.7242617540078e-15,8.1265164463832e-15,-0.0010361060836005,0.0010361060836187,-8.0822530927159e-15,2.4863593375466e-14,-0.0010606997703073,0.0010606997703156,-0.0010606997702962,0.0010606997703264,-0.0010606997703057,0.0010606997703158,-0.0010606997702971,0.0010606997703271,-0.0010171241937871,0.0010171241938057,-0.0010171241937781,0.0010171241938119,0.6609784302976,0.35861799333263,114808,2744,0.0043077875856517,0.0043077875856504,0.0043077875856468,40.977144462938,40.977233617799,9.0217155703502e-05,9.0217155703502e-05,9.0217155703502e-05,1154538.7863557,0.013007383724642
8219200,0.70607503323046,0.012860070555808,0.0042866901852731,0.0042866901852694,0.0042866901852655,-0.0010661374896307,0.0010661374896071,-1.3330278430909e-14,-1.1906215317412e-14,6.9125538767755e-15,-2.8464027502322e-14,-0.0010926049132584,0.0010926049132439,-0.001092604913259,0.0010926049132459,-0.0010926049132693,0.0010926049132333,-0.0010926049132678,0.0010926049132345,-0.0010456076703699,0.0010456076703293,-0.0010456076703666,0.0010456076703385,-6.1972812655466e-15,2.9012054878109e-14,2.7816797274761e-14,-5.0591395644061e-15,-0.0010661374896075,0.0010661374896298,-0.0010926049132309,0.0010926049132536,-0.001092604913241,0.0010926049132423,-0.0010926049132209,0.0010926049132648,-0.0010926049132311,0.0010926049132542,-0.0010456076703257,0.0010456076703921,-0.001045607670372,0.0010456076703622,-0.0010456076703785,0.0010456076703598,-0.0010456076703402,0.0010456076703936,9.8687279289007e-15,8.2002641934401e-15,-0.0010661374896086,0.001066137489627,-7.7977617837301e-15,2.4833300183255e-14,-0.0010926049132357,0.0010926049132443,-0.0010926049132248,0.0010926049132552,-0.0010926049132342,0.0010926049132446,-0.0010926049132256,0.0010926049132556,-0.001045607670361,0.0010456076703795,-0.0010456076703519,0.0010456076703859,0.65549731480674,0.35450753182313,114808,2744,0.0044323683347015,0.0044323683347001,0.0044323683346967,41.070874518997,41.073530118302,9.0966996151979e-05,9.0966996151979e-05,9.0966996151979e-05,1176202.9891825,0.013386083333216
8419200,0.72742357596752,0.013195489099746,0.0043984963665858,0.004398496366582,0.0043984963665782,-0.0010946763865878,0.0010946763865645,-1.3209874020946e-14,-1.1701879016088e-14,6.7361578983641e-15,-2.7952109317542e-14,-0.0011229385376304,0.0011229385376159,-0.0011229385376309,0.0011229385376179,-0.0011229385376411,0.0011229385376056,-0.0011229385376395,0.0011229385376068,-0.001072715946365,0.0010727159463248,-0.0010727159463617,0.0010727159463341,-6.0097575825017e-15,2.8504482148813e-14,2.749721880237e-14,-5.058727812279e-15,-0.0010946763865649,0.0010946763865869,-0.0011229385376033,0.0011229385376258,-0.0011229385376134,0.0011229385376148,-0.0011229385375936,0.0011229385376369,-0.0011229385376038,0.0011229385376263,-0.0010727159463206,0.0010727159463863,-0.0010727159463669,0.0010727159463569,-0.0010727159463734,0.0010727159463552,-0.0010727159463356,0.0010727159463883,9.8301702832809e-15,8.0833412947662e-15,-0.0010946763865659,0.0010946763865841,-7.7192347709117e-15,2.459483687991e-14,-0.0011229385376081,0.0011229385376166,-0.0011229385375972,0.0011229385376274,-0.0011229385376066,0.0011229385376169,-0.0011229385375981,0.0011229385376278,-0.0010727159463563,0.0010727159463745,-0.0010727159463471,0.001072715946381,0.65381528507558,0.36755567020317,114808,2744,0.004550743040168,0.0045507430401669,0.0045507430401634,41.233386239126,41.238030717444,9.2267089913009e-05,9.2267089913009e-05,9.2267089913009e-05,1192516.4674616,0.013746050579915
8619200,0.7481450723721,0.013520327024729,0.0045067756749136,0.0045067756749098,0.0045067756749059,-0.001123132153829,0.0011231321538059,-1.3155712991704e-14,-1.1580650814655e-14,6.5173945906241e-15,-2.7556408170646e-14,-0.0011531382728565,0.0011531382728418,-0.0011531382728569,0.0011531382728439,-0.001153138272867,0.0011531382728317,-0.0011531382728653,0.001153138272833,-0.0010998442711311,0.0010998442710912,-0.0010998442711277,0.0010998442711005,-5.8020580452271e-15,2.809884748185e-14,2.7219815512144e-14,-4.9788478996143e-15,-0.0011231321538064,0.0011231321538282,-0.0011531382728294,0.0011531382728518,-0.0011531382728394,0.0011531382728409,-0.0011531382728199,0.0011531382728627,-0.00115313827283,0.0011531382728522,-0.0010998442710872,0.0010998442711523,-0.0010998442711332,0.0010998442711233,-0.0010998442711395,0.0010998442711218,-0.0010998442711024,0.0010998442711544,9.8249057382267e-15,8.0124316962999e-15,-0.0011231321538074,0.0011231321538254,-7.6134732959699e-15,2.4343550438891e-14,-0.0011531382728341,0.0011531382728427,-0.0011531382728233,0.0011531382728533,-0.0011531382728327,0.0011531382728429,-0.0011531382728243,0.0011531382728536,-0.0010998442711228,0.0010998442711408,-0.0010998442711137,0.0010998442711473,0.65261452125613,0.38114806429055,114808,2744,0.0046687589355929,0.004668758935592,0.0046687589355885,41.853471180955,41.871120700526,9.7227769447641e-05,9.7227769447641e-05,9.7227769447641e-05,1204397.0897909,0.01410505459649
8819200,0.76767587538088,0.013815180400605,0.0046050601335387,0.0046050601335348,0.004605060133531,-0.0011485182719578,0.0011485182719348,-1.3113016685753e-14,-1.1458343602068e-14,6.3509068573167e-15,-2.7247388199229e-14,-0.0011803102202483,0.0011803102202336,-0.0011803102202487,0.0011803102202357,-0.0011803102202587,0.0011803102202237,-0.001180310220257,0.001180310220225,-0.0011237268201505,0.0011237268201108,-0.001123726820147,0.0011237268201202,-5.637474837837e-15,2.7784857074042e-14,2.6968823179788e-14,-4.8825567235966e-15,-0.0011485182719353,0.0011485182719569,-0.0011803102202213,0.0011803102202436,-0.0011803102202312,0.0011803102202328,-0.001180310220212,0.0011803102202543,-0.001180310220222,0.001180310220244,-0.001123726820107,0.0011237268201714,-0.0011237268201526,0.0011237268201427,-0.0011237268201587,0.0011237268201414,-0.001123726820122,0.0011237268201735,9.820611751758e-15,7.9268166647215e-15,-0.0011485182719363,0.0011485182719543,-7.4714776338399e-15,2.4142556579116e-14,-0.001180310220226,0.0011803102202346,-0.0011803102202153,0.0011803102202451,-0.0011803102202246,0.0011803102202348,-0.0011803102202162,0.0011803102202454,-0.0011237268201424,0.00112372682016,-0.0011237268201331,0.0011237268201667,0.62942562007335,0.2915797403408,114808,2744,0.0047740309280965,0.0047740309280957,0.0047740309280921,41.996276928822,42.000599182559,9.8370215430574e-05,9.8370215430574e-05,9.8370215430574e-05,1255912.2166187,0.014425406364598
9019200,0.78594866255244,0.014090775431515,0.0046969251438423,0.0046969251438385,0.0046969251438346,-0.001172042928772,0.0011720429287492,-1.3062747081749e-14,-1.1329564850049e-14,6.2133993967701e-15,-2.6948647325558e-14,-0.0012054345725035,0.0012054345724889,-0.0012054345725039,0.001205434572491,-0.0012054345725138,0.0012054345724792,-0.0012054345725122,0.0012054345724804,-0.0011459277239161,0.0011459277238765,-0.0011459277239122,0.001145927723886,-5.4720093044601e-15,2.7509983118311e-14,2.6744359448765e-14,-4.7682660974497e-15,-0.0011720429287496,0.0011720429287712,-0.0012054345724766,0.0012054345724989,-0.0012054345724864,0.0012054345724883,-0.0012054345724675,0.0012054345725095,-0.0012054345724773,0.0012054345724992,-0.0011459277238726,0.0011459277239366,-0.0011459277239179,0.001145927723908,-0.0011459277239237,0.0011459277239069,-0.0011459277238875,0.0011459277239386,9.7736131875319e-15,7.8016734289379e-15,-0.0011720429287507,0.0011720429287685,-7.3818333135888e-15,2.3897858172131e-14,-0.0012054345724813,0.00120543457249,-0.0012054345724708,0.0012054345725006,-0.0012054345724799,0.0012054345724901,-0.0012054345724718,0.0012054345725005,-0.0011459277239077,0.0011459277239251,-0.0011459277238983,0.0011459277239319,0.62978087584749,0.31692151856187,114808,2744,0.0048715736554579,0.0048715736554572,0.0048715736554538,42.046523725389,42.048017358003,9.8772189803116e-05,9.8772189803116e-05,9.8772189803116e-05,1261861.1424288,0.014722329197595
9219200,0.80283447263259,0.01434259434424,0.0047808647814173,0.0047808647814134,0.0047808647814096,-0.0011932335859485,0.0011932335859259,-1.3044949831325e-14,-1.1241329781323e-14,6.1461261761855e-15,-2.6709867855401e-14,-0.001228138074103,0.0012281380740885,-0.0012281380741034,0.0012281380740904,-0.0012281380741132,0.0012281380740788,-0.0012281380741117,0.00122813807408,-0.0011659188725489,0.0011659188725095,-0.0011659188725451,0.001165918872519,-5.4619507882115e-15,2.7210168748023e-14,2.6433545414509e-14,-4.741796317848e-15,-0.0011932335859264,0.0011932335859477,-0.0012281380740761,0.0012281380740982,-0.001228138074086,0.0012281380740877,-0.0012281380740672,0.0012281380741088,-0.001228138074077,0.0012281380740986,-0.0011659188725064,0.0011659188725695,-0.0011659188725513,0.0011659188725414,-0.0011659188725573,0.0011659188725407,-0.0011659188725214,0.0011659188725718,9.8394641170077e-15,7.7932325103316e-15,-0.0011932335859273,0.0011932335859451,-7.1917802960486e-15,2.3755097827479e-14,-0.0012281380740808,0.0012281380740895,-0.0012281380740704,0.0012281380740998,-0.0012281380740793,0.0012281380740896,-0.0012281380740712,0.0012281380741001,-0.0011659188725415,0.0011659188725586,-0.0011659188725321,0.0011659188725655,0.62301126535965,0.30664989516131,114808,2744,0.0049594300232371,0.0049594300232364,0.004959430023233,41.897291384356,41.893084605083,9.7578331074847e-05,9.7578331074847e-05,9.7578331074847e-05,1260527.3320972,0.014989843885685
9419200,0.81815641911787,0.01456852355194,0.004856174517317,0.0048561745173132,0.0048561745173094,-0.0012115671535491,0.0012115671535265,-1.3073503186981e-14,-1.1202507610237e-14,6.0565099456094e-15,-2.6636002464879e-14,-0.0012477557697349,0.0012477557697201,-0.0012477557697351,0.0012477557697222,-0.0012477557697448,0.0012477557697106,-0.0012477557697431,0.0012477557697118,-0.0011831815905072,0.0011831815904681,-0.0011831815905035,0.0011831815904776,-5.2846620866126e-15,2.7224697715937e-14,2.6353312571449e-14,-4.4790984607343e-15,-0.0012115671535269,0.0012115671535483,-0.0012477557697084,0.0012477557697301,-0.001247755769718,0.00124775576972,-0.0012477557696992,0.0012477557697412,-0.0012477557697086,0.0012477557697306,-0.001183181590464,0.0011831815905271,-0.0011831815905085,0.001183181590499,-0.0011831815905141,0.0011831815904977,-0.0011831815904785,0.0011831815905288,9.8315231831272e-15,7.7140878693225e-15,-0.0012115671535279,0.0012115671535456,-7.0281970581101e-15,2.358069139077e-14,-0.001247755769713,0.0012477557697213,-0.0012477557697023,0.0012477557697318,-0.0012477557697114,0.0012477557697217,-0.0012477557697033,0.0012477557697319,-0.0011831815904985,0.0011831815905157,-0.0011831815904894,0.0011831815905222,0.61621360715284,0.29637827176075,114808,2744,0.0050354339732063,0.0050354339732055,0.005035433973202,41.416007426093,41.402306613307,9.3728059408748e-05,9.3728059408748e-05,9.3728059408748e-05,1268165.8558626,0.015221329428474
9619200,0.83171855292466,0.014766140775033,0.0049220469250149,0.0049220469250111,0.0049220469250073,-0.0012265583273969,0.0012265583273747,-1.2872571825296e-14,-1.0919031837782e-14,6.1819919233424e-15,-2.6355055165273e-14,-0.0012638969046965,0.0012638969046822,-0.0012638969046968,0.0012638969046843,-0.0012638969047063,0.0012638969046727,-0.0012638969047047,0.0012638969046736,-0.0011972358026748,0.001197235802636,-0.0011972358026708,0.0011972358026461,-5.3650713948693e-15,2.7001351597831e-14,2.6049321858157e-14,-4.4764514827741e-15,-0.001226558327375,0.0012265583273962,-0.0012638969046703,0.0012638969046919,-0.0012638969046799,0.0012638969046818,-0.001263896904661,0.0012638969047023,-0.0012638969046708,0.0012638969046925,-0.0011972358026329,0.0011972358026949,-0.0011972358026771,0.0011972358026678,-0.0011972358026831,0.0011972358026664,-0.0011972358026474,0.0011972358026969,9.9246968073251e-15,7.7262345570731e-15,-0.0012265583273758,0.0012265583273937,-6.828438454716e-15,2.3452577657498e-14,-0.0012638969046746,0.0012638969046836,-0.0012638969046644,0.0012638969046936,-0.0012638969046733,0.0012638969046836,-0.0012638969046653,0.0012638969046936,-0.0011972358026674,0.0011972358026841,-0.0011972358026575,0.0011972358026908,0.60938556665021,0.28610664836019,114808,2744,0.0050975765925043,0.0050975765925034,0.0050975765924999,40.45059329983,40.423058540876,8.6004746398637e-05,8.6004746398637e-05,8.6004746398637e-05,1279730.4765798,0.015410640564124
9819200,0.84399500861899,0.014945747923952,0.0049819159746543,0.0049819159746507,0.0049819159746469,-0.0012406532011435,0.0012406532011212,-1.2925264149405e-14,-1.091197288523e-14,6.1317901021942e-15,-2.6316990151663e-14,-0.0012790021674137,0.0012790021673993,-0.001279002167414,0.0012790021674014,-0.0012790021674237,0.0012790021673898,-0.001279002167422,0.0012790021673911,-0.0012105152056874,0.0012105152056487,-0.0012105152056835,0.0012105152056585,-5.3570128175239e-15,2.6910119090804e-14,2.5872974304277e-14,-4.2934570731277e-15,-0.0012406532011215,0.0012406532011426,-0.0012790021673876,0.0012790021674091,-0.0012790021673969,0.001279002167399,-0.0012790021673785,0.0012790021674195,-0.0012790021673881,0.0012790021674097,-0.0012105152056453,0.0012105152057073,-0.0012105152056892,0.0012105152056801,-0.0012105152056948,0.0012105152056785,-0.0012105152056591,0.0012105152057093,9.9570487601717e-15,7.6988824514847e-15,-0.0012406532011223,0.0012406532011401,-6.701795264755e-15,2.3230172687111e-14,-0.0012790021673917,0.0012790021674008,-0.0012790021673816,0.0012790021674108,-0.0012790021673905,0.0012790021674009,-0.0012790021673826,0.0012790021674109,-0.0012105152056794,0.0012105152056962,-0.0012105152056697,0.0012105152057032,0.61214217885231,0.31993467860817,114808,2744,0.0051560004717161,0.0051560004717148,0.0051560004717113,39.87549781741,39.858805710467,8.1403982539277e-05,8.1403982539277e-05,8.1403982539277e-05,1282207.9883124,0.015588653905373
10019200,0.85499338317281,0.015107613998175,0.0050358713327287,0.0050358713327251,0.0050358713327213,-0.0012527446576892,0.001252744657667,-1.294389317589e-14,-1.0850530770976e-14,6.1357419575707e-15,-2.6279197188565e-14,-0.0012920000047006,0.0012920000046862,-0.0012920000047008,0.0012920000046884,-0.0012920000047105,0.0012920000046767,-0.0012920000047088,0.001292000004678,-0.0012219160814492,0.0012219160814105,-0.0012219160814453,0.0012219160814204,-5.3732476156796e-15,2.6858944183574e-14,2.5650981086018e-14,-4.1761665386259e-15,-0.0012527446576673,0.0012527446576883,-0.0012920000046746,0.0012920000046959,-0.0012920000046839,0.001292000004686,-0.0012920000046655,0.0012920000047063,-0.0012920000046749,0.0012920000046965,-0.0012219160814076,0.0012219160814691,-0.0012219160814511,0.0012219160814421,-0.0012219160814567,0.0012219160814406,-0.001221916081421,0.0012219160814712,9.979401018502e-15,7.6492369092984e-15,-0.001252744657668,0.0012527446576859,-6.5370944139e-15,2.3063060145226e-14,-0.0012920000046785,0.0012920000046877,-0.0012920000046685,0.0012920000046977,-0.0012920000046773,0.0012920000046879,-0.0012920000046696,0.0012920000046978,-0.0012219160814414,0.001221916081458,-0.0012219160814315,0.001221916081465,0.61575181726421,0.35423133859393,114808,2744,0.0052061172764816,0.0052061172764806,0.005206117276477,39.086087372498,39.063519484541,7.5088698979983e-05,7.5088698979983e-05,7.5088698979983e-05,1283718.0642326,0.01574138177198
10219200,0.86473382690646,0.01525200103642,0.005084000345477,0.0050840003454733,0.0050840003454695,-0.0012627960334288,0.0012627960334067,-1.2955958983758e-14,-1.0790783055786e-14,6.1698932005788e-15,-2.6274469391819e-14,-0.0013028611643991,0.0013028611643848,-0.0013028611643993,0.001302861164387,-0.0013028611644091,0.0013028611643753,-0.0013028611644074,0.0013028611643766,-0.0012313975771791,0.0012313975771403,-0.0012313975771752,0.0012313975771503,-5.4223049405414e-15,2.683794482509e-14,2.5432517171705e-14,-4.0548173045853e-15,-0.001262796033407,0.001262796033428,-0.0013028611643733,0.0013028611643944,-0.0013028611643825,0.0013028611643846,-0.0013028611643642,0.0013028611644048,-0.0013028611643735,0.0013028611643952,-0.0012313975771375,0.0012313975771987,-0.0012313975771807,0.0012313975771719,-0.0012313975771864,0.0012313975771704,-0.0012313975771508,0.0012313975772011,9.9749011559697e-15,7.5714451681356e-15,-0.0012627960334078,0.0012627960334256,-6.3963340081514e-15,2.2870595436656e-14,-0.0013028611643771,0.0013028611643864,-0.0013028611643672,0.0013028611643962,-0.001302861164376,0.0013028611643865,-0.0013028611643684,0.0013028611643963,-0.0012313975771713,0.0012313975771876,-0.0012313975771615,0.0012313975771947,0.62007542022013,0.3885279985797,114808,2744,0.0052477763268523,0.0052477763268513,0.0052477763268478,38.04732874637,38.017660317254,6.6778629970957e-05,6.6778629970957e-05,6.6778629970957e-05,1284090.8084877,0.015868353360031
10419200,0.87371402649978,0.015386213597402,0.0051287378658044,0.0051287378658007,0.0051287378657969,-0.0012732884879062,0.0012732884878839,-1.3121312388208e-14,-1.0912408303913e-14,6.0534659783983e-15,-2.6441743693469e-14,-0.0013140833997721,0.0013140833997577,-0.0013140833997721,0.00131408339976,-0.001314083399782,0.0013140833997481,-0.0013140833997802,0.0013140833997495,-0.0012414172364579,0.0012414172364188,-0.001241417236454,0.0012414172364284,-5.5080082047184e-15,2.6799651877266e-14,2.5233346785635e-14,-3.855176344656e-15,-0.0012732884878841,0.001273288487905,-0.0013140833997467,0.0013140833997677,-0.0013140833997558,0.0013140833997579,-0.0013140833997377,0.001314083399778,-0.0013140833997467,0.0013140833997686,-0.0012414172364156,0.0012414172364769,-0.0012414172364589,0.0012414172364507,-0.0012414172364631,0.0012414172364475,-0.0012414172364284,0.0012414172364788,1.0043781404667e-14,7.5844741818729e-15,-0.0012732884878848,0.0012732884879025,-6.2662791577084e-15,2.2600250754324e-14,-0.0013140833997505,0.00131408339976,-0.0013140833997407,0.0013140833997696,-0.0013140833997494,0.0013140833997599,-0.0013140833997419,0.0013140833997695,-0.0012414172364487,0.0012414172364652,-0.0012414172364386,0.0012414172364716,0.62506671204191,0.42282465856547,114808,2744,0.0052912622673328,0.0052912622673307,0.0052912622673269,37.718650753623,37.708917798823,6.4149206028984e-05,6.4149206028984e-05,6.4149206028984e-05,1281194.3510075,0.016000906575417
10619200,0.88211026935902,0.015509389713859,0.00516979657129,0.0051697965712866,0.0051697965712828,-0.0012834452279824,0.0012834452279602,-1.3039960094052e-14,-1.0737019532784e-14,6.2660546126379e-15,-2.6412626935907e-14,-0.0013249609269408,0.0013249609269266,-0.001324960926941,0.0013249609269289,-0.0013249609269509,0.001324960926917,-0.0013249609269491,0.0013249609269184,-0.0012510828417489,0.0012510828417097,-0.0012510828417449,0.0012510828417199,-5.6074169325559e-15,2.6890649097364e-14,2.5011294745643e-14,-3.7074161527461e-15,-0.0012834452279605,0.0012834452279814,-0.0013249609269154,0.0013249609269361,-0.0013249609269243,0.0013249609269265,-0.0013249609269062,0.0013249609269465,-0.0013249609269152,0.0013249609269372,-0.0012510828417074,0.0012510828417679,-0.0012510828417499,0.001251082841742,-0.0012510828417555,0.0012510828417394,-0.00125108284172,0.0012510828417706,1.0013341158125e-14,7.4622426218455e-15,-0.0012834452279612,0.0012834452279789,-6.0780496138741e-15,2.2409844806389e-14,-0.0013249609269189,0.0013249609269284,-0.0013249609269093,0.001324960926938,-0.0013249609269178,0.0013249609269284,-0.0013249609269105,0.001324960926938,-0.0012510828417409,0.0012510828417567,-0.0012510828417307,0.0012510828417638,0.61395642884909,0.38035252949607,114808,2744,0.0053333549462365,0.005333354946235,0.0053333549462314,37.647550179639,37.645390826641,6.3580401437113e-05,6.3580401437113e-05,6.3580401437113e-05,1287755.4301495,0.016129229988449
10819200,0.88998733649055,0.015622959607892,0.0052076532026344,0.0052076532026309,0.0052076532026271,-0.0012929854671046,0.0012929854670826,-1.3036049367934e-14,-1.065852968565e-14,6.4022411117008e-15,-2.6499771332529e-14,-0.0013351976575198,0.0013351976575057,-0.0013351976575199,0.001335197657508,-0.00133519765753,0.001335197657496,-0.0013351976575282,0.0013351976574974,-0.0012601330151681,0.0012601330151289,-0.001260133015164,0.0012601330151391,-5.7173547505016e-15,2.7007998453598e-14,2.4809065629486e-14,-3.5532443919993e-15,-0.0012929854670829,0.0012929854671037,-0.0013351976574945,0.0013351976575151,-0.0013351976575034,0.0013351976575056,-0.0013351976574853,0.0013351976575256,-0.0013351976574942,0.0013351976575164,-0.0012601330151266,0.0012601330151869,-0.0012601330151688,0.0012601330151613,-0.0012601330151748,0.0012601330151586,-0.001260133015139,0.00126013301519,1.0012282366941e-14,7.3891566192786e-15,-0.0012929854670836,0.0012929854671013,-5.9141134455409e-15,2.2213733150406e-14,-0.001335197657498,0.0013351976575076,-0.0013351976574884,0.001335197657517,-0.0013351976574969,0.0013351976575075,-0.0013351976574897,0.0013351976575169,-0.0012601330151601,0.0012601330151757,-0.0012601330151501,0.001260133015183,0.60387279381726,0.34605845394565,114808,2744,0.0053728908177292,0.005372890817728,0.0053728908177245,37.649671358283,37.649696736585,6.3597370866264e-05,6.3597370866264e-05,6.3597370866264e-05,1300385.2907517,0.016249774691442
11019200,0.89744037650724,0.015728404540363,0.0052428015134579,0.0052428015134544,0.0052428015134506,-0.0013022225088251,0.0013022225088031,-1.3058146119364e-14,-1.0607440713295e-14,6.5423794661401e-15,-2.6631223199118e-14,-0.0013451113445209,0.0013451113445069,-0.001345111344521,0.0013451113445092,-0.0013451113445312,0.0013451113444971,-0.0013451113445294,0.0013451113444985,-0.0012688732474379,0.0012688732473985,-0.0012688732474338,0.0012688732474089,-5.8502330441022e-15,2.7146229524851e-14,2.4637070883808e-14,-3.3930139928104e-15,-0.0013022225088034,0.0013022225088242,-0.0013451113444958,0.0013451113445161,-0.0013451113445045,0.0013451113445067,-0.0013451113444865,0.0013451113445267,-0.0013451113444953,0.0013451113445176,-0.0012688732473965,0.0012688732474565,-0.0012688732474383,0.0012688732474312,-0.0012688732474446,0.0012688732474282,-0.0012688732474085,0.0012688732474599,1.0016693996874e-14,7.3220998442876e-15,-0.0013022225088042,0.0013022225088217,-5.7662944318985e-15,2.2029974058238e-14,-0.0013451113444991,0.0013451113445088,-0.0013451113444897,0.0013451113445181,-0.001345111344498,0.0013451113445087,-0.001345111344491,0.001345111344518,-0.00126887324743,0.0012688732474453,-0.0012688732474199,0.0012688732474527,0.59321240773786,0.31176437839522,114808,2744,0.0054111685601596,0.0054111685601585,0.005411168560155,37.825608739558,37.83057346481,6.5004869916467e-05,6.5004869916467e-05,6.5004869916467e-05,1316638.3638702,0.016366497786086
11219200,0.90445869727757,0.015827561594426,0.0052758538648124,0.0052758538648089,0.0052758538648051,-0.0013107749130529,0.0013107749130308,-1.3101447186252e-14,-1.0578129625732e-14,6.6725357036512e-15,-2.6787343429752e-14,-0.0013542921369826,0.0013542921369686,-0.0013542921369827,0.001354292136971,-0.001354292136993,0.0013542921369588,-0.0013542921369911,0.0013542921369602,-0.0012769718427465,0.001276971842707,-0.0012769718427424,0.0012769718427174,-5.9706411304236e-15,2.7311636236496e-14,2.4495722260735e-14,-3.2140782827029e-15,-0.0013107749130311,0.001310774913052,-0.0013542921369576,0.0013542921369778,-0.0013542921369662,0.0013542921369685,-0.0013542921369482,0.0013542921369885,-0.0013542921369569,0.0013542921369795,-0.0012769718427052,0.001276971842765,-0.0012769718427467,0.00127697184274,-0.0012769718427531,0.0012769718427367,-0.0012769718427168,0.0012769718427686,1.0008282489134e-14,7.2419258229607e-15,-0.001310774913032,0.0013107749130494,-5.6450628413228e-15,2.1835332945567e-14,-0.0013542921369608,0.0013542921369706,-0.0013542921369515,0.0013542921369798,-0.0013542921369598,0.0013542921369705,-0.0013542921369528,0.0013542921369796,-0.0012769718427385,0.0012769718427536,-0.0012769718427284,0.0012769718427611,0.59263757474627,0.32603854019991,114808,2744,0.0054466078245059,0.0054466078245047,0.0054466078245012,37.935807760246,37.938994180296,6.5886462081971e-05,6.5886462081971e-05,6.5886462081971e-05,1330364.9699333,0.016474577641257
11419200,0.91099805223462,0.015920516208687,0.0053068387362324,0.005306838736229,0.0053068387362252,-0.0013184119060068,0.0013184119059847,-1.3115877811583e-14,-1.0524915718292e-14,6.825439063349e-15,-2.6923037813793e-14,-0.0013625016395103,0.0013625016394964,-0.0013625016395103,0.0013625016394988,-0.0013625016395207,0.0013625016394864,-0.0013625016395188,0.0013625016394879,-0.0012842103105285,0.0012842103104889,-0.0012842103105243,0.0012842103104994,-6.137224276717e-15,2.7439573504571e-14,2.4321198180561e-14,-3.0979053611177e-15,-0.001318411905985,0.0013184119060058,-0.0013625016394855,0.0013625016395054,-0.0013625016394941,0.0013625016394962,-0.001362501639476,0.0013625016395162,-0.0013625016394845,0.0013625016395073,-0.001284210310487,0.0012842103105466,-0.001284210310528,0.0012842103105218,-0.0012842103105349,0.0012842103105181,-0.0012842103104983,0.0012842103105504,1.0016546942543e-14,7.1748690479697e-15,-0.0013184119059859,0.0013184119060033,-5.5110669348057e-15,2.1661514726182e-14,-0.0013625016394886,0.0013625016394983,-0.0013625016394793,0.0013625016395075,-0.0013625016394875,0.0013625016394982,-0.0013625016394807,0.0013625016395073,-0.0012842103105204,0.0012842103105352,-0.0012842103105101,0.0012842103105427,0.5962675445114,0.3577874152333,114808,2744,0.0054782527381111,0.0054782527381098,0.0054782527381063,37.864047392661,37.86207202677,6.5312379141289e-05,6.5312379141289e-05,6.5312379141289e-05,1338450.0782271,0.016571095696329
11619200,0.91702313694367,0.016006521618025,0.0053355072060118,0.0053355072060083,0.0053355072060046,-0.001325040880279,0.0013250408802569,-1.3171654600287e-14,-1.0505497193868e-14,6.9691935182564e-15,-2.7085841663777e-14,-0.0013696511660197,0.0013696511660058,-0.0013696511660197,0.0013696511660083,-0.0013696511660302,0.0013696511659958,-0.0013696511660283,0.0013696511659972,-0.0012904875319017,0.0012904875318617,-0.0012904875318974,0.0012904875318724,-6.2717495788261e-15,2.7611156498122e-14,2.4178320192444e-14,-2.9600272202591e-15,-0.0013250408802572,0.0013250408802781,-0.001369651165995,0.0013696511660147,-0.0013696511660034,0.0013696511660056,-0.0013696511659854,0.0013696511660256,-0.0013696511659939,0.0013696511660168,-0.0012904875318602,0.0012904875319197,-0.0012904875319011,0.0012904875318952,-0.0012904875319082,0.0012904875318912,-0.0012904875318713,0.0012904875319239,1.0036281633779e-14,7.1181648978897e-15,-0.0013250408802581,0.0013250408802755,-5.3901294528922e-15,2.1507990004493e-14,-0.0013696511659979,0.0013696511660078,-0.0013696511659888,0.0013696511660168,-0.0013696511659969,0.0013696511660076,-0.0013696511659901,0.0013696511660166,-0.0012904875318937,0.0012904875319083,-0.0012904875318834,0.0012904875319159,0.59873866863369,0.38116675113467,114808,2744,0.0055057199215223,0.005505719921521,0.0055057199215175,37.584812616723,37.576905307742,6.3078500933781e-05,6.3078500933781e-05,6.3078500933781e-05,1342757.4124211,0.016654879383944
11819200,0.92249812987263,0.016085147466965,0.0053617158223254,0.0053617158223219,0.0053617158223181,-0.0013305047346944,0.0013305047346724,-1.3219084217522e-14,-1.0478578324125e-14,7.1136276973436e-15,-2.722808731827e-14,-0.0013755805220036,0.0013755805219898,-0.0013755805220036,0.0013755805219923,-0.0013755805220142,0.0013755805219797,-0.0013755805220123,0.0013755805219812,-0.0012956504230859,0.0012956504230457,-0.0012956504230816,0.0012956504230565,-6.4119217672502e-15,2.775574031648e-14,2.40948521541e-14,-2.8259136702772e-15,-0.0013305047346727,0.0013305047346936,-0.001375580521979,0.0013755805219986,-0.0013755805219873,0.0013755805219896,-0.0013755805219693,0.0013755805220096,-0.0013755805219777,0.0013755805220009,-0.0012956504230444,0.0012956504231038,-0.001295650423085,0.0012956504230794,-0.0012956504230925,0.0012956504230753,-0.0012956504230553,0.0012956504231083,1.0040987372375e-14,7.0501669751795e-15,-0.0013305047346736,0.001330504734691,-5.2930735943527e-15,2.1390287717864e-14,-0.0013755805219818,0.0013755805219918,-0.0013755805219727,0.0013755805220007,-0.0013755805219809,0.0013755805219916,-0.0013755805219742,0.0013755805220005,-0.001295650423078,0.0012956504230923,-0.0012956504230676,0.0012956504231,0.60218599314182,0.40683270730493,114808,2744,0.0055283587574123,0.0055283587574111,0.0055283587574076,37.034793780043,37.019165369431,5.8678350240348e-05,5.8678350240348e-05,5.8678350240348e-05,1343873.6013822,0.016723940950212
12019200,0.92751943321858,0.016159402608399,0.0053864675361367,0.0053864675361332,0.0053864675361295,-0.0013357984754164,0.0013357984753943,-1.324859342633e-14,-1.043642261517e-14,7.2335454493798e-15,-2.7381641450826e-14,-0.0013812653842199,0.0013812653842062,-0.0013812653842199,0.0013812653842087,-0.0013812653842306,0.0013812653841959,-0.0013812653842287,0.0013812653841974,-0.0013007325742076,0.0013007325741673,-0.0013007325742032,0.0013007325741781,-6.5409766482415e-15,2.789750069168e-14,2.3983208505913e-14,-2.7425044536656e-15,-0.0013357984753946,0.0013357984754155,-0.0013812653841955,0.0013812653842149,-0.0013812653842038,0.0013812653842059,-0.0013812653841857,0.001381265384226,-0.0013812653841941,0.0013812653842173,-0.0013007325741661,0.0013007325742253,-0.0013007325742064,0.0013007325742012,-0.001300732574214,0.0013007325741966,-0.0013007325741766,0.0013007325742298,1.0072427588369e-14,7.0114622752286e-15,-0.0013357984753955,0.0013357984754129,-5.205193926075e-15,2.128687911222e-14,-0.0013812653841982,0.0013812653842082,-0.0013812653841892,0.0013812653842171,-0.0013812653841973,0.001381265384208,-0.0013812653841906,0.0013812653842168,-0.0013007325741994,0.0013007325742137,-0.001300732574189,0.0013007325742214,0.61930375794379,0.49287376631672,114808,2744,0.0055502926785705,0.0055502926785692,0.0055502926785657,36.632207035082,36.620620905545,5.5457656280654e-05,5.5457656280654e-05,5.5457656280654e-05,1336641.1673676,0.016790854324146
12219200,0.93221856671579,0.016231091868053,0.0054103639560212,0.0054103639560178,0.005410363956014,-0.0013415177012007,0.0013415177011786,-1.3310927919113e-14,-1.0424548552363e-14,7.3584853365961e-15,-2.7536151436534e-14,-0.0013873080188937,0.00138730801888,-0.0013873080188937,0.0013873080188826,-0.0013873080189045,0.0013873080188697,-0.0013873080189025,0.0013873080188712,-0.0013063209438259,0.0013063209437854,-0.0013063209438213,0.0013063209437961,-6.6810311932007e-15,2.8034908258679e-14,2.3918916352348e-14,-2.6243315931771e-15,-0.0013415177011789,0.0013415177011998,-0.0013873080188695,0.0013873080188888,-0.0013873080188778,0.0013873080188799,-0.0013873080188596,0.0013873080188999,-0.0013873080188679,0.0013873080188913,-0.001306320943784,0.0013063209438433,-0.0013063209438243,0.0013063209438193,-0.001306320943832,0.0013063209438143,-0.0013063209437943,0.0013063209438478,1.0132661042396e-14,7.0001390917323e-15,-0.0013415177011798,0.0013415177011971,-5.1234905397045e-15,2.1187470384382e-14,-0.0013873080188721,0.0013873080188822,-0.0013873080188632,0.0013873080188911,-0.0013873080188712,0.001387308018882,-0.0013873080188646,0.0013873080188908,-0.0013063209438173,0.0013063209438315,-0.0013063209438068,0.0013063209438394,0.63790519600506,0.5789148253285,114808,2744,0.0055739895560136,0.0055739895560121,0.0055739895560086,36.591143635818,36.589806497144,5.5129149086547e-05,5.5129149086547e-05,5.5129149086547e-05,1319595.5326823,0.016863147819718
12419200,0.93665426250732,0.016296635971284,0.0054322119904315,0.005432211990428,0.0054322119904243,-0.0013471768227461,0.0013471768227252,-1.2723511121645e-14,-9.7610087931757e-15,8.1077044061884e-15,-2.7050136872181e-14,-0.0013932895775462,0.0013932895775339,-0.0013932895775464,0.0013932895775361,-0.0013932895775575,0.0013932895775239,-0.0013932895775551,0.0013932895775246,-0.0013117997033687,0.0013117997033292,-0.0013117997033634,0.0013117997033394,-6.8237327161201e-15,2.8154669305944e-14,2.3843095139222e-14,-2.5505691406871e-15,-0.0013471768227248,0.0013471768227456,-0.0013932895775235,0.001393289577542,-0.0013932895775321,0.0013932895775336,-0.0013932895775137,0.0013932895775534,-0.0013932895775213,0.0013932895775455,-0.0013117997033288,0.0013117997033883,-0.001311799703369,0.0013117997033641,-0.0013117997033759,0.0013117997033592,-0.0013117997033386,0.0013117997033924,1.0023987891698e-14,6.8184387601998e-15,-0.0013471768227258,0.0013471768227427,-5.1760771685132e-15,2.0948183576783e-14,-0.0013932895775261,0.0013932895775355,-0.0013932895775169,0.0013932895775442,-0.0013932895775252,0.0013932895775354,-0.0013932895775183,0.0013932895775439,-0.001311799703362,0.0013117997033758,-0.0013117997033521,0.0013117997033838,0.61827139960341,0.48324283831952,114808,2744,0.0055974366740369,0.0055974366740349,0.0055974366740311,36.716994734818,36.720519627704,5.6135957878542e-05,5.6135957878542e-05,5.6135957878542e-05,1305482.2668096,0.016934685318834
12619200,0.94078522750389,0.016354531942868,0.0054515106476263,0.0054515106476229,0.0054515106476191,-0.0013518464791886,0.0013518464791667,-1.327096774281e-14,-1.0237324090416e-14,7.7176632426341e-15,-2.7673397243769e-14,-0.0013983036971018,0.0013983036970884,-0.0013983036971016,0.0013983036970909,-0.0013983036971127,0.0013983036970779,-0.0013983036971107,0.0013983036970794,-0.0013162219436442,0.0013162219436036,-0.0013162219436393,0.0013162219436144,-6.8826132703008e-15,2.8325193508311e-14,2.3769215043267e-14,-2.4435135876313e-15,-0.0013518464791669,0.0013518464791878,-0.0013983036970778,0.0013983036970968,-0.0013983036970859,0.001398303697088,-0.0013983036970677,0.0013983036971081,-0.0013983036970759,0.0013983036970997,-0.0013162219436026,0.0013162219436617,-0.0013162219436425,0.0013162219436381,-0.0013162219436505,0.0013162219436328,-0.0013162219436125,0.0013162219436667,1.0132896329326e-14,6.8517024498992e-15,-0.0013518464791679,0.0013518464791851,-5.0219642294988e-15,2.0955889223734e-14,-0.0013983036970802,0.0013983036970903,-0.0013983036970714,0.001398303697099,-0.0013983036970794,0.00139830369709,-0.001398303697073,0.0013983036970987,-0.0013162219436361,0.0013162219436499,-0.0013162219436255,0.0013162219436579,0.58731726734852,0.3445775654962,114808,2744,0.0056167832485451,0.0056167832485437,0.0056167832485402,36.603886787188,36.600753509383,5.5231094297506e-05,5.5231094297506e-05,5.5231094297506e-05,1307224.9954333,0.016993718751484
12819200,0.9446274012285,0.016408774246376,0.0054695914154623,0.0054695914154588,0.005469591415455,-0.0013560871802161,0.0013560871801941,-1.3329717786272e-14,-1.0220836887287e-14,7.7802802405734e-15,-2.7812201826914e-14,-0.0014028650047535,0.0014028650047402,-0.0014028650047535,0.0014028650047426,-0.0014028650047647,0.0014028650047297,-0.0014028650047625,0.001402865004731,-0.0013202487681386,0.0013202487680977,-0.0013202487681338,0.0013202487681088,-6.9600226702026e-15,2.8461130531999e-14,2.3727569256694e-14,-2.3351639564617e-15,-0.0013560871801943,0.0013560871802153,-0.00140286500473,0.001402865004749,-0.0014028650047382,0.0014028650047404,-0.00140286500472,0.0014028650047605,-0.0014028650047281,0.001402865004752,-0.001320248768097,0.001320248768156,-0.0013202487681368,0.0013202487681325,-0.0013202487681446,0.0013202487681267,-0.0013202487681065,0.001320248768161,1.009516218796e-14,6.7401470343112e-15,-0.0013560871801954,0.0013560871802125,-4.9964355976163e-15,2.0829128390308e-14,-0.0014028650047325,0.0014028650047426,-0.0014028650047238,0.0014028650047513,-0.0014028650047317,0.0014028650047423,-0.0014028650047252,0.0014028650047509,-0.0013202487681304,0.0013202487681437,-0.0013202487681196,0.0013202487681519,0.5913507314992,0.37751487549077,114808,2744,0.0056343523179261,0.0056343523179247,0.0056343523179212,36.465063192403,36.461104105688,5.4120505539225e-05,5.4120505539225e-05,5.4120505539225e-05,1315327.3176516,0.017047331307037
13019200,0.94812278700815,0.016458266867337,0.0054860889557826,0.0054860889557792,0.0054860889557754,-0.0013591191766394,0.0013591191766175,-1.335830790551e-14,-1.0172662922388e-14,7.8657539621304e-15,-2.7881515885887e-14,-0.0014061872096897,0.0014061872096764,-0.0014061872096895,0.0014061872096789,-0.0014061872097008,0.0014061872096658,-0.0014061872096987,0.0014061872096673,-0.001323094566663,0.0013230945666221,-0.0013230945666582,0.0013230945666331,-7.0457259343797e-15,2.8521363986026e-14,2.3672629758587e-14,-2.2902829746037e-15,-0.0013591191766177,0.0013591191766387,-0.0014061872096659,0.0014061872096847,-0.001406187209674,0.001406187209676,-0.0014061872096557,0.0014061872096961,-0.0014061872096638,0.0014061872096878,-0.0013230945666213,0.0013230945666803,-0.0013230945666609,0.001323094566657,-0.0013230945666696,0.0013230945666515,-0.001323094566631,0.0013230945666856,1.0133749244446e-14,6.7062951272873e-15,-0.0013591191766187,0.0013591191766359,-4.9294376443578e-15,2.0796658793996e-14,-0.0014061872096682,0.0014061872096783,-0.0014061872096595,0.001406187209687,-0.0014061872096674,0.001406187209678,-0.001406187209661,0.0014061872096866,-0.001323094566655,0.0013230945666685,-0.0013230945666443,0.0013230945666765,0.59303209824368,0.39641182537046,114808,2744,0.0056469133276705,0.0056469133276692,0.0056469133276656,35.907121902956,35.89135079233,4.9656975223649e-05,4.9656975223649e-05,4.9656975223649e-05,1320429.559704,0.017085664873641
13219200,0.95127978397203,0.016503134071541,0.0055010446905172,0.0055010446905137,0.00550104469051,-0.0013614411722728,0.0013614411722509,-1.3399672450675e-14,-1.0145762204664e-14,7.9009900180461e-15,-2.7939006776639e-14,-0.0014087634599582,0.0014087634599448,-0.001408763459958,0.0014087634599474,-0.0014087634599693,0.0014087634599342,-0.0014087634599672,0.0014087634599358,-0.0013252593898093,0.0013252593897683,-0.0013252593898044,0.0013252593897794,-7.1066064274636e-15,2.85563040951e-14,2.360374950989e-14,-2.2742246416453e-15,-0.0013614411722511,0.001361441172272,-0.0014087634599344,0.0014087634599531,-0.0014087634599424,0.0014087634599445,-0.0014087634599242,0.0014087634599646,-0.0014087634599322,0.0014087634599563,-0.0013252593897676,0.0013252593898265,-0.0013252593898071,0.0013252593898032,-0.0013252593898156,0.0013252593897975,-0.0013252593897771,0.0013252593898318,1.0172101014002e-14,6.6724432202633e-15,-0.0013614411722521,0.0013614411722692,-4.8904976574771e-15,2.0753307177182e-14,-0.0014087634599367,0.0014087634599468,-0.001408763459928,0.0014087634599555,-0.0014087634599359,0.0014087634599465,-0.0014087634599295,0.0014087634599551,-0.0013252593898012,0.0013252593898145,-0.0013252593897904,0.0013252593898227,0.5951291224665,0.41530877525015,114808,2744,0.005656532708695,0.0056565327086937,0.0056565327086902,35.18561848405,35.165077134571,4.3884947872398e-05,4.3884947872398e-05,4.3884947872398e-05,1322002.7472105,0.017115022918703
13419200,0.95413541745549,0.016543079653617,0.0055143598845427,0.0055143598845392,0.0055143598845355,-0.0013633625611173,0.0013633625610952,-1.3509647032204e-14,-1.0185422757767e-14,7.8581983565519e-15,-2.8054532659167e-14,-0.0014109181542598,0.0014109181542463,-0.0014109181542597,0.001410918154249,-0.001410918154271,0.0014109181542357,-0.0014109181542689,0.0014109181542372,-0.0013270260948057,0.0013270260947643,-0.0013270260948006,0.0013270260947755,-7.1568990087068e-15,2.8579479857685e-14,2.3551221702814e-14,-2.2606956431823e-15,-0.0013633625610954,0.0013633625611164,-0.0014109181542364,0.0014109181542551,-0.0014109181542443,0.0014109181542465,-0.0014109181542261,0.0014109181542664,-0.0014109181542341,0.0014109181542583,-0.0013270260947637,0.0013270260948226,-0.0013270260948032,0.0013270260947993,-0.0013270260948117,0.0013270260947935,-0.0013270260947732,0.0013270260948281,1.0203188299601e-14,6.6291798360476e-15,-0.0013633625610965,0.0013633625611136,-4.8623220476344e-15,2.0712720181793e-14,-0.0014109181542386,0.0014109181542488,-0.0014109181542299,0.0014109181542573,-0.0014109181542379,0.0014109181542485,-0.0014109181542315,0.0014109181542568,-0.0013270260947973,0.0013270260948105,-0.0013270260947865,0.0013270260948188,0.58608786692778,0.38161430657092,114808,2744,0.0056644922892047,0.0056644922892033,0.0056644922891997,34.455094583826,34.434241980328,3.8040756670604e-05,3.8040756670604e-05,3.8040756670604e-05,1323105.0048789,0.017139316703983
13619200,0.95674970662649,0.01657918447417,0.0055263948247267,0.0055263948247233,0.0055263948247195,-0.0013653232420836,0.0013653232420616,-1.3491471116877e-14,-1.0092683977822e-14,7.9085769875561e-15,-2.8012732465546e-14,-0.0014130953670217,0.0014130953670083,-0.0014130953670215,0.001413095367011,-0.0014130953670329,0.0014130953669977,-0.0014130953670308,0.0014130953669993,-0.0013288400524763,0.0013288400524351,-0.0013288400524712,0.0013288400524463,-7.1367819762095e-15,2.8603185015861e-14,2.3551221702814e-14,-2.2336376462561e-15,-0.0013653232420618,0.0013653232420827,-0.001413095366998,0.0014130953670167,-0.001413095367006,0.0014130953670081,-0.0014130953669878,0.0014130953670282,-0.0014130953669958,0.0014130953670199,-0.0013288400524344,0.0013288400524932,-0.0013288400524738,0.00132884005247,-0.0013288400524822,0.0013288400524641,-0.0013288400524437,0.0013288400524986,1.0245187016569e-14,6.601268924001e-15,-0.0013653232420628,0.0013653232420799,-4.861086791253e-15,2.0691191427717e-14,-0.0014130953670002,0.0014130953670105,-0.0014130953669916,0.0014130953670191,-0.0014130953669996,0.0014130953670101,-0.0014130953669932,0.0014130953670186,-0.0013288400524679,0.001328840052481,-0.001328840052457,0.0013288400524894,0.57890324857632,0.35919722196563,114808,2744,0.0056726146452674,0.0056726146452659,0.0056726146452624,33.909740221185,33.89409712144,3.3677921769476e-05,3.3677921769476e-05,3.3677921769476e-05,1326282.1494708,0.01716410745061
13819200,0.95916546195692,0.016612519315973,0.0055375064386612,0.0055375064386578,0.005537506438654,-0.0013673189583615,0.0013673189583395,-1.3531531473943e-14,-1.0060551342724e-14,7.8770288934243e-15,-2.8001401929333e-14,-0.0014152918312014,0.001415291831188,-0.0014152918312012,0.0014152918311907,-0.0014152918312126,0.0014152918311773,-0.0014152918312104,0.001415291831179,-0.0013307032901666,0.0013307032901253,-0.0013307032901615,0.0013307032901366,-7.1240764820007e-15,2.8577362275316e-14,2.3555398045818e-14,-2.2310494900284e-15,-0.0013673189583397,0.0013673189583606,-0.0014152918311777,0.0014152918311964,-0.0014152918311857,0.0014152918311878,-0.0014152918311674,0.0014152918312079,-0.0014152918311755,0.0014152918311996,-0.0013307032901247,0.0013307032901835,-0.0013307032901641,0.0013307032901603,-0.0013307032901726,0.0013307032901544,-0.0013307032901341,0.0013307032901889,1.0274039076335e-14,6.5572408572635e-15,-0.0013673189583408,0.0013673189583578,-4.8636161257482e-15,2.0689426775743e-14,-0.0014152918311799,0.0014152918311902,-0.0014152918311712,0.0014152918311988,-0.0014152918311793,0.0014152918311898,-0.0014152918311729,0.0014152918311983,-0.0013307032901583,0.0013307032901714,-0.0013307032901473,0.0013307032901798,0.57842617326326,0.36899707157555,114808,2744,0.0056808821682523,0.0056808821682509,0.0056808821682474,33.508946104134,33.497449212462,3.0471568833073e-05,3.0471568833073e-05,3.0471568833073e-05,1330539.080189,0.017189341322263
14019200,0.96143490895813,0.01664382183802,0.0055479406126768,0.0055479406126733,0.0055479406126695,-0.0013696886859229,0.0013696886859009,-1.3567228912823e-14,-1.0014237615113e-14,7.8613452043517e-15,-2.7930087931456e-14,-0.001417846667053,0.0014178466670395,-0.0014178466670527,0.0014178466670422,-0.0014178466670641,0.0014178466670289,-0.0014178466670619,0.0014178466670305,-0.001332953470169,0.0013329534701277,-0.0013329534701638,0.0013329534701391,-7.1006654324863e-15,2.8515834743176e-14,2.3577162086823e-14,-2.2645778775238e-15,-0.0013696886859011,0.0013696886859221,-0.0014178466670292,0.001417846667048,-0.0014178466670372,0.0014178466670393,-0.001417846667019,0.0014178466670594,-0.001417846667027,0.0014178466670511,-0.001332953470127,0.0013329534701859,-0.0013329534701665,0.0013329534701625,-0.001332953470175,0.0013329534701568,-0.0013329534701366,0.0013329534701912,1.0291803239534e-14,6.4969779923703e-15,-0.0013696886859022,0.0013696886859193,-4.8890271141659e-15,2.0718955285432e-14,-0.0014178466670314,0.0014178466670417,-0.0014178466670227,0.0014178466670503,-0.0014178466670308,0.0014178466670413,-0.0014178466670244,0.0014178466670498,-0.0013329534701607,0.0013329534701736,-0.0013329534701496,0.0013329534701822,0.5782146286626,0.37879692118548,114808,2744,0.0056906992424333,0.0056906992424319,0.0056906992424283,33.391468176304,33.387991678873,2.9531745410432e-05,2.9531745410432e-05,2.9531745410432e-05,1333486.3001127,0.017219304050779
14219200,0.96356274518313,0.016672131599859,0.0055573771999565,0.0055573771999531,0.0055573771999493,-0.0013717745564185,0.0013717745563965,-1.3607116481049e-14,-9.9840009469111e-15,7.7945611691905e-15,-2.7885817225072e-14,-0.0014201215735037,0.0014201215734901,-0.0014201215735034,0.0014201215734929,-0.0014201215735148,0.0014201215734795,-0.0014201215735126,0.0014201215734812,-0.0013349018690469,0.0013349018690055,-0.0013349018690416,0.001334901869017,-7.035667418131e-15,2.8467718566033e-14,2.3605396518399e-14,-2.2946946045373e-15,-0.0013717745563967,0.0013717745564176,-0.0014201215734798,0.0014201215734986,-0.0014201215734879,0.00142012157349,-0.0014201215734696,0.00142012157351,-0.0014201215734777,0.0014201215735017,-0.0013349018690049,0.0013349018690638,-0.0013349018690444,0.0013349018690404,-0.0013349018690528,0.0013349018690348,-0.0013349018690145,0.001334901869069,1.0335831306272e-14,6.4685670955978e-15,-0.0013717745563978,0.0013717745564148,-4.9119675898207e-15,2.0756424729002e-14,-0.0014201215734821,0.0014201215734923,-0.0014201215734733,0.001420121573501,-0.0014201215734815,0.0014201215734919,-0.0014201215734751,0.0014201215735004,-0.0013349018690386,0.0013349018690515,-0.0013349018690275,0.0013349018690601,0.5585676633601,0.29910998723276,114808,2744,0.0056993401280679,0.0056993401280665,0.005699340128063,33.234429865198,33.229966781715,2.8275438921584e-05,2.8275438921584e-05,2.8275438921584e-05,1339087.3025578,0.017245678650962
14419200,0.96554533530161,0.016698769623928,0.0055662565413127,0.0055662565413093,0.0055662565413056,-0.0013734447734544,0.0013734447734324,-1.365273916819e-14,-9.9598144155725e-15,7.7124653315738e-15,-2.7842193557746e-14,-0.0014219700159176,0.001421970015904,-0.0014219700159173,0.0014219700159068,-0.0014219700159287,0.0014219700158934,-0.0014219700159264,0.0014219700158952,-0.001336454683803,0.0013364546837616,-0.0013364546837977,0.0013364546837731,-6.9859042324798e-15,2.8390544453061e-14,2.3624513581444e-14,-2.3485753114599e-15,-0.0013734447734326,0.0013734447734535,-0.0014219700158937,0.0014219700159126,-0.0014219700159018,0.0014219700159039,-0.0014219700158836,0.001421970015924,-0.0014219700158917,0.0014219700159156,-0.001336454683761,0.0013364546838198,-0.0013364546838005,0.0013364546837964,-0.0013364546838087,0.0013364546837909,-0.0013364546837706,0.0013364546838249,1.0377477092845e-14,6.4374798099989e-15,-0.0013734447734337,0.0013734447734507,-4.945613620781e-15,2.079577646801e-14,-0.001421970015896,0.0014219700159063,-0.0014219700158873,0.001421970015915,-0.0014219700158955,0.0014219700159059,-0.001421970015889,0.0014219700159144,-0.0013364546837947,0.0013364546838075,-0.0013364546837834,0.0013364546838162,0.5638359303478,0.33941432783108,114808,2744,0.00570625897966,0.0057062589796586,0.0057062589796551,32.956690039758,32.948826906443,2.6053520318062e-05,2.6053520318062e-05,2.6053520318062e-05,1348266.3150395,0.01726679815062
14619200,0.96730903682739,0.016722583075262,0.0055741943584243,0.0055741943584209,0.0055741943584171,-0.0013732421226723,0.0013732421226504,-1.356868658888e-14,-9.8073674412891e-15,7.605222399132e-15,-2.7860803283349e-14,-0.001421925922135,0.0014219259221214,-0.0014219259221347,0.0014219259221242,-0.0014219259221461,0.001421925922111,-0.0014219259221439,0.0014219259221128,-0.0013361486941823,0.0013361486941408,-0.0013361486941775,0.0013361486941532,-7.025432436685e-15,2.8258666128912e-14,2.3749509762897e-14,-2.412632178096e-15,-0.0013732421226504,0.0013732421226713,-0.0014219259221113,0.0014219259221302,-0.0014219259221193,0.0014219259221215,-0.0014219259221012,0.0014219259221416,-0.0014219259221093,0.0014219259221331,-0.0013361486941413,0.0013361486942002,-0.0013361486941798,0.0013361486941761,-0.0013361486941874,0.0013361486941693,-0.0013361486941501,0.0013361486942046,1.0293832589304e-14,6.259926410604e-15,-0.0013732421226515,0.0013732421226686,-4.9039090124753e-15,2.1014652134449e-14,-0.0014219259221137,0.0014219259221239,-0.0014219259221048,0.0014219259221325,-0.0014219259221131,0.0014219259221234,-0.0014219259221066,0.001421925922132,-0.0013361486941747,0.0013361486941869,-0.0013361486941633,0.0013361486941955,0.56645705713253,0.36350021667759,114808,2744,0.0057054186748951,0.0057054186748932,0.0057054186748896,31.826415096764,31.794615369299,1.7011320774112e-05,1.7011320774112e-05,1.7011320774112e-05,1354494.9446572,0.017264238018723
14819200,0.96889784035911,0.016744158079748,0.0055813860265863,0.0055813860265829,0.0055813860265791,-0.0013731895777257,0.0013731895777038,-1.3669347116711e-14,-9.8353185635044e-15,7.5797482233065e-15,-2.7743887737391e-14,-0.0014219983901894,0.0014219983901757,-0.0014219983901891,0.0014219983901785,-0.0014219983902004,0.0014219983901652,-0.0014219983901982,0.001421998390167,-0.0013360180442461,0.0013360180442047,-0.0013360180442409,0.0013360180442167,-6.9012009377544e-15,2.824637238683e-14,2.3838624687556e-14,-2.5458045803588e-15,-0.0013731895777039,0.0013731895777248,-0.0014219983901654,0.0014219983901845,-0.0014219983901736,0.0014219983901757,-0.0014219983901554,0.0014219983901958,-0.0014219983901636,0.0014219983901872,-0.0013360180442042,0.0013360180442635,-0.0013360180442439,0.0013360180442394,-0.0013360180442517,0.0013360180442338,-0.001336018044214,0.001336018044268,1.0405623291822e-14,6.317542297537e-15,-0.001373189577705,0.0013731895777221,-5.1004324205848e-15,2.1044651217998e-14,-0.0014219983901679,0.0014219983901781,-0.001421998390159,0.0014219983901868,-0.0014219983901673,0.0014219983901775,-0.0014219983901608,0.0014219983901862,-0.001336018044238,0.0013360180442506,-0.0013360180442267,0.0013360180442594,0.56962155037258,0.38758610552409,114808,2744,0.005705200409728,0.0057052004097264,0.0057052004097229,30.873864754888,30.846708877199,9.3909180391037e-06,9.3909180391037e-06,9.3909180391037e-06,1354767.7866144,0.01726357530313
15019200,0.97030084455154,0.016763135773016,0.0055877119243422,0.0055877119243388,0.005587711924335,-0.0013721764919542,0.0013721764919323,-1.3699617331683e-14,-9.7818831554783e-15,7.5513389349408e-15,-2.7622464976185e-14,-0.0014211001045357,0.0014211001045219,-0.0014211001045353,0.0014211001045247,-0.0014211001045466,0.0014211001045115,-0.0014211001045443,0.0014211001045133,-0.0013349307835732,0.0013349307835319,-0.0013349307835676,0.0013349307835437,-6.8058509094559e-15,2.8190962314864e-14,2.393603347649e-14,-2.6666244188074e-15,-0.0013721764919325,0.0013721764919534,-0.0014211001045116,0.0014211001045307,-0.0014211001045199,0.0014211001045219,-0.0014211001045016,0.001421100104542,-0.0014211001045099,0.0014211001045334,-0.001334930783531,0.0013349307835903,-0.0013349307835711,0.0013349307835662,-0.0013349307835786,0.0013349307835609,-0.0013349307835408,0.0013349307835948,1.0521531515611e-14,6.3593645493077e-15,-0.0013721764919335,0.0013721764919506,-5.23078137969e-15,2.1139060098577e-14,-0.0014211001045141,0.0014211001045243,-0.0014211001045052,0.0014211001045331,-0.0014211001045136,0.0014211001045237,-0.001421100104507,0.0014211001045325,-0.0013349307835646,0.0013349307835775,-0.0013349307835533,0.0013349307835865,0.5673822684299,0.38481805944613,114808,2744,0.0057010027031821,0.0057010027031807,0.0057010027031771,29.529616175321,29.49161940533,-1.3630705974282e-06,-1.3630705974282e-06,-1.3630705974282e-06,1355266.0498758,0.017250767984617
15219200,0.97145388315288,0.016778066555491,0.0055926888518339,0.0055926888518305,0.0055926888518267,-0.0013683581733091,0.0013683581732872,-1.3714475333663e-14,-9.7217147270384e-15,7.5114412567286e-15,-2.7500409881355e-14,-0.001417393630763,0.0014173936307493,-0.0014173936307626,0.0014173936307521,-0.0014173936307739,0.0014173936307388,-0.0014173936307717,0.0014173936307408,-0.0013310298940001,0.0013310298939588,-0.0013310298939944,0.0013310298939706,-6.7243239882826e-15,2.811084711527e-14,2.4028324774701e-14,-2.807914220148e-15,-0.0013683581732873,0.0013683581733082,-0.0014173936307388,0.0014173936307581,-0.0014173936307471,0.0014173936307491,-0.0014173936307288,0.0014173936307694,-0.0014173936307373,0.0014173936307606,-0.0013310298939578,0.0013310298940172,-0.001331029893998,0.001331029893993,-0.0013310298940057,0.0013310298939879,-0.001331029893968,0.0013310298940217,1.0536501646519e-14,6.3020427710369e-15,-0.0013683581732883,0.0013683581733054,-5.3628361690362e-15,2.1240233478388e-14,-0.0014173936307414,0.0014173936307515,-0.0014173936307324,0.0014173936307604,-0.0014173936307409,0.001417393630751,-0.0014173936307342,0.0014173936307597,-0.0013310298939916,0.0013310298940046,-0.0013310298939801,0.0013310298940136,0.54391444837613,0.28598329886612,114808,2744,0.0056851827954025,0.0056851827954011,0.0056851827953974,26.891360288591,26.817245446257,-2.2469117691271e-05,-2.2469117691271e-05,-2.2469117691271e-05,1359069.4789957,0.017202494029778
15419200,0.97250295025991,0.016793498059968,0.0055978326866596,0.0055978326866562,0.0055978326866525,-0.0013677000577707,0.0013677000577488,-1.3777367713815e-14,-9.7161038001027e-15,7.4093798066212e-15,-2.7450220238144e-14,-0.0014167848808448,0.0014167848808309,-0.0014167848808444,0.0014167848808338,-0.0014167848808556,0.0014167848808206,-0.0014167848808533,0.0014167848808225,-0.0013303690395908,0.0013303690395493,-0.0013303690395851,0.0013303690395613,-6.6729137941229e-15,2.8009144339867e-14,2.4123027763943e-14,-2.9169108903746e-15,-0.001367700057749,0.0013677000577698,-0.0014167848808205,0.0014167848808399,-0.001416784880829,0.0014167848808309,-0.0014167848808106,0.0014167848808511,-0.0014167848808191,0.0014167848808423,-0.0013303690395484,0.0013303690396079,-0.0013303690395889,0.0013303690395835,-0.0013303690395962,0.0013303690395786,-0.0013303690395588,0.0013303690396121,1.0585323684451e-14,6.2777199846696e-15,-0.00136770005775,0.0013677000577671,-5.4368339084561e-15,2.1368876607253e-14,-0.0014167848808232,0.0014167848808333,-0.0014167848808141,0.0014167848808423,-0.0014167848808227,0.0014167848808327,-0.0014167848808159,0.0014167848808416,-0.0013303690395824,0.0013303690395952,-0.0013303690395707,0.0013303690396042,0.61488002738127,0.62516636785944,114808,2744,0.0056824560436911,0.0056824560436897,0.0056824560436861,25.934504731774,25.906732977314,-3.0123962145811e-05,-3.0123962145811e-05,-3.0123962145811e-05,1355706.9475527,0.017194173962098
15619200,0.97349197333074,0.01680834530366,0.0056027817678903,0.0056027817678869,0.0056027817678832,-0.0013682091906711,0.0013682091906493,-1.3801915677127e-14,-9.6464042979409e-15,7.4952936571958e-15,-2.7171368462756e-14,-0.0014173270082664,0.0014173270082524,-0.0014173270082659,0.0014173270082552,-0.001417327008277,0.0014173270082422,-0.0014173270082748,0.001417327008244,-0.0013308762244211,0.0013308762243797,-0.0013308762244153,0.0013308762243921,-6.613209735688e-15,2.7876854263591e-14,2.4220377731145e-14,-3.027201638715e-15,-0.0013682091906496,0.0013682091906705,-0.0014173270082416,0.0014173270082612,-0.0014173270082501,0.0014173270082521,-0.0014173270082318,0.0014173270082722,-0.0014173270082404,0.0014173270082634,-0.0013308762243793,0.0013308762244387,-0.0013308762244201,0.0013308762244139,-0.0013308762244277,0.0013308762244101,-0.0013308762243902,0.001330876224443,1.056235379793e-14,6.1435476129552e-15,-0.0013682091906506,0.0013682091906677,-5.5094787480296e-15,2.1492225780196e-14,-0.0014173270082444,0.0014173270082544,-0.0014173270082353,0.0014173270082635,-0.001417327008244,0.0014173270082539,-0.0014173270082371,0.0014173270082629,-0.0013308762244134,0.0013308762244259,-0.0013308762244017,0.0013308762244354,0.62695261052852,0.66664863809497,114808,2744,0.0056845653732607,0.00568456537326,0.0056845653732564,25.555325018679,25.5443416309,-3.3157399850565e-05,-3.3157399850565e-05,-3.3157399850565e-05,1334856.986479,0.0172006112624
15819200,0.97440431480716,0.01682301068452,0.0056076702281767,0.0056076702281733,0.0056076702281696,-0.0013679504157067,0.001367950415685,-1.376522929787e-14,-9.5507329329516e-15,7.4099513654472e-15,-2.703907838648e-14,-0.0014170910972535,0.0014170910972396,-0.0014170910972529,0.0014170910972424,-0.0014170910972641,0.0014170910972293,-0.0014170910972617,0.0014170910972313,-0.0013306328221731,0.0013306328221318,-0.0013306328221673,0.0013306328221439,-6.5011543353741e-15,2.7773857410074e-14,2.4284199310851e-14,-3.1256692188333e-15,-0.0013679504156852,0.001367950415706,-0.0014170910972287,0.0014170910972483,-0.0014170910972372,0.0014170910972391,-0.0014170910972189,0.0014170910972593,-0.0014170910972276,0.0014170910972503,-0.0013306328221311,0.0013306328221906,-0.0013306328221719,0.001330632822166,-0.0013306328221793,0.0013306328221618,-0.001330632822142,0.0013306328221946,1.0621969623766e-14,6.1497533057285e-15,-0.0013679504156862,0.0013679504157033,-5.6111227017002e-15,2.1563223611261e-14,-0.0014170910972315,0.0014170910972413,-0.0014170910972223,0.0014170910972505,-0.0014170910972309,0.0014170910972408,-0.001417091097224,0.00141709109725,-0.0013306328221653,0.001330632822178,-0.0013306328221534,0.0013306328221872,0.66920156484549,0.8411119242785,114808,2744,0.005683493286858,0.005683493286857,0.0056834932868534,24.794446450416,24.773118812755,-3.9244428396674e-05,-3.9244428396674e-05,-3.9244428396674e-05,1313351.0036319,0.017197339810713
16019200,0.97527542253749,0.016836983695495,0.0056123278985019,0.0056123278984985,0.0056123278984947,-0.0013687631841022,0.0013687631840803,-1.3882006061303e-14,-9.5941040804192e-15,7.1614949160991e-15,-2.7091540019108e-14,-0.0014179055355358,0.0014179055355212,-0.0014179055355346,0.0014179055355245,-0.0014179055355459,0.001417905535511,-0.0014179055355433,0.0014179055355129,-0.0013314656825533,0.0013314656825125,-0.0013314656825477,0.0013314656825236,-6.2598087671391e-15,2.7799974259281e-14,2.4525191948691e-14,-3.0320250207757e-15,-0.0013687631840805,0.0013687631841014,-0.0014179055355115,0.0014179055355313,-0.0014179055355202,0.0014179055355218,-0.001417905535502,0.0014179055355427,-0.0014179055355104,0.0014179055355336,-0.0013314656825119,0.0013314656825714,-0.0013314656825517,0.0013314656825469,-0.0013314656825586,0.0013314656825422,-0.0013314656825218,0.001331465682574,1.0206041153625e-14,5.6945907400442e-15,-0.001368763184082,0.0013687631840983,-6.2058104167516e-15,2.1148530397502e-14,-0.001417905535514,0.0014179055355238,-0.0014179055355056,0.001417905535533,-0.0014179055355143,0.0014179055355235,-0.0014179055355077,0.0014179055355325,-0.0013314656825457,0.0013314656825575,-0.001331465682534,0.0013314656825661,0.66743246319892,0.80327694214316,114808,2744,0.0056868607255853,0.0056868607255839,0.0056868607255805,24.594059822184,24.588164057357,-4.0847521422524e-05,-4.0847521422524e-05,-4.0847521422524e-05,1281751.9531529,0.017207615628533
16219200,0.97613491646492,0.016850715068135,0.0056169050227151,0.0056169050227117,0.005616905022708,-0.0013706090658652,0.0013706090658434,-1.3887145610175e-14,-9.5175542590373e-15,7.0741826707444e-15,-2.7004263273588e-14,-0.0014197548423373,0.001419754842323,-0.0014197548423366,0.001419754842326,-0.0014197548423478,0.001419754842313,-0.0014197548423453,0.0014197548423149,-0.0013333267448604,0.0013333267448192,-0.0013333267448545,0.0013333267448313,-6.2955135587351e-15,2.7603156742509e-14,2.4470487737515e-14,-3.2621944598456e-15,-0.0013706090658435,0.0013706090658644,-0.0014197548423126,0.0014197548423324,-0.0014197548423212,0.0014197548423231,-0.0014197548423029,0.0014197548423433,-0.0014197548423116,0.0014197548423343,-0.001333326744818,0.0013333267448778,-0.0013333267448591,0.0013333267448529,-0.0013333267448657,0.0013333267448486,-0.001333326744829,0.0013333267448811,1.0693379206958e-14,6.0844611827109e-15,-0.0013706090658446,0.0013706090658616,-5.8334688503544e-15,2.1668220403682e-14,-0.0014197548423154,0.0014197548423254,-0.0014197548423062,0.0014197548423346,-0.0014197548423151,0.0014197548423247,-0.0014197548423081,0.0014197548423339,-0.001333326744852,0.0013333267448648,-0.0013333267448402,0.0013333267448741,0.66426055934634,0.76544196000782,114808,2744,0.0056945083108326,0.0056945083108312,0.0056945083108277,24.94390277049,24.953540478635,-3.8048777836082e-05,-3.8048777836082e-05,-3.8048777836082e-05,1255274.2073778,0.017230953325506
16419200,0.97692349249358,0.01686205750176,0.0056206858339235,0.0056206858339201,0.0056206858339163,-0.0013699613549209,0.001369961354899,-1.3906057716247e-14,-9.4577357739509e-15,7.0112145805896e-15,-2.693783883222e-14,-0.0014191442635054,0.0014191442634912,-0.0014191442635048,0.0014191442634942,-0.0014191442635159,0.0014191442634811,-0.0014191442635134,0.0014191442634831,-0.0013326458713303,0.0013326458712891,-0.0013326458713243,0.0013326458713014,-6.251397259399e-15,2.7518453447784e-14,2.4497722199638e-14,-3.3657207089544e-15,-0.0013699613548993,0.00136996135492,-0.0014191442634807,0.0014191442635006,-0.0014191442634894,0.0014191442634913,-0.0014191442634711,0.0014191442635115,-0.0014191442634799,0.0014191442635024,-0.001332645871288,0.0013326458713479,-0.0013326458713291,0.0013326458713227,-0.0013326458713358,0.0013326458713188,-0.0013326458712992,0.0013326458713513,1.0744054129463e-14,6.0544915100286e-15,-0.0013699613549002,0.0013699613549173,-5.8732911632219e-15,2.1758217654327e-14,-0.0014191442634837,0.0014191442634936,-0.0014191442634744,0.0014191442635029,-0.0014191442634834,0.0014191442634929,-0.0014191442634763,0.0014191442635021,-0.0013326458713221,0.0013326458713348,-0.0013326458713103,0.0013326458713444,0.59982141879203,0.45292604257112,114808,2744,0.0056918246020152,0.0056918246020139,0.0056918246020104,24.075774794897,24.051799862623,-4.4993801640825e-05,-4.4993801640825e-05,-4.4993801640825e-05,1240962.5558724,0.017222764937745
16619200,0.97767256275474,0.016874751312452,0.0056249171041541,0.0056249171041507,0.0056249171041469,-0.0013703367540377,0.001370336754007,-1.6691060871606e-14,-1.2340000089483e-14,3.9868147864273e-15,-3.0104602383885e-14,-0.001419527365061,0.0014195273650307,-0.0014195273650537,0.0014195273650316,-0.0014195273650694,0.0014195273650204,-0.0014195273650577,0.00141952736502,-0.0013330462986597,0.001333046298608,-0.0013330462986402,0.0013330462986175,-6.9934922359657e-15,2.6809945680445e-14,2.4394254772262e-14,-3.697298814765e-15,-0.0013703367540139,0.0013703367540337,-0.0014195273650192,0.0014195273650459,-0.0014195273650325,0.0014195273650399,-0.0014195273650201,0.0014195273650464,-0.0014195273650164,0.0014195273650449,-0.0013330462986019,0.001333046298659,-0.001333046298641,0.0013330462986388,-0.0013330462986258,0.0013330462986075,-0.0013330462985853,0.0013330462986395,1.4082746252357e-14,9.437535219189e-15,-0.0013703367540108,0.0013703367540317,-2.7208580561246e-15,2.4957943434313e-14,-0.0014195273650234,0.0014195273650331,-0.0014195273650176,0.0014195273650432,-0.001419527365026,0.0014195273650342,-0.0014195273650094,0.0014195273650449,-0.0013330462986059,0.0013330462986317,-0.001333046298603,0.0013330462986376,0.70236006289417,0.92426636263102,114808,2744,0.0056933799191849,0.0056933799191909,0.0056933799191804,23.767345712165,23.758416908761,-4.7461234302677e-05,-4.7461234302677e-05,-4.7461234302677e-05,1235116.2105427,0.017227511046417
16819200,0.97839237798894,0.016887011467333,0.0056290038224477,0.0056290038224445,0.0056290038224406,-0.0013711555865012,0.0013711555864788,-1.3815919844897e-14,-9.3346935769232e-15,7.0122389059148e-15,-2.7240579583698e-14,-0.0014203323949124,0.0014203323948964,-0.0014203323949108,0.0014203323948997,-0.0014203323949223,0.0014203323948862,-0.0014203323949194,0.001420332394888,-0.0013338923417074,0.0013338923416664,-0.0013338923416992,0.0013338923416756,-6.5799166351223e-15,2.7480101678227e-14,2.4687304643319e-14,-3.3087224502121e-15,-0.0013711555864787,0.0013711555864993,-0.0014203323948855,0.0014203323949057,-0.0014203323948948,0.0014203323948973,-0.0014203323948767,0.0014203323949163,-0.0014203323948853,0.0014203323949082,-0.0013338923416616,0.0013338923417211,-0.0013338923417019,0.0013338923416964,-0.0013338923417056,0.0013338923416863,-0.001333892341669,0.001333892341719,1.1290331558709e-14,6.5018307852973e-15,-0.0013711555864793,0.0013711555864966,-5.6718267295867e-15,2.2000151439887e-14,-0.001420332394889,0.0014203323948993,-0.0014203323948801,0.0014203323949083,-0.0014203323948894,0.0014203323948985,-0.0014203323948821,0.0014203323949076,-0.0013338923416901,0.0013338923417052,-0.0013338923416791,0.0013338923417142,0.70571909169295,0.90497517292461,114808,2744,0.0056967724704349,0.0056967724704307,0.0056967724704262,23.643995581634,23.64043191554,-4.8448035346925e-05,-4.8448035346925e-05,-4.8448035346925e-05,1206334.2007065,0.017237863560237
17019200,0.97907996245749,0.016898504298784,0.0056328347662648,0.0056328347662616,0.0056328347662578,-0.0013717172286878,0.0013717172286651,-1.4322397019426e-14,-9.6704992649811e-15,6.9328749471572e-15,-2.7509674304216e-14,-0.0014208868262831,0.0014208868262676,-0.001420886826282,0.0014208868262706,-0.0014208868262936,0.0014208868262574,-0.0014208868262905,0.0014208868262593,-0.0013344692094964,0.0013344692094538,-0.0013344692094892,0.0013344692094659,-6.5176832421921e-15,2.7737682044618e-14,2.4596895640546e-14,-3.3784262031632e-15,-0.0013717172286659,0.0013717172286867,-0.0014208868262571,0.0014208868262774,-0.0014208868262662,0.0014208868262683,-0.0014208868262481,0.0014208868262877,-0.0014208868262561,0.0014208868262792,-0.0013344692094524,0.0013344692095127,-0.0013344692094937,0.0013344692094875,-0.0013344692094995,0.0013344692094818,-0.0013344692094622,0.0013344692095147,1.1176805615084e-14,6.2683673292103e-15,-0.0013717172286666,0.001371717228684,-5.6558860400932e-15,2.2078619630973e-14,-0.0014208868262601,0.0014208868262702,-0.0014208868262509,0.0014208868262796,-0.0014208868262602,0.0014208868262695,-0.0014208868262524,0.0014208868262789,-0.0013344692094852,0.0013344692094987,-0.0013344692094734,0.0013344692095082,0.69246303628217,0.81742358755057,114808,2744,0.0056990993939239,0.0056990993939233,0.0056990993939192,23.417050927844,23.410694991524,-5.0263592577249e-05,-5.0263592577249e-05,-5.0263592577249e-05,1182508.7709553,0.017244964537973
17219200,0.97972937301632,0.016909079623976,0.0056363598746621,0.0056363598746589,0.0056363598746551,-0.0013718167748897,0.0013718167748669,-1.4525710661275e-14,-9.786207586789e-15,6.9434465451581e-15,-2.7667618008556e-14,-0.0014209875956621,0.0014209875956467,-0.0014209875956608,0.0014209875956496,-0.0014209875956727,0.0014209875956365,-0.0014209875956697,0.001420987595638,-0.0013345724684583,0.0013345724684153,-0.0013345724684516,0.0013345724684279,-6.7986158363647e-15,2.7627744226672e-14,2.4333844853037e-14,-3.647300342184e-15,-0.0013718167748682,0.0013718167748886,-0.0014209875956361,0.001420987595656,-0.0014209875956451,0.0014209875956469,-0.0014209875956268,0.0014209875956664,-0.0014209875956351,0.0014209875956576,-0.0013345724684162,0.0013345724684755,-0.0013345724684568,0.0013345724684505,-0.0013345724684624,0.001334572468445,-0.0013345724684252,0.0013345724684778,1.1258009016729e-14,6.2668967858991e-15,-0.0013718167748686,0.0013718167748862,-5.5321251150222e-15,2.2230379700689e-14,-0.0014209875956386,0.0014209875956487,-0.0014209875956293,0.0014209875956583,-0.0014209875956386,0.0014209875956483,-0.0014209875956311,0.0014209875956577,-0.0013345724684485,0.0013345724684617,-0.0013345724684364,0.0013345724684711,0.67476319264128,0.71970379112545,114808,2744,0.0056995117759215,0.0056995117759219,0.0056995117759178,22.994536680225,22.982714958457,-5.3643706558201e-05,-5.3643706558201e-05,-5.3643706558201e-05,1166204.0219571,0.017246223233906
17419200,0.98034928108966,0.016918757681809,0.0056395858939396,0.0056395858939364,0.0056395858939326,-0.0013721524481869,0.0013721524481642,-1.4449772723774e-14,-9.6433715321339e-15,7.1115618137638e-15,-2.7666191581544e-14,-0.0014213306027191,0.0014213306027038,-0.001421330602718,0.0014213306027067,-0.0014213306027297,0.0014213306026934,-0.0014213306027266,0.0014213306026954,-0.0013349013379524,0.0013349013379095,-0.0013349013379456,0.001334901337922,-6.6877368706998e-15,2.7903559330122e-14,2.4550308828447e-14,-3.4478358474521e-15,-0.0013721524481651,0.0013721524481859,-0.001421330602693,0.001421330602713,-0.001421330602702,0.001421330602704,-0.0014213306026838,0.0014213306027237,-0.0014213306026918,0.001421330602715,-0.0013349013379091,0.0013349013379691,-0.00133490133795,0.0013349013379439,-0.0013349013379562,0.0013349013379386,-0.0013349013379186,0.0013349013379716,1.1231127485e-14,6.178164202501e-15,-0.0013721524481658,0.0013721524481833,-5.5995348204079e-15,2.2171793255171e-14,-0.0014213306026958,0.001421330602706,-0.0014213306026865,0.0014213306027154,-0.0014213306026958,0.0014213306027053,-0.0014213306026882,0.0014213306027146,-0.0013349013379423,0.0013349013379554,-0.0013349013379301,0.0013349013379648,0.64748126063463,0.5868439824505,114808,2744,0.0057009023678666,0.0057009023678664,0.0057009023678625,22.737546075423,22.730236745288,-5.5699631396616e-05,-5.5699631396616e-05,-5.5699631396616e-05,1156305.4071792,0.017250467436027
17619200,0.98085512615081,0.016926362257145,0.0056421207523852,0.0056421207523819,0.0056421207523781,-0.0013673213538921,0.0013673213538694,-1.4422587892487e-14,-9.5495445501382e-15,7.1630231322808e-15,-2.7709918186903e-14,-0.0014165406941852,0.0014165406941699,-0.0014165406941841,0.001416540694173,-0.0014165406941959,0.0014165406941595,-0.0014165406941928,0.0014165406941616,-0.0013300364890468,0.0013300364890039,-0.0013300364890396,0.0013300364890162,-6.7844986205772e-15,2.7902206430276e-14,2.4540132668733e-14,-3.4698939971202e-15,-0.0013673213538702,0.0013673213538909,-0.0014165406941595,0.0014165406941795,-0.0014165406941685,0.0014165406941704,-0.0014165406941501,0.0014165406941901,-0.0014165406941583,0.0014165406941814,-0.001330036489003,0.0013300364890631,-0.001330036489044,0.0013300364890379,-0.0013300364890501,0.001330036489032,-0.0013300364890125,0.0013300364890652,1.1273037969369e-14,6.1452828540624e-15,-0.0013673213538709,0.0013673213538883,-5.6508861928352e-15,2.211532439202e-14,-0.0014165406941622,0.0014165406941725,-0.0014165406941531,0.0014165406941819,-0.0014165406941623,0.0014165406941717,-0.0014165406941547,0.0014165406941811,-0.0013300364890357,0.001330036489049,-0.0013300364890237,0.0013300364890586,0.62390557698778,0.48184511056939,114808,2744,0.0056808867257671,0.0056808867257663,0.0056808867257623,19.893110535291,19.814328832775,-7.8455115717672e-05,-7.8455115717672e-05,-7.8455115717672e-05,1161395.0805019,0.017189388177676
17819200,0.98132789110819,0.016933225974328,0.0056444086581129,0.0056444086581097,0.0056444086581059,-0.0013665593660659,0.0013665593660434,-1.4391473034201e-14,-9.4513957792143e-15,7.2059178466929e-15,-2.7722182518118e-14,-0.0014157801046612,0.0014157801046459,-0.00141578010466,0.0014157801046491,-0.0014157801046719,0.0014157801046356,-0.0014157801046688,0.0014157801046376,-0.0013292689085393,0.0013292689084968,-0.0013292689085321,0.0013292689085092,-6.7799693471786e-15,2.7963028101627e-14,2.4564543687699e-14,-3.4477182039872e-15,-0.0013665593660441,0.0013665593660648,-0.0014157801046356,0.0014157801046556,-0.0014157801046446,0.0014157801046465,-0.0014157801046262,0.0014157801046662,-0.0014157801046344,0.0014157801046576,-0.0013292689084957,0.0013292689085557,-0.0013292689085367,0.0013292689085308,-0.001329268908543,0.0013292689085248,-0.0013292689085054,0.0013292689085582,1.1271655658657e-14,6.0769614118238e-15,-0.0013665593660448,0.0013665593660622,-5.6877085973477e-15,2.2082090113187e-14,-0.0014157801046384,0.0014157801046486,-0.0014157801046291,0.001415780104658,-0.0014157801046384,0.0014157801046478,-0.0014157801046309,0.0014157801046571,-0.0013292689085285,0.0013292689085417,-0.0013292689085168,0.0013292689085517,0.6034192248789,0.39934230906127,114808,2744,0.0056777296787418,0.005677729678741,0.005677729678737,19.213215075069,19.193220894552,-8.3894279399451e-05,-8.3894279399451e-05,-8.3894279399451e-05,1160417.6974335,0.017179754505165
18019200,0.98178789844967,0.016939895604582,0.0056466318681974,0.0056466318681942,0.0056466318681904,-0.001366998341466,0.0013669983414434,-1.4466523131178e-14,-9.4475345690466e-15,7.2430195395484e-15,-2.7712396052382e-14,-0.0014162391319502,0.001416239131935,-0.0014162391319491,0.0014162391319382,-0.0014162391319609,0.0014162391319246,-0.0014162391319578,0.0014162391319267,-0.0013296919423,0.0013296919422572,-0.0013296919422929,0.0013296919422697,-6.7842045119149e-15,2.7986439151142e-14,2.4574543382215e-14,-3.4128957383779e-15,-0.0013669983414441,0.0013669983414649,-0.0014162391319246,0.0014162391319446,-0.0014162391319336,0.0014162391319355,-0.0014162391319152,0.0014162391319553,-0.0014162391319235,0.0014162391319466,-0.0013296919422563,0.0013296919423165,-0.0013296919422973,0.0013296919422913,-0.0013296919423037,0.0013296919422856,-0.001329691942266,0.0013296919423189,1.1316007244923e-14,6.0435506677932e-15,-0.0013669983414449,0.0013669983414623,-5.6675915648504e-15,2.2081560717595e-14,-0.0014162391319274,0.0014162391319376,-0.0014162391319182,0.001416239131947,-0.0014162391319275,0.0014162391319368,-0.00141623913192,0.0014162391319462,-0.0013296919422894,0.0013296919423025,-0.0013296919422773,0.0013296919423123,0.60266012808111,0.41341936417556,114808,2744,0.0056795482197178,0.0056795482197171,0.0056795482197131,19.169716804405,19.168202778845,-8.424226556476e-05,-8.424226556476e-05,-8.424226556476e-05,1167382.2098765,0.017185304600467
18219200,0.98219722267761,0.016945940064633,0.0056486466882145,0.0056486466882113,0.0056486466882075,-0.0013646219993246,0.0013646219993021,-1.4514455490407e-14,-9.4222537466893e-15,7.2547887112583e-15,-2.772446186025e-14,-0.0014138996650498,0.0014138996650346,-0.0014138996650486,0.0014138996650378,-0.0014138996650605,0.0014138996650242,-0.0014138996650575,0.0014138996650263,-0.0013272905550882,0.0013272905550452,-0.0013272905550809,0.0013272905550577,-6.7920278023305e-15,2.8001732801578e-14,2.4559073266582e-14,-3.4245424414026e-15,-0.0013646219993028,0.0013646219993235,-0.0014138996650242,0.0014138996650442,-0.0014138996650332,0.001413899665035,-0.0014138996650147,0.0014138996650549,-0.001413899665023,0.0014138996650462,-0.0013272905550444,0.0013272905551047,-0.0013272905550856,0.0013272905550795,-0.0013272905550921,0.0013272905550739,-0.0013272905550543,0.0013272905551073,1.1345124002485e-14,5.9977285382161e-15,-0.0013646219993035,0.0013646219993209,-5.7050021866875e-15,2.204250308725e-14,-0.001413899665027,0.0014138996650372,-0.0014138996650177,0.0014138996650466,-0.0014138996650271,0.0014138996650364,-0.0014138996650196,0.0014138996650457,-0.0013272905550778,0.0013272905550908,-0.0013272905550655,0.0013272905551007,0.61339061618773,0.4780761505855,114808,2744,0.0056697025772134,0.0056697025772128,0.0056697025772088,17.68891430251,17.6479336987,-9.6088685579923e-05,-9.6088685579923e-05,-9.6088685579923e-05,1178324.3900845,0.017155261773139
18419200,0.98256697994556,0.016951435434555,0.0056504784781885,0.0056504784781853,0.0056504784781814,-0.0013626311107536,0.0013626311107311,-1.4519383648678e-14,-9.3548606998021e-15,7.2770618129994e-15,-2.7719072319015e-14,-0.0014119242105703,0.0014119242105552,-0.0014119242105692,0.0014119242105584,-0.001411924210581,0.0014119242105448,-0.001411924210578,0.0014119242105469,-0.0013252901524403,0.0013252901523973,-0.0013252901524331,0.00132529015241,-6.7993216971541e-15,2.8011085457037e-14,2.4548720641671e-14,-3.4064253478086e-15,-0.0013626311107318,0.0013626311107525,-0.0014119242105448,0.0014119242105647,-0.0014119242105538,0.0014119242105556,-0.0014119242105353,0.0014119242105755,-0.0014119242105436,0.0014119242105668,-0.0013252901523965,0.0013252901524567,-0.0013252901524376,0.0013252901524316,-0.0013252901524441,0.0013252901524259,-0.0013252901524064,0.0013252901524594,1.1360300009456e-14,5.942465520581e-15,-0.0013626311107325,0.0013626311107499,-5.6844145803306e-15,2.2033562183917e-14,-0.0014119242105475,0.0014119242105578,-0.0014119242105383,0.0014119242105672,-0.0014119242105476,0.0014119242105569,-0.0014119242105402,0.0014119242105663,-0.0013252901524299,0.0013252901524427,-0.0013252901524176,0.0013252901524527,0.61738714868765,0.50580856140999,114808,2744,0.0056614539639336,0.0056614539639328,0.0056614539639289,16.429780909726,16.394337670526,-0.0001061617527222,-0.0001061617527222,-0.0001061617527222,1181346.9676936,0.017130092248087
18619200,0.98291872843595,0.016956613389233,0.0056522044630812,0.005652204463078,0.0056522044630742,-0.0013621598217521,0.0013621598217297,-1.4515070361329e-14,-9.277808366198e-15,7.3215953790002e-15,-2.768597038908e-14,-0.0014114606970449,0.00141146069703,-0.0014114606970438,0.0014114606970332,-0.0014114606970559,0.0014114606970195,-0.0014114606970527,0.0014114606970216,-0.0013248135708305,0.0013248135707875,-0.0013248135708233,0.0013248135708001,-6.9066125371397e-15,2.7915676607006e-14,2.4428900772674e-14,-3.4987166460198e-15,-0.0013621598217304,0.0013621598217509,-0.0014114606970197,0.0014114606970394,-0.0014114606970287,0.0014114606970303,-0.0014114606970102,0.0014114606970501,-0.0014114606970185,0.0014114606970414,-0.001324813570787,0.001324813570847,-0.001324813570828,0.0013248135708217,-0.0013248135708343,0.001324813570816,-0.0013248135707969,0.0013248135708493,1.1307331039387e-14,5.8220868451257e-15,-0.0013621598217311,0.0013621598217484,-5.7418834129325e-15,2.1946270732964e-14,-0.0014114606970223,0.0014114606970326,-0.0014114606970132,0.0014114606970419,-0.0014114606970226,0.0014114606970317,-0.0014114606970151,0.001411460697041,-0.0013248135708202,0.0013248135708327,-0.0013248135708077,0.0013248135708426,0.61178944863566,0.48684635879891,114808,2744,0.005659501281832,0.0056595012818311,0.0056595012818272,15.968723555284,15.955432118358,-0.00010985021155773,-0.00010985021155773,-0.00010985021155773,1181440.6979971,0.017124134135445
18819200,0.98325961439119,0.016961949820254,0.0056539832734213,0.0056539832734181,0.0056539832734143,-0.0013622343847122,0.0013622343846897,-1.4623606567681e-14,-9.3112163529598e-15,7.2447513340697e-15,-2.7763423905281e-14,-0.0014115449272411,0.001411544927226,-0.0014115449272404,0.0014115449272296,-0.0014115449272524,0.0014115449272162,-0.0014115449272492,0.0014115449272179,-0.001324887905616,0.0013248879055724,-0.0013248879056086,0.0013248879055854,-6.796557075729e-15,2.8025202672825e-14,2.4540838529523e-14,-3.3607796834288e-15,-0.0013622343846904,0.0013622343847112,-0.0014115449272158,0.0014115449272355,-0.0014115449272248,0.0014115449272265,-0.0014115449272064,0.0014115449272463,-0.0014115449272149,0.0014115449272379,-0.0013248879055718,0.0013248879056317,-0.0013248879056128,0.0013248879056072,-0.0013248879056196,0.0013248879056014,-0.0013248879055823,0.0013248879056349,1.1391446116788e-14,5.8277043205745e-15,-0.0013622343846912,0.0013622343847086,-5.6957671746931e-15,2.1968564169562e-14,-0.0014115449272186,0.0014115449272287,-0.0014115449272094,0.0014115449272378,-0.0014115449272185,0.0014115449272277,-0.0014115449272112,0.0014115449272374,-0.0013248879056061,0.0013248879056182,-0.0013248879055933,0.0013248879056283,0.64923262696898,0.666501159985,114808,2744,0.0056598101597869,0.0056598101597864,0.0056598101597826,15.791659421182,15.786557468651,-0.00011126672463054,-0.00011126672463054,-0.00011126672463054,1183006.1432669,0.017125076846668
19019200,0.98360192930543,0.016967632660869,0.0056558775536264,0.0056558775536232,0.0056558775536194,-0.0013634415071856,0.0013634415071633,-1.4573311229169e-14,-9.1814558409515e-15,7.3375519227887e-15,-2.7676029516296e-14,-0.0014127464379699,0.001412746437955,-0.0014127464379686,0.0014127464379583,-0.0014127464379807,0.0014127464379445,-0.0014127464379775,0.001412746437947,-0.0013261067121948,0.0013261067121514,-0.0013261067121874,0.0013261067121648,-6.9265531044396e-15,2.7904088725714e-14,2.4389490211933e-14,-3.4766584963518e-15,-0.001363441507164,0.0013634415071845,-0.001412746437945,0.0014127464379647,-0.0014127464379539,0.0014127464379554,-0.0014127464379357,0.0014127464379754,-0.0014127464379438,0.0014127464379669,-0.0013261067121511,0.0013261067122112,-0.0013261067121921,0.0013261067121859,-0.001326106712199,0.0013261067121807,-0.0013261067121614,0.001326106712214,1.1437768231091e-14,5.7999404628589e-15,-0.0013634415071647,0.001363441507182,-5.6525920230761e-15,2.1970328821536e-14,-0.0014127464379474,0.0014127464379579,-0.0014127464379383,0.0014127464379672,-0.0014127464379477,0.0014127464379571,-0.0014127464379405,0.0014127464379665,-0.001326106712185,0.0013261067121974,-0.0013261067121722,0.0013261067122075,0.68719395866977,0.83152155733643,114808,2744,0.0056648114929754,0.0056648114929746,0.0056648114929708,16.171101792639,16.18151760888,-0.00010823118565889,-0.00010823118565889,-0.00010823118565889,1173995.5766981,0.017140337629141
19219200,0.98396621665396,0.01697386023694,0.0056579534123167,0.0056579534123135,0.0056579534123097,-0.0013665179948596,0.0013665179948372,-1.4626551330662e-14,-9.1715326606419e-15,7.322987799698e-15,-2.7686470373805e-14,-0.0014158043626048,0.0014158043625898,-0.0014158043626037,0.0014158043625932,-0.0014158043626156,0.0014158043625794,-0.0014158043626125,0.0014158043625817,-0.001329203560125,0.0013292035600818,-0.0013292035601176,0.0013292035600949,-6.8123213000252e-15,2.8012614822081e-14,2.4466723146638e-14,-3.3463095372465e-15,-0.0013665179948379,0.0013665179948586,-0.0014158043625796,0.0014158043625993,-0.0014158043625885,0.0014158043625902,-0.00141580436257,0.0014158043626102,-0.0014158043625784,0.0014158043626015,-0.0013292035600812,0.0013292035601414,-0.0013292035601222,0.0013292035601163,-0.001329203560129,0.0013292035601109,-0.0013292035600914,0.0013292035601443,1.1451267818687e-14,5.7457362364079e-15,-0.0013665179948386,0.001366517994856,-5.6589447701806e-15,2.1919448022968e-14,-0.0014158043625822,0.0014158043625926,-0.001415804362573,0.0014158043626019,-0.0014158043625823,0.0014158043625916,-0.001415804362575,0.0014158043626009,-0.0013292035601151,0.0013292035601274,-0.0013292035601024,0.0013292035601377,0.70678357520871,0.897136206051,114808,2744,0.0056775578281977,0.0056775578281969,0.0056775578281931,17.481873556747,17.518282825448,-9.7745011546022e-05,-9.7745011546022e-05,-9.7745011546022e-05,1156081.5960288,0.017179232169786
19419200,0.98433932491753,0.016980109486132,0.0056600364953808,0.0056600364953776,0.0056600364953737,-0.0013685169042993,0.0013685169042773,-1.4550148333838e-14,-9.032071502886e-15,7.4273044658366e-15,-2.7586157261832e-14,-0.0014177991223333,0.0014177991223193,-0.0014177991223319,0.0014177991223228,-0.001417799122344,0.0014177991223082,-0.0014177991223413,0.0014177991223105,-0.0013312083468025,0.0013312083467593,-0.0013312083467953,0.0013312083467721,-6.8558493820368e-15,2.7956263602396e-14,2.4414077696097e-14,-3.3592503183851e-15,-0.0013685169042779,0.0013685169042986,-0.0014177991223082,0.0014177991223286,-0.0014177991223178,0.0014177991223195,-0.0014177991222995,0.0014177991223394,-0.0014177991223077,0.0014177991223303,-0.0013312083467579,0.0013312083468181,-0.0013312083467989,0.0013312083467922,-0.0013312083468055,0.0013312083467879,-0.0013312083467685,0.0013312083468201,1.1459208752568e-14,5.7023257978611e-15,-0.0013685169042787,0.001368516904296,-5.675532498731e-15,2.1868037828808e-14,-0.0014177991223117,0.0014177991223222,-0.0014177991223025,0.0014177991223302,-0.0014177991223119,0.001417799122321,-0.0014177991223044,0.0014177991223298,-0.0013312083467915,0.001331208346804,-0.0013312083467794,0.001331208346814,0.69265166630823,0.80799828530288,114808,2744,0.005685839450489,0.0056858394504889,0.0056858394504852,18.220013731633,18.240979601118,-9.1839890146937e-05,-9.1839890146937e-05,-9.1839890146937e-05,1140376.5877492,0.017204504148139
19619200,0.9847092269747,0.016986157457327,0.0056620524857789,0.0056620524857757,0.0056620524857719,-0.0013695111241007,0.0013695111240784,-1.4674200610303e-14,-9.0698148351473e-15,7.3315907078409e-15,-2.7663529898151e-14,-0.0014187947895193,0.0014187947895043,-0.001418794789518,0.0014187947895078,-0.00141879478953,0.001418794789494,-0.001418794789527,0.0014187947894962,-0.0013322025088234,0.0013322025087801,-0.001332202508816,0.0013322025087934,-6.850614247849e-15,2.7952440189787e-14,2.4344197477948e-14,-3.302016772713e-15,-0.001369511124079,0.0013695111240997,-0.0014187947894941,0.0014187947895138,-0.001418794789503,0.0014187947895047,-0.0014187947894845,0.0014187947895247,-0.0014187947894929,0.0014187947895159,-0.0013322025087797,0.0013322025088392,-0.0013322025088206,0.0013322025088146,-0.0013322025088273,0.0013322025088089,-0.0013322025087899,0.0013322025088427,1.1498031095984e-14,5.647062780226e-15,-0.0013695111240798,0.0013695111240971,-5.6491215408617e-15,2.1769982000817e-14,-0.0014187947894967,0.0014187947895072,-0.0014187947894875,0.0014187947895163,-0.0014187947894969,0.0014187947895061,-0.0014187947894896,0.0014187947895153,-0.0013322025088134,0.0013322025088254,-0.0013322025088006,0.0013322025088358,0.67639365051803,0.71886036455476,114808,2744,0.0056899585060693,0.0056899585060684,0.0056899585060646,18.455342688423,18.462172007122,-8.9957258492617e-05,-8.9957258492617e-05,-8.9957258492617e-05,1130443.0203571,0.017217074184818
19819200,0.98507279623721,0.016991935612578,0.0056639785375295,0.0056639785375263,0.0056639785375225,-0.0013702082091962,0.001370208209174,-1.4668568429421e-14,-8.9972910856245e-15,7.3692331700219e-15,-2.76226046778e-14,-0.0014194962109272,0.0014194962109123,-0.0014194962109258,0.0014194962109159,-0.0014194962109382,0.0014194962109021,-0.0014194962109349,0.0014194962109043,-0.0013328963500661,0.0013328963500227,-0.0013328963500583,0.0013328963500361,-6.8200269469759e-15,2.7972321935354e-14,2.4303963412954e-14,-3.2295483983368e-15,-0.0013702082091745,0.0013702082091952,-0.0014194962109024,0.0014194962109222,-0.0014194962109112,0.0014194962109128,-0.001419496210893,0.0014194962109329,-0.0014194962109012,0.0014194962109244,-0.0013328963500221,0.0013328963500819,-0.0013328963500627,0.0013328963500568,-0.0013328963500698,0.0013328963500517,-0.0013328963500325,0.0013328963500853,1.1528912505519e-14,5.6134461601319e-15,-0.0013702082091753,0.0013702082091927,-5.5711239236354e-15,2.1736571256786e-14,-0.0014194962109051,0.0014194962109155,-0.0014194962108955,0.0014194962109247,-0.001419496210905,0.0014194962109145,-0.0014194962108982,0.0014194962109236,-0.0013328963500561,0.0013328963500681,-0.0013328963500434,0.0013328963500784,0.6578730428804,0.6273053068253,114808,2744,0.0056928464864039,0.005692846486403,0.0056928464863993,18.5578210574,18.560760934441,-8.9137431540801e-05,-8.9137431540801e-05,-8.9137431540801e-05,1124964.6388962,0.017225887608586
20019200,0.98542438548891,0.016997722733928,0.0056659075779795,0.0056659075779763,0.0056659075779725,-0.0013703776521142,0.0013703776520919,-1.4766104052716e-14,-9.0254032782869e-15,7.3019512180864e-15,-2.7673081076957e-14,-0.0014196727055091,0.0014196727054939,-0.0014196727055078,0.0014196727054974,-0.0014196727055197,0.0014196727054835,-0.0014196727055166,0.001419672705486,-0.0013330655880813,0.0013330655880374,-0.0013330655880733,0.0013330655880511,-6.8470849439021e-15,2.7934676026587e-14,2.4221965917921e-14,-3.225372055333e-15,-0.0013703776520925,0.0013703776521132,-0.001419672705484,0.0014196727055034,-0.0014196727054927,0.0014196727054945,-0.0014196727054745,0.0014196727055142,-0.0014196727054827,0.0014196727055058,-0.0013330655880365,0.0013330655880964,-0.0013330655880774,0.0013330655880718,-0.0013330655880848,0.0013330655880667,-0.0013330655880474,0.0013330655881,1.1749346947869e-14,5.756647667777e-15,-0.0013703776520931,0.0013703776521108,-5.3403074455086e-15,2.1868861333062e-14,-0.001419672705486,0.0014196727054972,-0.0014196727054769,0.0014196727055061,-0.0014196727054861,0.0014196727054959,-0.0014196727054789,0.0014196727055051,-0.0013330655880708,0.0013330655880831,-0.0013330655880576,0.0013330655880935,0.68048785523698,0.73220119930258,114808,2744,0.0056935484320827,0.0056935484320818,0.0056935484320779,18.401671554084,18.397398050532,-9.038662756733e-05,-9.038662756733e-05,-9.038662756733e-05,1123954.8306724,0.017228029977318
20219200,0.98576673369996,0.017003516798883,0.0056678389329644,0.0056678389329611,0.0056678389329573,-0.0013707688072532,0.0013707688072309,-1.4776328924177e-14,-8.9612758715263e-15,7.326384869633e-15,-2.7631391174084e-14,-0.001420060704223,0.0014200607042081,-0.0014200607042218,0.0014200607042116,-0.0014200607042339,0.0014200607041977,-0.0014200607042307,0.0014200607042001,-0.0013334641067503,0.0013334641067068,-0.0013334641067426,0.0013334641067203,-6.7534995675769e-15,2.8018673460523e-14,2.4259964757082e-14,-3.0752589941251e-15,-0.0013707688072315,0.0013707688072523,-0.001420060704198,0.0014200607042177,-0.0014200607042068,0.0014200607042087,-0.0014200607041884,0.0014200607042286,-0.0014200607041968,0.00142006070422,-0.0013334641067065,0.0013334641067663,-0.0013334641067472,0.0013334641067415,-0.0013334641067542,0.0013334641067363,-0.0013334641067167,0.0013334641067696,1.1613968730639e-14,5.551389232399e-15,-0.0013707688072323,0.0013707688072496,-5.4507746590463e-15,2.1651515031666e-14,-0.0014200607042005,0.0014200607042112,-0.0014200607041914,0.0014200607042203,-0.0014200607042007,0.0014200607042101,-0.0014200607041936,0.0014200607042191,-0.0013334641067407,0.0013334641067524,-0.0013334641067276,0.001333464106763,0.69909040919065,0.80928248288768,114808,2744,0.0056951689987294,0.0056951689987287,0.0056951689987249,18.352576708976,18.351154720251,-9.0779386328189e-05,-9.0779386328189e-05,-9.0779386328189e-05,1116982.6683643,0.01723297537551
20419200,0.98610662621468,0.01700927803803,0.0056697593460133,0.0056697593460101,0.0056697593460063,-0.0013717729774625,0.0013717729774403,-1.4794590314833e-14,-8.9071673452767e-15,7.3355846115652e-15,-2.7599112748403e-14,-0.0014210566144784,0.0014210566144634,-0.0014210566144771,0.001421056614467,-0.0014210566144892,0.0014210566144531,-0.001421056614486,0.0014210566144555,-0.0013344775184461,0.0013344775184025,-0.0013344775184383,0.0013344775184161,-6.7742048173987e-15,2.7974674804652e-14,2.4176849649133e-14,-3.0607888479429e-15,-0.0013717729774408,0.0013717729774615,-0.0014210566144533,0.0014210566144729,-0.001421056614462,0.0014210566144639,-0.0014210566144437,0.0014210566144838,-0.001421056614452,0.0014210566144752,-0.0013344775184024,0.0013344775184619,-0.0013344775184429,0.0013344775184374,-0.0013344775184501,0.0013344775184322,-0.0013344775184126,0.0013344775184655,1.1632703452424e-14,5.4976555798075e-15,-0.0013717729774416,0.0013717729774589,-5.4226578709361e-15,2.1585458226127e-14,-0.0014210566144557,0.0014210566144665,-0.0014210566144466,0.0014210566144755,-0.001421056614456,0.0014210566144653,-0.0014210566144489,0.0014210566144743,-0.0013344775184366,0.0013344775184482,-0.0013344775184234,0.0013344775184589,0.69998781214845,0.79964910914345,114808,2744,0.0056993293044842,0.0056993293044835,0.0056993293044797,18.6152571213,18.622500249433,-8.8677943029598e-05,-8.8677943029598e-05,-8.8677943029598e-05,1106528.4002513,0.017245671261469
20619200,0.98643378943131,0.017014261893929,0.0056714206313132,0.00567142063131,0.0056714206313062,-0.0013717873327192,0.0013717873326965,-1.4970940625982e-14,-9.031185500541e-15,7.129533231661e-15,-2.7779974870248e-14,-0.0014210789629739,0.0014210789629591,-0.0014210789629735,0.001421078962962,-0.0014210789629854,0.0014210789629481,-0.0014210789629821,0.0014210789629508,-0.0013344800865007,0.001334480086456,-0.0013344800864913,0.0013344800864687,-6.5905045469629e-15,2.8129670069653e-14,2.4308669151549e-14,-2.8319723087193e-15,-0.001371787332697,0.0013717873327184,-0.0014210789629458,0.0014210789629669,-0.0014210789629559,0.0014210789629581,-0.0014210789629369,0.0014210789629785,-0.0014210789629453,0.0014210789629696,-0.0013344800864569,0.0013344800865157,-0.0013344800864953,0.0013344800864919,-0.0013344800865032,0.0013344800864868,-0.0013344800864661,0.0013344800865201,1.2002545095192e-14,5.8212927517376e-15,-0.0013717873326976,0.0013717873327155,-5.0839035137668e-15,2.1847803152846e-14,-0.001421078962949,0.0014210789629601,-0.0014210789629406,0.0014210789629691,-0.0014210789629489,0.0014210789629599,-0.0014210789629424,0.0014210789629688,-0.0013344800864903,0.0013344800865017,-0.0013344800864767,0.001334480086513,0.63099506225986,0.47044782337618,114808,2744,0.005699388683265,0.0056993886832642,0.0056993886832596,18.385950981033,18.379718089499,-9.0512392151737e-05,-9.0512392151737e-05,-9.0512392151737e-05,1100737.3542873,0.01724585297574
20819200,0.98674006779314,0.017019275684176,0.0056730918947286,0.0056730918947254,0.0056730918947216,-0.0013708469260591,0.0013708469260362,-1.5183728243113e-14,-9.147738925208e-15,6.975923494186e-15,-2.7900875588579e-14,-0.0014201552301543,0.0014201552301393,-0.0014201552301529,0.0014201552301427,-0.0014201552301659,0.0014201552301288,-0.0014201552301628,0.0014201552301309,-0.0013335337677254,0.0013335337676808,-0.0013335337677154,0.0013335337676934,-6.4984485356815e-15,2.8184021350435e-14,2.4360549919569e-14,-2.6867414513047e-15,-0.0013708469260368,0.0013708469260582,-0.0014201552301292,0.00142015523015,-0.0014201552301381,0.0014201552301406,-0.0014201552301197,0.0014201552301601,-0.001420155230128,0.0014201552301517,-0.0013335337676812,0.001333533767741,-0.0013335337677214,0.0013335337677163,-0.0013335337677274,0.0013335337677102,-0.0013335337676894,0.0013335337677435,1.1803815872116e-14,5.5186255274253e-15,-0.0013708469260378,0.0013708469260552,-5.2827797911742e-15,2.1556988507622e-14,-0.0014201552301311,0.0014201552301422,-0.0014201552301227,0.0014201552301518,-0.0014201552301315,0.0014201552301413,-0.0014201552301252,0.0014201552301505,-0.0013335337677142,0.0013335337677264,-0.0013335337677009,0.0013335337677367,0.67643097814243,0.69457494878341,114808,2744,0.0056954924660735,0.005695492466073,0.0056954924660689,17.706443447277,17.68755672245,-9.5948452421786e-05,-9.5948452421786e-05,-9.5948452421786e-05,1109222.5918965,0.017233963314295
21019200,0.98702207144682,0.017023747598458,0.0056745825328227,0.0056745825328195,0.0056745825328157,-0.0013693851168914,0.001369385116869,-1.4937623629087e-14,-8.836687306298e-15,7.277881411123e-15,-2.7611332963319e-14,-0.0014187002891569,0.001418700289142,-0.0014187002891557,0.0014187002891455,-0.0014187002891678,0.0014187002891315,-0.0014187002891647,0.001418700289134,-0.0013320666357046,0.0013320666356608,-0.0013320666356964,0.0013320666356744,-6.70455988618e-15,2.7998203497631e-14,2.4096087410482e-14,-2.8985585098507e-15,-0.0013693851168696,0.0013693851168904,-0.0014187002891317,0.0014187002891514,-0.0014187002891404,0.0014187002891424,-0.0014187002891221,0.0014187002891623,-0.0014187002891304,0.0014187002891537,-0.0013320666356609,0.0013320666357203,-0.0013320666357011,0.0013320666356959,-0.0013320666357083,0.0013320666356907,-0.0013320666356708,0.001332066635724,1.1750993956377e-14,5.4015996907196e-15,-0.0013693851168704,0.0013693851168877,-5.2968970069618e-15,2.1472461678094e-14,-0.001418700289134,0.0014187002891449,-0.0014187002891251,0.0014187002891539,-0.0014187002891343,0.0014187002891438,-0.0014187002891275,0.0014187002891528,-0.0013320666356951,0.0013320666357064,-0.0013320666356817,0.0013320666357173,0.65602045221117,0.59726576361696,114808,2744,0.0056894361036016,0.0056894361036008,0.005689436103597,16.751318954198,16.72461681345,-0.00010358944836641,-0.00010358944836641,-0.00010358944836641,1106952.9074683,0.017215481590254
21219200,0.98726815301764,0.017027672686594,0.0056758908955349,0.0056758908955317,0.0056758908955279,-0.0013662072297168,0.0013662072296946,-1.4894750857938e-14,-8.723893417515e-15,7.3383974851926e-15,-2.7536577894094e-14,-0.0014155383889248,0.0014155383889099,-0.0014155383889234,0.0014155383889133,-0.0014155383889355,0.0014155383888993,-0.0014155383889323,0.001415538388902,-0.0013288793607958,0.001328879360752,-0.0013288793607878,0.001328879360766,-6.679619471622e-15,2.8009732557191e-14,2.406938234395e-14,-2.8586185535184e-15,-0.001366207229695,0.0013662072297159,-0.0014155383888995,0.0014155383889193,-0.0014155383889082,0.0014155383889102,-0.0014155383888899,0.0014155383889301,-0.0014155383888983,0.0014155383889216,-0.0013288793607522,0.0013288793608115,-0.0013288793607925,0.0013288793607873,-0.0013288793607998,0.0013288793607822,-0.0013288793607622,0.0013288793608156,1.1733141560579e-14,5.3177199002485e-15,-0.0013662072296959,0.0013662072297132,-5.2943088507341e-15,2.14034049642e-14,-0.0014155383889018,0.0014155383889127,-0.001415538388893,0.0014155383889217,-0.0014155383889021,0.0014155383889116,-0.0014155383888955,0.0014155383889205,-0.0013288793607867,0.0013288793607977,-0.0013288793607733,0.0013288793608088,0.65967489032334,0.6185149949554,114808,2744,0.0056762698284254,0.0056762698284246,0.0056762698284208,14.940748941149,14.890267855741,-0.00011807400847081,-0.00011807400847081,-0.00011807400847081,1110736.3607368,0.017175304137508
21419200,0.98749259529324,0.017031274965934,0.0056770916553148,0.0056770916553115,0.0056770916553077,-0.0013642980606877,0.0013642980606654,-1.4994823168445e-14,-8.7502709435012e-15,7.2639353757678e-15,-2.7594362893508e-14,-0.0014136278005678,0.0014136278005527,-0.0014136278005664,0.0014136278005563,-0.0014136278005786,0.0014136278005423,-0.0014136278005754,0.0014136278005449,-0.0013269730585513,0.0013269730585074,-0.0013269730585431,0.0013269730585212,-6.6760901676751e-15,2.7997732923772e-14,2.404126555584e-14,-2.8289724003645e-15,-0.0013642980606659,0.0013642980606868,-0.0014136278005425,0.0014136278005621,-0.0014136278005511,0.0014136278005533,-0.0014136278005328,0.001413627800573,-0.0014136278005411,0.0014136278005645,-0.0013269730585077,0.0013269730585669,-0.0013269730585478,0.0013269730585427,-0.001326973058555,0.0013269730585375,-0.0013269730585176,0.0013269730585708,1.1811903860327e-14,5.3211609715967e-15,-0.0013642980606668,0.0013642980606841,-5.2324283881985e-15,2.1410228285164e-14,-0.0014136278005447,0.0014136278005558,-0.0014136278005358,0.0014136278005647,-0.0014136278005451,0.0014136278005545,-0.0014136278005383,0.0014136278005635,-0.001326973058542,0.0013269730585531,-0.0013269730585285,0.0013269730585642,0.66373846330966,0.63976422629384,114808,2744,0.0056683599429615,0.0056683599429606,0.0056683599429568,13.803566696995,13.771349994841,-0.00012717146642404,-0.00012717146642404,-0.00012717146642404,1109483.6631648,0.017151167176566
21619200,0.98770564790261,0.017034723636649,0.0056782412122197,0.0056782412122165,0.0056782412122127,-0.0013635467509204,0.0013635467508982,-1.4992277290338e-14,-8.6745091265389e-15,7.2983883673702e-15,-2.7540474833869e-14,-0.001412874456726,0.001412874456711,-0.0014128744567247,0.0014128744567146,-0.0014128744567369,0.0014128744567007,-0.0014128744567337,0.0014128744567033,-0.0013262252722685,0.0013262252722246,-0.0013262252722602,0.0013262252722386,-6.6969718826942e-15,2.7959557619413e-14,2.398962007475e-14,-2.8292665090267e-15,-0.0013635467508987,0.0013635467509195,-0.0014128744567009,0.0014128744567204,-0.0014128744567094,0.0014128744567115,-0.0014128744566912,0.0014128744567313,-0.0014128744566994,0.0014128744567228,-0.0013262252722248,0.001326225272284,-0.0013262252722649,0.0013262252722598,-0.0013262252722722,0.0013262252722547,-0.0013262252722348,0.001326225272288,1.1853549646901e-14,5.2863090951211e-15,-0.0013635467508995,0.0013635467509169,-5.2006646526765e-15,2.1390052430934e-14,-0.001412874456703,0.0014128744567141,-0.0014128744566942,0.001412874456723,-0.0014128744567034,0.0014128744567129,-0.0014128744566966,0.0014128744567217,-0.0013262252722592,0.0013262252722703,-0.0013262252722455,0.0013262252722813,0.66921245839649,0.66571266625382,114808,2744,0.0056652471753645,0.0056652471753637,0.0056652471753599,13.270896993729,13.255672491478,-0.00013143282405017,-0.00013143282405017,-0.00013143282405017,1107397.3667256,0.017141668691355
21819200,0.98791951633469,0.017038135966862,0.0056793786556242,0.005679378655621,0.0056793786556172,-0.0013644485661473,0.0013644485661253,-1.4913516828769e-14,-8.5236596448134e-15,7.4045927285984e-15,-2.7420397619793e-14,-0.0014137714568517,0.0014137714568368,-0.0014137714568503,0.0014137714568404,-0.0014137714568624,0.0014137714568264,-0.0014137714568593,0.0014137714568291,-0.0013271310716508,0.001327131071607,-0.0013271310716422,0.001327131071621,-6.7945571368258e-15,2.7848325723353e-14,2.3858506433123e-14,-2.9157344557256e-15,-0.0013644485661258,0.0013644485661464,-0.0014137714568266,0.0014137714568459,-0.0014137714568352,0.001413771456837,-0.0014137714568169,0.0014137714568569,-0.0014137714568251,0.0014137714568483,-0.0013271310716072,0.0013271310716662,-0.0013271310716472,0.0013271310716422,-0.0013271310716547,0.0013271310716369,-0.0013271310716173,0.0013271310716703,1.1909253827529e-14,5.2675743733364e-15,-0.0013644485661265,0.0013644485661439,-5.1682538780975e-15,2.1383287931702e-14,-0.0014137714568287,0.0014137714568398,-0.0014137714568198,0.0014137714568487,-0.0014137714568291,0.0014137714568383,-0.0014137714568223,0.0014137714568473,-0.0013271310716415,0.0013271310716523,-0.0013271310716278,0.0013271310716636,0.65989246070791,0.62146898374426,114808,2744,0.00566898352104,0.0056689835210391,0.0056689835210354,13.592655082815,13.601320481257,-0.00012885875933748,-0.00012885875933748,-0.00012885875933748,1103722.4800485,0.017153069782083
22019200,0.98813602045574,0.017041536337194,0.0056805121124013,0.005680512112398,0.0056805121123942,-0.0013656084114259,0.0013656084114038,-1.5008163753546e-14,-8.5460077672407e-15,7.3345157103958e-15,-2.7470778433634e-14,-0.0014149378354063,0.0014149378353914,-0.0014149378354049,0.001414937835395,-0.0014149378354171,0.0014149378353811,-0.0014149378354138,0.0014149378353836,-0.0013282870150777,0.0013282870150338,-0.0013282870150692,0.0013282870150478,-6.6536790876123e-15,2.7970086709521e-14,2.3969503042253e-14,-2.7675036899561e-15,-0.0013656084114041,0.001365608411425,-0.0014149378353813,0.0014149378354008,-0.0014149378353899,0.001414937835392,-0.0014149378353716,0.0014149378354118,-0.0014149378353799,0.0014149378354033,-0.0013282870150341,0.0013282870150932,-0.0013282870150741,0.0013282870150691,-0.0013282870150812,0.0013282870150639,-0.0013282870150439,0.0013282870150972,1.1882695815329e-14,5.1710184995226e-15,-0.001365608411405,0.0013656084114223,-5.2100761298682e-15,2.1298584636977e-14,-0.0014149378353835,0.0014149378353946,-0.0014149378353746,0.0014149378354035,-0.0014149378353839,0.0014149378353933,-0.0014149378353772,0.0014149378354021,-0.0013282870150685,0.0013282870150791,-0.0013282870150546,0.0013282870150905,0.6498276990387,0.57722530123469,114808,2744,0.0056737888351334,0.0056737888351324,0.0056737888351287,14.051687848483,14.064512514646,-0.00012518649721214,-0.00012518649721214,-0.00012518649721214,1104301.2616381,0.017167733288864
22219200,0.98835604026787,0.017044965272771,0.005681655090927,0.0056816550909238,0.00568165509092,-0.0013669012276749,0.0013669012276528,-1.5028409458583e-14,-8.4911638544493e-15,7.3593646755417e-15,-2.7439176457877e-14,-0.0014162387237549,0.0014162387237401,-0.0014162387237536,0.0014162387237441,-0.0014162387237659,0.0014162387237298,-0.0014162387237622,0.0014162387237323,-0.0013295758315467,0.0013295758315025,-0.0013295758315383,0.001329575831517,-6.7101479507626e-15,2.7900206491373e-14,2.3887858477615e-14,-2.8045613813985e-15,-0.0013669012276532,0.001366901227674,-0.0014162387237295,0.0014162387237493,-0.0014162387237379,0.0014162387237402,-0.0014162387237198,0.00141623872376,-0.001416238723728,0.0014162387237516,-0.0013295758315031,0.0013295758315619,-0.0013295758315429,0.0013295758315378,-0.00132957583155,0.0013295758315323,-0.0013295758315121,0.0013295758315654,1.1985545614515e-14,5.2047821739479e-15,-0.001366901227654,0.0013669012276714,-5.129725643344e-15,2.1344583231751e-14,-0.0014162387237317,0.001416238723743,-0.0014162387237228,0.0014162387237516,-0.0014162387237321,0.0014162387237418,-0.0014162387237251,0.0014162387237501,-0.0013295758315369,0.0013295758315478,-0.001329575831523,0.001329575831559,0.64497824568647,0.56029673343211,114808,2744,0.0056791450264079,0.0056791450264068,0.0056791450264031,14.580947723045,14.595780285243,-0.00012095241821564,-0.00012095241821564,-0.00012095241821564,1106754.7532614,0.017184078080752
22419200,0.98857605838565,0.017048539171577,0.0056828463905291,0.0056828463905259,0.0056828463905221,-0.0013677319225218,0.0013677319224993,-1.5277989150272e-14,-8.6777799365443e-15,7.1233339725147e-15,-2.7668140051431e-14,-0.0014170807736141,0.0014170807735983,-0.0014170807736125,0.0014170807736024,-0.0014170807736248,0.0014170807735885,-0.0014170807736219,0.0014170807735911,-0.0013304029962781,0.0013304029962336,-0.0013304029962696,0.0013304029962475,-6.7345589697286e-15,2.7875854294139e-14,2.384544800852e-14,-2.8385015210211e-15,-0.0013677319225,0.0013677319225207,-0.0014170807735902,0.0014170807736099,-0.0014170807735989,0.001417080773601,-0.001417080773581,0.0014170807736204,-0.0014170807735889,0.0014170807736122,-0.0013304029962339,0.0013304029962933,-0.0013304029962745,0.0013304029962692,-0.0013304029962819,0.0013304029962643,-0.0013304029962442,0.0013304029962978,1.2022485662492e-14,5.1653422023414e-15,-0.0013677319225009,0.0013677319225183,-5.1241375787614e-15,2.1334583537235e-14,-0.0014170807735927,0.0014170807736038,-0.0014170807735836,0.0014170807736124,-0.0014170807735931,0.0014170807736027,-0.0014170807735863,0.0014170807736112,-0.0013304029962689,0.0013304029962798,-0.0013304029962548,0.0013304029962914,0.67139741252872,0.68841566057336,114808,2744,0.0056825865919475,0.0056825865919467,0.0056825865919434,14.870367639871,14.87859765339,-0.00011863705888103,-0.00011863705888103,-0.00011863705888103,1110416.0647335,0.017194580509021
22619200,0.98879386094382,0.017052116987651,0.0056840389958872,0.005684038995884,0.0056840389958801,-0.0013682978061522,0.00136829780613,-1.516652748182e-14,-8.4885974117127e-15,7.2745823391133e-15,-2.7493733614722e-14,-0.0014176505090879,0.0014176505090728,-0.0014176505090865,0.0014176505090766,-0.0014176505090987,0.0014176505090625,-0.0014176505090954,0.0014176505090652,-0.0013309686843825,0.0013309686843383,-0.0013309686843739,0.0013309686843526,-6.6683256989919e-15,2.7916853041655e-14,2.3894034759522e-14,-2.7624450209655e-15,-0.0013682978061305,0.0013682978061513,-0.0014176505090629,0.0014176505090824,-0.0014176505090714,0.0014176505090735,-0.0014176505090532,0.0014176505090933,-0.0014176505090614,0.0014176505090848,-0.0013309686843388,0.0013309686843978,-0.0013309686843788,0.0013309686843738,-0.0013309686843861,0.0013309686843687,-0.0013309686843487,0.0013309686844019,1.1992339524612e-14,5.0651982028483e-15,-0.0013682978061313,0.0013682978061486,-5.16831269983e-15,2.1264232745227e-14,-0.001417650509065,0.0014176505090762,-0.0014176505090561,0.001417650509085,-0.0014176505090655,0.0014176505090748,-0.0014176505090588,0.0014176505090836,-0.0013309686843734,0.0013309686843839,-0.0013309686843594,0.0013309686843954,0.67880649691062,0.71862480832647,114808,2744,0.0056849310651853,0.0056849310651843,0.0056849310651807,15.007771963879,15.011698192929,-0.00011753782428896,-0.00011753782428896,-0.00011753782428896,1107442.3049382,0.017201734963113
22819200,0.98900867180378,0.017055635868264,0.0056852119560915,0.0056852119560883,0.0056852119560844,-0.0013687581964678,0.0013687581964457,-1.5196079887838e-14,-8.4521850360343e-15,7.2780446644078e-15,-2.7477910568694e-14,-0.001418112485889,0.0014181124858739,-0.0014181124858876,0.0014181124858777,-0.0014181124858998,0.0014181124858635,-0.0014181124858964,0.0014181124858664,-0.0013314297449358,0.0013314297448916,-0.0013314297449273,0.0013314297449059,-6.6558554917129e-15,2.7913382559441e-14,2.3895622946298e-14,-2.7512100700679e-15,-0.0013687581964461,0.0013687581964669,-0.0014181124858641,0.0014181124858837,-0.0014181124858727,0.0014181124858748,-0.0014181124858544,0.0014181124858946,-0.0014181124858627,0.0014181124858861,-0.0013314297448922,0.0013314297449513,-0.0013314297449321,0.0013314297449272,-0.0013314297449395,0.0013314297449221,-0.0013314297449022,0.0013314297449553,1.199119250083e-14,4.9919651459502e-15,-0.001368758196447,0.0013687581964642,-5.1899590973709e-15,2.1225822153939e-14,-0.0014181124858663,0.0014181124858774,-0.0014181124858574,0.0014181124858863,-0.0014181124858668,0.001418112485876,-0.0014181124858601,0.0014181124858849,-0.0013314297449269,0.0013314297449371,-0.0013314297449128,0.0013314297449488,0.67692180359785,0.70403727244203,114808,2744,0.0056868384794394,0.0056868384794384,0.0056868384794347,15.089982498194,15.092316472994,-0.00011688014001445,-0.00011688014001445,-0.00011688014001445,1103049.8790185,0.017207555683727
23019200,0.98921964209473,0.017058859009262,0.0056862863364241,0.0056862863364209,0.0056862863364171,-0.0013690750208284,0.001369075020806,-1.53785706364e-14,-8.5741566085997e-15,7.1825263278319e-15,-2.755654787226e-14,-0.0014184349627434,0.0014184349627286,-0.001418434962742,0.0014184349627327,-0.0014184349627543,0.001418434962719,-0.0014184349627506,0.0014184349627205,-0.0013317405472624,0.0013317405472174,-0.0013317405472544,0.0013317405472326,-6.5307416667956e-15,2.8015908839098e-14,2.3980855636616e-14,-2.6328019226497e-15,-0.0013690750208062,0.0013690750208271,-0.001418434962719,0.0014184349627385,-0.001418434962727,0.0014184349627296,-0.0014184349627087,0.0014184349627488,-0.0014184349627169,0.0014184349627411,-0.0013317405472153,0.0013317405472743,-0.0013317405472546,0.0013317405472511,-0.0013317405472651,0.0013317405472492,-0.0013317405472285,0.0013317405472814,1.218762767634e-14,5.1264316263269e-15,-0.0013690750208071,0.0013690750208248,-4.9850241815214e-15,2.1396346356306e-14,-0.0014184349627207,0.0014184349627325,-0.0014184349627118,0.0014184349627405,-0.0014184349627214,0.001418434962732,-0.0014184349627139,0.0014184349627404,-0.0013317405472544,0.0013317405472642,-0.0013317405472397,0.001331740547276,0.63260380905375,0.4953449837253,114808,2744,0.005688151054039,0.0056881510540368,0.0056881510540339,15.108011269198,15.108545598948,-0.00011673590984642,-0.00011673590984642,-0.00011673590984642,1100256.6235384,0.017211561390237
23219200,0.9894266110779,0.01706215773885,0.0056873859129533,0.00568738591295,0.0056873859129462,-0.0013693127318994,0.0013693127318772,-1.5287733337888e-14,-8.3988388945826e-15,7.2565664602581e-15,-2.7480520783071e-14,-0.0014186848838048,0.0014186848837897,-0.0014186848838034,0.0014186848837936,-0.0014186848838156,0.0014186848837795,-0.0014186848838122,0.0014186848837821,-0.001331973984317,0.0013319739842725,-0.0013319739843083,0.0013319739842871,-6.642738245377e-15,2.7909853255494e-14,2.3889740773053e-14,-2.751092426603e-15,-0.0013693127318776,0.0013693127318984,-0.0014186848837799,0.0014186848837993,-0.0014186848837883,0.0014186848837905,-0.0014186848837701,0.0014186848838102,-0.0014186848837784,0.0014186848838018,-0.001331973984273,0.001331973984332,-0.001331973984313,0.001331973984308,-0.0013319739843206,0.0013319739843033,-0.0013319739842833,0.0013319739843364,1.2089601259215e-14,4.950731111504e-15,-0.0013693127318785,0.0013693127318958,-5.1573130358622e-15,2.125852703718e-14,-0.0014186848837819,0.0014186848837932,-0.001418684883773,0.001418684883802,-0.0014186848837825,0.0014186848837918,-0.0014186848837757,0.0014186848838006,-0.0013319739843082,0.0013319739843184,-0.0013319739842939,0.0013319739843301,0.65900388447377,0.62897888469023,114808,2744,0.0056891358337983,0.0056891358337973,0.0056891358337937,15.109145295895,15.10918500346,-0.00011672683763284,-0.00011672683763284,-0.00011672683763284,1106667.1306557,0.017214566850686
23419200,0.98962894159218,0.017065349499524,0.005688449833178,0.0056884498331748,0.0056884498331709,-0.0013694668288999,0.0013694668288773,-1.5545936847006e-14,-8.5971457960017e-15,6.99468119321e-15,-2.774201279467e-14,-0.0014188458570296,0.0014188458570139,-0.0014188458570277,0.0014188458570177,-0.0014188458570406,0.0014188458570038,-0.0014188458570374,0.0014188458570063,-0.0013321253685679,0.0013321253685231,-0.001332125368559,0.0013321253685372,-6.562034828458e-15,2.7990791959343e-14,2.3986384879466e-14,-2.6787416956917e-15,-0.0013694668288778,0.0013694668288988,-0.0014188458570048,0.0014188458570242,-0.0014188458570132,0.0014188458570153,-0.0014188458569951,0.0014188458570352,-0.0014188458570027,0.0014188458570269,-0.0013321253685231,0.0013321253685819,-0.0013321253685626,0.0013321253685577,-0.0013321253685718,0.0013321253685546,-0.0013321253685339,0.0013321253685876,1.2192215771471e-14,4.9802302103268e-15,-0.0013694668288788,0.0013694668288961,-5.1249022612832e-15,2.1317172304431e-14,-0.0014188458570068,0.0014188458570179,-0.0014188458569976,0.0014188458570264,-0.0014188458570071,0.0014188458570164,-0.0014188458570008,0.0014188458570251,-0.0013321253685591,0.0013321253685694,-0.0013321253685445,0.0013321253685811,0.65256750252286,0.60037666582796,114808,2744,0.0056897742301495,0.0056897742301484,0.0056897742301448,15.055321801509,15.053833844267,-0.00011715742558793,-0.00011715742558793,-0.00011715742558793,1106559.4155135,0.017216515177757
23619200,0.98983977634383,0.017068749778722,0.0056895832595773,0.005689583259574,0.0056895832595702,-0.0013715592761334,0.0013715592761111,-1.539618406891e-14,-8.3665586307225e-15,7.1948914142414e-15,-2.7530725131716e-14,-0.0014209351496115,0.0014209351495957,-0.00142093514961,0.0014209351496,-0.0014209351496222,0.0014209351495856,-0.0014209351496185,0.0014209351495885,-0.0013342225596357,0.001334222559591,-0.0013342225596271,0.0013342225596053,-6.5180949943192e-15,2.8034614150017e-14,2.4035618669525e-14,-2.6337430703688e-15,-0.0013715592761116,0.0013715592761325,-0.001420935149586,0.0014209351496055,-0.0014209351495944,0.0014209351495968,-0.0014209351495762,0.0014209351496162,-0.0014209351495843,0.0014209351496081,-0.0013342225595919,0.001334222559651,-0.0013342225596321,0.0013342225596275,-0.0013342225596391,0.0013342225596223,-0.0013342225596017,0.0013342225596549,1.2008839020564e-14,4.7305613669504e-15,-0.0013715592761127,0.0013715592761297,-5.3480130924593e-15,2.1100296576894e-14,-0.001420935149588,0.001420935149599,-0.0014209351495792,0.001420935149608,-0.0014209351495887,0.0014209351495975,-0.0014209351495822,0.0014209351496063,-0.001334222559627,0.0013342225596367,-0.0013342225596122,0.0013342225596488,0.66669413348745,0.66866881224485,114808,2744,0.0056984432890902,0.0056984432890894,0.0056984432890858,16.003548104623,16.02975122518,-0.00010957161516302,-0.00010957161516302,-0.00010957161516302,1104918.1532088,0.017242970210565
23819200,0.99006304656338,0.01707254109211,0.0056908470307068,0.0056908470307036,0.0056908470306998,-0.0013742408765074,0.0013742408764852,-1.5404644288397e-14,-8.3213835402022e-15,7.2035801423729e-15,-2.7534298551962e-14,-0.0014236160638477,0.0014236160638324,-0.0014236160638459,0.0014236160638364,-0.0014236160638588,0.0014236160638223,-0.0014236160638554,0.0014236160638252,-0.0013369103029913,0.0013369103029468,-0.0013369103029827,0.0013369103029615,-6.6484439534244e-15,2.7893089061746e-14,2.3922622121492e-14,-2.7815620840112e-15,-0.0013742408764856,0.0013742408765064,-0.0014236160638234,0.0014236160638426,-0.0014236160638318,0.001423616063834,-0.0014236160638137,0.0014236160638534,-0.0014236160638221,0.0014236160638454,-0.0013369103029464,0.0013369103030063,-0.0013369103029866,0.0013369103029819,-0.0013369103029952,0.0013369103029778,-0.0013369103029577,0.0013369103030105,1.2281065998334e-14,4.9474665053532e-15,-0.0013742408764864,0.0013742408765039,-5.1073145632812e-15,2.1372288267735e-14,-0.0014236160638256,0.0014236160638369,-0.0014236160638162,0.0014236160638459,-0.001423616063826,0.0014236160638351,-0.0014236160638194,0.0014236160638442,-0.0013369103029827,0.001336910302993,-0.0013369103029679,0.001336910303005,0.70079568672291,0.82178848379094,114808,2744,0.005709553104272,0.0057095531042708,0.0057095531042672,17.235501807857,17.269969903483,-9.9715985537145e-05,-9.9715985537145e-05,-9.9715985537145e-05,1101410.8822567,0.017276874745917
24019200,0.99028291472176,0.017076317760371,0.0056921059201271,0.0056921059201239,0.0056921059201201,-0.0013747900887171,0.0013747900886949,-1.5444169735334e-14,-8.2796661795287e-15,7.2154920027384e-15,-2.7514527097143e-14,-0.0014241718667315,0.0014241718667163,-0.0014241718667298,0.0014241718667203,-0.0014241718667424,0.0014241718667061,-0.0014241718667389,0.0014241718667089,-0.0013374577091192,0.0013374577090742,-0.0013374577091101,0.0013374577090892,-6.6723255767984e-15,2.7865089917101e-14,2.391897517408e-14,-2.8083259722751e-15,-0.0013747900886953,0.0013747900887161,-0.0014241718667066,0.001424171866726,-0.001424171866715,0.001424171866717,-0.0014241718666968,0.0014241718667371,-0.0014241718667054,0.0014241718667287,-0.0013374577090747,0.0013374577091338,-0.0013374577091145,0.0013374577091097,-0.0013374577091222,0.0013374577091046,-0.001337457709085,0.0013374577091378,1.2267095836878e-14,4.8498812512216e-15,-0.0013747900886962,0.0013747900887135,-5.167136265181e-15,2.1333995319911e-14,-0.0014241718667085,0.0014241718667201,-0.0014241718666996,0.0014241718667289,-0.0014241718667093,0.0014241718667186,-0.0014241718667024,0.0014241718667277,-0.0013374577091099,0.0013374577091198,-0.0013374577090952,0.0013374577091319,0.70866614982795,0.84208196311467,114808,2744,0.0057118284403327,0.0057118284403316,0.005711828440328,17.342381460601,17.345860782358,-9.8860948315188e-05,-9.8860948315188e-05,-9.8860948315188e-05,1094586.1900002,0.017283818902369
24219200,0.99049897213434,0.017079875658798,0.0056932918862693,0.0056932918862661,0.0056932918862623,-0.0013752643535527,0.0013752643535305,-1.544437009686e-14,-8.2091219191662e-15,7.2209800014441e-15,-2.7489476391836e-14,-0.0014246421020685,0.0014246421020533,-0.0014246421020668,0.0014246421020576,-0.0014246421020794,0.0014246421020431,-0.001424642102076,0.001424642102046,-0.0013379338150898,0.0013379338150453,-0.0013379338150808,0.00133793381506,-6.5602113547521e-15,2.7965145683995e-14,2.4013560519857e-14,-2.7175052173751e-15,-0.0013752643535309,0.0013752643535519,-0.0014246421020431,0.0014246421020626,-0.0014246421020513,0.0014246421020536,-0.0014246421020333,0.0014246421020735,-0.0014246421020415,0.001424642102065,-0.0013379338150455,0.0013379338151047,-0.0013379338150857,0.001337933815081,-0.0013379338150932,0.0013379338150762,-0.001337933815056,0.0013379338151091,1.2090483585202e-14,4.6080945199932e-15,-0.0013752643535321,0.001375264353549,-5.3766592761616e-15,2.1134001429587e-14,-0.0014246421020453,0.0014246421020565,-0.0014246421020364,0.0014246421020652,-0.0014246421020459,0.0014246421020548,-0.0014246421020391,0.0014246421020635,-0.0013379338150812,0.0013379338150908,-0.0013379338150666,0.0013379338151031,0.68010471382053,0.69606439508427,114808,2744,0.0057137933065053,0.0057137933065044,0.0057137933065009,17.417868882817,17.420013247889,-9.8257048937461e-05,-9.8257048937461e-05,-9.8257048937461e-05,1085091.5389866,0.017289815335447
24419200,0.9907112353707,0.017083368062056,0.0056944560206887,0.0056944560206855,0.0056944560206817,-0.0013756958805358,0.001375695880514,-1.5306480007837e-14,-7.993367825563e-15,7.3895951398894e-15,-2.7302217406587e-14,-0.0014250755795083,0.0014250755794941,-0.0014250755795074,0.0014250755794977,-0.0014250755795196,0.0014250755794836,-0.0014250755795155,0.0014250755794864,-0.0013383652701409,0.0013383652700958,-0.0013383652701321,0.0013383652701115,-6.4337446299884e-15,2.8081142140383e-14,2.4144850626681e-14,-2.6331548530444e-15,-0.001375695880514,0.0013756958805351,-0.0014250755794835,0.0014250755795036,-0.0014250755794926,0.001425075579495,-0.0014250755794741,0.0014250755795145,-0.0014250755794822,0.001425075579506,-0.0013383652700965,0.0013383652701565,-0.0013383652701371,0.0013383652701321,-0.0013383652701448,0.0013383652701281,-0.0013383652701073,0.0013383652701608,1.2314976727091e-14,4.7699131059582e-15,-0.0013756958805151,0.0013756958805324,-5.201252870001e-15,2.1341818610326e-14,-0.0014250755794858,0.0014250755794973,-0.0014250755794771,0.0014250755795063,-0.0014250755794864,0.0014250755794955,-0.0014250755794799,0.0014250755795046,-0.0013383652701326,0.0013383652701423,-0.0013383652701179,0.0013383652701548,0.6793499168633,0.69019622287929,114808,2744,0.005715581072243,0.0057155810722415,0.005715581072238,17.491503351761,17.493572737343,-9.7667973185915e-05,-9.7667973185915e-05,-9.7667973185915e-05,1082681.8720817,0.017295271440406
24619200,0.99091886996375,0.017086940463902,0.0056956468213041,0.0056956468213009,0.0056956468212971,-0.0013759953573598,0.0013759953573375,-1.566394886682e-14,-8.2711546059117e-15,7.0820582343793e-15,-2.7597414270879e-14,-0.0014253765859462,0.0014253765859307,-0.0014253765859444,0.0014253765859348,-0.0014253765859568,0.0014253765859207,-0.0014253765859533,0.0014253765859237,-0.001338668162724,0.001338668162679,-0.001338668162715,0.0013386681626943,-6.5248006718183e-15,2.7968792631407e-14,2.4113910395413e-14,-2.7006233801625e-15,-0.0013759953573378,0.0013759953573588,-0.0014253765859204,0.0014253765859404,-0.0014253765859289,0.0014253765859315,-0.0014253765859107,0.001425376585951,-0.0014253765859192,0.0014253765859427,-0.0013386681626795,0.0013386681627393,-0.0013386681627197,0.0013386681627147,-0.0013386681627266,0.0013386681627091,-0.0013386681626894,0.0013386681627423,1.2170245854402e-14,4.5214206972307e-15,-0.001375995357339,0.001375995357356,-5.4336575349039e-15,2.1153706709957e-14,-0.0014253765859228,0.001425376585934,-0.0014253765859139,0.0014253765859427,-0.0014253765859234,0.0014253765859322,-0.0014253765859166,0.0014253765859408,-0.0013386681627145,0.0013386681627242,-0.0013386681626995,0.0013386681627366,0.7094481088591,0.82550026359664,114808,2744,0.0057168217794042,0.0057168217794028,0.0057168217793994,17.497769132044,17.497973918455,-9.7617846943645e-05,-9.7617846943645e-05,-9.7617846943645e-05,1080504.0629058,0.017299057931348
24819200,0.99112184417888,0.01709018810828,0.0056967293694301,0.0056967293694268,0.005696729369423,-0.0013762868578968,0.0013762868578747,-1.5486376166544e-14,-8.0414362100481e-15,7.2811881805079e-15,-2.7400957037218e-14,-0.0014256664620197,0.0014256664620045,-0.001425666462018,0.0014256664620087,-0.0014256664620303,0.0014256664619941,-0.0014256664620268,0.0014256664619971,-0.0013389584224616,0.0013389584224169,-0.0013389584224528,0.0013389584224323,-6.6906779573223e-15,2.7797974320378e-14,2.392762196875e-14,-2.928910523794e-15,-0.0013762868578753,0.0013762868578959,-0.0014256664619951,0.0014256664620144,-0.0014256664620036,0.0014256664620054,-0.0014256664619853,0.0014256664620254,-0.0014256664619936,0.0014256664620167,-0.0013389584224179,0.0013389584224772,-0.0013389584224585,0.0013389584224526,-0.0013389584224656,0.001338958422448,-0.0013389584224281,0.0013389584224812,1.2255331490388e-14,4.5679486875973e-15,-0.0013762868578762,0.0013762868578933,-5.375012267653e-15,2.125829175025e-14,-0.001425666461997,0.0014256664620085,-0.0014256664619882,0.0014256664620174,-0.001425666461998,0.0014256664620068,-0.0014256664619913,0.0014256664620156,-0.0013389584224533,0.001338958422463,-0.001338958422438,0.0013389584224752,0.66112593338407,0.59054061146344,114808,2744,0.0057180294372578,0.005718029437257,0.0057180294372535,17.493850874551,17.493745840827,-9.7649193003591e-05,-9.7649193003591e-05,-9.7649193003591e-05,1073001.819753,0.017302743625163
25019200,0.9913317121968,0.017093507494109,0.0056978358313731,0.0056978358313699,0.005697835831366,-0.0013782662222018,0.0013782662221796,-1.565700974057e-14,-8.1404459381262e-15,7.1309145083978e-15,-2.753131334904e-14,-0.0014276453472256,0.0014276453472103,-0.0014276453472242,0.0014276453472146,-0.0014276453472362,0.0014276453472,-0.0014276453472331,0.001427645347203,-0.0013409389537231,0.001340938953678,-0.0013409389537139,0.0013409389536933,-6.7359118695749e-15,2.7745505335034e-14,2.3889211377461e-14,-3.0100845145725e-15,-0.0013782662221802,0.0013782662222007,-0.0014276453472012,0.0014276453472205,-0.0014276453472095,0.0014276453472115,-0.0014276453471913,0.0014276453472313,-0.0014276453471996,0.0014276453472226,-0.0013409389536793,0.0013409389537385,-0.0013409389537199,0.001340938953714,-0.0013409389537265,0.0013409389537085,-0.0013409389536896,0.0013409389537417,1.2277624926986e-14,4.5216853950268e-15,-0.0013782662221811,0.0013782662221981,-5.3991879996892e-15,2.1273056005094e-14,-0.0014276453472031,0.0014276453472144,-0.0014276453471942,0.001427645347223,-0.0014276453472038,0.0014276453472124,-0.0014276453471972,0.0014276453472216,-0.0013409389537141,0.0013409389537239,-0.0013409389536991,0.0013409389537358,0.6536290613413,0.56235667199017,114808,2744,0.0057262297221777,0.0057262297221767,0.0057262297221731,18.389613368628,18.414386363536,-9.0483093050976e-05,-9.0483093050976e-05,-9.0483093050976e-05,1074045.5378783,0.017327770383903
25219200,0.99155939932486,0.017097227680902,0.0056990758936375,0.0056990758936343,0.0056990758936305,-0.0013818326930433,0.0013818326930215,-1.5401447694874e-14,-7.7908015184203e-15,7.4707575271622e-15,-2.7156846847558e-14,-0.0014312129047098,0.0014312129046955,-0.0014312129047078,0.001431212904702,-0.0014312129047202,0.0014312129046835,-0.0014312129047165,0.0014312129046879,-0.0013445087925005,0.0013445087924555,-0.0013445087924924,0.001344508792472,-6.6769724936618e-15,2.7818561926734e-14,2.3979090984642e-14,-3.0000848200563e-15,-0.0013818326930223,0.0013818326930428,-0.0014312129046839,0.0014312129047044,-0.001431212904693,0.001431212904692,-0.0014312129046736,0.0014312129047151,-0.0014312129046821,0.0014312129047063,-0.0013445087924574,0.0013445087925173,-0.0013445087924979,0.0013445087924901,-0.0013445087925053,0.001344508792486,-0.0013445087924683,0.0013445087925215,1.2845519342907e-14,5.0139056521534e-15,-0.0013818326930227,0.0013818326930407,-4.9090853249307e-15,2.1834038867453e-14,-0.0014312129046861,0.0014312129046965,-0.0014312129046744,0.0014312129047066,-0.0014312129046868,0.0014312129046964,-0.00143121290468,0.0014312129047051,-0.001344508792492,0.0013445087925013,-0.0013445087924768,0.001344508792515,0.67455039185341,0.66718788177615,114808,2744,0.0057410050587738,0.0057410050587745,0.0057410050587708,20.09634270089,20.143926195107,-7.6829258392876e-05,-7.6829258392876e-05,-7.6829258392876e-05,1076045.6087044,0.017372865354638
25419200,0.99179404480461,0.0171013738748,0.00570045795827,0.0057004579582668,0.0057004579582629,-0.0013839502092149,0.0013839502091941,-1.4914214417752e-14,-7.243580873503e-15,7.9737554881256e-15,-2.6607378339326e-14,-0.0014333398622059,0.0014333398621909,-0.0014333398622038,0.0014333398621973,-0.0014333398622166,0.0014333398621819,-0.0014333398622128,0.0014333398621841,-0.0013466271690299,0.0013466271689864,-0.0013466271690208,0.0013466271690028,-5.950347632729e-15,2.8467247992173e-14,2.4704657054391e-14,-2.268401290133e-15,-0.0013839502091936,0.0013839502092157,-0.0014333398621814,0.0014333398622011,-0.0014333398621899,0.0014333398621913,-0.0014333398621702,0.0014333398622119,-0.0014333398621779,0.0014333398622039,-0.0013466271689846,0.0013466271690466,-0.0013466271690266,0.0013466271690221,-0.0013466271690359,0.0013466271690201,-0.0013466271689995,0.0013466271690531,1.268964175192e-14,4.8033826717213e-15,-0.001383950209195,0.0013839502092128,-5.167136265181e-15,2.1631809751296e-14,-0.0014333398621826,0.0014333398621946,-0.0014333398621746,0.0014333398622031,-0.0014333398621842,0.0014333398621924,-0.0014333398621746,0.0014333398622016,-0.0013466271690245,0.0013466271690346,-0.0013466271690092,0.0013466271690477,0.7278974552919,0.90804191976655,114808,2744,0.0057497774717421,0.0057497774717427,0.0057497774717395,21.023786885642,21.05018923544,-6.9409704914864e-05,-6.9409704914864e-05,-6.9409704914864e-05,1076308.293729,0.017399640295746
25619200,0.99202109894902,0.017105411033783,0.0057018036779312,0.005701803677928,0.0057018036779242,-0.0013841680062795,0.0013841680062575,-1.5615447591148e-14,-7.8908495879395e-15,7.2698743027935e-15,-2.7339083927399e-14,-0.0014335582166433,0.0014335582166281,-0.0014335582166415,0.0014335582166326,-0.0014335582166541,0.0014335582166178,-0.0014335582166504,0.0014335582166209,-0.0013468467265124,0.0013468467264673,-0.001346846726503,0.0013468467264828,-6.516624451008e-15,2.7921264671589e-14,2.4142203648721e-14,-2.895970353623e-15,-0.0013841680062579,0.0013841680062788,-0.0014335582166184,0.001433558216638,-0.0014335582166269,0.0014335582166288,-0.0014335582166084,0.0014335582166489,-0.0014335582166168,0.0014335582166403,-0.0013468467264681,0.0013468467265278,-0.0013468467265087,0.0013468467265032,-0.001346846726516,0.0013468467264987,-0.0013468467264789,0.001346846726532,1.2533087711009e-14,4.5606547927737e-15,-0.0013841680062588,0.0013841680062761,-5.3504836052221e-15,2.1464697209411e-14,-0.0014335582166203,0.0014335582166317,-0.0014335582166112,0.0014335582166407,-0.0014335582166212,0.00143355821663,-0.0014335582166142,0.001433558216639,-0.001346846726504,0.0013468467265136,-0.0013468467264887,0.0013468467265262,0.73244073889869,0.90617883153439,114808,2744,0.0057506797647918,0.0057506797647911,0.0057506797647876,20.943882169659,20.942074372971,-7.0048942642729e-05,-7.0048942642729e-05,-7.0048942642729e-05,1066426.5340972,0.017402394323738
25819200,0.99223098717609,0.017109046467306,0.0057030154891056,0.0057030154891024,0.0057030154890985,-0.0013829018709657,0.0013829018709437,-1.5637099503226e-14,-7.8391872185792e-15,7.2800174901688e-15,-2.7329562159459e-14,-0.001432291814339,0.0014322918143237,-0.0014322918143372,0.0014322918143283,-0.0014322918143498,0.0014322918143135,-0.0014322918143461,0.0014322918143166,-0.0013455808478463,0.0013455808478013,-0.001345580847837,0.0013455808478169,-6.5243889196911e-15,2.7907676851394e-14,2.4162614789881e-14,-2.9217930941678e-15,-0.001382901870944,0.0013829018709649,-0.001432291814314,0.0014322918143336,-0.0014322918143226,0.0014322918143244,-0.0014322918143041,0.0014322918143445,-0.0014322918143125,0.0014322918143359,-0.0013455808478019,0.0013455808478616,-0.0013455808478425,0.001345580847837,-0.0013455808478498,0.0013455808478325,-0.0013455808478127,0.0013455808478656,1.2560586870928e-14,4.5161855630429e-15,-0.0013829018709449,0.0013829018709622,-5.3651890383342e-15,2.1493343393113e-14,-0.001432291814316,0.0014322918143274,-0.0014322918143068,0.0014322918143364,-0.0014322918143169,0.0014322918143256,-0.0014322918143098,0.0014322918143346,-0.0013455808478377,0.0013455808478472,-0.0013455808478224,0.0013455808478599,0.71386862833737,0.80271734254426,114808,2744,0.0057454344324821,0.0057454344324812,0.0057454344324776,20.112541641009,20.089521926807,-7.6699666871925e-05,-7.6699666871925e-05,-7.6699666871925e-05,1057193.6498039,0.0173863847056
26019200,0.99243049871975,0.017112368928476,0.005704122976162,0.0057041229761588,0.005704122976155,-0.0013824275619438,0.0013824275619218,-1.5671975276031e-14,-7.8047068840621e-15,7.291150307238e-15,-2.7324150560074e-14,-0.0014318115077222,0.0014318115077069,-0.0014318115077204,0.0014318115077114,-0.0014318115077329,0.0014318115076967,-0.0014318115077293,0.0014318115076998,-0.0013451101844699,0.0013451101844249,-0.0013451101844606,0.0013451101844406,-6.5389767093383e-15,2.7899147700189e-14,2.418061424001e-14,-2.9492628432211e-15,-0.0013824275619222,0.001382427561943,-0.0014318115076971,0.0014318115077167,-0.0014318115077057,0.0014318115077075,-0.0014318115076872,0.0014318115077276,-0.0014318115076956,0.001431811507719,-0.0013451101844256,0.0013451101844853,-0.0013451101844662,0.0013451101844606,-0.0013451101844736,0.0013451101844562,-0.0013451101844365,0.0013451101844893,1.2577821638536e-14,4.4645989036858e-15,-0.0013824275619231,0.0013824275619404,-5.4014232255223e-15,2.1505931243857e-14,-0.0014318115076991,0.0014318115077105,-0.00143181150769,0.0014318115077195,-0.0014318115077,0.0014318115077087,-0.001431811507693,0.0014318115077177,-0.0013451101844615,0.0013451101844709,-0.0013451101844462,0.0013451101844837,0.68688837229845,0.67001528985024,114808,2744,0.0057434694818455,0.0057434694818447,0.0057434694818412,19.718004124476,19.706744581132,-7.9855967004191e-05,-7.9855967004191e-05,-7.9855967004191e-05,1050577.0819349,0.017380387263578
26219200,0.99262386112876,0.017115774617187,0.0057052582057325,0.0057052582057293,0.0057052582057255,-0.001382516524916,0.0013825165248943,-1.5583209605408e-14,-7.6430969314293e-15,7.4372758983485e-15,-2.719945584e-14,-0.0014318986711911,0.001431898671176,-0.001431898671189,0.0014318986711806,-0.0014318986712018,0.0014318986711657,-0.0014318986711982,0.0014318986711691,-0.0013452049863606,0.001345204986316,-0.0013452049863512,0.0013452049863319,-6.5339768620802e-15,2.7902912291065e-14,2.4210378036629e-14,-2.9880851866369e-15,-0.0013825165248946,0.0013825165249155,-0.001431898671167,0.0014318986711868,-0.0014318986711757,0.001431898671177,-0.0014318986711568,0.001431898671198,-0.0014318986711655,0.0014318986711886,-0.0013452049863165,0.0013452049863765,-0.0013452049863572,0.0013452049863511,-0.0013452049863647,0.0013452049863474,-0.0013452049863272,0.00134520498638,1.2477589406444e-14,4.299662765901e-15,-0.0013825165248958,0.0013825165249127,-5.5612418725841e-15,2.1401699133959e-14,-0.001431898671169,0.0014318986711803,-0.0014318986711601,0.0014318986711889,-0.0014318986711699,0.0014318986711789,-0.0014318986711627,0.0014318986711875,-0.0013452049863528,0.0013452049863615,-0.0013452049863373,0.0013452049863743,0.72525107942032,0.84741947957003,114808,2744,0.0057438380431852,0.0057438380431851,0.0057438380431815,19.629625715861,19.627008767703,-8.056299427311e-05,-8.056299427311e-05,-8.056299427311e-05,1049873.3622155,0.01738151206027
26419200,0.9928156712515,0.017119247698636,0.0057064158995488,0.0057064158995456,0.0057064158995418,-0.0013833703265472,0.0013833703265252,-1.5765672781283e-14,-7.7612762255448e-15,7.2953442278298e-15,-2.733835600846e-14,-0.0014327420808113,0.0014327420807959,-0.0014327420808094,0.0014327420808005,-0.001432742080822,0.0014327420807857,-0.0014327420808183,0.0014327420807889,-0.0013460689915576,0.0013460689915123,-0.001346068991548,0.0013460689915282,-6.5130951470611e-15,2.7939028834788e-14,2.4259729470153e-14,-2.9710268842269e-15,-0.0013833703265255,0.0013833703265465,-0.0014327420807862,0.0014327420808059,-0.0014327420807948,0.0014327420807966,-0.0014327420807762,0.0014327420808169,-0.0014327420807847,0.0014327420808082,-0.0013460689915132,0.0013460689915732,-0.001346068991554,0.0013460689915482,-0.0013460689915617,0.0013460689915442,-0.0013460689915242,0.0013460689915772,1.2627055428595e-14,4.3776309722611e-15,-0.0013833703265265,0.0013833703265438,-5.4701270090218e-15,2.1530048154161e-14,-0.0014327420807882,0.0014327420807997,-0.0014327420807791,0.0014327420808086,-0.0014327420807892,0.0014327420807977,-0.0014327420807822,0.0014327420808068,-0.0013460689915494,0.0013460689915587,-0.0013460689915339,0.0013460689915717,0.74503103651664,0.92249642828204,114808,2744,0.0057473752274604,0.0057473752274596,0.005747375227456,19.917654756678,19.925580073888,-7.8258761946578e-05,-7.8258761946578e-05,-7.8258761946578e-05,1041307.3018697,0.017392307788166
26619200,0.99301232404675,0.017122777204503,0.0057075924015043,0.0057075924015011,0.0057075924014973,-0.0013853022317744,0.0013853022317524,-1.5793447668074e-14,-7.7183476197048e-15,7.281486310187e-15,-2.734948066861e-14,-0.0014346598006835,0.0014346598006681,-0.0014346598006816,0.0014346598006727,-0.0014346598006943,0.0014346598006579,-0.0014346598006905,0.0014346598006611,-0.0013480119652622,0.0013480119652169,-0.0013480119652525,0.0013480119652327,-6.5536821424504e-15,2.7895853683171e-14,2.4240377120177e-14,-3.0322014859731e-15,-0.0013853022317528,0.0013853022317736,-0.0014346598006585,0.0014346598006781,-0.0014346598006671,0.0014346598006688,-0.0014346598006485,0.0014346598006891,-0.001434659800657,0.0014346598006803,-0.0013480119652176,0.0013480119652775,-0.0013480119652584,0.0013480119652525,-0.0013480119652656,0.0013480119652482,-0.0013480119652284,0.0013480119652812,1.2676436272985e-14,4.355572822593e-15,-0.0013853022317537,0.001385302231771,-5.4777738342401e-15,2.1568576388914e-14,-0.0014346598006605,0.0014346598006719,-0.0014346598006513,0.0014346598006809,-0.0014346598006614,0.00143465980067,-0.0014346598006544,0.001434659800679,-0.0013480119652536,0.0013480119652628,-0.001348011965238,0.0013480119652758,0.73848799930375,0.87359585130831,114808,2744,0.005755378740778,0.0057553787407772,0.0057553787407737,20.75489348708,20.778188592223,-7.1560852103361e-05,-7.1560852103361e-05,-7.1560852103361e-05,1029836.3603022,0.017416735827167
26819200,0.99321238494187,0.017126282521783,0.0057087608405978,0.0057087608405946,0.0057087608405908,-0.0013870367892485,0.0013870367892265,-1.5827143329871e-14,-7.6844758373689e-15,7.2866812342063e-15,-2.7354649628349e-14,-0.0014363900407804,0.0014363900407649,-0.0014363900407784,0.0014363900407695,-0.0014363900407911,0.0014363900407547,-0.0014363900407873,0.001436390040758,-0.0013497496633812,0.0013497496633359,-0.0013497496633715,0.0013497496633519,-6.5479176126704e-15,2.7913264915976e-14,2.4275611337914e-14,-3.0386130548099e-15,-0.0013870367892269,0.0013870367892478,-0.0014363900407552,0.0014363900407749,-0.0014363900407638,0.0014363900407656,-0.0014363900407453,0.0014363900407858,-0.0014363900407538,0.001436390040777,-0.0013497496633367,0.0013497496633966,-0.0013497496633775,0.0013497496633717,-0.0013497496633848,0.0013497496633673,-0.0013497496633476,0.0013497496634005,1.2716993857508e-14,4.3279560192086e-15,-0.0013870367892279,0.0013870367892451,-5.4973026494129e-15,2.1591340399372e-14,-0.0014363900407572,0.0014363900407687,-0.001436390040748,0.0014363900407777,-0.0014363900407582,0.0014363900407667,-0.0014363900407511,0.0014363900407758,-0.0013497496633728,0.001349749663382,-0.0013497496633572,0.0013497496633951,0.72122273298817,0.78180423854544,114808,2744,0.0057625645670546,0.0057625645670538,0.0057625645670502,21.493208393475,21.514015831063,-6.5654332852201e-05,-6.5654332852201e-05,-6.5654332852201e-05,1022992.0357111,0.017438668952725
27019200,0.99340935539507,0.017129641050174,0.0057098803500613,0.0057098803500581,0.0057098803500543,-0.0013877469147885,0.0013877469147665,-1.5858986107096e-14,-7.650201149143e-15,7.2393899399522e-15,-2.7355752535832e-14,-0.001437105274543,0.0014371052745275,-0.001437105274541,0.001437105274532,-0.0014371052745537,0.0014371052745173,-0.0014371052745499,0.0014371052745206,-0.0013504560589928,0.0013504560589472,-0.0013504560589828,0.0013504560589631,-6.5460941389645e-15,2.7861737078351e-14,2.4272317320896e-14,-3.0931996225219e-15,-0.0013877469147669,0.0013877469147877,-0.0014371052745179,0.0014371052745375,-0.0014371052745265,0.0014371052745283,-0.001437105274508,0.0014371052745485,-0.0014371052745165,0.0014371052745397,-0.0013504560589477,0.0013504560590075,-0.0013504560589888,0.0013504560589827,-0.0013504560589958,0.0013504560589783,-0.0013504560589587,0.0013504560590117,1.2753316277295e-14,4.2966334466799e-15,-0.0013877469147678,0.001387746914785,-5.60559345885e-15,2.1534342140629e-14,-0.0014371052745199,0.0014371052745313,-0.0014371052745107,0.0014371052745404,-0.0014371052745209,0.0014371052745294,-0.0014371052745139,0.0014371052745385,-0.0013504560589837,0.0013504560589929,-0.0013504560589679,0.001350456059006,0.70228866337993,0.69001262578256,114808,2744,0.0057655063648133,0.0057655063648124,0.0057655063648088,21.714029788742,21.720466325753,-6.388776169006e-05,-6.388776169006e-05,-6.388776169006e-05,1021691.8973308,0.017447648531888
27219200,0.99360093296899,0.017132810354689,0.0057109367848998,0.0057109367848966,0.0057109367848928,-0.0013880475006007,0.0013880475005788,-1.584659494152e-14,-7.5702786136995e-15,7.271138855155e-15,-2.7272960947411e-14,-0.0014374128850532,0.0014374128850378,-0.0014374128850512,0.0014374128850423,-0.0014374128850638,0.0014374128850275,-0.00143741288506,0.0014374128850308,-0.0013507516344101,0.0013507516343646,-0.0013507516344,0.0013507516343806,-6.4863312587972e-15,2.7873148494446e-14,2.4339256452423e-14,-3.0736119856166e-15,-0.0013880475005791,0.0013880475006,-0.001437412885028,0.0014374128850478,-0.0014374128850367,0.0014374128850385,-0.0014374128850182,0.0014374128850587,-0.0014374128850267,0.0014374128850499,-0.001350751634365,0.001350751634425,-0.0013507516344062,0.0013507516344001,-0.0013507516344133,0.0013507516343959,-0.0013507516343762,0.001350751634429,1.2795756157256e-14,4.2720165516503e-15,-0.00138804750058,0.0013880475005973,-5.6002406811972e-15,2.1585928799986e-14,-0.0014374128850301,0.0014374128850416,-0.0014374128850209,0.0014374128850507,-0.0014374128850311,0.0014374128850396,-0.001437412885024,0.0014374128850487,-0.0013507516344012,0.0013507516344103,-0.0013507516343854,0.0013507516344236,0.68192140884726,0.59822101301969,114808,2744,0.0057667515414174,0.0057667515414165,0.0057667515414129,21.739766496524,21.740579509633,-6.3681868027805e-05,-6.3681868027805e-05,-6.3681868027805e-05,1023670.2438246,0.017451449508107
27419200,0.99378867419871,0.01713601079824,0.0057120035994169,0.0057120035994137,0.0057120035994099,-0.0013885690989778,0.0013885690989557,-1.5941931183475e-14,-7.5978747375686e-15,7.1977852826371e-15,-2.7299246909099e-14,-0.0014379406225418,0.0014379406225264,-0.0014379406225399,0.001437940622531,-0.0014379406225529,0.001437940622516,-0.0014379406225489,0.0014379406225194,-0.0013512721861712,0.0013512721861256,-0.0013512721861611,0.0013512721861418,-6.5014484440363e-15,2.7813209149082e-14,2.4323139297732e-14,-3.1306102443589e-15,-0.0013885690989562,0.001388569098977,-0.0014379406225169,0.0014379406225366,-0.0014379406225255,0.0014379406225273,-0.001437940622507,0.0014379406225475,-0.0014379406225156,0.0014379406225387,-0.0013512721861261,0.001351272186186,-0.0013512721861672,0.001351272186161,-0.0013512721861746,0.0013512721861571,-0.0013512721861376,0.00135127218619,1.2851519159617e-14,4.2616345158732e-15,-0.0013885690989571,0.0013885690989744,-5.5557126297339e-15,2.1671220312036e-14,-0.0014379406225188,0.0014379406225304,-0.0014379406225096,0.0014379406225394,-0.0014379406225198,0.0014379406225285,-0.0014379406225128,0.0014379406225376,-0.0013512721861624,0.0013512721861716,-0.0013512721861467,0.0013512721861851,0.70215246849892,0.7011034432833,114808,2744,0.0057689123240655,0.0057689123240648,0.0057689123240612,21.891318562348,21.895532121624,-6.2469451501216e-05,-6.2469451501216e-05,-6.2469451501216e-05,1028165.9273163,0.017458045132091
27619200,0.99397524673475,0.017139239225866,0.0057130797419588,0.0057130797419556,0.0057130797419518,-0.0013895702811194,0.0013895702810974,-1.5951711215584e-14,-7.5431127386351e-15,7.2083720456159e-15,-2.7255527656457e-14,-0.0014389424263959,0.0014389424263803,-0.0014389424263939,0.0014389424263849,-0.0014389424264066,0.0014389424263701,-0.0014389424264027,0.0014389424263734,-0.0013522756958299,0.0013522756957843,-0.0013522756958199,0.0013522756958005,-6.4812137680742e-15,2.7802915345903e-14,2.4339785848015e-14,-3.1558447675792e-15,-0.0013895702810977,0.0013895702811186,-0.0014389424263707,0.0014389424263904,-0.0014389424263793,0.0014389424263811,-0.0014389424263608,0.0014389424264013,-0.0014389424263694,0.0014389424263925,-0.0013522756957851,0.001352275695845,-0.0013522756958261,0.00135227569582,-0.0013522756958331,0.0013522756958158,-0.0013522756957961,0.0013522756958487,1.2839666580529e-14,4.1839898290416e-15,-0.0013895702810987,0.0013895702811159,-5.605064063258e-15,2.1663926417213e-14,-0.0014389424263727,0.0014389424263842,-0.0014389424263635,0.0014389424263933,-0.0014389424263738,0.0014389424263822,-0.0014389424263667,0.0014389424263913,-0.0013522756958212,0.0013522756958302,-0.0013522756958054,0.0013522756958435,0.71253167896265,0.75007558494512,114808,2744,0.0057730599086701,0.0057730599086692,0.0057730599086656,22.280313913081,22.291164042701,-5.9357488695352e-05,-5.9357488695352e-05,-5.9357488695352e-05,1027562.7219522,0.017470705145717
27819200,0.99415801376892,0.017142453288695,0.0057141510962351,0.0057141510962319,0.0057141510962281,-0.0013901453590238,0.001390145359002,-1.5866461062565e-14,-7.3883026701823e-15,7.3083881767726e-15,-2.7121524397223e-14,-0.0014395197237429,0.0014395197237279,-0.0014395197237412,0.0014395197237325,-0.001439519723754,0.001439519723718,-0.0014395197237501,0.0014395197237217,-0.0013528520241198,0.0013528520240739,-0.00135285202411,0.0013528520240906,-6.4285094958006e-15,2.7824385278247e-14,2.4390313716188e-14,-3.1469038642471e-15,-0.001390145359002,0.001390145359023,-0.001439519723717,0.0014395197237371,-0.0014395197237258,0.0014395197237276,-0.0014395197237076,0.0014395197237481,-0.0014395197237161,0.0014395197237394,-0.0013528520240755,0.0013528520241352,-0.0013528520241165,0.0013528520241103,-0.0013528520241228,0.0013528520241054,-0.001352852024086,0.0013528520241392,1.2831990344444e-14,4.1080803833171e-15,-0.0013901453590031,0.0013901453590203,-5.6594153440401e-15,2.1649515092763e-14,-0.0014395197237195,0.001439519723731,-0.0014395197237104,0.0014395197237401,-0.0014395197237207,0.0014395197237289,-0.0014395197237136,0.0014395197237381,-0.0013528520241112,0.0013528520241204,-0.0013528520240952,0.0013528520241333,0.72383696863163,0.79904772660694,114808,2744,0.0057754422613414,0.0057754422613397,0.0057754422613366,22.44298258718,22.447658688987,-5.8056139302559e-05,-5.8056139302559e-05,-5.8056139302559e-05,1025856.4457935,0.017477977123765
28019200,0.99433768242935,0.017145668062995,0.0057152226876683,0.0057152226876651,0.0057152226876613,-0.0013908483216347,0.0013908483216128,-1.6005426486384e-14,-7.4639307596123e-15,7.1959732975509e-15,-2.7218124387336e-14,-0.0014402205089041,0.0014402205088886,-0.0014402205089021,0.0014402205088932,-0.0014402205089148,0.0014402205088784,-0.001440220508911,0.0014402205088818,-0.0013535589900538,0.0013535589900081,-0.0013535589900437,0.0013535589900245,-6.4432149289126e-15,2.7791621573273e-14,2.4395725315573e-14,-3.1801381430803e-15,-0.0013908483216131,0.001390848321634,-0.0014402205088788,0.0014402205088986,-0.0014402205088874,0.0014402205088893,-0.001440220508869,0.0014402205089095,-0.0014402205088776,0.0014402205089006,-0.0013535589900091,0.0013535589900691,-0.0013535589900502,0.001353558990044,-0.0013535589900572,0.0013535589900398,-0.0013535589900202,0.0013535589900728,1.289675307187e-14,4.1073451116615e-15,-0.0013908483216141,0.0013908483216313,-5.6527684882735e-15,2.1695219578875e-14,-0.0014402205088808,0.0014402205088924,-0.0014402205088716,0.0014402205089015,-0.001440220508882,0.0014402205088903,-0.0014402205088749,0.0014402205088994,-0.0013535589900453,0.0013535589900542,-0.0013535589900294,0.0013535589900676,0.73612812498194,0.84801986826876,114808,2744,0.0057783544199058,0.0057783544199049,0.0057783544199013,22.669691274218,22.676052380771,-5.6242469806253e-05,-5.6242469806253e-05,-5.6242469806253e-05,1021551.7633593,0.017486866213008
28219200,0.99451704302691,0.017148937493606,0.005716312497872,0.0057163124978688,0.005716312497865,-0.001392073368594,0.0013920733685721,-1.6000153669524e-14,-7.3872416961605e-15,7.2273705461071e-15,-2.716847884515e-14,-0.0014414393552533,0.001441439355238,-0.0014414393552515,0.0014414393552425,-0.0014414393552642,0.0014414393552278,-0.0014414393552602,0.0014414393552313,-0.0013547906353955,0.0013547906353497,-0.0013547906353852,0.0013547906353661,-6.4068042765272e-15,2.7808150480091e-14,2.4441194514755e-14,-3.1724324961296e-15,-0.0013920733685723,0.0013920733685933,-0.0014414393552282,0.001441439355248,-0.0014414393552369,0.0014414393552388,-0.0014414393552184,0.001441439355259,-0.0014414393552271,0.0014414393552501,-0.0013547906353505,0.0013547906354105,-0.0013547906353917,0.0013547906353854,-0.0013547906353987,0.0013547906353811,-0.0013547906353617,0.0013547906354142,1.2925516899037e-14,4.0707285832125e-15,-0.0013920733685734,0.0013920733685906,-5.6744148858144e-15,2.1707689786154e-14,-0.0014414393552303,0.0014414393552419,-0.0014414393552211,0.0014414393552511,-0.0014414393552315,0.0014414393552398,-0.0014414393552244,0.001441439355249,-0.0013547906353869,0.0013547906353957,-0.0013547906353709,0.0013547906354092,0.74949205973569,0.89699200993058,114808,2744,0.0057834294041342,0.0057834294041332,0.0057834294041297,23.161894376847,23.175652911253,-5.230484498522e-05,-5.230484498522e-05,-5.230484498522e-05,1014930.2251529,0.017502357267496
28419200,0.99469089155319,0.017152169708304,0.0057173899027713,0.0057173899027681,0.0057173899027643,-0.0013923864134459,0.001392386413424,-1.607373138501e-14,-7.398167947849e-15,7.1822625491254e-15,-2.7205632121908e-14,-0.0014417493053384,0.0014417493053227,-0.0014417493053363,0.0014417493053273,-0.001441749305349,0.0014417493053126,-0.0014417493053451,0.001441749305316,-0.0013551084892544,0.0013551084892086,-0.0013551084892442,0.0013551084892251,-6.4465089459297e-15,2.7760387233343e-14,2.4414548269956e-14,-3.2255485205303e-15,-0.0013923864134243,0.0013923864134451,-0.001441749305313,0.0014417493053328,-0.0014417493053217,0.0014417493053234,-0.0014417493053032,0.0014417493053437,-0.0014417493053118,0.0014417493053348,-0.0013551084892096,0.0013551084892696,-0.0013551084892507,0.0013551084892445,-0.0013551084892577,0.0013551084892403,-0.0013551084892207,0.0013551084892732,1.2978250582177e-14,4.0561407935654e-15,-0.0013923864134252,0.0013923864134425,-5.6718267295867e-15,2.174098288672e-14,-0.001441749305315,0.0014417493053266,-0.0014417493053058,0.0014417493053358,-0.0014417493053162,0.0014417493053245,-0.0014417493053091,0.0014417493053337,-0.0013551084892459,0.0013551084892547,-0.0013551084892298,0.0013551084892682,0.76402644909911,0.9459641515924,114808,2744,0.0057847262526498,0.0057847262526489,0.0057847262526453,23.176247636251,23.176855179953,-5.2190018909991e-05,-5.2190018909991e-05,-5.2190018909991e-05,1008188.4014708,0.017506315847693
28619200,0.99485971301644,0.017155329686486,0.005718443228832,0.0057184432288288,0.005718443228825,-0.0013927585157072,0.0013927585156852,-1.611796716599e-14,-7.376161956514e-15,7.1713308977857e-15,-2.7216609727726e-14,-0.0014421124227512,0.0014421124227355,-0.0014421124227491,0.0014421124227401,-0.0014421124227619,0.0014421124227254,-0.0014421124227579,0.0014421124227288,-0.0013554884367811,0.0013554884367353,-0.0013554884367708,0.0013554884367518,-6.4546263450076e-15,2.7752563942928e-14,2.4419136365087e-14,-3.2476066701984e-15,-0.0013927585156856,0.0013927585157064,-0.0014421124227258,0.0014421124227456,-0.0014421124227346,0.0014421124227363,-0.001442112422716,0.0014421124227565,-0.0014421124227247,0.0014421124227476,-0.0013554884367362,0.0013554884367962,-0.0013554884367774,0.0013554884367711,-0.0013554884367843,0.0013554884367668,-0.0013554884367473,0.0013554884367998,1.2993367767416e-14,4.005171762399e-15,-0.0013927585156865,0.0013927585157038,-5.7007082002188e-15,2.17378653349e-14,-0.0014421124227279,0.0014421124227394,-0.0014421124227186,0.0014421124227486,-0.0014421124227291,0.0014421124227373,-0.001442112422722,0.0014421124227465,-0.0013554884367725,0.0013554884367812,-0.0013554884367563,0.0013554884367948,0.76896220698931,0.94790806088517,114808,2744,0.0057862677811498,0.0057862677811489,0.0057862677811454,23.222611793053,23.223909588924,-5.1819105655576e-05,-5.1819105655576e-05,-5.1819105655576e-05,998861.13655015,0.017511021165342
28819200,0.99502997959824,0.017158436100749,0.0057194787002532,0.00571947870025,0.0057194787002462,-0.0013943584133345,0.0013943584133119,-1.6484588318907e-14,-7.6428375183983e-15,6.8190143400427e-15,-2.7568304866034e-14,-0.0014436982959592,0.0014436982959436,-0.0014436982959581,0.0014436982959463,-0.0014436982959702,0.0014436982959335,-0.0014436982959662,0.001443698295937,-0.0013570981199411,0.0013570981198943,-0.0013570981199294,0.0013570981199114,-5.9521711064349e-15,2.825260749047e-14,2.4897357049891e-14,-2.8145022541822e-15,-0.001394358413312,0.0013943584133336,-0.0014436982959331,0.0014436982959535,-0.0014436982959414,0.0014436982959444,-0.0014436982959224,0.0014436982959637,-0.0014436982959315,0.0014436982959553,-0.0013570981198934,0.0013570981199545,-0.0013570981199354,0.0013570981199292,-0.0013570981199445,0.0013570981199272,-0.0013570981199078,0.0013570981199604,1.2961339334098e-14,3.8872635997065e-15,-0.0013943584133134,0.0013943584133306,-5.7868820382554e-15,2.1693690213832e-14,-0.0014436982959345,0.0014436982959465,-0.0014436982959264,0.0014436982959549,-0.0014436982959363,0.0014436982959442,-0.0014436982959294,0.0014436982959546,-0.0013570981199323,0.0013570981199405,-0.001357098119917,0.0013570981199549,0.74978586730006,0.8433479552569,114808,2744,0.0057928956024267,0.0057928956024251,0.0057928956024217,23.908350920184,23.927420066447,-4.6333192638526e-05,-4.6333192638526e-05,-4.6333192638526e-05,988763.98546214,0.017531252635004
29019200,0.9951913411321,0.017161225568838,0.0057204085229495,0.0057204085229463,0.0057204085229425,-0.0013939475124328,0.0013939475124108,-1.620846899681e-14,-7.3287094769267e-15,7.1433154393005e-15,-2.7270218384136e-14,-0.0014432966884304,0.0014432966884147,-0.0014432966884284,0.0014432966884192,-0.0014432966884411,0.0014432966884046,-0.0014432966884372,0.0014432966884081,-0.0013566793240532,0.0013566793240071,-0.0013566793240426,0.0013566793240238,-6.4231567181478e-15,2.7808621053951e-14,2.4492134135055e-14,-3.2231368295e-15,-0.0013939475124111,0.001393947512432,-0.0014432966884049,0.0014432966884248,-0.0014432966884136,0.0014432966884155,-0.001443296688395,0.0014432966884356,-0.0014432966884038,0.0014432966884268,-0.0013566793240079,0.0013566793240681,-0.0013566793240492,0.0013566793240429,-0.0013566793240564,0.001356679324039,-0.0013566793240195,0.0013566793240719,1.3069688965268e-14,3.9442912693151e-15,-0.0013939475124121,0.0013939475124293,-5.7118255076515e-15,2.1775452421935e-14,-0.0014432966884069,0.0014432966884186,-0.0014432966883977,0.0014432966884277,-0.0014432966884082,0.0014432966884164,-0.0014432966884011,0.0014432966884257,-0.0013566793240446,0.0013566793240532,-0.0013566793240284,0.001356679324067,0.71130443618434,0.65856960657981,114808,2744,0.0057911933238379,0.0057911933238369,0.0057911933238333,23.568628947416,23.559484467211,-4.9050968420673e-05,-4.9050968420673e-05,-4.9050968420673e-05,988098.19113082,0.017526056696956
29219200,0.99535127043705,0.017163926006298,0.0057213086687693,0.0057213086687661,0.0057213086687623,-0.0013949210483954,0.0013949210483734,-1.6263504080232e-14,-7.3220071311273e-15,7.1588358750883e-15,-2.7275350580292e-14,-0.0014442699542547,0.001444269954239,-0.0014442699542527,0.0014442699542435,-0.0014442699542655,0.0014442699542288,-0.0014442699542614,0.0014442699542324,-0.0013576538793753,0.001357653879329,-0.0013576538793646,0.0013576538793457,-6.4540381276831e-15,2.7799680150619e-14,2.4483369696921e-14,-3.252018300132e-15,-0.0013949210483738,0.0013949210483947,-0.0014442699542292,0.001444269954249,-0.0014442699542379,0.0014442699542397,-0.0014442699542193,0.0014442699542599,-0.001444269954228,0.001444269954251,-0.0013576538793301,0.0013576538793902,-0.0013576538793714,0.001357653879365,-0.0013576538793787,0.0013576538793612,-0.0013576538793418,0.0013576538793941,1.3102511491974e-14,3.9125863555255e-15,-0.0013949210483747,0.001394921048392,-5.7324719357408e-15,2.177509949154e-14,-0.0014442699542312,0.0014442699542428,-0.001444269954222,0.001444269954252,-0.0014442699542325,0.0014442699542406,-0.0014442699542254,0.0014442699542499,-0.0013576538793669,0.0013576538793755,-0.0013576538793506,0.0013576538793893,0.69517195612635,0.59061242969231,114808,2744,0.0057952262731463,0.0057952262731455,0.0057952262731419,23.973216470576,23.984320061585,-4.5814268235394e-05,-4.5814268235394e-05,-4.5814268235394e-05,990513.88471953,0.017538367633703
29419200,0.99551036543127,0.017166436301981,0.005722145433997,0.0057221454339938,0.0057221454339899,-0.0013960277063944,0.0013960277063729,-1.5940171126949e-14,-6.9245676411971e-15,7.4079794587758e-15,-2.7048541332688e-14,-0.0014453878193297,0.0014453878193155,-0.0014453878193275,0.0014453878193185,-0.0014453878193412,0.0014453878193041,-0.0014453878193361,0.0014453878193087,-0.0013587518485375,0.0013587518484921,-0.0013587518485272,0.0013587518485081,-6.220162919469e-15,2.8054672360782e-14,2.4677951987859e-14,-3.0629652520435e-15,-0.0013960277063726,0.0013960277063942,-0.0014453878193033,0.0014453878193249,-0.0014453878193123,0.0014453878193144,-0.0014453878192933,0.0014453878193348,-0.001445387819303,0.0014453878193261,-0.001358751848493,0.001358751848553,-0.0013587518485327,0.0013587518485273,-0.0013587518485393,0.001358751848522,-0.0013587518485031,0.001358751848555,1.3031954823902e-14,3.7717377171782e-15,-0.0013960277063741,0.0013960277063911,-5.7665297188283e-15,2.1726748027468e-14,-0.0014453878193058,0.0014453878193172,-0.0014453878192968,0.0014453878193273,-0.0014453878193065,0.0014453878193147,-0.0014453878193003,0.0014453878193243,-0.0013587518485279,0.0013587518485363,-0.0013587518485115,0.0013587518485507,0.65090114662203,0.39580697924075,114808,2744,0.0057998106085844,0.0057998106085832,0.0057998106085799,24.455684295482,24.469262552822,-4.1954525636143e-05,-4.1954525636143e-05,-4.1954525636143e-05,997326.36392908,0.017552362271402
29619200,0.99566899275193,0.017168903155426,0.0057229677184787,0.0057229677184755,0.0057229677184717,-0.0013972054456893,0.0013972054456673,-1.6235278839552e-14,-7.1594707362085e-15,7.1873540755681e-15,-2.7310864201257e-14,-0.00144658528551,0.0014465852854944,-0.0014465852855079,0.0014465852854988,-0.0014465852855208,0.001446585285484,-0.0014465852855166,0.0014465852854878,-0.0013599181054849,0.0013599181054388,-0.0013599181054742,0.0013599181054555,-6.4869194761216e-15,2.782950276897e-14,2.4441488623418e-14,-3.3080754111552e-15,-0.0013972054456676,0.0013972054456885,-0.0014465852854844,0.0014465852855044,-0.0014465852854931,0.0014465852854949,-0.0014465852854745,0.0014465852855152,-0.0014465852854833,0.0014465852855062,-0.0013599181054399,0.0013599181054997,-0.0013599181054807,0.0013599181054743,-0.001359918105488,0.0013599181054704,-0.0013599181054512,0.0013599181055036,1.3162480248205e-14,3.8438531611598e-15,-0.0013972054456686,0.0013972054456858,-5.6835322543439e-15,2.1833627115326e-14,-0.0014465852854864,0.001446585285498,-0.0014465852854772,0.0014465852855073,-0.0014465852854876,0.0014465852854958,-0.0014465852854806,0.0014465852855051,-0.0013599181054761,0.0013599181054847,-0.0013599181054599,0.0013599181054987,0.64191648558931,0.3784741508565,114808,2744,0.0058046893437864,0.0058046893437856,0.005804689343782,24.996254487485,25.01149692149,-3.7629964100118e-05,-3.7629964100118e-05,-3.7629964100118e-05,1011780.4926225,0.017567255961424
29819200,0.99582783477844,0.017171516863232,0.0057238389544141,0.0057238389544109,0.0057238389544071,-0.0013985718757482,0.0013985718757262,-1.6285115552369e-14,-7.1404262812388e-15,7.2460428846873e-15,-2.7291180979037e-14,-0.0014479701919259,0.0014479701919103,-0.0014479701919237,0.0014479701919147,-0.0014479701919367,0.0014479701919001,-0.0014479701919326,0.0014479701919037,-0.0013612776460925,0.0013612776460461,-0.0013612776460817,0.0013612776460632,-6.4521558322447e-15,2.7905853377688e-14,2.452707424413e-14,-3.224195620684e-15,-0.0013985718757264,0.0013985718757474,-0.0014479701919,0.0014479701919201,-0.0014479701919089,0.0014479701919107,-0.0014479701918902,0.0014479701919309,-0.0014479701918991,0.0014479701919222,-0.0013612776460477,0.0013612776461078,-0.0013612776460887,0.0013612776460826,-0.0013612776460959,0.0013612776460784,-0.0013612776460588,0.0013612776461117,1.3111922969165e-14,3.7212980816039e-15,-0.0013985718757275,0.0013985718757446,-5.8026462625515e-15,2.1718807093587e-14,-0.0014479701919022,0.0014479701919137,-0.0014479701918929,0.0014479701919231,-0.0014479701919035,0.0014479701919115,-0.0014479701918966,0.0014479701919209,-0.0013612776460844,0.0013612776460924,-0.001361277646068,0.0013612776461065,0.67837950816043,0.57263376256839,114808,2744,0.0058103497453608,0.0058103497453597,0.0058103497453562,25.632810257034,25.650760807001,-3.2537517943725e-05,-3.2537517943725e-05,-3.2537517943725e-05,1025530.0868409,0.017584535951501
30019200,0.99598338856091,0.017174115625813,0.0057247052086078,0.0057247052086046,0.0057247052086007,-0.0013992953791606,0.0013992953791386,-1.6299087552005e-14,-7.0867469698181e-15,7.2730135681044e-15,-2.7359245076196e-14,-0.001448707878626,0.0014487078786104,-0.0014487078786238,0.0014487078786148,-0.0014487078786369,0.0014487078786,-0.0014487078786327,0.0014487078786037,-0.0013619947469136,0.0013619947468675,-0.0013619947469028,0.0013619947468843,-6.5339180403478e-15,2.7925735123255e-14,2.4543250220553e-14,-3.2264896682495e-15,-0.0013992953791389,0.0013992953791599,-0.0014487078786005,0.0014487078786204,-0.0014487078786092,0.001448707878611,-0.0014487078785906,0.0014487078786313,-0.0014487078785994,0.0014487078786224,-0.0013619947468685,0.0013619947469288,-0.0013619947469096,0.0013619947469034,-0.0013619947469168,0.001361994746899,-0.0013619947468796,0.0013619947469323,1.3220743174195e-14,3.7650614505454e-15,-0.0013992953791399,0.0013992953791571,-5.74758912098e-15,2.1794451841515e-14,-0.0014487078786025,0.0014487078786142,-0.0014487078785932,0.0014487078786234,-0.0014487078786038,0.0014487078786118,-0.0014487078785968,0.0014487078786212,-0.001361994746905,0.0013619947469133,-0.0013619947468888,0.0013619947469276,0.68873327425321,0.63068324939852,114808,2744,0.0058133468211011,0.0058133468211001,0.0058133468210966,25.913491648036,25.921580913543,-3.0292066815708e-05,-3.0292066815708e-05,-3.0292066815708e-05,1030769.1101494,0.017593685577438
30219200,0.99613382999913,0.017176521128192,0.0057255070427341,0.0057255070427309,0.0057255070427271,-0.0013996266686685,0.0013996266686465,-1.6367427376035e-14,-7.0794597383939e-15,7.31117991134e-15,-2.7423110772202e-14,-0.0014490507011527,0.001449050701137,-0.0014490507011506,0.0014490507011416,-0.0014490507011636,0.0014490507011267,-0.0014490507011594,0.0014490507011304,-0.0013623188889983,0.001362318888952,-0.0013623188889875,0.001362318888969,-6.6178566525514e-15,2.7940911130227e-14,2.4508016002816e-14,-3.2770175364225e-15,-0.0013996266686469,0.0013996266686677,-0.0014490507011272,0.0014490507011469,-0.0014490507011359,0.0014490507011375,-0.0014490507011172,0.0014490507011579,-0.001449050701126,0.001449050701149,-0.0013623188889531,0.0013623188890134,-0.0013623188889942,0.001362318888988,-0.0013623188890015,0.0013623188889836,-0.0013623188889643,0.0013623188890169,1.3252771607513e-14,3.7200334143563e-15,-0.0013996266686478,0.001399626668665,-5.7575888154962e-15,2.1797334106405e-14,-0.001449050701129,0.0014490507011408,-0.0014490507011199,0.0014490507011501,-0.0014490507011304,0.0014490507011384,-0.0014490507011234,0.0014490507011477,-0.0013623188889897,0.0013623188889979,-0.0013623188889733,0.0013623188890123,0.66008542586385,0.50299150922935,114808,2744,0.0058147191532989,0.0058147191532979,0.0058147191532944,25.990547338211,25.992817956858,-2.9675621294312e-05,-2.9675621294312e-05,-2.9675621294312e-05,1032988.1005729,0.017597875225348
30419200,0.99627694980758,0.017178685267859,0.0057262284226231,0.0057262284226199,0.0057262284226161,-0.0013993758526257,0.0013993758526036,-1.6481356799981e-14,-7.1194170425419e-15,7.3143470939965e-15,-2.7519240188455e-14,-0.0014488184126906,0.0014488184126751,-0.0014488184126887,0.0014488184126798,-0.0014488184127019,0.0014488184126648,-0.0014488184126977,0.0014488184126683,-0.0013620563660746,0.0013620563660279,-0.0013620563660635,0.0013620563660451,-6.622268282485e-15,2.8031437776465e-14,2.455519103224e-14,-3.245194979168e-15,-0.0013993758526039,0.0013993758526248,-0.0014488184126656,0.0014488184126854,-0.0014488184126742,0.0014488184126764,-0.0014488184126556,0.0014488184126965,-0.0014488184126643,0.0014488184126875,-0.0013620563660287,0.0013620563660889,-0.0013620563660702,0.0013620563660641,-0.0013620563660778,0.0013620563660594,-0.0013620563660403,0.0013620563660931,1.3195302774911e-14,3.5915079289569e-15,-0.001399375852605,0.0013993758526221,-5.8577622258555e-15,2.1709807368522e-14,-0.0014488184126674,0.0014488184126792,-0.0014488184126582,0.0014488184126884,-0.001448818412669,0.0014488184126769,-0.0014488184126618,0.0014488184126863,-0.0013620563660661,0.001362056366074,-0.0013620563660493,0.0013620563660882,0.62526764803429,0.35586293906454,114808,2744,0.0058136800628138,0.0058136800628127,0.0058136800628092,25.787465306727,25.781847399275,-3.1300277546185e-05,-3.1300277546185e-05,-3.1300277546185e-05,1041110.7676877,0.01759470350318
30619200,0.99641213693755,0.017180856836668,0.0057269522788927,0.0057269522788895,0.0057269522788857,-0.0013988378855018,0.0013988378854798,-1.6498064929265e-14,-7.0666224697181e-15,7.3900943204119e-15,-2.7523835636303e-14,-0.0014483014241058,0.0014483014240901,-0.0014483014241036,0.0014483014240947,-0.0014483014241168,0.0014483014240797,-0.0014483014241125,0.0014483014240835,-0.0013615103631805,0.0013615103631337,-0.0013615103631694,0.0013615103631508,-6.6983247825405e-15,2.8035849406398e-14,2.4510427693847e-14,-3.291781791267e-15,-0.0013988378854801,0.001398837885501,-0.0014483014240803,0.0014483014241001,-0.0014483014240891,0.0014483014240908,-0.0014483014240703,0.0014483014241111,-0.0014483014240791,0.0014483014241022,-0.0013615103631349,0.0013615103631952,-0.0013615103631762,0.00136151036317,-0.0013615103631835,0.0013615103631655,-0.0013615103631461,0.001361510363199,1.3323034166922e-14,3.6435357513074e-15,-0.0013988378854811,0.0013988378854983,-5.7742941875115e-15,2.1797510571603e-14,-0.0014483014240822,0.001448301424094,-0.001448301424073,0.0014483014241033,-0.0014483014240837,0.0014483014240916,-0.0014483014240766,0.0014483014241009,-0.0013615103631718,0.0013615103631798,-0.001361510363155,0.0013615103631941,0.66318499231164,0.55583487502488,114808,2744,0.0058114514452405,0.0058114514452396,0.005811451445236,25.454881314061,25.44554130017,-3.3960949487515e-05,-3.3960949487515e-05,-3.3960949487515e-05,1054650.323535,0.017587900377806
30819200,0.99654729853626,0.017183125520391,0.0057277085068003,0.0057277085067971,0.0057277085067932,-0.001400203853924,0.0014002038539019,-1.6539569176044e-14,-7.0376719524821e-15,7.4186844396504e-15,-2.7566863733589e-14,-0.0014496672604267,0.0014496672604111,-0.0014496672604246,0.0014496672604157,-0.0014496672604377,0.0014496672604007,-0.0014496672604335,0.0014496672604044,-0.001362881451135,0.0013628814510881,-0.0013628814511239,0.0013628814511053,-6.7106773463546e-15,2.8098082799328e-14,2.4527721283187e-14,-3.260018055745e-15,-0.0014002038539022,0.0014002038539231,-0.0014496672604013,0.001449667260421,-0.00144966726041,0.0014496672604117,-0.0014496672603913,0.001449667260432,-0.0014496672604,0.0014496672604231,-0.0013628814510893,0.0013628814511497,-0.0013628814511305,0.0013628814511244,-0.0013628814511378,0.0013628814511197,-0.0013628814511002,0.0013628814511532,1.3383120566618e-14,3.6352418870322e-15,-0.0014002038539032,0.0014002038539205,-5.7310013924296e-15,2.1827097903024e-14,-0.0014496672604031,0.0014496672604149,-0.0014496672603939,0.0014496672604242,-0.0014496672604046,0.0014496672604125,-0.0014496672603975,0.0014496672604218,-0.001362881451126,0.0013628814511341,-0.0013628814511091,0.0013628814511484,0.69236588345105,0.69953054327955,114808,2744,0.0058171100406696,0.0058171100406684,0.0058171100406649,26.085354053936,26.102768519472,-2.891716756851e-05,-2.891716756851e-05,-2.891716756851e-05,1055060.7842361,0.017605174556996
31019200,0.99668677684953,0.017185535581746,0.0057285118605854,0.0057285118605822,0.0057285118605784,-0.0014027291803638,0.0014027291803417,-1.6564372646257e-14,-6.9919294390389e-15,7.4512362944783e-15,-2.7590318899402e-14,-0.0014521889622551,0.0014521889622393,-0.0014521889622528,0.001452188962244,-0.001452188962266,0.0014521889622289,-0.0014521889622618,0.0014521889622327,-0.0013654125832408,0.0013654125831938,-0.0013654125832295,0.001365412583211,-6.7356177609127e-15,2.8126140765706e-14,2.4510604159044e-14,-3.256076999671e-15,-0.001402729180342,0.001402729180363,-0.0014521889622296,0.0014521889622494,-0.0014521889622384,0.0014521889622401,-0.0014521889622196,0.0014521889622604,-0.0014521889622284,0.0014521889622515,-0.0013654125831952,0.0013654125832555,-0.0013654125832363,0.0013654125832303,-0.0013654125832438,0.0013654125832257,-0.0013654125832062,0.0013654125832593,1.3407178655189e-14,3.5873904076855e-15,-0.001402729180343,0.0014027291803603,-5.7365894570122e-15,2.1801863379804e-14,-0.0014521889622315,0.0014521889622433,-0.0014521889622223,0.0014521889622526,-0.001452188962233,0.0014521889622409,-0.0014521889622259,0.0014521889622502,-0.0013654125832321,0.00136541258324,-0.0013654125832151,0.0013654125832544,0.71216090683143,0.7880274466112,114808,2744,0.0058275712264063,0.0058275712264053,0.0058275712264018,27.293203125612,27.32714836705,-1.9254374995104e-05,-1.9254374995104e-05,-1.9254374995104e-05,1049598.1176975,0.017637110758866
31219200,0.99683099138412,0.017188147747101,0.0057293825823703,0.0057293825823671,0.0057293825823633,-0.0014054773370017,0.0014054773369786,-1.7089318006595e-14,-7.4108898707838e-15,7.0208797265025e-15,-2.8091862401122e-14,-0.0014549330339235,0.0014549330339069,-0.0014549330339212,0.0014549330339108,-0.0014549330339334,0.0014549330338956,-0.00145493303393,0.0014549330338997,-0.0013681668155414,0.0013681668154922,-0.0013681668155291,0.0013681668155105,-6.6459146189292e-15,2.8264371836959e-14,2.4611836360588e-14,-3.1568447370308e-15,-0.0014054773369795,0.0014054773370007,-0.0014549330338991,0.0014549330339187,-0.0014549330339074,0.0014549330339101,-0.0014549330338889,0.0014549330339301,-0.0014549330338978,0.0014549330339211,-0.001368166815494,0.0013681668155538,-0.0013681668155359,0.00136816681553,-0.0013681668155446,0.0013681668155269,-0.0013681668155065,0.0013681668155593,1.3537968777288e-14,3.616448343515e-15,-0.0014054773369805,0.0014054773369978,-5.657297761672e-15,2.1863861485804e-14,-0.0014549330339009,0.0014549330339129,-0.0014549330338908,0.0014549330339222,-0.0014549330339015,0.0014549330339099,-0.0014549330338953,0.0014549330339194,-0.0013681668155337,0.0013681668155403,-0.0013681668155153,0.0013681668155558,0.74546452007195,0.92755087613906,114808,2744,0.0058389553570014,0.005838955357001,0.0058389553569973,28.598845667147,28.635826918357,-8.8092346628228e-06,-8.8092346628228e-06,-8.8092346628228e-06,1041536.2852212,0.017671865761139
31419200,0.99697387539977,0.017190618308875,0.0057302061029617,0.0057302061029585,0.0057302061029547,-0.0014069295416443,0.0014069295416213,-1.6949754255466e-14,-7.242350557228e-15,7.1742295914018e-15,-2.7980880497425e-14,-0.0014563851511524,0.0014563851511358,-0.0014563851511498,0.001456385151141,-0.0014563851511641,0.0014563851511252,-0.0014563851511594,0.0014563851511285,-0.0013696176072585,0.0013696176072109,-0.0013696176072474,0.001369617607228,-6.9740222425253e-15,2.7983145134125e-14,2.426784686923e-14,-3.4697763536553e-15,-0.0014069295416223,0.0014069295416427,-0.001456385151128,0.0014563851511465,-0.0014563851511367,0.0014563851511389,-0.0014563851511186,0.0014563851511589,-0.0014563851511258,0.0014563851511495,-0.0013696176072084,0.0013696176072673,-0.0013696176072508,0.0013696176072441,-0.0013696176072597,0.00136961760724,-0.0013696176072214,0.0013696176072734,1.3470470839304e-14,3.4868934777978e-15,-0.0014069295416229,0.00140692954164,-5.7656473928416e-15,2.1747041525162e-14,-0.0014563851511294,0.0014563851511415,-0.0014563851511195,0.0014563851511502,-0.0014563851511311,0.0014563851511389,-0.0014563851511238,0.0014563851511479,-0.0013696176072468,0.0013696176072542,-0.0013696176072284,0.0013696176072691,0.71243065668991,0.75656123134634,114808,2744,0.0058449709968808,0.0058449709968795,0.0058449709968753,29.219947188846,29.237872369624,-3.8404224892353e-06,-3.8404224892353e-06,-3.8404224892353e-06,1030357.5954467,0.017690231740579
31619200,0.99710873646673,0.017192843721429,0.0057309479071462,0.005730947907143,0.0057309479071392,-0.0014067289492472,0.001406728949225,-1.6725465151462e-14,-6.9378938655239e-15,7.4423694927427e-15,-2.7697815615451e-14,-0.0014561935516574,0.0014561935516415,-0.001456193551655,0.0014561935516462,-0.0014561935516684,0.001456193551631,-0.0014561935516641,0.0014561935516348,-0.0013694095611663,0.001369409561119,-0.0013694095611548,0.0013694095611363,-6.775028321653e-15,2.8177727425063e-14,2.4451605961399e-14,-3.2664884463143e-15,-0.0014067289492254,0.0014067289492463,-0.0014561935516322,0.0014561935516517,-0.0014561935516409,0.0014561935516427,-0.0014561935516222,0.001456193551663,-0.0014561935516308,0.001456193551654,-0.0013694095611199,0.0013694095611799,-0.0013694095611612,0.0013694095611551,-0.0013694095611687,0.0013694095611505,-0.0013694095611309,0.001369409561184,1.3508793197994e-14,3.4732174250035e-15,-0.0014067289492263,0.0014067289492435,-5.7387070393803e-15,2.1752453124547e-14,-0.001456193551634,0.0014561935516459,-0.0014561935516246,0.0014561935516551,-0.0014561935516354,0.0014561935516433,-0.0014561935516285,0.0014561935516526,-0.001369409561157,0.0013694095611647,-0.0013694095611396,0.0013694095611794,0.68058193238635,0.60478169580822,114808,2744,0.0058441400277324,0.0058441400277314,0.0058441400277277,29.012092571903,29.006563008096,-5.5032594247774e-06,-5.5032594247774e-06,-5.5032594247774e-06,1028229.7421055,0.017687695002902
31819200,0.99723484547768,0.017194854118937,0.0057316180396492,0.005731618039646,0.0057316180396422,-0.0014061413140158,0.0014061413139936,-1.6788511019571e-14,-6.9402218045173e-15,7.4145082115328e-15,-2.7721278133982e-14,-0.0014556154102401,0.0014556154102241,-0.0014556154102377,0.0014556154102289,-0.0014556154102511,0.0014556154102136,-0.0014556154102467,0.0014556154102174,-0.0013688158663902,0.0013688158663428,-0.0013688158663788,0.0013688158663603,-6.8046744748069e-15,2.8147081302458e-14,2.4449782487693e-14,-3.2499595394963e-15,-0.0014061413139941,0.0014061413140149,-0.0014556154102147,0.0014556154102343,-0.0014556154102234,0.0014556154102252,-0.0014556154102047,0.0014556154102455,-0.0014556154102133,0.0014556154102366,-0.0013688158663444,0.0013688158664045,-0.0013688158663854,0.0013688158663795,-0.0013688158663934,0.0013688158663752,-0.0013688158663557,0.0013688158664087,1.3532439534438e-14,3.4325127861494e-15,-0.001406141313995,0.0014061413140122,-5.7070609473232e-15,2.176333514505e-14,-0.0014556154102165,0.0014556154102284,-0.0014556154102071,0.0014556154102376,-0.001455615410218,0.0014556154102258,-0.001455615410211,0.0014556154102351,-0.0013688158663818,0.0013688158663894,-0.0013688158663645,0.0013688158664041,0.65806099883377,0.50727485925725,114808,2744,0.0058417057698641,0.0058417057698633,0.0058417057698597,28.630826678833,28.620096949399,-8.5533865693379e-06,-8.5533865693379e-06,-8.5533865693379e-06,1031451.6468443,0.017680263298867
32019200,0.99735497686285,0.01719694758178,0.0057323158605966,0.0057323158605934,0.0057323158605896,-0.0014061286705715,0.0014061286705493,-1.6781955153672e-14,-6.87064327752e-15,7.4971170160155e-15,-2.7636016032798e-14,-0.0014556086209556,0.0014556086209399,-0.0014556086209529,0.0014556086209447,-0.0014556086209665,0.001455608620929,-0.0014556086209618,0.0014556086209327,-0.0013688046749969,0.0013688046749496,-0.0013688046749854,0.0013688046749673,-6.7939100977689e-15,2.8165433682982e-14,2.4420312799736e-14,-3.2486654613825e-15,-0.0014061286705499,0.0014061286705707,-0.0014556086209306,0.0014556086209502,-0.0014556086209397,0.0014556086209408,-0.0014556086209206,0.0014556086209611,-0.0014556086209292,0.0014556086209526,-0.0013688046749507,0.0013688046750105,-0.001368804674992,0.0013688046749861,-0.0013688046749998,0.0013688046749822,-0.0013688046749619,0.0013688046750153,1.3494793625671e-14,3.341780263848e-15,-0.0014061286705509,0.0014061286705679,-5.7598828630617e-15,2.1670749738177e-14,-0.0014556086209327,0.0014556086209443,-0.0014556086209231,0.0014556086209541,-0.0014556086209339,0.001455608620942,-0.001455608620927,0.001455608620951,-0.0013688046749884,0.0013688046749959,-0.0013688046749708,0.0013688046750105,0.71766729173074,0.79603683395703,114808,2744,0.0058416533900881,0.0058416533900876,0.0058416533900838,28.559634609615,28.557482456705,-9.1229231230778e-06,-9.1229231230778e-06,-9.1229231230778e-06,1037008.5104979,0.017680103349533
32219200,0.99747077498362,0.017199010660305,0.0057330035534385,0.0057330035534353,0.0057330035534315,-0.0014065720034205,0.0014065720033983,-1.6857846217605e-14,-6.8662925372703e-15,7.4607688617208e-15,-2.7677330947126e-14,-0.0014560463119842,0.0014560463119681,-0.0014560463119817,0.001456046311973,-0.0014560463119951,0.0014560463119576,-0.0014560463119907,0.0014560463119614,-0.0013692531621483,0.0013692531621007,-0.0013692531621367,0.0013692531621184,-6.797204114786e-15,2.8163551387543e-14,2.4411136609474e-14,-3.2279013898283e-15,-0.0014065720033987,0.0014065720034195,-0.0014560463119589,0.0014560463119784,-0.0014560463119676,0.0014560463119693,-0.0014560463119489,0.0014560463119896,-0.0014560463119575,0.0014560463119807,-0.0013692531621019,0.0013692531621618,-0.0013692531621432,0.0013692531621372,-0.0013692531621505,0.0013692531621324,-0.0013692531621125,0.0013692531621657,1.3594996446896e-14,3.3543092928595e-15,-0.0014065720033996,0.0014065720034168,-5.6995905873023e-15,2.1708336825211e-14,-0.0014560463119607,0.0014560463119726,-0.0014560463119513,0.0014560463119819,-0.0014560463119622,0.00145604631197,-0.0014560463119552,0.0014560463119792,-0.0013692531621389,0.0013692531621464,-0.0013692531621215,0.0013692531621612,0.73341162801257,0.85840252638019,114808,2744,0.0058434899115238,0.0058434899115227,0.005843489911519,28.693708821028,28.697419325202,-8.0503294317766e-06,-8.0503294317766e-06,-8.0503294317766e-06,1029692.0611596,0.017685710068231
32419200,0.99758326293721,0.017201064746846,0.0057336882489522,0.005733688248949,0.0057336882489452,-0.0014073013106491,0.0014073013106269,-1.6867073876883e-14,-6.8026570732018e-15,7.4542459681598e-15,-2.7678161804097e-14,-0.0014567674136921,0.0014567674136761,-0.0014567674136896,0.001456767413681,-0.0014567674137031,0.0014567674136656,-0.0014567674136987,0.0014567674136695,-0.001369988755288,0.0013699887552405,-0.0013699887552764,0.0013699887552582,-6.7907337242167e-15,2.8159963261864e-14,2.4418018752171e-14,-3.1982552366744e-15,-0.0014073013106273,0.0014073013106482,-0.0014567674136668,0.0014567674136863,-0.0014567674136755,0.0014567674136772,-0.0014567674136568,0.0014567674136975,-0.0014567674136654,0.0014567674136887,-0.0013699887552418,0.0013699887553018,-0.001369988755283,0.0013699887552771,-0.0013699887552907,0.0013699887552725,-0.0013699887552528,0.001369988755306,1.3651994705639e-14,3.3392215184865e-15,-0.0014073013106283,0.0014073013106455,-5.6724737686436e-15,2.1713924889794e-14,-0.0014567674136685,0.0014567674136805,-0.0014567674136592,0.0014567674136898,-0.0014567674136701,0.0014567674136779,-0.0014567674136631,0.0014567674136871,-0.0013699887552791,0.0013699887552865,-0.0013699887552616,0.0013699887553014,0.75109664859528,0.92292026124148,114808,2744,0.0058465110497547,0.0058465110497537,0.00584651104975,28.970889625365,28.978689776205,-5.8328829970773e-06,-5.8328829970773e-06,-5.8328829970773e-06,1020420.3986941,0.017694933520185
32619200,0.99769538402957,0.017202960021164,0.005734320007058,0.0057343200070548,0.005734320007051,-0.0014089416742276,0.0014089416742055,-1.6869626188617e-14,-6.7365922256288e-15,7.4618228276846e-15,-2.7651817020677e-14,-0.0014583960855897,0.0014583960855735,-0.0014583960855871,0.0014583960855785,-0.0014583960856005,0.001458396085563,-0.001458396085596,0.001458396085567,-0.0013716342648559,0.0013716342648082,-0.0013716342648441,0.0013716342648261,-6.8115566175033e-15,2.8122199709632e-14,2.4366255627616e-14,-3.2196075255531e-15,-0.0014089416742059,0.0014089416742267,-0.0014583960855643,0.0014583960855838,-0.001458396085573,0.0014583960855747,-0.0014583960855544,0.001458396085595,-0.0014583960855629,0.0014583960855861,-0.0013716342648099,0.0013716342648698,-0.001371634264851,0.0013716342648449,-0.0013716342648586,0.0013716342648405,-0.0013716342648209,0.001371634264874,1.3680817354538e-14,3.2984580578999e-15,-0.0014089416742068,0.001408941674224,-5.6632387566493e-15,2.1695396044073e-14,-0.0014583960855661,0.0014583960855782,-0.0014583960855567,0.0014583960855873,-0.0014583960855676,0.0014583960855754,-0.0014583960855607,0.0014583960855847,-0.0013716342648472,0.0013716342648544,-0.0013716342648295,0.0013716342648694,0.69654113366408,0.65456196929493,114808,2744,0.005853306100416,0.0058533061004151,0.0058533061004115,29.719048760366,29.740087907874,1.5239008292661e-07,1.5239008292661e-07,1.5239008292661e-07,1008835.6800645,0.017715679284142
32819200,0.99779730583443,0.017204551192699,0.0057348503975698,0.0057348503975666,0.0057348503975628,-0.0014074326265351,0.0014074326265132,-1.6791577102375e-14,-6.6007123003804e-15,7.5731250340963e-15,-2.7527659048912e-14,-0.0014569087698305,0.0014569087698147,-0.0014569087698282,0.0014569087698192,-0.0014569087698412,0.001456908769804,-0.0014569087698366,0.0014569087698082,-0.0013701088222719,0.0013701088222242,-0.0013701088222598,0.0013701088222424,-6.5872105299458e-15,2.832613465603e-14,2.4554249884521e-14,-3.0047317369197e-15,-0.0014074326265132,0.0014074326265345,-0.0014569087698056,0.0014569087698257,-0.0014569087698142,0.0014569087698164,-0.0014569087697955,0.0014569087698365,-0.001456908769804,0.0014569087698278,-0.0013701088222252,0.0013701088222855,-0.0013701088222662,0.001370108822261,-0.0013701088222739,0.0013701088222558,-0.0013701088222364,0.0013701088222901,1.38805171362e-14,3.4232189524226e-15,-0.0014074326265142,0.0014074326265317,-5.4820089989763e-15,2.1838274032189e-14,-0.0014569087698074,0.0014569087698195,-0.0014569087697981,0.0014569087698288,-0.0014569087698089,0.0014569087698167,-0.0014569087698021,0.0014569087698259,-0.0013701088222627,0.0013701088222699,-0.0013701088222451,0.0013701088222851,0.64446382874406,0.41730343038392,114808,2744,0.0058470549459055,0.0058470549459044,0.0058470549459007,28.868738506456,28.845307116606,-6.6500919483532e-06,-6.6500919483532e-06,-6.6500919483532e-06,1014835.4851385,0.017696594504022
33019200,0.99789303347613,0.017206166565261,0.0057353888550904,0.0057353888550873,0.0057353888550835,-0.0014069033460529,0.0014069033460312,-1.6783097582007e-14,-6.4902987386963e-15,7.6366604322879e-15,-2.7434955998573e-14,-0.0014563866482456,0.0014563866482295,-0.0014563866482435,0.0014563866482349,-0.0014563866482565,0.0014563866482188,-0.0014563866482519,0.0014563866482239,-0.0013695791582143,0.001369579158166,-0.0013695791582017,0.0013695791581839,-6.6001513110844e-15,2.8284841799851e-14,2.4508663041873e-14,-3.0110844840241e-15,-0.0014069033460315,0.0014069033460526,-0.0014563866482193,0.0014563866482392,-0.0014563866482293,0.0014563866482298,-0.0014563866482088,0.0014563866482506,-0.0014563866482182,0.0014563866482418,-0.0013695791581686,0.0013695791582277,-0.0013695791582081,0.0013695791582024,-0.0013695791582159,0.0013695791581996,-0.0013695791581786,0.0013695791582323,1.3703463721531e-14,3.1788734758327e-15,-0.0014069033460326,0.0014069033460498,-5.6718267295867e-15,2.1581046596193e-14,-0.0014563866482208,0.0014563866482336,-0.0014563866482125,0.0014563866482439,-0.0014563866482229,0.0014563866482307,-0.0014563866482156,0.0014563866482402,-0.0013695791582047,0.0013695791582121,-0.0013695791581881,0.0013695791582284,0.69524388957251,0.67416763273613,114808,2744,0.005844862429754,0.0058448624297538,0.0058448624297505,28.559513587437,28.550524005822,-9.1238913005067e-06,-9.1238913005067e-06,-9.1238913005067e-06,1024977.4314484,0.017689900630474
33219200,0.99798547412527,0.017207804370465,0.0057359347901583,0.0057359347901551,0.0057359347901513,-0.0014073466969845,0.0014073466969627,-1.6826661508512e-14,-6.483272643596e-15,7.6038267616207e-15,-2.7465234485351e-14,-0.0014568266443416,0.0014568266443258,-0.0014568266443389,0.0014568266443305,-0.0014568266443524,0.0014568266443149,-0.0014568266443475,0.0014568266443191,-0.0013700275561284,0.0013700275560811,-0.0013700275561165,0.0013700275560991,-7.0144327727172e-15,2.7862325295676e-14,2.4104851848616e-14,-3.3705440910152e-15,-0.0014073466969632,0.0014073466969835,-0.0014568266443165,0.0014568266443352,-0.001456826644325,0.001456826644326,-0.001456826644306,0.0014568266443462,-0.0014568266443148,0.0014568266443373,-0.0013700275560824,0.0013700275561419,-0.0013700275561233,0.0013700275561174,-0.0013700275561319,0.0013700275561132,-0.0013700275560943,0.0013700275561466,1.3689228862278e-14,3.0932878551205e-15,-0.001407346696964,0.001407346696981,-5.7073550559854e-15,2.1534753892757e-14,-0.0014568266443177,0.0014568266443301,-0.0014568266443085,0.0014568266443388,-0.0014568266443195,0.0014568266443271,-0.0014568266443127,0.0014568266443362,-0.0013700275561202,0.0013700275561268,-0.0013700275561024,0.0013700275561424,0.72923011554932,0.83165816985166,114808,2744,0.0058466989980269,0.0058466989980259,0.0058466989980223,28.72584870617,28.730354734339,-7.7932103506378e-06,-7.7932103506378e-06,-7.7932103506378e-06,1023125.2660779,0.017695507594592
33419200,0.99807613887902,0.017209441440439,0.0057364804801496,0.0057364804801464,0.0057364804801426,-0.0014083693826192,0.0014083693825972,-1.6985678709469e-14,-6.5767389978219e-15,7.4630073043673e-15,-2.7584436726157e-14,-0.0014578413186718,0.0014578413186557,-0.0014578413186692,0.0014578413186607,-0.0014578413186827,0.0014578413186452,-0.0014578413186781,0.0014578413186493,-0.0013710559949677,0.0013710559949199,-0.0013710559949556,0.001371055994938,-6.7663815269831e-15,2.8098318086258e-14,2.4323727515056e-14,-3.1293161662451e-15,-0.0014083693825975,0.0014083693826184,-0.0014578413186464,0.0014578413186659,-0.0014578413186551,0.0014578413186568,-0.0014578413186364,0.001457841318677,-0.001457841318645,0.0014578413186682,-0.0013710559949216,0.0013710559949815,-0.0013710559949625,0.0013710559949568,-0.0013710559949702,0.0013710559949522,-0.0013710559949325,0.0013710559949857,1.3815901463106e-14,3.156609450101e-15,-0.0014083693825985,0.0014083693826157,-5.5992995334781e-15,2.1622868847964e-14,-0.001457841318648,0.0014578413186603,-0.0014578413186388,0.0014578413186695,-0.0014578413186497,0.0014578413186575,-0.0014578413186428,0.0014578413186666,-0.001371055994959,0.0013710559949659,-0.0013710559949412,0.0013710559949813,0.74278855080059,0.88146625124173,114808,2744,0.0058509354004146,0.0058509354004137,0.00585093540041,29.175171411047,29.187795063727,-4.1986287116258e-06,-4.1986287116258e-06,-4.1986287116258e-06,1015177.3397346,0.017708441494138
33619200,0.99816398288684,0.017211028370211,0.0057370094567403,0.0057370094567372,0.0057370094567334,-0.0014090256825555,0.0014090256825334,-1.7038119203036e-14,-6.5582239384443e-15,7.434145594161e-15,-2.7588591011012e-14,-0.0014584922065998,0.0014584922065837,-0.0014584922065972,0.0014584922065887,-0.0014584922066107,0.0014584922065732,-0.0014584922066062,0.0014584922065773,-0.0013717152424624,0.0013717152424144,-0.0013717152424502,0.0013717152424326,-6.7709696221141e-15,2.8071671841459e-14,2.4283199341399e-14,-3.1403746519453e-15,-0.0014090256825338,0.0014090256825546,-0.0014584922065746,0.001458492206594,-0.0014584922065832,0.0014584922065849,-0.0014584922065645,0.0014584922066051,-0.0014584922065731,0.0014584922065963,-0.0013717152424163,0.001371715242476,-0.0013717152424571,0.0013717152424513,-0.0013717152424647,0.0013717152424467,-0.001371715242427,0.0013717152424802,1.382046014737e-14,3.0944937006357e-15,-0.0014090256825347,0.0014090256825519,-5.6112403451651e-15,2.1581752456983e-14,-0.0014584922065762,0.0014584922065883,-0.001458492206567,0.0014584922065976,-0.0014584922065779,0.0014584922065856,-0.001458492206571,0.0014584922065947,-0.0013717152424535,0.0013717152424603,-0.0013717152424357,0.0013717152424758,0.74303224036887,0.86738557344358,114808,2744,0.0058536540638489,0.005853654063848,0.0058536540638444,29.430430479607,29.437758634015,-2.1565561631406e-06,-2.1565561631406e-06,-2.1565561631406e-06,1006976.7980574,0.017716741818935
33819200,0.99824945498591,0.017212577349075,0.0057375257830284,0.0057375257830252,0.0057375257830214,-0.0014098409073471,0.0014098409073251,-1.7061471430818e-14,-6.5115101770985e-15,7.4316021286636e-15,-2.7562628568852e-14,-0.0014593009283723,0.0014593009283561,-0.0014593009283697,0.0014593009283611,-0.0014593009283831,0.0014593009283456,-0.0014593009283784,0.0014593009283497,-0.001372534016093,0.001372534016045,-0.0013725340160809,0.0013725340160634,-6.7633227968958e-15,2.805102541337e-14,2.4256611918333e-14,-3.1343748352356e-15,-0.0014098409073255,0.0014098409073463,-0.001459300928347,0.0014593009283664,-0.0014593009283556,0.0014593009283573,-0.001459300928337,0.0014593009283775,-0.0014593009283456,0.0014593009283687,-0.001372534016047,0.0013725340161067,-0.0013725340160878,0.0013725340160819,-0.0013725340160954,0.0013725340160775,-0.0013725340160578,0.0013725340161109,1.3902839983664e-14,3.1073756600419e-15,-0.0014098409073264,0.0014098409073436,-5.54600704388e-15,2.1614280875027e-14,-0.0014593009283485,0.0014593009283608,-0.0014593009283393,0.0014593009283699,-0.0014593009283502,0.001459300928358,-0.0014593009283433,0.0014593009283671,-0.0013725340160842,0.001372534016091,-0.0013725340160662,0.0013725340161065,0.74517937036756,0.86413168163844,114808,2744,0.0058570310397698,0.0058570310397689,0.0058570310397652,29.773957387206,29.783676830532,5.9165909765105e-07,5.9165909765105e-07,5.9165909765105e-07,999606.15931317,0.017727052119292
34019200,0.99833293178473,0.017214046887618,0.0057380156292093,0.0057380156292062,0.0057380156292023,-0.0014108138478535,0.0014108138478315,-1.7099714747805e-14,-6.4827460052727e-15,7.4161013384153e-15,-2.7549489264367e-14,-0.0014602677124437,0.0014602677124275,-0.001460267712441,0.0014602677124326,-0.0014602677124546,0.001460267712417,-0.0014602677124499,0.0014602677124212,-0.0013735097635548,0.0013735097635067,-0.0013735097635425,0.0013735097635251,-6.7331472481499e-15,2.8050437196045e-14,2.4259553004955e-14,-3.1002582304156e-15,-0.0014108138478319,0.0014108138478527,-0.0014602677124183,0.0014602677124378,-0.001460267712427,0.0014602677124287,-0.0014602677124083,0.0014602677124489,-0.0014602677124169,0.0014602677124401,-0.0013735097635087,0.0013735097635684,-0.0013735097635495,0.0013735097635438,-0.0013735097635571,0.0013735097635392,-0.0013735097635195,0.0013735097635726,1.3912133817391e-14,3.0465245778242e-15,-0.0014108138478328,0.00141081384785,-5.5606536552596e-15,2.1569105784506e-14,-0.0014602677124198,0.0014602677124321,-0.0014602677124107,0.0014602677124414,-0.0014602677124217,0.0014602677124293,-0.0014602677124148,0.0014602677124385,-0.001373509763546,0.0013735097635527,-0.001373509763528,0.0013735097635683,0.72426715301157,0.7570419323305,114808,2744,0.0058610613023082,0.0058610613023072,0.0058610613023036,30.202449702,30.214586776833,4.0195976159967e-06,4.0195976159967e-06,4.0195976159967e-06,993015.73874758,0.017739357194684
34219200,0.9984129992901,0.017215420035036,0.0057384733450154,0.0057384733450123,0.0057384733450085,-0.0014111785951672,0.0014111785951452,-1.7126419814337e-14,-6.4400065021117e-15,7.4072241969221e-15,-2.7527379645683e-14,-0.0014606351316106,0.0014606351315943,-0.0014606351316079,0.0014606351315994,-0.0014606351316214,0.0014606351315839,-0.0014606351316168,0.0014606351315881,-0.0013738720160749,0.0013738720160269,-0.0013738720160626,0.0013738720160452,-6.7205593974059e-15,2.8032025993789e-14,2.4251553249342e-14,-3.0835528584003e-15,-0.0014111785951456,0.0014111785951664,-0.0014606351315851,0.0014606351316046,-0.0014606351315938,0.0014606351315955,-0.0014606351315751,0.0014606351316157,-0.0014606351315837,0.0014606351316069,-0.0013738720160289,0.0013738720160886,-0.0013738720160696,0.0013738720160639,-0.0013738720160772,0.0013738720160594,-0.0013738720160397,0.0013738720160927,1.3951838486794e-14,3.0167901920716e-15,-0.0014111785951465,0.0014111785951637,-5.5418895226086e-15,2.1563341254726e-14,-0.0014606351315867,0.001460635131599,-0.0014606351315775,0.0014606351316081,-0.0014606351315885,0.0014606351315961,-0.0014606351315816,0.0014606351316052,-0.0013738720160662,0.0013738720160728,-0.0013738720160482,0.0013738720160884,0.70594537045239,0.67034958677107,114808,2744,0.005862572173023,0.0058625721730221,0.0058625721730185,30.329767512726,30.333516420546,5.0381401018053e-06,5.0381401018053e-06,5.0381401018053e-06,992386.83555646,0.017743970357546
34419200,0.99849064729149,0.017216757019827,0.0057389190066125,0.0057389190066093,0.0057389190066055,-0.0014119138185889,0.0014119138185668,-1.7154315101861e-14,-6.4001291587563e-15,7.3956047219258e-15,-2.7507417020233e-14,-0.001461371422443,0.0014613714224268,-0.0014613714224403,0.0014613714224319,-0.0014613714224538,0.0014613714224163,-0.0014613714224492,0.0014613714224205,-0.0013746075170032,0.0013746075169552,-0.0013746075169909,0.0013746075169735,-6.7051481035045e-15,2.8018320530129e-14,2.4240671228839e-14,-3.0819058498918e-15,-0.0014119138185672,0.001411913818588,-0.0014613714224176,0.001461371422437,-0.0014613714224262,0.001461371422428,-0.0014613714224076,0.0014613714224481,-0.0014613714224162,0.0014613714224393,-0.0013746075169571,0.0013746075170168,-0.0013746075169978,0.0013746075169921,-0.0013746075170054,0.0013746075169876,-0.0013746075169678,0.0013746075170209,1.3987955030517e-14,2.9841735414291e-15,-0.0014119138185681,0.0014119138185854,-5.531183967303e-15,2.1561106028893e-14,-0.0014613714224191,0.0014613714224315,-0.0014613714224099,0.0014613714224406,-0.0014613714224209,0.0014613714224286,-0.001461371422414,0.0014613714224377,-0.0013746075169943,0.001374607517001,-0.0013746075169763,0.0013746075170166,0.70868165426396,0.68757176325041,114808,2744,0.0058656176791157,0.0058656176791147,0.0058656176791111,30.661467625438,30.670811020721,7.6917410035034e-06,7.6917410035034e-06,7.6917410035034e-06,994063.34794702,0.017753269050676
34619200,0.99857053126325,0.017218187255655,0.0057393957518883,0.0057393957518851,0.0057393957518813,-0.0014147542977896,0.0014147542977676,-1.7190296539417e-14,-6.3664124727852e-15,7.3572415786362e-15,-2.7485645626511e-14,-0.0014642028921264,0.0014642028921101,-0.0014642028921237,0.0014642028921153,-0.0014642028921372,0.0014642028920997,-0.0014642028921326,0.0014642028921039,-0.0013774562561236,0.0013774562560754,-0.001377456256111,0.0013774562560939,-6.6724432202633e-15,2.7987968516185e-14,2.4267964512695e-14,-3.0592006611668e-15,-0.0014147542977679,0.0014147542977887,-0.0014642028921011,0.0014642028921205,-0.0014642028921097,0.0014642028921115,-0.0014642028920911,0.0014642028921316,-0.0014642028920996,0.0014642028921228,-0.0013774562560773,0.001377456256137,-0.001377456256118,0.0013774562561124,-0.0013774562561256,0.0013774562561079,-0.0013774562560881,0.001377456256141,1.4025130365424e-14,2.9534685970911e-15,-0.0014147542977689,0.0014147542977861,-5.5277134850886e-15,2.1570517506085e-14,-0.0014642028921026,0.0014642028921149,-0.0014642028920934,0.0014642028921241,-0.0014642028921044,0.001464202892112,-0.0014642028920975,0.0014642028921212,-0.0013774562561146,0.0013774562561211,-0.0013774562560965,0.0013774562561369,0.73613943187038,0.81674655408875,114808,2744,0.0058773837757283,0.0058773837757273,0.0058773837757237,32.081713867132,32.121675561366,1.905371093706e-05,1.905371093706e-05,1.905371093706e-05,992498.28396073,0.017789194267709
34819200,0.99865258398146,0.017219669070819,0.0057398896902764,0.0057398896902732,0.0057398896902694,-0.0014177613316053,0.0014177613315833,-1.7229544421304e-14,-6.333906687322e-15,7.3263456934401e-15,-2.7457720009031e-14,-0.0014672067027952,0.0014672067027788,-0.0014672067027924,0.001467206702784,-0.001467206702806,0.0014672067027684,-0.0014672067028013,0.0014672067027726,-0.0013804652932101,0.0013804652931618,-0.0013804652931975,0.0013804652931804,-6.6547967005288e-15,2.7947499164261e-14,2.4256964848727e-14,-3.0723767292352e-15,-0.0014177613315837,0.0014177613316045,-0.0014672067027696,0.0014672067027891,-0.0014672067027782,0.00146720670278,-0.0014672067027597,0.0014672067028002,-0.0014672067027683,0.0014672067027914,-0.001380465293164,0.0013804652932237,-0.0013804652932047,0.001380465293199,-0.0013804652932122,0.0013804652931944,-0.0013804652931748,0.0013804652932276,1.4071305425396e-14,2.9280576086735e-15,-0.0014177613315846,0.0014177613316018,-5.5163020689936e-15,2.1582811248167e-14,-0.0014672067027711,0.0014672067027835,-0.0014672067027619,0.0014672067027927,-0.001467206702773,0.0014672067027806,-0.0014672067027661,0.0014672067027897,-0.0013804652932013,0.0013804652932077,-0.001380465293183,0.0013804652932235,0.7423629450566,0.83758763975058,114808,2744,0.0058898396051848,0.0058898396051838,0.0058898396051802,33.56988200787,33.612288045648,3.0959056062957e-05,3.0959056062957e-05,3.0959056062957e-05,988214.80359539,0.01782722708342
35019200,0.99873425567329,0.017221101262069,0.0057403670873597,0.0057403670873565,0.0057403670873527,-0.0014198523697551,0.0014198523697331,-1.7265134326703e-14,-6.3003892140152e-15,7.3155273198899e-15,-2.7423779869408e-14,-0.0014692991302028,0.0014692991301864,-0.0014692991302,0.0014692991301916,-0.0014692991302135,0.001469299130176,-0.0014692991302088,0.0014692991301802,-0.0013825542721231,0.0013825542720748,-0.0013825542721105,0.0013825542720934,-6.6280328122649e-15,2.7929735001062e-14,2.4247259262874e-14,-3.0883174187286e-15,-0.0014198523697335,0.0014198523697543,-0.0014692991301772,0.0014692991301967,-0.0014692991301858,0.0014692991301876,-0.0014692991301673,0.0014692991302078,-0.0014692991301759,0.001469299130199,-0.001382554272077,0.0013825542721366,-0.0013825542721178,0.001382554272112,-0.0013825542721252,0.0013825542721076,-0.0013825542720878,0.0013825542721407,1.4092275373014e-14,2.878382655621e-15,-0.0014198523697344,0.0014198523697516,-5.5387719707889e-15,2.1567399954265e-14,-0.0014692991301787,0.0014692991301911,-0.0014692991301695,0.0014692991302003,-0.0014692991301806,0.0014692991301882,-0.0014692991301737,0.0014692991301973,-0.0013825542721144,0.0013825542721208,-0.0013825542720961,0.0013825542721366,0.72136731251767,0.73255525447328,114808,2744,0.0058985010467022,0.0058985010467013,0.0058985010466977,34.580440961457,34.609508286381,3.9043527691656e-05,3.9043527691656e-05,3.9043527691656e-05,984839.41854776,0.017853675085731
35219200,0.99881416567573,0.017222464351393,0.0057408214504676,0.0057408214504644,0.0057408214504606,-0.0014214353110236,0.0014214353110015,-1.7298086445039e-14,-6.2629324079272e-15,7.2949256974171e-15,-2.7404552515614e-14,-0.0014708863387248,0.0014708863387083,-0.0014708863387219,0.0014708863387136,-0.0014708863387355,0.001470886338698,-0.0014708863387308,0.0014708863387022,-0.001384134051482,0.0013841340514337,-0.0013841340514694,0.0013841340514524,-6.6136803095475e-15,2.7905029873433e-14,2.424814158886e-14,-3.0973171437932e-15,-0.0014214353110019,0.0014214353110227,-0.0014708863386992,0.0014708863387187,-0.0014708863387078,0.0014708863387096,-0.0014708863386893,0.0014708863387297,-0.0014708863386979,0.0014708863387209,-0.0013841340514359,0.0013841340514956,-0.0013841340514767,0.0013841340514709,-0.0013841340514841,0.0013841340514665,-0.0013841340514468,0.0013841340514996,1.4129980103513e-14,2.8458836484433e-15,-0.0014214353110028,0.00142143531102,-5.5431836007225e-15,2.1573929166567e-14,-0.0014708863387007,0.0014708863387131,-0.0014708863386915,0.0014708863387223,-0.0014708863387026,0.0014708863387102,-0.0014708863386957,0.0014708863387193,-0.0013841340514733,0.0013841340514797,-0.001384134051455,0.0013841340514956,0.70214460487474,0.6436174661868,114808,2744,0.0059050577937331,0.0059050577937322,0.0059050577937286,35.342579240702,35.364476685023,4.514063392562e-05,4.514063392562e-05,4.514063392562e-05,985546.34694934,0.017873696851894
35419200,0.9988913948817,0.017223742157004,0.0057412473856715,0.0057412473856683,0.0057412473856645,-0.0014226537782263,0.0014226537782042,-1.7328600218746e-14,-6.2228456270362e-15,7.276803319058e-15,-2.7385442805285e-14,-0.0014721122376389,0.0014721122376224,-0.0014721122376361,0.0014721122376277,-0.0014721122376496,0.0014721122376121,-0.0014721122376449,0.0014721122376164,-0.0013853480083542,0.0013853480083059,-0.0013853480083415,0.0013853480083246,-6.5885634297922e-15,2.7892794953084e-14,2.4262141161183e-14,-3.0942584137059e-15,-0.0014226537782046,0.0014226537782254,-0.0014721122376134,0.0014721122376329,-0.001472112237622,0.0014721122376238,-0.0014721122376034,0.0014721122376439,-0.001472112237612,0.0014721122376351,-0.001385348008308,0.0013853480083677,-0.0013853480083488,0.001385348008343,-0.0013853480083561,0.0013853480083386,-0.0013853480083188,0.0013853480083716,1.415789101556e-14,2.8034731793482e-15,-0.0014226537782055,0.0014226537782227,-5.5564773122558e-15,2.1570693971282e-14,-0.0014721122376149,0.0014721122376273,-0.0014721122376057,0.0014721122376364,-0.0014721122376168,0.0014721122376243,-0.0014721122376099,0.0014721122376334,-0.0013853480083454,0.0013853480083517,-0.001385348008327,0.0013853480083676,0.68162528007124,0.55467967790032,114808,2744,0.0059101047896648,0.0059101047896638,0.0059101047896602,35.928248114096,35.945079251249,4.9825984912769e-05,4.9825984912769e-05,4.9825984912769e-05,989646.16139854,0.017889108781438
35619200,0.99896673273911,0.017224942813145,0.0057416476043852,0.005741647604382,0.0057416476043782,-0.0014242764097981,0.0014242764097761,-1.7358285892752e-14,-6.182706113381e-15,7.2660007998029e-15,-2.7363450830066e-14,-0.0014737421150424,0.0014737421150259,-0.0014737421150395,0.0014737421150312,-0.0014737421150532,0.0014737421150156,-0.0014737421150484,0.0014737421150199,-0.0013869670784519,0.0013869670784035,-0.0013869670784391,0.0013869670784223,-6.5922691989364e-15,2.785450200526e-14,2.4250906210285e-14,-3.1170224241634e-15,-0.0014242764097765,0.0014242764097973,-0.0014737421150169,0.0014737421150364,-0.0014737421150255,0.0014737421150273,-0.001473742115007,0.0014737421150474,-0.0014737421150156,0.0014737421150386,-0.0013869670784058,0.0013869670784654,-0.0013869670784466,0.0013869670784407,-0.0013869670784539,0.0013869670784364,-0.0013869670784166,0.0013869670784693,1.4226447744728e-14,2.801620294776e-15,-0.0014242764097774,0.0014242764097947,-5.5285958110753e-15,2.1610986858009e-14,-0.0014737421150183,0.0014737421150309,-0.0014737421150092,0.00147374211504,-0.0014737421150203,0.0014737421150279,-0.0014737421150134,0.001473742115037,-0.0013869670784432,0.0013869670784495,-0.0013869670784248,0.0013869670784655,0.65730117172253,0.45391059687915,114808,2744,0.0059168258507465,0.0059168258507456,0.005916825850742,36.735824883461,36.758846737914,5.628659906769e-05,5.628659906769e-05,5.628659906769e-05,996116.38652372,0.017909633004315
35819200,0.99904065581747,0.017226192442245,0.0057420641474184,0.0057420641474152,0.0057420641474114,-0.0014262234846648,0.0014262234846428,-1.7402920558605e-14,-6.1555029003029e-15,7.2481146274632e-15,-2.7358627448005e-14,-0.0014757000839645,0.001475700083948,-0.0014757000839617,0.0014757000839533,-0.0014757000839753,0.0014757000839377,-0.0014757000839705,0.001475700083942,-0.0013889113694871,0.0013889113694386,-0.0013889113694742,0.0013889113694575,-6.5716815925795e-15,2.7852384422892e-14,2.4261964695986e-14,-3.1176694632203e-15,-0.0014262234846432,0.001426223484664,-0.0014757000839388,0.0014757000839584,-0.0014757000839474,0.0014757000839493,-0.001475700083929,0.0014757000839694,-0.0014757000839376,0.0014757000839606,-0.001388911369441,0.0013889113695006,-0.0013889113694817,0.0013889113694758,-0.001388911369489,0.0013889113694715,-0.0013889113694517,0.0013889113695045,1.4246035381633e-14,2.7486219138402e-15,-0.0014262234846441,0.0014262234846613,-5.5476540523885e-15,2.1602045954677e-14,-0.0014757000839403,0.0014757000839528,-0.0014757000839312,0.001475700083962,-0.0014757000839423,0.0014757000839499,-0.0014757000839354,0.0014757000839589,-0.0013889113694784,0.0013889113694845,-0.0013889113694598,0.0013889113695006,0.6961944015365,0.65351450719629,114808,2744,0.0059248907228928,0.0059248907228919,0.0059248907228883,37.720999034916,37.749152070351,6.4167992279331e-05,6.4167992279331e-05,6.4167992279331e-05,1006219.5144065,0.017934261380641
36019200,0.99911026838607,0.017227437675316,0.0057424792251086,0.0057424792251054,0.0057424792251016,-0.0014268406353469,0.0014268406353247,-1.7588311953849e-14,-6.2640793168238e-15,7.0535318769797e-15,-2.7528063448322e-14,-0.0014763282009904,0.0014763282009739,-0.0014763282009877,0.0014763282009782,-0.0014763282010008,0.0014763282009633,-0.001476328200997,0.001476328200968,-0.0013895235940936,0.0013895235940437,-0.0013895235940797,0.0013895235940637,-6.8275561287292e-15,2.7580922127644e-14,2.3998149225955e-14,-3.3813672897857e-15,-0.0014268406353254,0.0014268406353454,-0.0014763282009672,0.0014763282009855,-0.0014763282009753,0.0014763282009767,-0.0014763282009576,0.0014763282009968,-0.0014763282009662,0.001476328200988,-0.0013895235940472,0.0013895235941057,-0.001389523594088,0.0013895235940816,-0.0013895235940957,0.0013895235940777,-0.0013895235940581,0.001389523594111,1.4541202835058e-14,2.9796148571643e-15,-0.0014268406353256,0.0014268406353435,-5.3007204195709e-15,2.1847920796311e-14,-0.0014763282009686,0.0014763282009812,-0.0014763282009585,0.0014763282009906,-0.0014763282009701,0.0014763282009787,-0.0014763282009631,0.0014763282009876,-0.0013895235940845,0.001389523594091,-0.001389523594066,0.001389523594107,0.73586527644294,0.83938617781199,114808,2744,0.0059274469523143,0.0059274469523127,0.005927446952309,37.993362885108,38.001486210693,6.6346903080867e-05,6.6346903080867e-05,6.6346903080867e-05,1009041.8333683,0.017942067860734
36219200,0.99917441318555,0.017228549404616,0.0057428498015422,0.005742849801539,0.0057428498015352,-0.001426717213389,0.001426717213367,-1.7438119850938e-14,-6.0522639815707e-15,7.210705154488e-15,-2.734416465454e-14,-0.0014762048405373,0.0014762048405207,-0.0014762048405343,0.001476204840526,-0.0014762048405479,0.0014762048405104,-0.0014762048405432,0.0014762048405148,-0.0013893985713456,0.0013893985712971,-0.0013893985713324,0.001389398571316,-6.5420942611581e-15,2.7833267359847e-14,2.4288787405982e-14,-3.1604916844426e-15,-0.0014267172133674,0.0014267172133882,-0.0014762048405118,0.0014762048405312,-0.0014762048405204,0.0014762048405222,-0.0014762048405019,0.0014762048405423,-0.0014762048405105,0.0014762048405334,-0.0013893985712991,0.0013893985713587,-0.0013893985713403,0.0013893985713343,-0.0013893985713474,0.0013893985713301,-0.00138939857131,0.001389398571363,1.4378178403578e-14,2.744269105639e-15,-0.0014267172133683,0.0014267172133856,-5.59429968622e-15,2.1627868695222e-14,-0.0014762048405132,0.0014762048405258,-0.001476204840504,0.001476204840535,-0.0014762048405153,0.0014762048405228,-0.0014762048405083,0.0014762048405319,-0.0013893985713366,0.0013893985713429,-0.0013893985713181,0.0013893985713592,0.71361272032923,0.7265910158679,114808,2744,0.0059269357467681,0.0059269357467672,0.0059269357467635,37.867627980675,37.864208335809,6.5341023845396e-05,6.5341023845396e-05,6.5341023845396e-05,1003129.8279622,0.017940506733016
36419200,0.99923102421257,0.017229517638376,0.0057431725461289,0.0057431725461257,0.0057431725461219,-0.00142494350031,0.001424943500288,-1.7494161337438e-14,-6.0386757018304e-15,7.1879439012993e-15,-2.7344899926195e-14,-0.0014744402635847,0.0014744402635681,-0.0014744402635818,0.0014744402635734,-0.0014744402635954,0.0014744402635579,-0.0014744402635906,0.0014744402635622,-0.001387618556368,0.0013876185563194,-0.001387618556355,0.0013876185563385,-6.5448000608507e-15,2.7807738727964e-14,2.4320257032842e-14,-3.1848438816762e-15,-0.0014249435002884,0.0014249435003092,-0.0014744402635592,0.0014744402635787,-0.0014744402635678,0.0014744402635696,-0.0014744402635493,0.0014744402635897,-0.001474440263558,0.0014744402635809,-0.0013876185563218,0.0013876185563815,-0.0013876185563628,0.0013876185563568,-0.00138761855637,0.0013876185563525,-0.0013876185563328,0.0013876185563855,1.4383942933358e-14,2.6802416498692e-15,-0.0014249435002893,0.0014249435003066,-5.5950055470093e-15,2.1681749402145e-14,-0.0014744402635607,0.0014744402635732,-0.0014744402635514,0.0014744402635824,-0.0014744402635627,0.0014744402635702,-0.0014744402635557,0.0014744402635793,-0.0013876185563595,0.0013876185563656,-0.0013876185563408,0.0013876185563818,0.7043424496463,0.68271718381266,114808,2744,0.0059195888788105,0.0059195888788095,0.0059195888788059,36.904418297068,36.877215259893,5.7635346376544e-05,5.7635346376544e-05,5.7635346376544e-05,1003640.4209208,0.017918071234565
36619200,0.99928237068595,0.017230347776821,0.0057434492589436,0.0057434492589404,0.0057434492589366,-0.0014240236636396,0.0014240236636176,-1.7515740641441e-14,-5.9899215616403e-15,7.2167557508965e-15,-2.7296695516454e-14,-0.0014735185778908,0.0014735185778742,-0.0014735185778879,0.0014735185778795,-0.0014735185779014,0.001473518577864,-0.0014735185778967,0.0014735185778684,-0.0013867001168249,0.0013867001167761,-0.0013867001168118,0.0013867001167954,-6.5642112325586e-15,2.7769034028013e-14,2.4323080475999e-14,-3.2333129892135e-15,-0.001424023663618,0.0014240236636387,-0.0014735185778654,0.0014735185778849,-0.001473518577874,0.0014735185778758,-0.0014735185778555,0.0014735185778959,-0.0014735185778642,0.001473518577887,-0.0013867001167788,0.0013867001168385,-0.0013867001168198,0.0013867001168136,-0.0013867001168269,0.0013867001168093,-0.0013867001167897,0.0013867001168422,1.4323709479331e-14,2.5486280235163e-15,-0.0014240236636189,0.0014240236636361,-5.6841792934008e-15,2.1640985941558e-14,-0.0014735185778669,0.0014735185778793,-0.0014735185778576,0.0014735185778886,-0.0014735185778689,0.0014735185778763,-0.0014735185778621,0.0014735185778854,-0.0013867001168165,0.0013867001168222,-0.0013867001167976,0.0013867001168385,0.66675551856296,0.51038724866459,114808,2744,0.0059157788577133,0.0059157788577125,0.0059157788577089,36.397341596691,36.382637453471,5.3578732773532e-05,5.3578732773532e-05,5.3578732773532e-05,1002916.2067523,0.017906436319206
36819200,0.99933037133023,0.017231103286602,0.0057437010955374,0.0057437010955342,0.0057437010955304,-0.0014241037846074,0.0014241037845853,-1.7577024614846e-14,-5.9807462904679e-15,7.197266341689e-15,-2.7315092013277e-14,-0.0014736031337332,0.0014736031337166,-0.0014736031337302,0.0014736031337219,-0.0014736031337439,0.0014736031337063,-0.0014736031337391,0.0014736031337107,-0.0013867801510489,0.001386780151,-0.0013867801510357,0.0013867801510193,-6.5482117213327e-15,2.7784033569787e-14,2.4351432551039e-14,-3.2504301133559e-15,-0.0014241037845858,0.0014241037846065,-0.0014736031337077,0.0014736031337272,-0.0014736031337163,0.0014736031337181,-0.0014736031336978,0.0014736031337382,-0.0014736031337065,0.0014736031337293,-0.0013867801510025,0.0013867801510623,-0.0013867801510436,0.0013867801510374,-0.0013867801510507,0.0013867801510331,-0.0013867801510135,0.0013867801510661,1.4437235422956e-14,2.592156105528e-15,-0.0014241037845866,0.0014241037846039,-5.6384159855561e-15,2.1733865457094e-14,-0.0014736031337092,0.0014736031337217,-0.0014736031336999,0.001473603133731,-0.0014736031337112,0.0014736031337186,-0.0014736031337043,0.0014736031337278,-0.0013867801510402,0.0013867801510461,-0.0013867801510213,0.0013867801510625,0.64958124417867,0.44500878042861,114808,2744,0.0059161107136761,0.0059161107136751,0.0059161107136715,36.429625555578,36.430305805081,5.3837004444627e-05,5.3837004444627e-05,5.3837004444627e-05,1009280.747777,0.017907449700555
37019200,0.99937583990554,0.017231864187135,0.0057439547290485,0.0057439547290453,0.0057439547290415,-0.0014246624771257,0.0014246624771037,-1.7600231626476e-14,-5.9286225381437e-15,7.219272907455e-15,-2.7295283794875e-14,-0.0014741707411614,0.0014741707411448,-0.0014741707411585,0.00147417074115,-0.001474170741172,0.0014741707411346,-0.0014741707411672,0.001474170741139,-0.001387337339163,0.0013873373391142,-0.0013873373391497,0.0013873373391336,-6.4539204842182e-15,2.7886089275585e-14,2.4487898970319e-14,-3.1643150970517e-15,-0.001424662477104,0.001424662477125,-0.001474170741135,0.0014741707411549,-0.0014741707411438,0.0014741707411456,-0.0014741707411252,0.0014741707411657,-0.0014741707411341,0.001474170741157,-0.0013873373391166,0.0013873373391768,-0.0013873373391579,0.0013873373391518,-0.0013873373391651,0.0013873373391478,-0.001387337339128,0.0013873373391808,1.4418000716446e-14,2.4978942792797e-15,-0.0014246624771051,0.0014246624771222,-5.7252956843821e-15,2.1695278400608e-14,-0.0014741707411369,0.0014741707411492,-0.0014741707411275,0.0014741707411583,-0.001474170741139,0.0014741707411461,-0.0014741707411318,0.0014741707411552,-0.001387337339155,0.0013873373391605,-0.0013873373391358,0.001387337339177,0.68962106935362,0.64920450727309,114808,2744,0.0059184248361557,0.0059184248361548,0.0059184248361511,36.715540696481,36.723607230891,5.6124325571848e-05,5.6124325571848e-05,5.6124325571848e-05,1018559.0450007,0.017914516482006
37219200,0.99941998072637,0.017232651117992,0.0057442170393339,0.0057442170393307,0.0057442170393269,-0.0014262171575401,0.0014262171575182,-1.75853203173e-14,-5.8447235616778e-15,7.279533359738e-15,-2.7230829881545e-14,-0.0014757230576254,0.0014757230576086,-0.0014757230576224,0.0014757230576142,-0.0014757230576363,0.0014757230575984,-0.001475723057631,0.0014757230576032,-0.0013888958459834,0.0013888958459341,-0.0013888958459697,0.0013888958459534,-6.5842694433234e-15,2.7760151946413e-14,2.438149045632e-14,-3.3097812413962e-15,-0.0014262171575186,0.0014262171575393,-0.0014757230576003,0.0014757230576194,-0.0014757230576087,0.0014757230576103,-0.00147572305759,0.0014757230576307,-0.0014757230575986,0.001475723057622,-0.0013888958459366,0.0013888958459964,-0.0013888958459776,0.0013888958459711,-0.0013888958459865,0.0013888958459682,-0.0013888958459491,0.0013888958460015,1.4545114480266e-14,2.5451575413018e-15,-0.0014262171575194,0.0014262171575367,-5.6745913510118e-15,2.1784393325267e-14,-0.0014757230576015,0.0014757230576137,-0.001475723057592,0.0014757230576231,-0.0014757230576038,0.001475723057611,-0.0014757230575963,0.0014757230576198,-0.0013888958459758,0.0013888958459816,-0.0013888958459564,0.0013888958459977,0.7336284775287,0.85340023411758,114808,2744,0.0059248644704791,0.0059248644704784,0.0059248644704748,37.494165291655,37.516252656228,6.2353322333243e-05,6.2353322333243e-05,6.2353322333243e-05,1017504.1245903,0.017934181426613
37419200,0.99946196366975,0.017233350401177,0.005744450133729,0.0057444501337258,0.005744450133722,-0.0014271748723326,0.0014271748723106,-1.7691221493857e-14,-5.8843906632942e-15,7.2135392820618e-15,-2.7317643405922e-14,-0.0014766790980484,0.0014766790980316,-0.0014766790980453,0.001476679098037,-0.001476679098059,0.0014766790980214,-0.0014766790980541,0.0014766790980259,-0.0013898523881583,0.0013898523881092,-0.0013898523881449,0.0013898523881286,-6.5481528996002e-15,2.7806268184653e-14,2.4432783007015e-14,-3.2964875298629e-15,-0.001427174872311,0.0014271748723318,-0.0014766790980226,0.0014766790980422,-0.0014766790980313,0.0014766790980329,-0.0014766790980127,0.0014766790980532,-0.0014766790980214,0.0014766790980442,-0.0013898523881118,0.0013898523881717,-0.0013898523881529,0.0013898523881467,-0.0013898523881603,0.0013898523881426,-0.001389852388123,0.0013898523881756,1.4537938228908e-14,2.478512518438e-15,-0.0014271748723119,0.0014271748723292,-5.7200017284618e-15,2.1779981695333e-14,-0.0014766790980241,0.0014766790980366,-0.0014766790980147,0.0014766790980459,-0.0014766790980263,0.0014766790980335,-0.0014766790980193,0.0014766790980427,-0.0013898523881498,0.0013898523881556,-0.0013898523881307,0.0013898523881721,0.68665850866571,0.62399919259961,114808,2744,0.005928831397697,0.0059288313976961,0.0059288313976925,37.941324130062,37.954284807751,6.59305930405e-05,6.59305930405e-05,6.59305930405e-05,1009922.4048597,0.017946295655587
37619200,0.99950085907307,0.017233976606188,0.0057446588687327,0.0057446588687295,0.0057446588687257,-0.0014271683600342,0.0014271683600121,-1.7718430221472e-14,-5.8406334982073e-15,7.2164376310192e-15,-2.7333231165021e-14,-0.0014766816398984,0.0014766816398817,-0.0014766816398953,0.0014766816398871,-0.0014766816399091,0.0014766816398714,-0.0014766816399042,0.0014766816398759,-0.0013898404819684,0.0013898404819192,-0.0013898404819549,0.0013898404819388,-6.558623167976e-15,2.781267975349e-14,2.4442841523264e-14,-3.3148399103867e-15,-0.0014271683600125,0.0014271683600333,-0.0014766816398727,0.0014766816398923,-0.0014766816398814,0.0014766816398831,-0.0014766816398628,0.0014766816399033,-0.0014766816398715,0.0014766816398944,-0.0013898404819218,0.0013898404819818,-0.001389840481963,0.0013898404819567,-0.0013898404819702,0.0013898404819525,-0.001389840481933,0.0013898404819856,1.4579172263354e-14,2.4512486454483e-15,-0.0014271683600134,0.0014271683600307,-5.7233545672114e-15,2.1805333862018e-14,-0.0014766816398742,0.0014766816398867,-0.0014766816398648,0.001476681639896,-0.0014766816398764,0.0014766816398836,-0.0014766816398693,0.0014766816398928,-0.0013898404819598,0.0013898404819655,-0.0013898404819406,0.0013898404819821,0.66415578483554,0.52502085390236,114808,2744,0.0059288043856838,0.0059288043856828,0.0059288043856792,37.91669664008,37.91620386369,6.5733573120638e-05,6.5733573120638e-05,6.5733573120638e-05,1013219.1384216,0.017946213377914
37819200,0.99953587434123,0.017234519400308,0.0057448398001062,0.005744839800103,0.0057448398000992,-0.0014260650726673,0.0014260650726453,-1.7708988414325e-14,-5.7633519666418e-15,7.2558964439619e-15,-2.7309327483497e-14,-0.0014755923380267,0.0014755923380098,-0.0014755923380236,0.0014755923380156,-0.0014755923380374,0.0014755923379998,-0.0014755923380325,0.0014755923380044,-0.0013887298172768,0.0013887298172277,-0.0013887298172631,0.0013887298172473,-6.6883250880243e-15,2.7701094927035e-14,2.4335256574616e-14,-3.4488358169038e-15,-0.0014260650726458,0.0014260650726664,-0.001475592338001,0.0014755923380203,-0.0014755923380097,0.0014755923380112,-0.0014755923379913,0.0014755923380315,-0.0014755923379998,0.0014755923380226,-0.0013887298172307,0.0013887298172903,-0.0013887298172718,0.0013887298172652,-0.0013887298172788,0.0013887298172607,-0.0013887298172415,0.0013887298172939,1.461837694803e-14,2.4255729592346e-15,-0.0014260650726466,0.0014260650726638,-5.7234133889438e-15,2.1825156785853e-14,-0.0014755923380025,0.001475592338015,-0.0014755923379929,0.0014755923380244,-0.0014755923380046,0.0014755923380117,-0.0014755923379977,0.001475592338021,-0.0013887298172682,0.0013887298172738,-0.001388729817249,0.0013887298172905,0.64016451254524,0.42608418239384,114808,2744,0.0059242344556138,0.005924234455613,0.0059242344556093,37.337557263791,37.321218169929,6.1100458110328e-05,6.1100458110328e-05,6.1100458110328e-05,1020794.2454294,0.017932257969542
38019200,0.99956672901964,0.017235017233864,0.0057450057446247,0.0057450057446215,0.0057450057446177,-0.0014240717586302,0.0014240717586075,-1.810334493318e-14,-6.0852204655816e-15,6.9058314258918e-15,-2.7688668836056e-14,-0.00147361500339,0.0014736150033727,-0.0014736150033873,0.0014736150033782,-0.0014736150034009,0.0014736150033622,-0.0014736150033958,0.0014736150033667,-0.0013867297944344,0.0013867297943851,-0.0013867297944212,0.0013867297944044,-6.5677405365055e-15,2.7855972548572e-14,2.448360498385e-14,-3.3198985793773e-15,-0.0014240717586082,0.0014240717586291,-0.0014736150033638,0.0014736150033833,-0.0014736150033729,0.0014736150033739,-0.0014736150033535,0.0014736150033946,-0.0014736150033622,0.0014736150033855,-0.0013867297943871,0.001386729794448,-0.0013867297944282,0.0013867297944222,-0.0013867297944363,0.001386729794418,-0.0013867297943985,0.0013867297944517,1.4717197458543e-14,2.4442488592869e-15,-0.001424071758609,0.0014240717586264,-5.6418864677706e-15,2.1919565666433e-14,-0.001473615003365,0.0014736150033772,-0.0014736150033559,0.0014736150033872,-0.0014736150033667,0.0014736150033746,-0.0014736150033599,0.0014736150033836,-0.0013867297944249,0.0013867297944313,-0.0013867297944065,0.0013867297944471,0.66570159178141,0.56333907264343,114808,2744,0.0059159779366738,0.0059159779366729,0.0059159779366688,36.310496160826,36.281313045602,5.2883969286607e-05,5.2883969286607e-05,5.2883969286607e-05,1031834.6928105,0.017907044871393
38219200,0.99959487037985,0.017235474691996,0.0057451582306687,0.0057451582306655,0.0057451582306617,-0.0014232320665584,0.0014232320665363,-1.7889289891532e-14,-5.7912843624071e-15,7.1855046375818e-15,-2.7283828262481e-14,-0.0014727745154256,0.0014727745154086,-0.0014727745154224,0.0014727745154142,-0.0014727745154362,0.0014727745153984,-0.0014727745154312,0.001472774515403,-0.0013858929302037,0.0013858929301539,-0.0013858929301902,0.0013858929301741,-6.5030366308124e-15,2.7799444863689e-14,2.4390078429258e-14,-3.3475447936279e-15,-0.0014232320665368,0.0014232320665576,-0.0014727745153997,0.0014727745154193,-0.0014727745154084,0.0014727745154101,-0.0014727745153898,0.0014727745154303,-0.0014727745153985,0.0014727745154214,-0.0013858929301576,0.0013858929302172,-0.0013858929301982,0.0013858929301921,-0.001385892930206,0.0013858929301885,-0.0013858929301688,0.0013858929302212,1.4628494286012e-14,2.2834008319073e-15,-0.0014232320665377,0.0014232320665549,-5.7213546283081e-15,2.1785158007789e-14,-0.0014727745154011,0.0014727745154137,-0.0014727745153918,0.0014727745154231,-0.0014727745154034,0.0014727745154106,-0.0014727745153963,0.0014727745154197,-0.001385892930196,0.001385892930201,-0.0013858929301761,0.0013858929302177,0.67076546187958,0.59491377284373,114808,2744,0.0059124998857492,0.0059124998857484,0.0059124998857447,35.869418428855,35.85654928302,4.9355347430839e-05,4.9355347430839e-05,4.9355347430839e-05,1033314.267375,0.017896423732354
38419200,0.99962688261317,0.017236028484765,0.0057453428282583,0.0057453428282551,0.0057453428282513,-0.0014305337649162,0.0014305337648941,-1.7874078959157e-14,-5.7105914001321e-15,7.1354899660472e-15,-2.7281534214915e-14,-0.0014800372592677,0.0014800372592507,-0.0014800372592645,0.0014800372592563,-0.0014800372592783,0.0014800372592405,-0.0014800372592733,0.0014800372592451,-0.0013932249862492,0.0013932249861999,-0.0013932249862355,0.0013932249862197,-6.513212790526e-15,2.7728505854356e-14,2.4342962221567e-14,-3.3136046540053e-15,-0.0014305337648946,0.0014305337649153,-0.0014800372592417,0.0014800372592613,-0.0014800372592505,0.0014800372592521,-0.0014800372592319,0.0014800372592723,-0.0014800372592406,0.0014800372592634,-0.0013932249862028,0.0013932249862625,-0.0013932249862438,0.0013932249862374,-0.0013932249862511,0.0013932249862336,-0.001393224986214,0.0013932249862664,1.4714168139322e-14,2.3023414297556e-15,-0.0014305337648955,0.0014305337649127,-5.6705914732053e-15,2.1755688319832e-14,-0.0014800372592432,0.0014800372592558,-0.0014800372592338,0.0014800372592651,-0.0014800372592454,0.0014800372592526,-0.0014800372592384,0.0014800372592618,-0.0013932249862408,0.0013932249862461,-0.0013932249862214,0.0013932249862631,0.71254268071754,0.7925535283193,114808,2744,0.0059427440864845,0.0059427440864837,0.0059427440864801,39.649321056749,39.75600289,7.9594568453992e-05,7.9594568453992e-05,7.9594568453992e-05,1024172.8321881,0.017988782762294
38619200,0.99965651918154,0.017236543919702,0.0057455146399041,0.0057455146399009,0.005745514639897,-0.0014308268076749,0.0014308268076529,-1.7897912789873e-14,-5.6683902536863e-15,7.1027781896342e-15,-2.7236462062427e-14,-0.0014803624651683,0.0014803624651514,-0.0014803624651652,0.001480362465157,-0.001480362465179,0.0014803624651412,-0.0014803624651739,0.0014803624651459,-0.0013934930761451,0.0013934930760957,-0.0013934930761313,0.0013934930761156,-6.4625672788881e-15,2.7698212662145e-14,2.4305845708392e-14,-3.2307836547182e-15,-0.0014308268076533,0.0014308268076741,-0.0014803624651425,0.001480362465162,-0.0014803624651511,0.0014803624651529,-0.0014803624651327,0.001480362465173,-0.0014803624651413,0.0014803624651641,-0.0013934930760985,0.0013934930761581,-0.0013934930761395,0.0013934930761332,-0.0013934930761466,0.0013934930761292,-0.0013934930761096,0.0013934930761621,1.4745137781456e-14,2.2648425753199e-15,-0.0014308268076542,0.0014308268076715,-5.6161813706907e-15,2.1691219701069e-14,-0.0014803624651438,0.0014803624651566,-0.0014803624651346,0.0014803624651659,-0.0014803624651462,0.0014803624651533,-0.0014803624651391,0.0014803624651624,-0.0013934930761365,0.0013934930761418,-0.0013934930761171,0.0013934930761588,0.71626664147402,0.79944244,114808,2744,0.0059439577016145,0.0059439577016136,0.00594395770161,39.751470022204,39.75600289,8.0411760177632e-05,8.0411760177632e-05,8.0411760177632e-05,1026305.9626299,0.017992490185191
38819200,0.9996838081475,0.01723702000521,0.0057456733350735,0.0057456733350703,0.0057456733350665,-0.0014309031222347,0.0014309031222126,-1.7920981018978e-14,-5.6248596441783e-15,7.0514705888477e-15,-2.7197507370113e-14,-0.0014804354949493,0.0014804354949322,-0.0014804354949461,0.0014804354949379,-0.0014804354949599,0.0014804354949221,-0.0014804354949548,0.0014804354949268,-0.0013935701238923,0.0013935701238431,-0.0013935701238784,0.0013935701238629,-6.426862487292e-15,2.7647037754915e-14,2.4257611887784e-14,-3.1683149748582e-15,-0.0014309031222131,0.0014309031222338,-0.0014804354949234,0.0014804354949429,-0.001480435494932,0.0014804354949338,-0.0014804354949136,0.0014804354949539,-0.0014804354949222,0.001480435494945,-0.0013935701238459,0.0013935701239055,-0.0013935701238868,0.0013935701238806,-0.0013935701238941,0.0013935701238768,-0.001393570123857,0.0013935701239095,1.4790548158906e-14,2.2426079604544e-15,-0.0014309031222139,0.0014309031222312,-5.55730081651e-15,2.1638809537457e-14,-0.0014804354949247,0.0014804354949375,-0.0014804354949155,0.0014804354949467,-0.001480435494927,0.0014804354949342,-0.0014804354949201,0.0014804354949433,-0.0013935701238839,0.0013935701238892,-0.0013935701238645,0.0013935701239063,0.71845444266312,0.79944244,114808,2744,0.0059442738309687,0.0059442738309678,0.0059442738309642,39.755797616736,39.75600289,8.0446380933891e-05,8.0446380933891e-05,8.0446380933891e-05,1019736.5251588,0.017993455531353
38880000,0.99969189201743,0.017237161194264,0.0057457203980912,0.0057457203980881,0.0057457203980842,-0.0014309223677914,0.0014309223677694,-1.7930726125684e-14,-5.6118852013843e-15,7.0464606316043e-15,-2.7179860850379e-14,-0.0014804526450273,0.0014804526450102,-0.001480452645024,0.0014804526450159,-0.0014804526450379,0.0014804526450001,-0.0014804526450327,0.0014804526450048,-0.0013935903829551,0.0013935903829058,-0.0013935903829412,0.0013935903829257,-6.4132746670965e-15,2.7637273347329e-14,2.4243377028532e-14,-3.1490214466152e-15,-0.0014309223677698,0.0014309223677906,-0.0014804526450013,0.0014804526450209,-0.0014804526450099,0.0014804526450118,-0.0014804526449916,0.0014804526450318,-0.0014804526450002,0.001480452645023,-0.0013935903829087,0.0013935903829683,-0.0013935903829496,0.0013935903829435,-0.0013935903829568,0.0013935903829395,-0.0013935903829198,0.0013935903829723,1.4798253805857e-14,2.2277848838775e-15,-0.0014309223677707,0.001430922367788,-5.5432424224549e-15,2.1619104257087e-14,-0.0014804526450027,0.0014804526450155,-0.0014804526449935,0.0014804526450247,-0.001480452645005,0.0014804526450122,-0.0014804526449981,0.0014804526450213,-0.0013935903829467,0.0013935903829519,-0.0013935903829272,0.001393590382969,0.71910517618281,0.79944244,114808,2744,0.0059443535589048,0.0059443535589039,0.0059443535589003,39.755974869172,39.75600289,8.0447798953375e-05,8.0447798953375e-05,8.0447798953375e-05,1017496.2337312,0.017993698970867
