time,ASR_ext,ASR_strain,ASR_strain_xx,ASR_strain_yy,ASR_strain_zz,disp_x_101,disp_x_102,disp_x_103,disp_x_104,disp_x_105,disp_x_106,disp_x_p1_neg,disp_x_p1_pos,disp_x_p2_neg,disp_x_p2_pos,disp_x_p3_neg,disp_x_p3_pos,disp_x_p4_neg,disp_x_p4_pos,disp_x_p5_neg,disp_x_p5_pos,disp_x_p6_neg,disp_x_p6_pos,disp_y_101,disp_y_102,disp_y_103,disp_y_104,disp_y_105,disp_y_106,disp_y_p1_neg,disp_y_p1_pos,disp_y_p2_neg,disp_y_p2_pos,disp_y_p3_neg,disp_y_p3_pos,disp_y_p4_neg,disp_y_p4_pos,disp_y_p5_neg,disp_y_p5_pos,disp_y_p6_neg,disp_y_p6_pos,disp_y_p7_neg,disp_y_p7_pos,disp_y_p8_neg,disp_y_p8_pos,disp_z_101,disp_z_102,disp_z_103,disp_z_104,disp_z_105,disp_z_106,disp_z_p1_neg,disp_z_p1_pos,disp_z_p2_neg,disp_z_p2_pos,disp_z_p3_neg,disp_z_p3_pos,disp_z_p4_neg,disp_z_p4_pos,disp_z_p5_neg,disp_z_p5_pos,disp_z_p6_neg,disp_z_p6_pos,humidity,ndof,nelem,strain_xx,strain_yy,strain_zz,temp,thermal_strain_xx,thermal_strain_yy,thermal_strain_zz,vonmises,vstrain
2419200,0,0,0,0,0,0,0,0,0,0,0,0,0,0,0,0,0,0,0,0,0,0,0,0,0,0,0,0,0,0,0,0,0,0,0,0,0,0,0,0,0,0,0,0,0,0,0,0,0,0,0,0,0,0,0,0,0,0,0,0,0,0,0,0,0,0,0,0,0,0,0,0,0,0,0
2619200,0.021293639002444,0.000436528384716,0.000145509461572,0.000145509461572,0.000145509461572,-4.0183520581292e-05,4.0183925707611e-05,1.9976832492091e-10,2.0237270241815e-10,-5.6143335095261e-10,9.9062303105264e-10,-4.0247625398868e-05,4.0247516270033e-05,-4.0247616792248e-05,4.0247509385239e-05,-4.0247126200501e-05,4.024803026589e-05,-4.0247124861232e-05,4.0248030688068e-05,-4.0257261099409e-05,4.0258174790552e-05,-4.0257256207665e-05,4.0258175104013e-05,4.9535271400763e-10,-1.0192458871716e-09,-1.8135368658572e-09,1.3134127900048e-09,-4.1587981611828e-05,4.1587478432165e-05,-4.1439970367283e-05,4.143894325896e-05,-4.1438972344458e-05,4.1439991837425e-05,-4.1440452373842e-05,4.14384374721e-05,-4.1439454416659e-05,4.1439486154356e-05,-4.1280709875542e-05,4.1276639661506e-05,-4.1277687691317e-05,4.1279755198956e-05,-4.1788650932808e-05,4.1790662701783e-05,-4.179012479532e-05,4.1789146298233e-05,-3.143487731354e-10,-3.1676729150589e-10,-3.7906874806864e-05,3.7906238105979e-05,1.2401932012303e-09,-1.9309301174344e-09,-3.8208476849463e-05,3.8208907898363e-05,-3.8209526973366e-05,3.8207855959374e-05,-3.8208479270801e-05,3.8208908704066e-05,-3.8209529216293e-05,3.8207856631796e-05,-3.9031008779558e-05,3.9029318710099e-05,-3.9031001446858e-05,3.9029316036408e-05,0.81993057552194,128566,2924,0.00016741812408536,0.00017326714573399,0.00015793157119597,32.692187860689,2.3937502885511e-05,2.3937502885511e-05,2.3937502885511e-05,560552.78006925,0.00049874126550824
2819200,0.043228029859181,0.00087915570569327,0.00029460853447122,0.0002969599952771,0.00028758717594495,-7.5924313523901e-05,7.5925126024e-05,2.5253938210947e-10,5.6315367308864e-10,-1.249793440911e-09,2.1071182326498e-09,-7.6457102427582e-05,7.6456687421358e-05,-7.6456991115064e-05,7.6456818226552e-05,-7.6456021072118e-05,7.6457833009022e-05,-7.6455964943636e-05,7.6457950763499e-05,-7.5814621202388e-05,7.5816329471145e-05,-7.5814438913736e-05,7.5816635196819e-05,-1.0216907244798e-09,2.345189658018e-09,-4.0014254508205e-09,5.2814444997532e-09,-7.924711957455e-05,7.9248400867847e-05,-7.9122396933272e-05,7.9119512776586e-05,-7.9119417573046e-05,7.912265950824e-05,-7.9121320628521e-05,7.9120667352518e-05,-7.9118373733214e-05,7.9123778263605e-05,-7.8268696591596e-05,7.8262064466746e-05,-7.8259803961218e-05,7.8271258037274e-05,-7.9626692989176e-05,7.9627824144575e-05,-7.9623495661331e-05,7.9631145159761e-05,-2.8948394221221e-10,1.37059948795e-11,-7.00749971947e-05,7.007471464373e-05,1.2140077096441e-09,-1.5454293159873e-09,-7.1099580688755e-05,7.1100112570163e-05,-7.1100492115412e-05,7.1099232376203e-05,-7.1099473071615e-05,7.1100242051754e-05,-7.1100436351466e-05,7.1099345493559e-05,-7.2679824506699e-05,7.2678867652155e-05,-7.2679990883522e-05,7.2678560434741e-05,0.8213859356388,128566,2924,0.00031630279362215,0.00033014424948652,0.00029193638970518,32.940836907955,2.5926695263641e-05,2.5926695263641e-05,2.5926695263641e-05,937882.54303968,0.00093882427317279
3019200,0.065265201816186,0.0013174387165719,0.00044282464158513,0.00045093954448885,0.0004236745304979,-0.00011076059370013,0.00011075978188507,-2.8367426148326e-10,-5.3635479460457e-10,6.9345350670805e-10,-1.5486288737193e-09,-0.00011197136258223,0.00011197143983789,-0.00011197145000677,0.00011197132766992,-0.00011197213316716,0.00011197064376853,-0.00011197220631354,0.000111970596761,-0.00011029521663538,0.00011029384079583,-0.00011029540769639,0.00011029364673671,-3.4137023137376e-11,-2.3214530509087e-10,-3.3208221219615e-09,3.063413152956e-09,-0.00011687822382147,0.00011687796375274,-0.00011692883072785,0.00011692643742118,-0.00011692666783351,0.00011692862215568,-0.00011692887416109,0.00011692635829543,-0.00011692667295018,0.00011692858390055,-0.00011484890640717,0.00011484225220155,-0.00011484265746283,0.00011484861037996,-0.00011735673333045,0.00011735879416415,-0.00011735690406526,0.00011735860936414,-6.6403575691849e-10,-9.2663416201647e-10,-0.00010024602110535,0.00010024444101416,3.6690869778599e-09,-5.3975783621176e-09,-0.00010225211544978,0.00010225370864823,-0.00010225511572083,0.00010225065377943,-0.00010225218412547,0.00010225357324042,-0.0001022552277934,0.00010225062286789,-0.0001045741131036,0.00010456926403439,-0.00010457389966802,0.00010456947443732,0.82013449118114,128566,2924,0.00046139386233362,0.00048687281749455,0.00041760270457319,32.856844605756,2.525475684605e-05,2.525475684605e-05,2.525475684605e-05,1270720.5747124,0.001366803717842
3219200,0.086632516614611,0.0017307539300542,0.0005828214819571,0.0005997396681481,0.00054819277994894,-0.00014267337546604,0.00014267302224202,-1.9613488915816e-10,-1.5564958212354e-10,3.3107799280216e-10,-7.058208212687e-10,-0.00014489121661913,0.00014489121519014,-0.00014489119249373,0.00014489121763523,-0.00014489155280888,0.00014489084111581,-0.0001448915566741,0.00014489087454204,-0.00014153493019537,0.00014153423504041,-0.0001415349299531,0.00014153430971051,-8.6108363547866e-10,1.7084862556309e-09,-4.5878367369428e-09,5.4006398700415e-09,-0.00015230391943766,0.00015230473672833,-0.0001528646681024,0.0001528613935758,-0.0001528614556253,0.00015286471897421,-0.00015286386941441,0.00015286222765831,-0.00015286065405227,0.00015286555446201,-0.00014871710376347,0.00014870898611107,-0.00014870745160749,0.00014871890022502,-0.00015259535542294,0.00015259699381112,-0.00015259288289327,0.00015259954656069,-4.7109874011946e-10,-4.4313842785295e-10,-0.00012688677666306,0.00012688586291612,3.3455774348287e-09,-4.3926266755266e-09,-0.00013017836650678,0.00013018006299246,-0.0001301809263308,0.00013017748208487,-0.00013017834837431,0.00013018006071976,-0.00013018094044546,0.00013017751512167,-0.00013282695203064,0.00013282348042777,-0.00013282697697719,0.00013282345046637,0.80676032493545,128566,2924,0.00059429416121488,0.00063439866881907,0.00052855665568787,32.291152997038,2.0729223976306e-05,2.0729223976306e-05,2.0729223976306e-05,1520898.7006607,0.0017587963491564
3419200,0.10543118726875,0.0020814699437459,0.00070135141171337,0.00072916592877974,0.00065095260325278,-0.00016691746615059,0.00016691682081263,-3.2011838832632e-10,-3.2541356820431e-10,8.5110102633872e-10,-1.5382943173484e-09,-0.00017035942676772,0.00017035959064828,-0.00017035942245772,0.00017035957828786,-0.00017036019496223,0.00017035877701962,-0.00017036020869021,0.00017035879630075,-0.00016482962910166,0.00016482822731254,-0.00016482967895891,0.0001648282753676,-1.0802634566415e-09,2.1330597063946e-09,-4.7357489695683e-09,5.7412742432408e-09,-0.00018038590023697,0.00018038691079399,-0.0001818506401961,0.00018184710157017,-0.00018184721166776,0.00018185063104346,-0.00018184960232973,0.00018184817485377,-0.00018184616731886,0.00018185171107879,-0.0001748390307105,0.00017483083934467,-0.00017482890135159,0.00017484122417356,-0.0001801041806161,0.00018010554987742,-0.00018010105946232,0.00018010875804202,-5.4303616318621e-10,-5.6171998523445e-10,-0.00014616923898899,0.00014616813962712,3.9778483863079e-09,-5.2360328653086e-09,-0.00015085515774072,0.00015085716713654,-0.000150858187639,0.00015085410873704,-0.00015085514833762,0.00015085714182018,-0.00015085822003331,0.00015085413342202,-0.00015329364720368,0.00015328945505131,-0.00015329361758272,0.00015328945288306,0.78590062733951,128566,2924,0.00069524501934456,0.0007513253819265,0.00060885692387511,30.391403247531,5.5312259802476e-06,5.5312259802476e-06,5.5312259802476e-06,1682729.5255998,0.0020575439290433
3619200,0.12341819280317,0.0024073603042855,0.0008110750361782,0.00085140506926157,0.00074488019884568,-0.00019129610304736,0.00019129575418884,-2.5212178017023e-10,-9.94426636137e-11,5.5661123667855e-10,-9.3530295869545e-10,-0.00019612691927952,0.00019612701416081,-0.000196126847045,0.00019612707533617,-0.00019612738447976,0.00019612651664045,-0.00019612736854308,0.00019612657544292,-0.00018794133077136,0.00018794041505036,-0.00018794128952109,0.00018794057634362,-9.6288973913678e-10,1.9877606480267e-09,-4.801559131738e-09,5.7831781441274e-09,-0.00020905461822338,0.00020905560402096,-0.00021177419434468,0.0002117706546711,-0.000211770707364,0.00021177424583791,-0.00021177321862113,0.0002117716595631,-0.00021176976027821,0.00021177521993868,-0.00020110545126975,0.00020109708747334,-0.00020109525972518,0.00020110753178329,-0.00020787568210704,0.00020787738155178,-0.00020787287033745,0.00020788027469077,-5.0032279195801e-10,-3.6136944227924e-10,-0.00016557355913927,0.00016557270509022,3.8013490273745e-09,-4.8068988063423e-09,-0.00017160137865539,0.00017160336047422,-0.00017160418988835,0.00017160051979921,-0.00017160129818951,0.00017160340604529,-0.00017160419221658,0.00017160058249058,-0.00017381723645072,0.00017381358559072,-0.00017381729212066,0.00017381346998432,0.77012034954612,128566,2924,0.00079674691141774,0.00087068024908623,0.0006896601600395,29.683155925409,-1.3475259672402e-07,-1.3475259672402e-07,-1.3475259672402e-07,1869552.2763295,0.002359871007732
3819200,0.14093372388183,0.0027221208367427,0.00091670484643113,0.00097095747122302,0.00083445851908853,-0.00021514895636275,0.00021514887459239,-5.477735874646e-11,-3.0999618110186e-11,2.913132264775e-10,-3.8964091795065e-10,-0.00022140045891197,0.00022140059234991,-0.00022140044061681,0.00022140060228419,-0.00022140066586832,0.00022140036580274,-0.0002214006780323,0.00022140039799277,-0.0002105079830412,0.00021050768318755,-0.00021050803227507,0.00021050777306952,-8.3922792874373e-10,1.7788331160164e-09,-4.6434301981742e-09,5.5443557956112e-09,-0.00023757779877844,0.00023757870311586,-0.00024175557621384,0.000241752179468,-0.0002417522118264,0.00024175563677438,-0.00024175470655593,0.00024175307363786,-0.000241751349742,0.00024175652632746,-0.00022704544575468,0.00022703723009689,-0.00022703558811685,0.00022704733101734,-0.00023537018333393,0.0002353719517783,-0.00023536764067465,0.00023537456300796,-3.5806681077531e-10,-3.479970264265e-10,-0.00018446065959216,0.00018445996416481,3.6336230599274e-09,-4.4738210470949e-09,-0.00019173249488005,0.0001917345118252,-0.00019173514311526,0.00019173183325202,-0.00019173246859996,0.00019173450521785,-0.00019173517735489,0.00019173187126073,-0.00019394065654779,0.00019393724571018,-0.00019394060648136,0.00019393719702084,0.77140879700519,128566,2924,0.0008960493618097,0.00098941440012928,0.00076830464453344,29.233986472929,-3.7281082165681e-06,-3.7281082165681e-06,-3.7281082165681e-06,2048034.5708506,0.0026572973919325
4019200,0.16025600632648,0.0030675696026246,0.0010323757939462,0.0011036095717896,0.00093158423688878,-0.0002446370325765,0.00024463738261939,1.1549569043594e-15,3.4333286207471e-10,-1.9911428339844e-10,5.5741580224899e-10,-0.00025250312934151,0.00025250304790299,-0.00025250296571323,0.00025250321342042,-0.00025250281491554,0.00025250336452889,-0.00025250276521366,0.00025250346088262,-0.00023850513416318,0.00023850555830352,-0.00023850501117363,0.00023850584364805,-4.4116001293796e-10,1.0687027204537e-09,-4.2102484125951e-09,4.8133657638623e-09,-0.00027277276984507,0.0002727733742951,-0.00027866809002501,0.00027866506995183,-0.00027866504364926,0.00027866818946967,-0.00027866751585456,0.00027866565263493,-0.00027866456399687,0.00027866868209981,-0.00025926394774584,0.00025925632483223,-0.00025925533678115,0.00025926514092417,-0.00026929226187399,0.00026929455426888,-0.00026929091333276,0.000269295938829,-3.2548123528087e-10,5.1030975177065e-12,-0.00020818542073401,0.00020818511348951,2.9583050458409e-09,-3.3796709618371e-09,-0.00021687168063105,0.00021687333644791,-0.00021687369563788,0.00021687129118339,-0.00021687150539925,0.00021687348290608,-0.00021687367134597,0.0002168713941434,-0.00021926500220593,0.00021926274614451,-0.00021926511596721,0.00021926249711515,0.77300335498746,128566,2924,0.0010187982836461,0.001135900988498,0.00086708570152956,30.53633347894,6.690667831518e-06,6.690667831518e-06,6.690667831518e-06,2269765.4643668,0.0030263614169777
4219200,0.18139665895865,0.0034436902812411,0.001158085601217,0.0012501820878032,0.0010354225922209,-0.00027630350118874,0.00027630405442222,-3.129075307105e-11,5.7693760820952e-10,-3.7726477622446e-10,9.5429262095666e-10,-0.00028603874341277,0.00028603851594544,-0.00028603844780048,0.00028603882098776,-0.00028603818235302,0.00028603908987571,-0.00028603808737024,0.00028603923575712,-0.0002684264785665,0.00026842715613795,-0.00026842622597657,0.00026842759274579,-3.0223527996378e-10,7.330819635404e-10,-3.9205606895768e-09,4.3342911316311e-09,-0.00031130158131806,0.00031130199520137,-0.00031920489889046,0.00031920201959176,-0.0003192020393582,0.00031920494432282,-0.00031920441636866,0.00031920250340218,-0.00031920173843786,0.00031920525086177,-0.0002944173413801,0.00029441022111297,-0.00029440958096739,0.00029441816900053,-0.00030624447223862,0.00030624689380686,-0.00030624368071252,0.00030624768921125,-3.793003152975e-10,2.1870415022248e-10,-0.00023329617199736,0.00023329602495438,2.5348965410331e-09,-2.7769360476712e-09,-0.0002436829540426,0.00024368428482533,-0.00024368458551398,0.00024368263238052,-0.00024368265155678,0.0002436845680264,-0.00024368450619931,0.00024368278264689,-0.00024628191281119,0.00024628029733082,-0.00024628215601123,0.00024627989426259,0.77489565166356,128566,2924,0.0011505973794233,0.0012962382294665,0.00097162940616247,31.779466284848,1.6635730278783e-05,1.6635730278783e-05,1.6635730278783e-05,2487546.2052429,0.0034243232001026
4419200,0.20287049727565,0.0038237323550738,0.0012847458010534,0.0014006161010544,0.001138370452966,-0.00030613202299752,0.00030613250906884,-4.0974906380031e-10,8.9041501433009e-10,-3.6071202878786e-10,8.7103586923151e-10,-0.00031788956464098,0.00031788896190972,-0.00031788894157197,0.00031788959711362,-0.00031788892995703,0.00031788960777459,-0.00031788869758011,0.00031788989757755,-0.00029642958575971,0.00029642975679651,-0.00029642893368031,0.00029643062199284,-7.6902819370186e-10,1.4096579286385e-09,-4.3986005574194e-09,5.0123166603137e-09,-0.00034881327119849,0.00034881388470787,-0.00035884662000285,0.00035884306517933,-0.00035884328511525,0.00035884648694386,-0.00035884566681105,0.00035884403911646,-0.00035884270549141,0.0003588470961335,-0.00032843318338194,0.00032842573519445,-0.00032842454096324,0.00032843461032563,-0.00034201383447853,0.00034201596592858,-0.00034201216975382,0.00034201766383919,-7.3841347159663e-10,5.5597428052637e-10,-0.00025629103574491,0.00025629086365066,2.434610587406e-09,-2.6975971118806e-09,-0.00026866144042979,0.00026866235455554,-0.00026866291759473,0.00026866085800712,-0.00026866081451651,0.0002686629657721,-0.00026866269675573,0.00026866115355896,-0.0002712672938094,0.00027126613786452,-0.00027126793273187,0.0002712652986544,0.77613010058104,128566,2924,0.0012747297818168,0.0014523174998234,0.001067358526161,31.980711969206,1.8245695753647e-05,1.8245695753647e-05,1.8245695753647e-05,2661774.8057161,0.0038016252163192
4619200,0.22588700060535,0.0042292774413596,0.001419334034859,0.001563361291461,0.0012465821150397,-0.00033931480644444,0.00033931515571467,-2.7036447353162e-10,6.1528782841426e-10,-2.6118300221779e-10,6.3187495844787e-10,-0.00035331562163269,0.00035331511547943,-0.00035331515904506,0.00035331558784567,-0.00035331508921208,0.00035331565390098,-0.00035331494835602,0.00035331584069517,-0.0003276396378939,0.00032763984930426,-0.00032763926191594,0.00032764042695982,-5.3198366977876e-10,1.1245871266646e-09,-3.8855560730027e-09,4.4535789970422e-09,-0.00039101094319464,0.00039101151029237,-0.00040335916576374,0.00040335604672313,-0.00040335616249091,0.00040335910583126,-0.00040335836905606,0.00040335684642033,-0.00040335568801716,0.0004033596058955,-0.00036676175240465,0.00036675494440534,-0.00036675395153316,0.00036676291134269,-0.00038228364139115,0.00038228572054803,-0.00038228231329814,0.00038228705004449,-5.5833335270834e-10,3.2973702790949e-10,-0.00028194434029295,0.00028194412188214,2.3776411779441e-09,-2.6819839244111e-09,-0.00029664358588573,0.00029664457471673,-0.00029664506426078,0.00029664308698017,-0.00029664313287712,0.00029664502266647,-0.00029664491930736,0.00029664328668791,-0.00029914458920199,0.00029914313210664,-0.00029914494356629,0.00029914257119858,0.77694609355936,128566,2924,0.0014128023450328,0.0016278633057507,0.0011741476701278,33.011679075375,2.6493432603e-05,2.6493432603e-05,2.6493432603e-05,2852318.1141768,0.0042237236802581
4819200,0.25119926144077,0.0046731396022365,0.0015658930208593,0.0017442170438331,0.0013630295375441,-0.0003760788751427,0.00037607916554637,-2.1888651401284e-11,3.0777976653565e-10,-2.6752892141958e-10,5.7883757883577e-10,-0.00039263996191757,0.0003926396631498,-0.00039263974354531,0.00039263989391076,-0.00039263952095364,0.000392640114161,-0.00039263948682092,0.00039264018617965,-0.00036226235446154,0.00036226282404088,-0.00036226229641395,0.00036226304514243,-2.8312733424252e-10,7.1891228214973e-10,-3.2761698732298e-09,3.6943520271109e-09,-0.00043855385796479,0.000438554275801,-0.00045351802236849,0.00045351548465412,-0.0004535155231021,0.00045351802164444,-0.00045351750339847,0.0004535159987733,-0.00045351518792994,0.0004535183695414,-0.00040989553280496,0.00040988947027057,-0.00040988881665249,0.00040989629100854,-0.00042761450020204,0.00042761640216659,-0.00042761359307427,0.00042761728938578,-2.635934942439e-10,7.6688530450573e-11,-0.00031028531540307,0.00031028513935197,2.1819649828499e-09,-2.4354601454613e-09,-0.00032775834138933,0.00032775946873289,-0.00032775974039314,0.00032775806272572,-0.00032775812845859,0.00032775967745724,-0.00032775971084476,0.00032775813848773,-0.00032996696082027,0.00032996532576709,-0.0003299669642404,0.00032996514106248,0.77793123157979,128566,2924,0.0015657536958209,0.0018256065926886,0.0012921175329632,34.499240803732,3.8393926429857e-05,3.8393926429857e-05,3.8393926429857e-05,3053503.4559401,0.0046944834293387
5019200,0.2785708151188,0.0051491487175646,0.0017221150680069,0.0019413347690106,0.0014856988805471,-0.00041465763858934,0.00041465792286438,8.3059153134812e-11,1.9742442334265e-10,-3.2665854362098e-10,6.3444024763887e-10,-0.0004341286563702,0.00043412845832382,-0.00043412856038424,0.00043412856028682,-0.00043412824819063,0.00043412886945106,-0.00043412822554317,0.00043412891801508,-0.00039858997954712,0.000398590521861,-0.00039858994117419,0.00039859067103178,-3.488578232212e-10,7.1607651188351e-10,-3.1551945816184e-09,3.5075816238626e-09,-0.00048975906939563,0.00048975942048786,-0.00050770012704902,0.00050769770020606,-0.00050769780664567,0.00050770004742152,-0.0005076996661355,0.00050769815806711,-0.00050769741317075,0.00050770045917143,-0.00045613717042201,0.00045613122752376,-0.00045613059497874,0.00045613787947824,-0.00047622548912695,0.00047622703369598,-0.00047622438692572,0.00047622813533176,-1.5428877989802e-10,-2.6529829120626e-11,-0.00033973136587843,0.00033973119893979,2.0153021052423e-09,-2.2591790700199e-09,-0.00036045085668021,0.00036045201118855,-0.00036045219663745,0.00036045065309663,-0.00036045076121364,0.00036045210400353,-0.00036045219414371,0.00036045070068676,-0.0003620311889006,0.0003620296186112,-0.0003620311286335,0.00036202950038926,0.77678229389999,128566,2924,0.0017262285275504,0.0020385354803646,0.0014146813075665,35.809120343527,4.8872962748213e-05,4.8872962748213e-05,4.8872962748213e-05,3243733.2570262,0.0051929099720843
5219200,0.30736959161205,0.005647839190163,0.0018846418939381,0.0021508760987504,0.0016123211974745,-0.00045388791934461,0.00045388847755383,-7.4026716995088e-10,1.2946840589403e-09,-7.5019898331653e-10,1.3503451497796e-09,-0.00047652614816048,0.00047652511629397,-0.00047652535954646,0.00047652598899334,-0.00047652530086586,0.00047652602036472,-0.00047652478311663,0.00047652666670151,-0.00043557138076564,0.00043557099939499,-0.00043556988491809,0.0004355728292727,-1.0114248470328e-09,1.6453680715172e-09,-4.0907507167707e-09,4.6972319722287e-09,-0.00054331331836416,0.00054331393579813,-0.00056455558385964,0.00056455215767106,-0.00056455255695053,0.0005645553582198,-0.00056455454507666,0.00056455325146825,-0.00056455173588003,0.00056455620892879,-0.00050426964136865,0.00050426273127932,-0.00050426148085436,0.00050427122865319,-0.00052685199127673,0.00052685322100902,-0.00052684966000182,0.00052685555733189,-9.6052791082026e-10,1.0883641648889e-09,-0.00036944084791863,0.000369440977972,1.490201864253e-09,-1.4159928819595e-09,-0.000393741212299,0.00039374147555093,-0.00039374202609234,0.00039374069525547,-0.00039374038433419,0.000393742308826,-0.00039374149695198,0.00039374129842949,-0.00039446937490912,0.00039447013354947,-0.00039447086344434,0.00039446843011464,0.77856400253783,128566,2924,0.0018893860033968,0.0022611801913199,0.0015383384402483,36.762029621815,5.6496236974523e-05,5.6496236974523e-05,5.6496236974523e-05,3417640.4408614,0.0057051545748808
5419200,0.33727270675414,0.0061562874399283,0.0020489385047688,0.0023677176426743,0.0017396312924852,-0.00049314988453116,0.00049315061555368,-1.735254453981e-09,2.4643430623039e-09,-1.0506285156175e-09,1.8459091373753e-09,-0.00051933785978099,0.00051933578320881,-0.00051933620426154,0.00051933753918506,-0.00051933652803276,0.00051933718016071,-0.00051933546386226,0.0005193384107687,-0.00047263851540448,0.00047263689767469,-0.00047263541429,0.0004726404774154,-1.3921737958991e-09,2.3631004285511e-09,-4.8632348231321e-09,5.7915096666493e-09,-0.00059847930998985,0.00059848024347426,-0.0006234226633937,0.00062341821159243,-0.00062341875289342,0.00062342227711694,-0.00062342100261831,0.00062341991055578,-0.00062341768664879,0.00062342343131239,-0.00055358351880487,0.00055357585035304,-0.00055357391098046,0.00055358582736842,-0.00057858632529818,0.00057858783450286,-0.00057858332756026,0.00057859089042786,-1.977199480755e-09,2.2452526188214e-09,-0.00039908280987128,0.00039908308172889,1.1474305849597e-09,-8.9393715368928e-10,-0.0004274339771546,0.00042743317129863,-0.00042743432933293,0.00042743287224985,-0.00042743228362341,0.0004274348898356,-0.00042743321510598,0.00042743406263108,-0.00042666566791109,0.00042666858416313,-0.00042666882521247,0.00042666511587064,0.76958753852881,128566,2924,0.0020526463764603,0.0024904680846576,0.0016617125874811,37.5734134216,6.29873073728e-05,6.29873073728e-05,6.29873073728e-05,3567813.1135813,0.0062241654628863
5619200,0.36701852072421,0.0066359010387712,0.0022022756781741,0.0025757945182234,0.0018578308423736,-0.00052870323629329,0.00052870381361693,-1.6347971898052e-09,2.2118811233619e-09,-9.2132405241608e-10,1.5651570951722e-09,-0.00055908312487169,0.00055908105556416,-0.0005590815690459,0.00055908271111664,-0.00055908186922403,0.00055908237585426,-0.0005590808705116,0.00055908352342364,-0.00050606970838516,0.00050606806917112,-0.00050606687933329,0.00050607140182443,-1.3352327905548e-09,2.4889199856441e-09,-5.3399549002198e-09,6.4446272916188e-09,-0.000650655458384,0.0006506565659142,-0.00067988669311697,0.00067988180051566,-0.00067988226439952,0.0006798863473315,-0.00067988489188976,0.0006798835974309,-0.00067988112799725,0.00067988761696318,-0.00059949923920326,0.00059949049723759,-0.00059948836711526,0.00059950175185081,-0.00062658485586795,0.00062658670400623,-0.00062658166997489,0.00062658999490283,-1.988713962535e-09,1.9038503538297e-09,-0.00042553016436414,0.00042553008059935,1.7665961263627e-09,-1.8852486770431e-09,-0.0004586873840888,0.00045868678534299,-0.00045868823655114,0.00045868599874893,-0.00045868577731368,0.0004586884300732,-0.00045868716052415,0.00045868713332544,-0.00045472621782244,0.00045472800678802,-0.00045472911142202,0.00045472476466609,0.73637637952372,128566,2924,0.0022004592376485,0.0027072727017583,0.0017717950877925,37.741375535929,6.433100428743e-05,6.433100428743e-05,6.433100428743e-05,3679248.7411437,0.0067019452433755
5819200,0.39422960229012,0.0070559626717886,0.0023350957857341,0.0027603238493699,0.0019605430366847,-0.00055701351806277,0.00055701366225462,-1.5827543344902e-09,1.7287727117344e-09,-5.0232674850805e-10,6.9206009389212e-10,-0.0005919742018879,0.00059197233449193,-0.00059197286167474,0.00059197376621141,-0.00059197342614641,0.00059197317476781,-0.00059197248903864,0.00059197422891096,-0.00053269752085666,0.00053269530682977,-0.00053269494438701,0.00053269833992816,-1.7186402801603e-09,3.0400219888856e-09,-6.6822211009969e-09,7.9476826737498e-09,-0.00069492603630612,0.00069492730456581,-0.00072850763350051,0.00072850169631847,-0.00072850235263616,0.00072850715528521,-0.00072850559472971,0.0007285037500223,-0.00072850082941715,0.00072850882574095,-0.00063766681770531,0.00063765545290383,-0.00063765291765139,0.00063766983557246,-0.00066689321419404,0.00066689498823343,-0.00066688886891273,0.00066689947861579,-2.0699732987026e-09,1.3130440979634e-09,-0.00044597697613355,0.00044597620947916,3.0706460917079e-09,-3.9443707047216e-09,-0.00048418010958824,0.00048418015839503,-0.00048418212635725,0.00048417821728872,-0.00048417871693892,0.00048418159786193,-0.00048418113172269,0.00048417925439703,-0.00047596244938565,0.00047596214609944,-0.00047596503125392,0.00047595921576439,0.71318193393834,128566,2924,0.0023181407448078,0.0028911816714792,0.0018569141686257,36.555941225282,5.4847529802256e-05,5.4847529802256e-05,5.4847529802256e-05,3740808.9870175,0.0070913345883814
6019200,0.41989011714675,0.0074429395677062,0.0024562815228721,0.0029314265436206,0.0020552315012135,-0.00058385318681979,0.00058385309958846,-1.5318242935822e-09,1.4489245349961e-09,-5.1458335112137e-10,4.6049577649366e-10,-0.00062363831336101,0.00062363644277576,-0.00062363712968161,0.00062363771507381,-0.00062363766141437,0.0006236371611102,-0.00062363675900135,0.00062363816267253,-0.00055830277707917,0.00055830041999781,-0.00055830034744474,0.00055830328805148,-1.6864658230973e-09,3.1110335956768e-09,-6.6566856110886e-09,8.024759881594e-09,-0.00073730372329165,0.00073730509399583,-0.00077485290108131,0.00077484710892435,-0.00077484769161385,0.00077485252246349,-0.00077485093041034,0.00077484911360277,-0.00077484607168655,0.00077485427534349,-0.00067423603226979,0.00067422451183569,-0.00067422188250699,0.00067423916228243,-0.00070592548299547,0.00070592713372721,-0.00070592089814634,0.00070593186906036,-1.9638010167858e-09,1.099569522541e-09,-0.00046541381344009,0.00046541293505974,3.1799569670857e-09,-4.1948279196972e-09,-0.00050869947508668,0.00050869969828312,-0.00050870166466436,0.00050869759065119,-0.00050869824749619,0.00050870097851802,-0.00050870072728794,0.00050869856215922,-0.00049597858029572,0.00049597786548263,-0.0004959809810803,0.00049597512100382,0.70262235361632,128566,2924,0.0024296973094642,0.0030671900608911,0.0019378308314213,35.891464137488,4.9531713099907e-05,4.9531713099907e-05,4.9531713099907e-05,3782137.7283055,0.0074625126528295
6219200,0.44486417493838,0.0078212770361896,0.0025744003395595,0.0030988044685837,0.0021480722280464,-0.00061112513022121,0.00061112506973142,-1.4521981356269e-09,1.3963911120284e-09,-7.0575301085956e-10,6.7882914617673e-10,-0.00065555119158482,0.00065554928198295,-0.00065555007964393,0.00065555048840518,-0.00065555043229841,0.00065555011536775,-0.00065554955071804,0.00065555109218321,-0.00058441933591381,0.00058441721275848,-0.00058441698149736,0.00058442000773447,-1.4423855131127e-09,2.870666791453e-09,-5.8717288081566e-09,7.2460525577153e-09,-0.00077986705538321,0.00077986843145835,-0.0008211943815699,0.00082118931251736,-0.0008211897239686,0.00082119416023263,-0.00082119261519118,0.00082119112018833,-0.0008211882098498,0.00082119578575857,-0.0007111361342972,0.00071112588890511,-0.00071112337430402,0.00071113905765175,-0.00074540695278244,0.00074540846834607,-0.00074540272968831,0.00074541281231489,-1.7621692577265e-09,1.1727880916371e-09,-0.00048519955884963,0.00048519895928313,2.6255607742588e-09,-3.3476395248989e-09,-0.00053347991258175,0.00053348002044298,-0.00053348166543829,0.00053347835723801,-0.00053347875761198,0.00053348123739608,-0.00053348074949611,0.00053347929719151,-0.00051643263996723,0.00051643257723536,-0.00051643495696561,0.00051642991782721,0.70746296698811,128566,2924,0.0025430399707887,0.0032439343876244,0.0020201988120009,35.771198464432,4.8569587715453e-05,4.8569587715453e-05,4.8569587715453e-05,3810470.7793506,0.0078378345196226
6419200,0.46957302679364,0.0081926372533082,0.0026903965300659,0.0032634917857773,0.0022387489374649,-0.00063857554081552,0.00063857562015914,-9.9346100075351e-10,1.077208527565e-09,-8.84576988896e-10,1.0011379062183e-09,-0.00068753721545279,0.00068753565201114,-0.00068753647740881,0.00068753648777302,-0.0006875364072536,0.00068753653864335,-0.00068753566443696,0.00068753736617452,-0.00061068575027919,0.0006106843774449,-0.00061068383445247,0.00061068671569116,-1.1270886270985e-09,2.5301548099191e-09,-4.8548987961155e-09,6.208346840148e-09,-0.0008223773182605,0.00082237866978125,-0.00086750292405595,0.00086749884663383,-0.00086749905011179,0.00086750286802957,-0.00086750150003604,0.00086750030948913,-0.00086749761401413,0.00086750439641556,-0.00074798427464156,0.00074797543729247,-0.0007479730892205,0.00074798688043805,-0.00078480288716459,0.00078480398058646,-0.00078479892801892,0.00078480803652448,-1.2317087007908e-09,9.2700823671116e-10,-0.0005049845213636,0.00050498421329817,2.0758397276095e-09,-2.473775640974e-09,-0.0005583667686692,0.00055836706142691,-0.00055836816678007,0.00055836575647298,-0.00055836599142873,0.0005583679090048,-0.00055836739073782,0.00055836654584518,-0.00053688851767365,0.00053688875308571,-0.00053689038706315,0.00053688654654963,0.70211760893209,128566,2924,0.0026571125490247,0.0034204226053482,0.0021025640123211,35.957392769222,5.0059142153773e-05,5.0059142153773e-05,5.0059142153773e-05,3844812.2785298,0.0082137734820553
6619200,0.49480833089764,0.0085951857225618,0.0028168776887294,0.0034401054131831,0.0023382026206493,-0.00066918640922943,0.00066918670626336,-9.1251427425464e-10,1.2125815736168e-09,-1.0764604397162e-09,1.4201420261653e-09,-0.00072206238274121,0.00072206082524224,-0.00072206164545496,0.00072206168423973,-0.00072206137840794,0.00072206192354685,-0.00072206063435754,0.00072206275096911,-0.00064030235810069,0.00064030138745556,-0.00064030043465848,0.00064030374280401,-8.2275466285099e-10,2.1828582106212e-09,-3.7970583432681e-09,5.1108647351494e-09,-0.00086811564424222,0.00086811695629836,-0.00091716039076775,0.00091715723964044,-0.00091715725046003,0.00091716050159214,-0.00091715921129383,0.00091715846560619,-0.00091715599227618,0.00091716182284749,-0.00078768758015513,0.00078768057354634,-0.00078767837970996,0.000787689819509,-0.00082767665728031,0.00082767763118283,-0.00082767328845751,0.00082768101155563,-1.0654681192713e-09,1.1429212664925e-09,-0.00052732215004888,0.00052732223213401,1.2238807835175e-09,-1.1885469760858e-09,-0.0005853834415581,0.00058538341293096,-0.00058538414396761,0.0005853828126754,-0.00058538266252302,0.00058538427257871,-0.00058538336387605,0.00058538359705849,-0.00056051555432666,0.00056051689286507,-0.00056051745315555,0.00056051466368769,0.74071517949286,128566,2924,0.0027843055208083,0.0036102767748135,0.0021955480228677,36.729345691657,5.6234765533252e-05,5.6234765533252e-05,5.6234765533252e-05,3877349.4632929,0.0086272790455514
6819200,0.52146196009378,0.0090547071101048,0.0029627196262681,0.003639631322863,0.0024523561609737,-0.00070497280643279,0.00070497334768651,-6.4342943972743e-10,1.1864030752038e-09,-1.2321141470086e-09,1.8300015982368e-09,-0.00076088169326601,0.00076088032228324,-0.00076088109348475,0.00076088105766046,-0.00076088053119651,0.00076088158751499,-0.00076087987174854,0.00076088233075135,-0.00067511421676182,0.00067511392855212,-0.00067511254333532,0.00067511602947417,-5.2584183224592e-10,1.8310754514313e-09,-2.4897980095858e-09,3.7528940255166e-09,-0.00091939323168685,0.00091939449212796,-0.00097270426199115,0.00097270218146795,-0.0009727020096673,0.0009727045134471,-0.00097270332276722,0.00097270316478996,-0.00097270092890185,0.00097270564122987,-0.00083213467517109,0.00083212998745551,-0.00083212799637133,0.00083213658458675,-0.00087602637525535,0.00087602699415999,-0.0008760235755796,0.00087602977347556,-7.4891999121239e-10,1.1629075183991e-09,-0.00055378706922342,0.00055378749354985,2.0560677129545e-10,2.2228929593289e-10,-0.000615875084062,0.00061587471577739,-0.00061587501762827,0.00061587489148246,-0.00061587444259163,0.00061587544603128,-0.00061587431188282,0.00061587559247837,-0.00058923874766148,0.00058924099762153,-0.00058924042184131,0.00058923899601496,0.79222279117166,128566,2924,0.0029329829879643,0.0038230805682341,0.0023057021290519,38.160773090755,6.7686184726042e-05,6.7686184726042e-05,6.7686184726042e-05,3956807.3507939,0.0091031187767887
7019200,0.54987445288101,0.0095059000927019,0.0031058523290977,0.0038392566744608,0.0025607910891435,-0.0007414867541965,0.00074148747532584,-9.3084804541132e-10,1.6532462803143e-09,-1.385590897822e-09,2.1706824409944e-09,-0.0008015413287789,0.00080153966266247,-0.00080154042607461,0.0008015407154429,-0.00080153994039662,0.00080154116370377,-0.00080153910932995,0.00080154208179144,-0.00071022323221489,0.00071022276419634,-0.00071022103695412,0.00071022537977739,-3.3907469470671e-10,1.5810299570318e-09,-1.6841533253602e-09,2.8879309986315e-09,-0.00097289621196908,0.00097289741291791,-0.0010304157600588,0.0010304142659303,-0.0010304140018265,0.0010304160944246,-0.0010304149112475,0.0010304151679531,-0.0010304131193422,0.0010304170082064,-0.00087867058666696,0.00087866756034137,-0.00087866573812987,0.00087867224757851,-0.00092586393057344,0.00092586457553801,-0.00092586176053382,0.0009258666980277,-9.6806090380279e-10,1.6946557692324e-09,-0.00058012421600587,0.00058012495464532,-6.4547386898108e-10,1.4349799597903e-09,-0.00064746711385537,0.00064746606753013,-0.00064746631265296,0.00064746698620484,-0.00064746617622459,0.00064746710183047,-0.00064746542795007,0.00064746785749591,-0.00061713945856246,0.00061714324692868,-0.00061714167558559,0.00061714070578624,0.73336568030222,128566,2924,0.0030846568001628,0.0040450607497861,0.002415332981841,39.887829943562,8.1502639548496e-05,8.1502639548496e-05,8.1502639548496e-05,3991540.1317135,0.0095909492607892
7219200,0.57848369387001,0.0099419263954677,0.0032443899590914,0.0040334843171455,0.0026640521192308,-0.00077549881937882,0.0007754995211171,-1.2520054870991e-09,1.9546425221724e-09,-1.3118103320268e-09,2.0790258930096e-09,-0.00084027400715623,0.00084027208739454,-0.00084027281578497,0.00084027342151577,-0.00084027259408226,0.00084027361050153,-0.00084027162944338,0.00084027466461886,-0.00074242502153175,0.00074242407060684,-0.00074242242371628,0.00074242708766665,-4.7627276713507e-10,1.6765325328466e-09,-2.4568812849338e-09,3.6197109387273e-09,-0.0010238186527973,0.0010238198129865,-0.0010858344194222,0.0010858322181177,-0.0010858320787201,0.0010858346399016,-0.0010858333899768,0.0010858332803691,-0.0010858312241811,0.0010858355564557,-0.00092257445701282,0.00092257023864771,-0.00092256844903119,0.00092257621385663,-0.00097292356870474,0.00097292467723918,-0.00097292142349444,0.0009729268048464,-1.3991006670058e-09,1.8887100636443e-09,-0.00060401166240154,0.00060401215685368,-2.1180899279243e-10,7.419271174727e-10,-0.0006769066828642,0.0006769054688738,-0.00067690617535698,0.00067690610024714,-0.0006769054576542,0.00067690679667413,-0.00067690514599542,0.00067690710915979,-0.00064232001722906,0.00064232362853893,-0.00064232265560894,0.00064232066228253,0.707195475986,128566,2924,0.0032259158860189,0.0042562778085662,0.0025147790874133,40.740357826302,8.8322862610413e-05,8.8322862610413e-05,8.8322862610413e-05,4031017.951016,0.010047340271073
7419200,0.60662987539564,0.010355035686107,0.0033757243034487,0.0042183268732128,0.0027609845094457,-0.00080730672851996,0.00080730731400412,-1.2800776912754e-09,1.8674396984992e-09,-1.1872140364629e-09,1.8316917970729e-09,-0.00087726135424356,0.00087725942980295,-0.00087726014905373,0.00087726076404387,-0.00087726004798298,0.00087726084226241,-0.00087725908946087,0.0008772618836017,-0.00077217655245455,0.00077217542257276,-0.0007721740048942,0.00077217837776871,-6.5317638288045e-10,1.8344183701898e-09,-3.3048426878832e-09,4.4482898856798e-09,-0.0010722097521605,0.001072210892963,-0.0011388848095433,0.001138881884092,-0.0011388818839853,0.0011388849007361,-0.0011388836227779,0.001138883078365,-0.0011388809641797,0.0011388859204467,-0.00096417498438656,0.00096416923344485,-0.00096416743027242,0.0009641769019147,-0.0010173749567471,0.0010173762827616,-0.0010173725234365,0.0010173787531978,-1.5451981084358e-09,1.6900807954919e-09,-0.00062598688063706,0.00062598701993715,4.4318622861199e-10,-3.0107873167283e-10,-0.00070483277962207,0.00070483176154262,-0.00070483282102514,0.00070483185063626,-0.0007048315504268,0.00070483309893675,-0.00070483179123534,0.00070483284992824,-0.00066528513586944,0.00066528780751387,-0.00066528773093891,0.00066528489335374,0.68502083790407,128566,2924,0.0033580000964886,0.0044569460031425,0.002606275191038,41.272074163778,9.2576593310221e-05,9.2576593310221e-05,9.2576593310221e-05,4071148.6879263,0.010475977342967
7619200,0.63312527272194,0.01073439230921,0.003496094994092,0.0043886110808487,0.0028496862342695,-0.00083512682252566,0.00083512720097091,-1.8209639598028e-09,2.2026245940191e-09,-1.0378771377626e-09,1.4662843218146e-09,-0.00091064473314976,0.0009106423386568,-0.00091064309011207,0.00091064409712761,-0.00091064345281116,0.00091064372227438,-0.00091064233360721,0.00091064491368929,-0.00079821587652269,0.00079821389323241,-0.00079821285034776,0.00079821733286886,-9.1473710182121e-10,2.1028622014738e-09,-4.7030208927635e-09,5.852576331781e-09,-0.0011159231779593,0.0011159243238244,-0.0011869938633325,0.001186989699058,-0.0011869898967884,0.0011869938104068,-0.0011869923475555,0.0011869912198067,-0.0011869889653912,0.0011869948639794,-0.0010015788749421,0.0010015709762948,-0.0010015691052249,0.0010015810800709,-0.0010576787344969,0.0010576809096386,-0.0010576762509586,0.0010576835009371,-2.1978455947945e-09,1.9141562686965e-09,-0.00064470648982217,0.00064470618849203,1.3250937238846e-09,-1.6775737092021e-09,-0.0007295576300542,0.00072955649036867,-0.00072955826737585,0.00072955599445663,-0.00072955597123693,0.00072955826754106,-0.00072955708833734,0.00072955713081974,-0.00068452173657642,0.00068452368496242,-0.00068452476864478,0.00068452032841289,0.67223853635479,128566,2924,0.0034735101855496,0.0046381746018793,0.0026842311824591,41.070906224953,9.0967249799623e-05,9.0967249799623e-05,9.0967249799623e-05,4089703.0066296,0.010854706051951
7819200,0.65815153910698,0.011088405964067,0.0036081627706119,0.0045476698565528,0.0029325733369024,-0.00086127980642437,0.0008612800409277,-1.6114974581272e-09,1.8516130383157e-09,-9.7034183489948e-10,1.2427964621271e-09,-0.00094230250589589,0.00094230031014686,-0.00094230108421619,0.00094230181619554,-0.00094230140070001,0.00094230149679916,-0.00094230035700064,0.00094230262437115,-0.00082265518676511,0.00082265320341738,-0.00082265238305756,0.0008226563966029,-1.0329229436778e-09,2.2328185969834e-09,-5.1298412255777e-09,6.2897573772296e-09,-0.0011572460452168,0.0011572472015072,-0.0012324932095317,0.0012324887308074,-0.0012324890025128,0.0012324930823372,-0.0012324916566957,0.0012324902666099,-0.0012324879467359,0.0012324942953328,-0.0010368643684769,0.001036855464316,-0.001036853576921,0.0010368667424389,-0.001095761249379,0.0010957632261154,-0.0010957583233777,0.0010957663662362,-2.0341836031681e-09,1.5255697820154e-09,-0.00066207533700102,0.00066207480376267,1.762932088076e-09,-2.3781148941884e-09,-0.0007524659547105,0.00075246518918404,-0.0007524670313238,0.00075246423746113,-0.00075246452399983,0.00075246672160294,-0.00075246592601227,0.00075246531482881,-0.00070232328195312,0.00070232441433166,-0.00070232608378988,0.00070232129290647,0.66655684148799,128566,2924,0.0035820867765301,0.0048094580578325,0.0027565671531358,40.972050719783,9.0176405758262e-05,9.0176405758262e-05,9.0176405758262e-05,4093291.2860424,0.011210826813964
8019200,0.68186882749791,0.011420445627442,0.0037132032587059,0.0046970272801847,0.0030102150885512,-0.00088604359231298,0.00088604376474822,-1.4484047480601e-09,1.6277237761315e-09,-9.6921900468647e-10,1.1764884452032e-09,-0.00097204224011491,0.00097204022694399,-0.00097204103471399,0.00097204150977112,-0.00097204125550061,0.00097204128967554,-0.00097204023242733,0.00097204239136193,-0.00084570691958629,0.00084570495797142,-0.00084570421667932,0.00084570804397945,-1.0464972223459e-09,2.2552396465651e-09,-5.0223831341133e-09,6.19157223813e-09,-0.0011963337694201,0.0011963349335744,-0.0012756809120388,0.0012756765897752,-0.0012756768724377,0.0012756807820163,-0.0012756794495537,0.0012756780417344,-0.001275675701647,0.0012756821059396,-0.0010700570476059,0.0010700480557526,-0.0010700461498311,0.0010700594494854,-0.0011316684920583,0.0011316700754924,-0.0011316652252382,0.001131673556168,-1.848647862733e-09,1.3221515285037e-09,-0.00067839252504364,0.00067839197306944,1.7484939512982e-09,-2.3931775368962e-09,-0.00077396704381399,0.00077396648411226,-0.00077396821341503,0.00077396543929995,-0.00077396583443109,0.00077396779577786,-0.00077396714092487,0.00077396648118555,-0.00071887804002583,0.00071887899213769,-0.00071888069148521,0.00071887604027691,0.66097842499591,128566,2924,0.0036848860141065,0.0049714459390757,0.0028245272533938,40.977141125832,9.0217129006656e-05,9.0217129006656e-05,9.0217129006656e-05,4096587.9438842,0.01154740008313
8219200,0.70439683705169,0.011732825391106,0.0038120741554096,0.0048376183075384,0.0030831329281579,-0.00090959131472637,0.00090959147741954,-1.4621225391821e-09,1.6314931442936e-09,-1.0011388797639e-09,1.1989193911297e-09,-0.0010003521877521,0.0010003501605178,-0.0010003509979263,0.0010003514332039,-0.0010003512014474,0.0010003512278129,-0.0010003501609131,0.0010003523450479,-0.00086774866229238,0.00086774664796394,-0.00086774591865857,0.00086774979186602,-1.00684905857e-09,2.2164875447681e-09,-4.6757633479922e-09,5.8464899554509e-09,-0.0012333536212859,0.0012333547868647,-0.001316762397984,0.0013167583609053,-0.00131675862065,0.0013167622996089,-0.0013167609969882,0.0013167597671268,-0.0013167574381563,0.0013167636176357,-0.0011012900497328,0.0011012816631767,-0.0011012797624239,0.0011012924073623,-0.0011655764239712,0.0011655778218146,-0.0011655731795689,0.0011655812450934,-1.8053110139289e-09,1.3749952799433e-09,-0.00069379498789152,0.0006937945351419,1.4693455874127e-09,-2.0114565703398e-09,-0.00079432077903843,0.0007943201180199,-0.00079432174306663,0.00079431927878011,-0.00079431958251054,0.0007943214175821,-0.00079432066570277,0.00079432032530658,-0.00073429366371804,0.00073429491626715,-0.00073429631400365,0.00073429196070003,0.65549730818071,128566,2924,0.0037826278832893,0.0051248373535097,0.0028886795143577,41.07117629293,9.0969410343441e-05,9.0969410343441e-05,9.0969410343441e-05,4100599.1353318,0.011866416603268
8419200,0.72581606072564,0.012029008015721,0.0039059354457355,0.0049708146838214,0.003152257886164,-0.00093207756292452,0.00093207773803864,-1.4528615989688e-09,1.6342272834081e-09,-1.043260479954e-09,1.2538778091877e-09,-0.0010272342371224,0.0010272322010748,-0.0010272330593846,0.0010272334660878,-0.0010272332236904,0.0010272332991685,-0.0010272321899824,0.0010272344108469,-0.00088888773228495,0.00088888576779208,-0.0008888850092638,0.00088888890437837,-9.4920373571273e-10,2.1562722813619e-09,-4.2558242600784e-09,5.424397997247e-09,-0.001268497828725,0.0012684989918357,-0.0013559134935914,0.0013559097802584,-0.0013559100014313,0.0013559134287974,-0.0013559121446799,0.0013559111423575,-0.0013559088429972,0.0013559147119914,-0.0011307790099612,0.0011307714156509,-0.0011307695333458,0.0011307813023005,-0.0011977187719315,0.001197720011319,-0.0011977156433421,0.0011977233040351,-1.7382812384661e-09,1.4266329831937e-09,-0.00070843450530553,0.00070843417476456,1.1354435119213e-09,-1.5435884049784e-09,-0.00081366592262794,0.00081366512303262,-0.00081366662200783,0.00081366454933818,-0.00081366473129329,0.00081366641918929,-0.00081366555176196,0.00081366558749267,-0.00074893482003168,0.00074893641940285,-0.00074893744387726,0.00074893348727305,0.65381527811817,128566,2924,0.0038759550334224,0.0052704330367593,0.0029496551581298,41.233926008993,9.2271408071946e-05,9.2271408071946e-05,9.2271408071946e-05,4104980.5834827,0.012169958810772
8619200,0.7466164060242,0.012316146912812,0.0039970603607815,0.0050998272736171,0.0032192592784138,-0.00095476668363461,0.00095476688830293,-1.4001257976345e-09,1.6111656180835e-09,-1.1072029640753e-09,1.3479085423781e-09,-0.0010541164605311,0.0010541144352939,-0.0010541153185353,0.0010541156726186,-0.0010541154045304,0.0010541155789343,-0.0010541143917828,0.0010541166726888,-0.00091029088527217,0.0009102890579462,-0.000910288229274,0.00091029214459807,-8.6486610546356e-10,2.063767176447e-09,-3.5762765572649e-09,4.7374272907305e-09,-0.0013033391414392,0.0013033402968369,-0.0013947171189038,0.0013947139145964,-0.0013947140755934,0.0013947170940649,-0.0013947158398939,0.0013947152094434,-0.0013947129614438,0.001394718326134,-0.001160053337035,0.0011600470059306,-0.0011600451529281,0.001160055526679,-0.001229697488847,0.0012296984294895,-0.0012296945180295,0.0012297015557585,-1.6131471094778e-09,1.4694901570715e-09,-0.00072339346677298,0.00072339330983264,5.8362667787032e-10,-7.9567508759964e-10,-0.00083321012832105,0.00083320910175753,-0.00083321040646518,0.00083320895112767,-0.00083320897128136,0.0008332103663052,-0.00083320935701212,0.00083320996632186,-0.00076396540856063,0.00076396752651007,-0.00076396796867822,0.00076396466287915,0.65261451269209,128566,2924,0.0039701147570988,0.0054147514716783,0.003011956129437,41.855500809846,9.7244006478772e-05,9.7244006478772e-05,9.7244006478772e-05,4117973.903503,0.012474484215634
8819200,0.76622698820507,0.012576137198104,0.0040795545688713,0.005217505610555,0.0032790770186773,-0.00097469956743365,0.00097469978372003,-1.4532950806233e-09,1.6739435492446e-09,-1.1223322554428e-09,1.3803904148439e-09,-0.0010781974282843,0.0010781953420699,-0.001078196230848,0.0010781966367296,-0.0010781963360496,0.0010781965219161,-0.0010781953117252,0.0010781976309231,-0.0009289150320962,0.00092891316613415,-0.00092891232506177,0.00092891631293779,-8.3278203690395e-10,2.0230846222123e-09,-3.5536635201364e-09,4.7064856955044e-09,-0.0013347302759225,0.0013347314233277,-0.0014299578014934,0.0014299546135009,-0.0014299547564756,0.0014299577914942,-0.0014299565287407,0.0014299559039973,-0.0014299536819311,0.001429958978023,-0.0011862224397794,0.0011862162013257,-0.0011862143725373,0.0011862245928867,-0.0012582334774239,0.0012582345357801,-0.001258230632428,0.0012582375037069,-1.6442802434334e-09,1.5454815585979e-09,-0.00073611488186701,0.00073611477157999,5.6639599057951e-10,-7.2929920983255e-10,-0.000850391760013,0.00085039070265504,-0.00085039199370823,0.00085039059624281,-0.00085039055084744,0.00085039202052884,-0.00085039093396319,0.0008503916231316,-0.00077651440916403,0.00077651664445226,-0.00077651701148025,0.00077651372595323,0.62942561111648,128566,2924,0.0040528289473735,0.0055447554667446,0.0030649500233442,41.996846688958,9.8374773511666e-05,9.8374773511666e-05,9.8374773511666e-05,4131437.2511628,0.012743587827236
9019200,0.78458016320582,0.01281951587532,0.0041568568580226,0.005327446166846,0.0033352128504518,-0.00099317461362778,0.00099317483491558,-1.3857545429992e-09,1.6105372872832e-09,-1.1232532256644e-09,1.3874936415805e-09,-0.0011003924204934,0.0011003904039498,-0.0011003912886687,0.0011003916308001,-0.0011003913516757,0.0011003915586913,-0.0011003903439609,0.0011003926528805,-0.00094609539727517,0.0009460935923237,-0.00094609274767894,0.00094609667687764,-8.2675179347669e-10,2.0120385763673e-09,-3.6518579056595e-09,4.8001028321534e-09,-0.0013638308933716,0.0013638320352883,-0.001462781200121,0.0014627779747397,-0.0014627781170523,0.0014627811887227,-0.0014627799596525,0.0014627792315886,-0.0014627770213631,0.0014627823963434,-0.001210338476639,0.0012103319603717,-0.0012103301379959,0.0012103406139485,-0.0012844768711405,0.0012844779224387,-0.0012844739592592,0.0012844809538744,-1.5775457579019e-09,1.4715392206138e-09,-0.00074775303912366,0.00074775292164588,6.9813377508063e-10,-8.6688775041417e-10,-0.00086609567545646,0.00086609476946334,-0.00086609602494108,0.00086609454608905,-0.00086609453620483,0.0008660960172833,-0.00086609498301653,0.00086609555575189,-0.0007880460900297,0.000788048163027,-0.00078804863406695,0.00078804530106094,0.62978086117747,128566,2924,0.004129488383435,0.0056652581284367,0.0031134326315558,42.046715958201,9.8773727665612e-05,9.8773727665612e-05,9.8773727665612e-05,4136867.2976409,0.012992432405973
9219200,0.8015446940988,0.013041818849078,0.0042275028704803,0.005427976520899,0.003386339457699,-0.0010097037640032,0.001009703983675,-1.4441141481956e-09,1.6661975442651e-09,-1.1046924385219e-09,1.3703825909878e-09,-0.0011203202511144,0.0011203181971371,-0.0011203190712916,0.0011203194699543,-0.0011203191827977,0.0011203193507433,-0.0011203181520404,0.0011203204708587,-0.00096129844535076,0.00096129654335309,-0.00096129572586103,0.00096129971216656,-8.3393110591833e-10,2.0130898194879e-09,-3.9248810475193e-09,5.0663480148399e-09,-0.001390125299648,0.0013901264364703,-0.0014925764108639,0.0014925729930003,-0.0014925731455165,0.0014925763965976,-0.0014925751569789,0.001492574264694,-0.0014925720568986,0.0014925775947346,-0.0012320553704472,0.0012320483647523,-0.0012320465494803,0.0012320575165614,-0.0013079815308811,0.0013079827877716,-0.0013079786361635,0.0013079857758487,-1.6478264626853e-09,1.5058979317517e-09,-0.00075798710313771,0.00075798694912309,9.174315500959e-10,-1.1307490021602e-09,-0.00088010216110484,0.0008801013435746,-0.00088010266452501,0.00088010096660737,-0.00088010098007716,0.00088010263358157,-0.00088010160302614,0.00088010199718809,-0.00079826589490992,0.00079826785195841,-0.00079826851399214,0.0007982649072161,0.62301125165166,128566,2924,0.0041980691710526,0.0057741259119446,0.0031560716110618,41.896820067064,9.7574560536511e-05,9.7574560536511e-05,9.7574560536511e-05,4138614.1441293,0.013215441378192
9419200,0.81694119811843,0.013241195378025,0.0042908844659748,0.0055182152048554,0.0034320957071947,-0.0010238475112042,0.0010238477230632,-1.4526151468286e-09,1.6664731721621e-09,-1.0764085101629e-09,1.3332312796408e-09,-0.0011375293678621,0.0011375273102108,-0.0011375281653285,0.0011375285982958,-0.0011375283053166,0.0011375284530698,-0.0011375272856751,0.0011375295636591,-0.00097416718415061,0.00097416527898527,-0.00097416449414658,0.00097416841637688,-8.5866394969987e-10,2.0372614672371e-09,-4.2983027135085e-09,5.4394755484029e-09,-0.0014131056803143,0.001413106816036,-0.0015187737046298,0.0015187700099976,-0.0015187701847949,0.0015187736755625,-0.0015187724214104,0.0015187713103675,-0.0015187690926352,0.0015187748786811,-0.001250907471536,0.0012508997885907,-0.0012508979666389,0.0012509096420424,-0.0013283453167646,0.0013283468124916,-0.0013283424220277,0.0013283498139715,-1.6774224697001e-09,1.475052388248e-09,-0.00076649345460886,0.00076649323726445,1.2580437723322e-09,-1.5415790051422e-09,-0.00089201633214278,0.0008920156882684,-0.0008920170721898,0.00089201507442241,-0.00089201513762358,0.00089201699221004,-0.00089201602394682,0.00089201609116607,-0.00080678729429817,0.00080678889838827,-0.0008067898744648,0.0008067859902145,0.61621359508994,128566,2924,0.0042567498311365,0.0058692604016908,0.0031915202902504,41.414430771998,9.3715446175985e-05,9.3715446175985e-05,9.3715446175985e-05,4135606.2780336,0.013407259541351
9619200,0.83057122011569,0.013415614312807,0.0043463273388343,0.0055972041630227,0.00347208281095,-0.0010351527419643,0.0010351529384684,-1.4661610642326e-09,1.6643712657008e-09,-1.036863234869e-09,1.2788659211122e-09,-0.0011515320497454,0.0011515299925458,-0.0011515308267427,0.0011515312933379,-0.0011515310069771,0.0011515311112839,-0.0011515299925278,0.0011515322179997,-0.0009843038307565,0.00098430188720397,-0.00098430115027137,0.00098430500878612,-8.9840261759319e-10,2.0781500708242e-09,-4.7711967303326e-09,5.9129494714525e-09,-0.0014322182693112,0.0014322194058909,-0.0015407644391304,0.0015407603972378,-0.0015407606036017,0.0015407643899484,-0.0015407631197484,0.0015407617337194,-0.0015407594947018,0.0015407656109535,-0.0012663794584193,0.0012663709035247,-0.0012663690708753,0.0012663816732484,-0.0013450601693387,0.0013450619305731,-0.00134505722398,0.0013450649810618,-1.7172391574637e-09,1.4355878440181e-09,-0.00077293047663173,0.00077293017698473,1.6777788852714e-09,-2.0564424653011e-09,-0.00090142984314594,0.00090142942089608,-0.00090143088496275,0.00090142850413557,-0.000901428637064,0.00090143073535212,-0.00090142984570689,0.00090142951324753,-0.00081320233310663,0.00081320353279014,-0.0008132048942154,0.00081320063917745,0.60938555716389,128566,2924,0.0043036524554697,0.0059483736179007,0.0032183571675407,40.447403959111,8.5979231672889e-05,8.5979231672889e-05,8.5979231672889e-05,4124709.3976494,0.01356220489141
9819200,0.8429126689016,0.013574490340003,0.0043968436784033,0.0056688987272667,0.0035087479343333,-0.0010459559369883,0.0010459561293691,-1.4366464057399e-09,1.6322203842353e-09,-1.0297110139195e-09,1.2634358837834e-09,-0.0011647263116118,0.0011647242895951,-0.0011647251166642,0.0011647255576617,-0.0011647252881512,0.0011647253862685,-0.0011647242793377,0.0011647264880079,-0.00099404096002226,0.00099403902766743,-0.00099403829836611,0.00099404212783679,-9.0206522229137e-10,2.08253785031e-09,-4.7798367144459e-09,5.9223436076445e-09,-0.0014500479368747,0.0014500490733074,-0.0015611921604423,0.0015611881211897,-0.0015611883317505,0.0015611921081361,-0.0015611908516971,0.0015611894469584,-0.0015611872075233,0.0015611933461703,-0.0012808942199709,0.0012808856081208,-0.0012808837671294,0.0012808964310012,-0.0013607562423421,0.0013607579554769,-0.0013607532534225,0.001360761069127,-1.6878640343572e-09,1.3939287304121e-09,-0.00077931445159477,0.00077931413856574,1.7144290961327e-09,-2.105195467786e-09,-0.00091045052872238,0.00091045015715175,-0.00091045161283003,0.0009104491973561,-0.00091044935807467,0.00091045143506844,-0.00091045058139776,0.00091045019836242,-0.00081965916580613,0.00081966028696865,-0.0008196617008403,0.00081965742801416,0.61214217120298,128566,2924,0.004348469816094,0.0060221713392502,0.0032449656156139,39.873480196734,8.1387841573876e-05,8.1387841573876e-05,8.1387841573876e-05,4117771.6623993,0.013709437154247
10019200,0.85397104705687,0.013717934677489,0.0044424759032056,0.0057334272384121,0.003542031535871,-0.001055087995406,0.001055088186827,-1.4864343916372e-09,1.6802655356771e-09,-1.0311149752409e-09,1.2692881821173e-09,-0.0011759919744617,0.0011759899018815,-0.0011759907358499,0.0011759912189091,-0.0011759909414547,0.0011759910138413,-0.0011759899101948,0.0011759921442758,-0.0010023432152386,0.0010023411865445,-0.0010023404832714,0.00100234440066,-9.1498927170582e-10,2.0878087011714e-09,-4.8377307542344e-09,5.971155861699e-09,-0.0014654552086673,0.0014654563424104,-0.0015789169656705,0.0015789128818016,-0.0015789131017013,0.0015789169203242,-0.0015789156421076,0.0015789142298845,-0.0015789119791558,0.0015789181492395,-0.0012933518335441,0.0012933431716439,-0.0012933413352975,0.0012933540642158,-0.001374319325443,0.0013743210697847,-0.0013743163006414,0.0013743241229651,-1.7295958779413e-09,1.4397236582917e-09,-0.00078459034482815,0.00078459003546016,1.6869710151346e-09,-2.0811859951119e-09,-0.00091805245878453,0.00091805204089306,-0.00091805352243394,0.00091805110610187,-0.00091805124719752,0.00091805336090235,-0.00091805247137818,0.0009180521293903,-0.0008250077096951,0.00082500894055954,-0.00082501031321849,0.00082500600013171,0.61575181220184,128566,2924,0.0043863530704112,0.0060859365366274,0.0032669619676437,39.083449349702,7.5067594797618e-05,7.5067594797618e-05,7.5067594797618e-05,4106339.8959851,0.013834810351209
10219200,0.8637658558095,0.013846138249363,0.0044832723850945,0.0057908982110985,0.0035719676531703,-0.0010625165376606,0.0010625167236068,-1.4414705034976e-09,1.6287384706825e-09,-1.0122259446113e-09,1.247181997152e-09,-0.0011852980493714,0.0011852960293383,-0.0011852968493123,0.0011852972950268,-0.0011852970381141,0.0011852971094711,-0.0011852960259559,0.0011852982192692,-0.0010091418499152,0.0010091398643056,-0.0010091391639414,0.0010091429872465,-9.0750892493117e-10,2.0869529650783e-09,-4.8119986306861e-09,5.9537543993017e-09,-0.0014784165350101,0.0014784176709462,-0.0015939151659663,0.0015939111031898,-0.001593911320698,0.0015939151132863,-0.0015939138539152,0.0015939124309567,-0.0015939101906964,0.0015939163555716,-0.0013037105382121,0.0013037018600899,-0.0013037000250059,0.0013037127626771,-0.0013857185135063,0.0013857202219478,-0.0013857154797342,0.0013857233340595,-1.6830058838237e-09,1.3783788883663e-09,-0.00078872282100622,0.00078872249200352,1.7461741149324e-09,-2.1609416660408e-09,-0.00092420138145621,0.00092420103168755,-0.00092420249913417,0.00092420003980305,-0.00092420021959087,0.00092420230189166,-0.00092420147139764,0.00092420103906529,-0.00082922948047416,0.0008292305520288,-0.00082923199671201,0.00082922769437814,0.62007541800422,128566,2924,0.0044171690983527,0.0061395736185679,0.0032841992462166,38.043865722149,6.6750925777192e-05,6.6750925777192e-05,6.6750925777192e-05,4089749.5195082,0.01393793540643
10419200,0.87279888884931,0.013965577303654,0.004521284460275,0.0058442318861343,0.0036000609572448,-0.0010706206034398,0.0010706208008107,-1.4547778008493e-09,1.6553421921201e-09,-1.0556489172917e-09,1.2945274384283e-09,-0.0011951220835731,0.0011951200205095,-0.001195120858881,0.0011951213161221,-0.0011951210305751,0.0011951211453668,-0.0011951200192407,0.001195122255236,-0.0010167259350545,0.0010167239995579,-0.0010167232610576,0.0010167271293075,-8.7146095817181e-10,2.0469831755397e-09,-4.4209216985238e-09,5.5581121428422e-09,-0.0014916061904442,0.0014916073223936,-0.0016089661549722,0.0016089623583385,-0.0016089625503939,0.0016089661190577,-0.0016089648548442,0.0016089636763134,-0.0016089614594767,0.0016089673218301,-0.0013144790011723,0.0013144711111709,-0.0013144692830144,0.0013144811775212,-0.0013975449200089,0.0013975464863403,-0.001397542023438,0.0013975494966474,-1.6643212649072e-09,1.426950855959e-09,-0.00079371463959354,0.00079371438231997,1.3580068175886e-09,-1.686917830321e-09,-0.00093106976393438,0.00093106917715587,-0.00093107058375494,0.00093106848294423,-0.00093106857825474,0.00093107046981746,-0.00093106956117907,0.00093106947655911,-0.00083437505121764,0.00083437646277005,-0.00083437756613493,0.00083437361862184,0.62506671110392,128566,2924,0.0044507854770388,0.006194153773982,0.003305004625669,37.717415782882,6.4139326263056e-05,6.4139326263056e-05,6.4139326263056e-05,4082263.870123,0.014048484051577
10619200,0.88124638655825,0.014075143017246,0.0045561262938326,0.0058932911367283,0.0036257255866851,-0.0010785388162639,0.0010785390156824,-1.3661150576411e-09,1.5682577902235e-09,-1.0220657801122e-09,1.2634335436784e-09,-0.0012046984008661,0.0012046964233706,-0.0012046972231927,0.0012046976365227,-0.0012046973387726,0.0012046975268436,-0.0012046964053976,0.0012046985282641,-0.0010241440616121,0.0010241424096937,-0.0010241415958474,0.001024145137628,-7.162458411812e-10,1.9109074044434e-09,-3.7145279177219e-09,4.8759208467886e-09,-0.001504299116553,0.0015043002463314,-0.0016234129357433,0.0016234096256543,-0.001623409720691,0.0016234129125545,-0.0016234116949968,0.0016234108408736,-0.0016234087538351,0.001623414022583,-0.0013248949449241,0.0013248882994723,-0.0013248865733683,0.0013248970136726,-0.0014089156373864,0.0014089171483248,-0.0014089132576486,0.001408919998541,-1.5622245877307e-09,1.3439104482602e-09,-0.00079870289662886,0.00079870265670416,1.1158510474576e-09,-1.411015155951e-09,-0.00093787613482683,0.00093787543819111,-0.00093787674591502,0.00093787492723981,-0.00093787501538144,0.00093787666003177,-0.0009378758166095,0.00093787582303939,-0.00083946968824811,0.00083947093123615,-0.00083947189948254,0.00083946840892258,0.61395642851009,128566,2924,0.0044836294791974,0.0062466747995249,0.0033257927405837,37.647257872298,6.3578062978388e-05,6.3578062978388e-05,6.3578062978388e-05,4079508.5191981,0.014156155824745
10819200,0.88917291199402,0.014176130552899,0.0045882214085869,0.0059386189935042,0.0036492901508079,-0.0010859910978164,0.0010859913079462,-1.342627350873e-09,1.5555841102371e-09,-1.0426539820465e-09,1.2957995938589e-09,-0.0012137122546264,0.0012137102702342,-0.0012137110955932,0.0012137115066083,-0.0012137111956933,0.0012137114074407,-0.0012137102612924,0.0012137124176015,-0.0010311072240895,0.0010311055828517,-0.0010311047904469,0.0010311083957748,-6.7210529140941e-10,1.8293460943208e-09,-3.3039009202712e-09,4.4214774864861e-09,-0.0015162233807214,0.001516224490427,-0.0016370045191542,0.0016370015457016,-0.0016370016042706,0.0016370045633023,-0.0016370033354734,0.0016370027325541,-0.0016370006630493,0.0016370056192061,-0.0013346677769549,0.0013346619602323,-0.0013346602669304,0.0013346697514017,-0.0014195806104273,0.0014195818698111,-0.0014195781926325,0.0014195844608799,-1.5083154498145e-09,1.3549403591234e-09,-0.00080341103646574,0.00080341087262385,8.5434691022952e-10,-1.0723308124103e-09,-0.00094428087599808,0.00094428008632416,-0.00094428130408347,0.00094427977290896,-0.00094427976177027,0.00094428130545138,-0.00094428037732248,0.00094428066806799,-0.00084422868257647,0.00084423023486296,-0.00084423091035894,0.00084422768954415,0.60387279386288,128566,2924,0.0045145398610359,0.0062960126488282,0.0033454125245528,37.649662850827,6.3597302806613e-05,6.3597302806613e-05,6.3597302806613e-05,4080805.1085844,0.014257463390717
11019200,0.89667411016876,0.014269850294788,0.004617987854269,0.0059808000240739,0.0036710624164448,-0.0010932723209771,0.0010932725333731,-1.2820302606423e-09,1.4972088467667e-09,-1.0249414875757e-09,1.2781370176738e-09,-0.0012224781054127,0.0012224761784628,-0.0012224769891356,0.0012224773745674,-0.0012224770638472,0.0012224773015343,-0.0012224761613624,0.0012224782704639,-0.001037910187836,0.0010379086410557,-0.0010379078575025,0.0010379113513225,-5.9297120154859e-10,1.7409147771309e-09,-2.8721616327278e-09,3.9833879804668e-09,-0.0015277200322317,0.0015277211317056,-0.0016501014176116,0.0016500987747818,-0.0016500987847403,0.0016501015004277,-0.0016501002942752,0.0016500999034843,-0.0016500978946011,0.0016501024991824,-0.0013441083010582,0.0013441032656443,-0.001344101621956,0.001344110197657,-0.0014298775176554,0.0014298786518457,-0.0014298752723534,0.0014298810960813,-1.4301456274096e-09,1.3010640002234e-09,-0.00080807324994219,0.00080807310910574,7.4528800840411e-10,-9.3611423023887e-10,-0.00095055037948201,0.00095054957074942,-0.00095055072970927,0.00095054933693624,-0.00095054931249353,0.00095055074430879,-0.00095054984175423,0.00095055018963509,-0.00084890070430414,0.00084890224768586,-0.00084890281576546,0.00084889982642018,0.59321240788024,128566,2924,0.0045447396265762,0.0063435794359184,0.0033648373562051,37.826170777236,6.5009366217885e-05,6.5009366217885e-05,6.5009366217885e-05,4087085.2896088,0.01435606543228
11219200,0.90373868873964,0.014358056835822,0.0046460141351614,0.00602046064328,0.0036915820573808,-0.0011000047529209,0.0011000049869164,-1.4026318688717e-09,1.6385566125397e-09,-1.1251995634533e-09,1.4074263341504e-09,-0.0012305775377668,0.0012305754878624,-0.0012305763559399,0.0012305767680631,-0.001230576442584,0.0012305766785213,-0.0012305754498364,0.001230577735477,-0.0010442082842359,0.0010442065375326,-0.0010442056844878,0.0010442095512814,-6.9327753720007e-10,1.8368076607868e-09,-3.116421998506e-09,4.2220205637581e-09,-0.0015383845400206,0.0015383856381233,-0.0016622836580543,0.0016622808290271,-0.0016622808981213,0.001662283694475,-0.0016622824875393,0.0016622820121785,-0.0016622799422608,0.0016622847540631,-0.0013528237528093,0.0013528182919632,-0.001352816595942,0.0013528257184393,-0.0014394384595093,0.001439439525746,-0.0014394359563061,0.0014394421560263,-1.5192964453692e-09,1.4616835879732e-09,-0.00081234744271017,0.00081234737568885,3.7576832750612e-10,-4.8925414430739e-10,-0.00095629680635452,0.000956295755616,-0.00095629691904605,0.00095629576399899,-0.00095629567029502,0.00095629700245282,-0.00095629594674949,0.00095629670127417,-0.00085317278794454,0.00085317492785071,-0.00085317517339558,0.00085317223062478,0.59263757187334,128566,2924,0.0045726626583928,0.0063877016832183,0.0033826454672525,37.936190388193,6.5889523105542e-05,6.5889523105542e-05,6.5889523105542e-05,4093179.7489246,0.01444723145759
11419200,0.91032176441873,0.014440855894678,0.0046723420269559,0.0060575978007327,0.0037109160669895,-0.0011059615938594,0.0011059618419651,-1.4883244463991e-09,1.7375287526447e-09,-1.1827308761262e-09,1.4815615024896e-09,-0.0012377813902517,0.0012377792539228,-0.001237780144073,0.0012377805917795,-0.0012377802509543,0.0012377804783557,-0.0012377792079295,0.0012377816083795,-0.0010497945733142,0.0010497926671929,-0.0010497917906619,0.0010497958993547,-8.0473560229151e-10,1.9470651001448e-09,-3.527094724442e-09,4.630120933219e-09,-0.0015479783961807,0.0015479794963472,-0.0016732834507545,0.001673280321585,-0.0016732804573414,0.0016732834368632,-0.0016732822165276,0.0016732815750539,-0.0016732794337043,0.0016732845626466,-0.0013606053119506,0.0013605991394155,-0.0013605973766097,0.0013606073638646,-0.001448021422519,0.0014480225174188,-0.0014480186728917,0.0014480253391593,-1.5865665024971e-09,1.5639584933939e-09,-0.00081604105112301,0.00081604101811245,2.5846105163346e-10,-3.3702309907181e-10,-0.00096133418922285,0.00096133303926292,-0.00096133422620724,0.00096133312310534,-0.00096133299532945,0.00096133434175593,-0.00096133319997417,0.00096133412078501,-0.00085687713130407,0.00085687958132744,-0.00085687969119721,0.00085687668952048,0.59626754228373,128566,2924,0.0045973687536592,0.0064273921573537,0.0033980374497993,37.863838358996,6.5310706871971e-05,6.5310706871971e-05,6.5310706871971e-05,4094572.6527852,0.014528192968795
11619200,0.91638760221428,0.014517550750626,0.0046967423385824,0.0060919273882299,0.0037288810238138,-0.001111047226759,0.0011110474722499,-1.4974077523001e-09,1.7438425061989e-09,-1.1664924083639e-09,1.4628049883117e-09,-0.0012440055674074,0.0012440034232192,-0.0012440042959678,0.0012440047676043,-0.0012440044202241,0.0012440046368207,-0.0012440033878961,0.0012440057714197,-0.00105456509006,0.0010545631668648,-0.0010545623052381,0.0010545663840966,-8.737862551944e-10,2.0238534504898e-09,-3.9053256998629e-09,5.0162321154345e-09,-0.0015564029174377,0.0015564040233975,-0.0016829932155331,0.0016829897889881,-0.0016829899703933,0.001682993158457,-0.0016829919227409,0.0016829910979019,-0.0016829889117207,0.0016829943252787,-0.0013673692938365,0.0013673624528012,-0.0013673606460409,0.0013673714117075,-0.0014555238445947,0.0014555250801931,-0.001455521000807,0.001455528027124,-1.5997209624554e-09,1.5526746263698e-09,-0.00081908795399964,0.00081908789298275,4.5029727687435e-10,-5.6016063057467e-10,-0.0009656032805085,0.00096560222336515,-0.0009656034401685,0.00096560217933471,-0.00096560207321597,0.00096560353530057,-0.00096560242367538,0.00096560317173096,-0.00085994602477592,0.00085994828884516,-0.00085994855266793,0.00085994541895944,0.59873866737982,128566,2924,0.0046184615671679,0.0064622426882487,0.0034107389081315,37.583909136415,6.3071273091321e-05,6.3071273091321e-05,6.3071273091321e-05,4090657.1329109,0.014597853012091
11819200,0.92189993009185,0.014587752502098,0.0047190875441172,0.0061232729767819,0.0037453919811989,-0.0011151076124995,0.0011151078263928,-1.4270992068635e-09,1.6417567685667e-09,-1.0226286677362e-09,1.287037431537e-09,-0.0012490877748876,0.0012490857621082,-0.0012490865596427,0.0012490870342207,-0.0012490867323704,0.0012490868604147,-0.0012490857435162,0.001249087952597,-0.0010583648719314,0.001058362958381,-0.0010583622073045,0.001058366008946,-8.3093910526307e-10,1.9810684478364e-09,-3.9873255418829e-09,5.0993073734248e-09,-0.0015634845721999,0.0015634856764979,-0.0016912343502244,0.001691230878249,-0.0016912310396495,0.0016912343079148,-0.0016912330863638,0.0016912321509376,-0.0016912299932543,0.0016912354659552,-0.0013729578369937,0.0013729507684463,-0.0013729489907346,0.001372959925793,-0.0014617821481169,0.0014617834849444,-0.0014617793602767,0.0014617863818575,-1.5631093932336e-09,1.4064016960007e-09,-0.00082136694102629,0.0008213667673004,1.085791641693e-09,-1.3204852178918e-09,-0.00096896520244841,0.00096896454651975,-0.00096896581417516,0.00096896404633145,-0.00096896406194079,0.00096896578785813,-0.00096896484554646,0.00096896499205547,-0.00086224643377508,0.00086224797724128,-0.00086224879932075,0.00086224526489185,0.60218599333184,128566,2924,0.0046353025049186,0.0064915358108784,0.0034202456606631,37.032990370812,5.8663922966496e-05,5.8663922966496e-05,5.8663922966496e-05,4081115.4677071,0.014654321460565
12019200,0.92695609522388,0.014654260356565,0.0047402865339,0.0061527491920723,0.0037612246305925,-0.0011191288754938,0.0011191290670958,-1.4088916397246e-09,1.6025090017537e-09,-9.5442147511217e-10,1.188197762374e-09,-0.0012540102690133,0.0012540083189789,-0.001254009086623,0.0012540095643214,-0.0012540092956796,0.0012540093566814,-0.0012540083063769,0.0012540104374237,-0.0010621977541591,0.0010621958074558,-0.0010621951189878,0.0010621988271326,-8.0618281702127e-10,1.9557276888616e-09,-4.05476063414e-09,5.1662491342234e-09,-0.0015702591722297,0.0015702602748944,-0.0016990474822858,0.0016990439642856,-0.0016990441170947,0.0016990474486223,-0.0016990462414207,0.0016990452136948,-0.001699043070805,0.0016990486076024,-0.0013783690902371,0.0013783618275852,-0.0013783600575494,0.00137837115434,-0.0014678590909843,0.0014678604937626,-0.0014678563271418,0.0014678634013234,-1.5623278675572e-09,1.3406321668309e-09,-0.00082374481557741,0.00082374457730231,1.4294434071028e-09,-1.7315141686017e-09,-0.00097231266876247,0.00097231222642525,-0.00097231353736034,0.00097231147223294,-0.00097231156256488,0.00097231343472229,-0.00097231257605964,0.00097231240610142,-0.00086470952869523,0.00086471072187264,-0.00086471187359419,0.00086470804958892,0.61930375945241,128566,2924,0.0046519808982404,0.0065195582968148,0.0034301612071244,36.630827283539,5.544661826831e-05,5.544661826831e-05,5.544661826831e-05,4071206.396721,0.014709751948028
12219200,0.93168861412513,0.014718656840559,0.0047608428964154,0.0061810897310494,0.0037767242130943,-0.0011236515275071,0.0011236517445704,-1.4165541663124e-09,1.6368419669159e-09,-1.0949599991961e-09,1.3539476570049e-09,-0.0012593724038918,0.001259370331624,-0.0012593711739987,0.0012593716342396,-0.0012593713018344,0.0012593715035684,-0.0012593703334591,0.0012593725674204,-0.0010666019115558,0.0010666001407907,-0.0010665993532868,0.0010666031383874,-9.2228502741373e-10,2.077852679027e-09,-4.361861573476e-09,5.477425572938e-09,-0.0015773834099269,0.0015773845194585,-0.001707099113889,0.0017070952987504,-0.001707095525074,0.0017070990234145,-0.0017070977679817,0.0017070966640574,-0.0017070944389246,0.0017071002198803,-0.0013842262174357,0.0013842185377967,-0.0013842166811419,0.0013842283681691,-0.0014743678211772,0.0014743693135252,-0.0014743649158406,0.0014743723387408,-1.5473094980584e-09,1.3866090317325e-09,-0.00082666373255634,0.00082666355672103,1.0810432869579e-09,-1.3149449288497e-09,-0.00097618021902984,0.0009761795508745,-0.00097618081355309,0.00097617907450205,-0.00097617906601124,0.00097618080899609,-0.00097617987590753,0.00097617998463518,-0.0008677992718796,0.00086780071623549,-0.00086780156298484,0.00086779810584155,0.6379051980123,128566,2924,0.0046707380178834,0.0065490261378906,0.0034423261738862,36.590939455306,5.512751564245e-05,5.512751564245e-05,5.512751564245e-05,4061903.3617395,0.014771043934339
12419200,0.93615637102351,0.014777407383117,0.0047795720877566,0.0062071082702194,0.0037907270251408,-0.0011281321429151,0.0011281324004088,-1.4594509146403e-09,1.7199867456706e-09,-1.2492345551775e-09,1.553773806865e-09,-0.0012647198298411,0.0012647175296471,-0.0012647184425342,0.0012647189803827,-0.0012647184884789,0.0012647189284348,-0.0012647176095499,0.0012647199109079,-0.0010709647009434,0.0010709633361014,-0.0010709623920862,0.0010709660677842,-1.0191446713593e-09,2.1902472242155e-09,-4.6492754577085e-09,5.780544121698e-09,-0.00158439794669,0.0015843990670389,-0.0017149748018857,0.0017149706312791,-0.0017149709131741,0.0017149746465704,-0.0017149732663312,0.0017149721757913,-0.0017149698897178,0.0017149757948735,-0.001390054434308,0.0013900466093506,-0.0013900447075539,0.0013900566944579,-0.0014807383911282,0.00148074026279,-0.0014807357076403,0.0014807431724256,-1.5557495236203e-09,1.4927835914152e-09,-0.00082960358603361,0.00082960350664275,5.4539993978857e-10,-6.6808131497515e-10,-0.00098012096760238,0.0009801198594449,-0.00098012105716382,0.00098011988019424,-0.00098011966357214,0.00098012126592334,-0.00098012021152924,0.00098012070352728,-0.00087087840407326,0.00087088004266741,-0.00087088040886823,0.00087087769604694,0.61827140397179,128566,2924,0.0046893203659659,0.0065780374468212,0.0034545793278163,36.717385555224,5.6139084441788e-05,5.6139084441788e-05,5.6139084441788e-05,4053394.6698704,0.014831789902415
12619200,0.94031736614156,0.014829105281742,0.004796013356053,0.0062302440508926,0.0038028478747967,-0.001131701596973,0.0011317018303456,-1.4193128888956e-09,1.6542652647126e-09,-1.0728562868482e-09,1.357222465903e-09,-0.0012691171521872,0.0012691151134164,-0.0012691159310447,0.0012691163861195,-0.0012691160663242,0.0012691162506557,-0.0012691150747629,0.0012691173506428,-0.0010743531945816,0.0010743513046878,-0.0010743505001587,0.0010743543912027,-8.1787039344442e-10,1.9674599660368e-09,-4.0519017580062e-09,5.162308156147e-09,-0.0015903110386383,0.0015903121416512,-0.0017217279910345,0.0017217244799863,-0.0017217246377251,0.0017217279536104,-0.0017217267328477,0.0017217257471724,-0.0017217235977665,0.001721729105746,-0.0013948617968395,0.0013948545980601,-0.0013948528317439,0.0013948638781887,-0.0014859874926607,0.0014859889055537,-0.0014859847396499,0.0014859917756394,-1.5371709240459e-09,1.3933466008391e-09,-0.00083180294193401,0.00083180278092842,1.0264490564506e-09,-1.2461209748541e-09,-0.00098323330957057,0.00098323263404821,-0.00098323387439531,0.00098323217709206,-0.00098323217961404,0.00098323386050759,-0.00098323292085713,0.00098323311196562,-0.00087311372638266,0.00087311529402193,-0.00087311606273856,0.00087311260399076,0.58731727175976,128566,2924,0.0047041237196109,0.0066024919838284,0.0034637503929496,36.603547250689,5.5228378005515e-05,5.5228378005515e-05,5.5228378005515e-05,4048148.1001977,0.014880950814317
12819200,0.94418774169253,0.014877602188486,0.0048114439644126,0.0062518841303499,0.0038142740937239,-0.0011349768512848,0.0011349770905597,-1.4302619304541e-09,1.6709352487009e-09,-1.1074275511463e-09,1.3970574809706e-09,-0.0012730883676168,0.0012730862427576,-0.0012730870823065,0.0012730875858368,-0.0012730872011765,0.0012730874649866,-0.0012730862574026,0.0012730885150072,-0.001077446431845,0.0010774447384469,-0.0010774439020296,0.0010774476746746,-8.473180778967e-10,1.9985801000439e-09,-4.1204746563277e-09,5.2325324474902e-09,-0.0015956790532302,0.0015956801577642,-0.0017279046857868,0.0017279010223676,-0.001727901203893,0.0017279046268677,-0.001727903341758,0.0017279023758627,-0.0017279002015303,0.0017279057417087,-0.0013991827765253,0.0013991756098725,-0.0013991738161892,0.0013991848800052,-0.0014907759444028,0.0014907775188587,-0.0014907732925414,0.0014907802893402,-1.5362805076906e-09,1.4098087921189e-09,-0.00083382206708586,0.00083382192439669,9.1624761723482e-10,-1.1140345788925e-09,-0.00098599384470493,0.00098599304298001,-0.00098599427308181,0.00098599272658877,-0.00098599265645306,0.00098599433220718,-0.00098599336800333,0.00098599360949422,-0.00087515140310454,0.00087515291973435,-0.00087515360491938,0.0008751503819288,0.59135073577568,128566,2924,0.0047177066988995,0.0066246941389504,0.0034721664372868,36.464602691597,5.4116821532773e-05,5.4116821532773e-05,5.4116821532773e-05,4048755.8761171,0.014925820510147
13019200,0.94770876430387,0.014921883587733,0.0048255369343208,0.0062716128760667,0.003824733777345,-0.0011371325242035,0.0011371327541461,-1.4092645889397e-09,1.6406713760192e-09,-1.079484257598e-09,1.3575129880277e-09,-0.0012758591318043,0.001275857035688,-0.0012758578596616,0.0012758583625004,-0.0012758579855915,0.0012758582350082,-0.0012758570604342,0.0012758592707045,-0.0010794596691931,0.001079457985513,-0.0010794571810761,0.0010794608841147,-8.744306102745e-10,2.0275514119314e-09,-4.2317149135436e-09,5.3455029439661e-09,-0.0015997142370996,0.0015997153435965,-0.0017326704762852,0.0017326667225021,-0.001732666921975,0.0017326704035953,-0.0017326691157549,0.0017326680951361,-0.0017326658996149,0.001732671538268,-0.0014022890303397,0.0014022816677774,-0.0014022798544415,0.0014022911546432,-0.001494289936874,0.0014942915283899,-0.0014942872292457,0.0014942943551996,-1.5163516917191e-09,1.3669611018543e-09,-0.00083492028702445,0.00083492012075211,1.0534820958451e-09,-1.2762964316534e-09,-0.00098773522720808,0.00098773451795998,-0.00098773575193887,0.00098773410535262,-0.00098773405694285,0.00098773578832532,-0.00098773486907124,0.00098773496703488,-0.00087623627810654,0.00087623761112062,-0.00087623841661306,0.00087623513615385,0.59303210349186,128566,2924,0.004726647569435,0.0066413819300136,0.0034767528048952,35.90532131099,4.9642570487924e-05,4.9642570487924e-05,4.9642570487924e-05,4041651.3537294,0.014956495538843
13219200,0.95088901459407,0.014962064689646,0.0048383265432362,0.006289478228396,0.0038342599180138,-0.0011386673994137,0.0011386676217536,-1.3560672668865e-09,1.5799138406748e-09,-1.0666018740302e-09,1.3389158422754e-09,-0.0012779338273294,0.0012779317635421,-0.0012779325851012,0.0012779330609678,-0.001277932688382,0.0012779329561283,-0.0012779318020921,0.0012779339556556,-0.0010808765988663,0.0010808750011876,-0.0010808742266634,0.00108087780379,-9.3087035084388e-10,2.0855124317326e-09,-4.4052460006997e-09,5.519379496098e-09,-0.0016029291853377,0.0016029302947069,-0.0017365380857299,0.0017365341805976,-0.0017365344179687,0.0017365379863463,-0.0017365366863003,0.00173653559805,-0.0017365333603761,0.001736539152628,-0.0014046787086656,0.0014046710602384,-0.0014046692021916,0.0014046808763338,-0.0014970402972356,0.0014970418996916,-0.0014970374567978,0.0014970448063727,-1.4626977218478e-09,1.2949637814641e-09,-0.00083555055189541,0.00083555036684546,1.1546884632954e-09,-1.4026469461198e-09,-0.00098892525110158,0.00098892463705945,-0.00098892585021397,0.00098892415160142,-0.00098892411568705,0.000988925872803,-0.00098892500934445,0.00098892497204198,-0.00087684722765392,0.00087684835534857,-0.00087684924644286,0.00087684599893073,0.59512912896903,128566,2924,0.004733014420606,0.0066546765637685,0.0034793921164704,35.183229730682,4.3865837845456e-05,4.3865837845456e-05,4.3865837845456e-05,4031076.3552323,0.014979137555204
13419200,0.95376584252214,0.014997819488779,0.004849696491794,0.0063054068842732,0.0038427161127118,-0.0011398737765429,0.0011398739905506,-1.3480224238458e-09,1.5639732662345e-09,-1.0420052678918e-09,1.3041142252644e-09,-0.0012796346685618,0.0012796326240013,-0.0012796334317585,0.0012796339109324,-0.0012796335449487,0.0012796337969637,-0.0012796326701749,0.0012796347846667,-0.0010819754173419,0.0010819738255557,-0.0010819730722948,0.0010819765885576,-9.4500152467563e-10,2.104187061412e-09,-4.472038977926e-09,5.5911467426579e-09,-0.0016056523802751,0.0016056534924483,-0.001739849799333,0.0017398458343061,-0.0017398460820484,0.0017398496887204,-0.0017398483859379,0.0017398472643695,-0.0017398450165216,0.0017398508647156,-0.001406666394823,0.0014066586236187,-0.0014066567548125,0.0014066685769806,-0.0014993290806918,0.0014993307089671,-0.0014993262287252,0.001499333657354,-1.4537246311203e-09,1.2686508393267e-09,-0.00083596772866501,0.00083596752518474,1.241534651851e-09,-1.5083675798286e-09,-0.00098985549049217,0.00098985493234236,-0.0009898561498198,0.00098985438441525,-0.00098985436681005,0.0009898561548618,-0.00098985532454551,0.00098985518944376,-0.00087723315296396,0.000877234150206,-0.00087723512775792,0.00087723183865348,0.5860878745687,128566,2924,0.0047380191363121,0.0066659368845147,0.0034811439653288,34.452650161299,3.8021201290392e-05,3.8021201290392e-05,3.8021201290392e-05,4020053.639526,0.014997431461062
13619200,0.95639976829147,0.015030130243194,0.0048599632310266,0.0063198176699253,0.0038503493422426,-0.0011411916273374,0.0011411918327689,-1.416496217103e-09,1.6246043003237e-09,-1.0022942693279e-09,1.250952841367e-09,-0.0012813962099064,0.0012813941314459,-0.001281394915607,0.0012813954716733,-0.0012813950953488,0.0012813952923237,-0.0012813941997283,0.0012813962970607,-0.0010831884709483,0.0010831867890227,-0.0010831860534322,0.0010831895940156,-8.856725943102e-10,2.0450731708302e-09,-4.3090697577003e-09,5.4293402886752e-09,-0.0016083418028451,0.0016083429125589,-0.0017430865039782,0.0017430826517414,-0.0017430828627229,0.0017430864168175,-0.0017430851052802,0.0017430840603887,-0.0017430818554411,0.0017430875398991,-0.0014086745102024,0.0014086670657733,-0.001408665236392,0.0014086766451597,-0.0015016208782659,0.0015016225782375,-0.001501618239148,0.0015016253873158,-1.516696537006e-09,1.323626340185e-09,-0.00083655581333972,0.00083655560208971,1.2719021362334e-09,-1.5423541788757e-09,-0.00099090079321381,0.00099090019200476,-0.00099090145080289,0.00099089964325259,-0.00099089961786428,0.00099090146474302,-0.00099090060954846,0.00099090046289712,-0.00087778901505286,0.00087779002166323,-0.00087779104111429,0.00087778766470078,0.57890325693532,128566,2924,0.0047434857599163,0.0066770585112258,0.003483603416958,33.907882483424,3.3663059867395e-05,3.3663059867395e-05,3.3663059867395e-05,4013745.1451612,0.015016771270357
13819200,0.95883386276822,0.015059981316729,0.004869447804999,0.0063331153866723,0.0038574181250572,-0.0011426069596874,0.0011426071855156,-1.3360242193184e-09,1.5647182714563e-09,-1.0930192073003e-09,1.3646301330156e-09,-0.0012832098069102,0.0012832078341382,-0.0012832086679306,0.0012832090286709,-0.0012832087402378,0.0012832089540514,-0.0012832077779279,0.0012832100284263,-0.0010845060010633,0.0010845041919457,-0.0010845033936527,0.001084507233787,-9.362540567283e-10,2.0943835318443e-09,-4.2999392648659e-09,5.4170696110065e-09,-0.0016110062425271,0.0016110073537371,-0.0017462613136186,0.0017462575562175,-0.0017462577983013,0.0017462612059945,-0.0017462599990477,0.0017462588909831,-0.0017462566451699,0.0017462624683998,-0.0014107011909076,0.0014106934691031,-0.0014106915942839,0.0014107033557584,-0.0015039255898264,0.0015039268260159,-0.0015039224606648,0.0015039300610163,-1.4156783331384e-09,1.2720320855857e-09,-0.00083728753425922,0.00083728737477064,1.005421811495e-09,-1.2211305102975e-09,-0.00099204176541689,0.00099204118434032,-0.00099204234608175,0.00099204071618176,-0.0009920407468594,0.00099204230256779,-0.00099204144162924,0.0009920415994535,-0.00087849363779503,0.00087849508985148,-0.00087849586182037,0.00087849254015594,0.57842618225929,128566,2924,0.0047493563931796,0.0066880776255957,0.0034866578196242,33.507578952823,3.0460631622587e-05,3.0460631622587e-05,3.0460631622587e-05,4010768.7852479,0.015037020705975
14019200,0.96112077037508,0.015088029577455,0.0048783601031692,0.0063455964874828,0.0038640729868028,-0.0011444352494866,0.0011444354832735,-1.4074669257964e-09,1.6447063581529e-09,-1.0859979618901e-09,1.3626355206555e-09,-0.0012854178588213,0.0012854157626718,-0.0012854165846605,0.0012854170886444,-0.0012854167051466,0.0012854169655853,-0.0012854157835069,0.0012854180022601,-0.0010862537583547,0.0010862521012857,-0.001086251290669,0.0010862549906768,-8.3700890271727e-10,1.9870608027153e-09,-3.9525659792343e-09,5.0631965409977e-09,-0.0016140127801619,0.0016140138836293,-0.0017497439513581,0.0017497403920677,-0.0017497405695867,0.0017497438977673,-0.0017497426113003,0.0017497417489471,-0.0017497395754949,0.0017497450010054,-0.0014130998826992,0.0014130930343458,-0.0014130912240649,0.0014131019593075,-0.0015066004075427,0.001506601888513,-0.0015065977782823,0.0015066046419049,-1.4728976752775e-09,1.3537601788416e-09,-0.00083842948859735,0.00083842935388785,8.8340119537634e-10,-1.0670003149932e-09,-0.00099358739533292,0.00099358661090073,-0.00099358779261555,0.00099358632354792,-0.00099358624643151,0.0009935878567671,-0.000993586932062,0.00099358716428468,-0.00087963377948007,0.0008796352211329,-0.00087963587596545,0.00087963279527494,0.57821463805646,128566,2924,0.0047569390318436,0.0067005121208138,0.00349141630366,33.391023961906,2.9528191695249e-05,2.9528191695249e-05,2.9528191695249e-05,4011522.4887308,0.015062174806929
14219200,0.96326506646356,0.015113336215886,0.0048863878023376,0.0063569343582333,0.0038700140553155,-0.0011460075295075,0.0011460077744341,-1.4225275670277e-09,1.6697001337821e-09,-1.1027147657639e-09,1.3978019315222e-09,-0.0012873649429523,0.0012873627852633,-0.0012873636182811,0.0012873641646721,-0.0012873637306979,0.0012873640475362,-0.0012873628388916,0.0012873650548998,-0.0010877390897051,0.0010877375198862,-0.0010877366847628,0.001087740349261,-7.9261041482531e-10,1.93917230897e-09,-3.7649836385107e-09,4.872169602563e-09,-0.0016166942523204,0.0016166953519349,-0.0017528777351038,0.0017528742808886,-0.0017528744332434,0.0017528777037056,-0.0017528763838099,0.0017528756449244,-0.0017528735035449,0.0017528787396084,-0.0014152163990768,0.0014152100204931,-0.0014152082481778,0.0014152184475232,-0.0015089491053742,0.0015089506825567,-0.0015089466861561,0.0015089532129853,-1.4739823841514e-09,1.3799363785365e-09,-0.00083937188733289,0.00083937177764525,7.5322560656299e-10,-9.1291830335668e-10,-0.00099492514655035,0.00099492424306585,-0.00099492540674244,0.00099492409266121,-0.00099492394922776,0.00099492553725181,-0.00099492458001079,0.00099492489857067,-0.00088055161471067,0.0008805530789942,-0.00088055361489594,0.00088055074951838,0.55856767299326,128566,2924,0.0047634600499206,0.0067116016073444,0.0034953447519214,33.233909927926,2.8271279423409e-05,2.8271279423409e-05,2.8271279423409e-05,4011896.4053438,0.015084044164243
14419200,0.96526303487798,0.015137181067514,0.0048939576913968,0.006367581428105,0.0038756419480121,-0.0011472330693141,0.001147233322432,-1.3783644557245e-09,1.6328214752187e-09,-1.1292442466189e-09,1.4333261145181e-09,-0.0012888944719288,0.0012888922271704,-0.0012888930736149,0.0012888936855515,-0.0012888931449768,0.0012888936102428,-0.0012888923737028,0.0012888944967044,-0.0010888691662371,0.0010888679554698,-0.0010888671061042,0.0010888704644867,-8.1268464421844e-10,1.9539196805068e-09,-3.7759287964378e-09,4.8773485628788e-09,-0.0016188962087602,0.0016188973064398,-0.0017555174799653,0.0017555139151074,-0.0017555140773041,0.0017555174428473,-0.0017555160219924,0.0017555153910834,-0.0017555132340538,0.001755518389327,-0.0014168831135058,0.0014168770409823,-0.00141687525124,0.0014168851664005,-0.0015108638108629,0.0015108656543212,-0.0015108616337409,0.0015108678806061,-1.4199162966568e-09,1.3404186009903e-09,-0.00084004280787755,0.00084004271374836,6.8749788641149e-10,-8.2995204484907e-10,-0.00099589131937633,0.00099589031406708,-0.00099589143697004,0.00099589031005623,-0.00099589005163963,0.00099589168169199,-0.00099589073650442,0.000995890990999,-0.00088118409047079,0.00088118525799334,-0.00088118572084152,0.00088118329300115,0.56383593954552,128566,2924,0.0047685431221996,0.0067207091633508,0.0034981416547369,32.955784380715,2.6046275045723e-05,2.6046275045723e-05,2.6046275045723e-05,4013849.8397621,0.015101292144153
14619200,0.96704020958297,0.015158512754601,0.0049007324435923,0.0063770878330826,0.0038806924779265,-0.0011466585048355,0.0011466587788584,-1.2423457177683e-09,1.5147031877895e-09,-1.1762280133026e-09,1.5115596633605e-09,-0.0012885599174593,0.001288557741788,-0.0012885586015073,0.0012885591071028,-0.0012885585650558,0.0012885591547061,-0.0012885578453695,0.0012885599536343,-0.0010882085550256,0.0010882075684439,-0.0010882066394145,0.0010882098636035,-8.5677237042749e-10,1.9948452899045e-09,-4.2305487207582e-09,5.3307292113523e-09,-0.001619114374664,0.0016191154690847,-0.0017561178324758,0.0017561139622212,-0.001756114144073,0.0017561177518535,-0.0017561163636729,0.0017561154465827,-0.001756113273603,0.0017561187430285,-0.0014166742600239,0.0014166672802913,-0.0014166654892718,0.0014166763536481,-0.0015108278272138,0.0015108298345364,-0.0015108255083929,0.0015108321865969,-1.3204786087849e-09,1.1754057514318e-09,-0.00083911887440642,0.0008391187156777,8.825912868832e-10,-1.1103055423892e-09,-0.0009951706595964,0.00099516986080395,-0.00099517095668133,0.00099516967519567,-0.0009951694942545,0.00099517113939187,-0.00099517033043238,0.00099517028565877,-0.00088016988030883,0.00088017061373543,-0.00088017127020381,0.00088016886443019,0.56645706742987,128566,2924,0.0047661629310724,0.0067216098963126,0.0034943090939306,31.822802327331,1.6982418618645e-05,1.6982418618645e-05,1.6982418618645e-05,4000662.8671868,0.015095902696712
14819200,0.96864124743357,0.015177866458442,0.0049068814851906,0.0063856855869959,0.0038852993862558,-0.0011462753484151,0.001146275607295,-1.2448272543377e-09,1.5071333460452e-09,-1.1396772225108e-09,1.4449345790052e-09,-0.0012883825655298,0.0012883803545693,-0.0012883811985168,0.0012883817693102,-0.0012883811879318,0.0012883817930314,-0.0012883805194808,0.0012883825282761,-0.0010877588926711,0.0010877580473663,-0.0010877571048223,0.0010877601281214,-8.4952268172403e-10,1.9792266688662e-09,-4.4087578378273e-09,5.499346030989e-09,-0.0016194372871087,0.001619438370937,-0.0017567734434563,0.0017567693918967,-0.0017567695820528,0.0017567733420766,-0.0017567719116808,0.001756770925714,-0.0017567687663835,0.0017567742712111,-0.0014166175809159,0.0014166104158325,-0.0014166085389236,0.0014166195778908,-0.0015109286389262,0.0015109309364277,-0.0015109265302092,0.001510933110728,-1.3465159377006e-09,1.1324380810582e-09,-0.00083842463422284,0.00083842441769117,1.1017506181867e-09,-1.3874973666597e-09,-0.00099465636950792,0.000994655641152,-0.00099465677164081,0.00099465533264713,-0.00099465514907751,0.00099465695408587,-0.00099465620418729,0.00099465588229954,-0.00087940867423942,0.00087940897406589,-0.00087940988849614,0.00087940740386294,0.5696215619675,128566,2924,0.0047645762330069,0.0067229441707388,0.0034914303033084,30.870675248159,9.365401985273e-06,9.365401985273e-06,9.365401985273e-06,3988720.5408259,0.01509272670729
15019200,0.97005500140494,0.015194895126401,0.0049122909161769,0.0063932453449756,0.0038893588652483,-0.0011449994837787,0.0011449997250119,-1.6071564143773e-09,1.8493167767665e-09,-1.052919456765e-09,1.3480128702498e-09,-0.0012872728119132,0.0012872707994363,-0.0012872716015952,0.0012872720501135,-0.0012872718645151,0.0012872717886035,-0.0012872705993061,0.0012872731341365,-0.0010864198749736,0.0010864170887834,-0.0010864162411236,0.0010864210381282,-7.5154847647463e-10,1.8744788745453e-09,-4.453526931574e-09,5.5354369900232e-09,-0.0016187214477619,0.0016187225245251,-0.0017563436747904,0.0017563400233097,-0.0017563401578527,0.0017563436270091,-0.0017563425903322,0.0017563410984343,-0.0017563390233951,0.0017563448875379,-0.0014156021189437,0.0014155936143359,-0.0014155918647319,0.0014156040902847,-0.0015100148837309,0.0015100162007524,-0.0015100117612413,0.0015100194159772,-1.7273136622937e-09,1.4441336868032e-09,-0.00083694855572326,0.00083694826617199,1.5427659782937e-09,-1.9178680773245e-09,-0.00099330854932768,0.00099330822581581,-0.00099330963710861,0.00099330722208618,-0.00099330749670522,0.00099330937049696,-0.00099330846792393,0.00099330837164657,-0.00087783842161646,0.00087784018028876,-0.00087784148278718,0.00087783677220059,0.56738228153869,128566,2924,0.0047592881446015,0.0067199812559714,0.0034853012465274,29.525230496575,-1.3981560274009e-06,-1.3981560274009e-06,-1.3981560274009e-06,3969687.2656444,0.015078131536925
15219200,0.97121661867012,0.015208256309672,0.0049165261981965,0.0063992197199087,0.0038925103915671,-0.0011410610743464,0.0011410613574889,-1.3414840126909e-09,1.6229771055823e-09,-1.2215690260151e-09,1.563335123538e-09,-0.0012834073696099,0.0012834056162492,-0.0012834065034642,0.0012834065397846,-0.0012834064896336,0.0012834065564679,-0.001283405219559,0.0012834079407374,-0.0010823934495923,0.001082390920781,-0.0010823899827341,0.0010823948516358,-7.7762361566174e-10,1.9206270649851e-09,-5.2213298198992e-09,6.3263984338705e-09,-0.0016150452847305,0.0016150463856278,-0.0017528990102529,0.0017528950304063,-0.001752895182935,0.0017528990264543,-0.0017528980881397,0.0017528959754716,-0.0017528938496136,0.0017529004558071,-0.0014117588786986,0.0014117483359349,-0.001411746668576,0.0014117609750911,-0.0015061747484525,0.0015061759671734,-0.0015061710034388,0.0015061797687257,-1.4740734588103e-09,1.1927479211643e-09,-0.00083305781246256,0.00083305750694567,1.8806555073534e-09,-2.261753827383e-09,-0.0009893966789348,0.00098939688890362,-0.00098939817801254,0.00098939549707995,-0.00098939596034126,0.00098939770261433,-0.00098939700341473,0.00098939665791611,-0.00087374563929223,0.00087374712608843,-0.00087374866248113,0.00087374375190182,0.54391445986976,128566,2924,0.0047429604646857,0.0067047723756582,0.0034691341936247,26.882900896221,-2.2536792830235e-05,-2.2536792830235e-05,-2.2536792830235e-05,3930723.2636809,0.015029709495214
15419200,0.97227383681577,0.015222224485104,0.0049209851336109,0.0064052815045106,0.0038959578469822,-0.001140278695551,0.0011402789501314,-1.491745734087e-09,1.7508366360305e-09,-1.0730429922695e-09,1.369931183131e-09,-0.0012826552409052,0.0012826532651055,-0.0012826540438185,0.0012826544964743,-0.001282654262013,0.0012826543039772,-0.0012826530773276,0.0012826555338014,-0.0010815547387981,0.001081552524288,-0.0010815516798957,0.0010815559763901,-7.7836419839038e-10,1.9083565458998e-09,-4.7092963500526e-09,5.8067392838655e-09,-0.0016145709089251,0.0016145719978351,-0.0017526343189675,0.0017526304476907,-0.0017526305534211,0.0017526342679288,-0.0017526331816668,0.0017526315980486,-0.001752629503568,0.0017526355029415,-0.0014110569079662,0.0014110480422143,-0.0014110463506032,0.0014110589582583,-0.0015056039243985,0.0015056055120283,-0.0015056009478351,0.0015056086512984,-1.6229666677471e-09,1.3157143487425e-09,-0.00083216051797422,0.00083216020018805,1.6886939781758e-09,-2.0776391487055e-09,-0.00098847667347174,0.00098847644020898,-0.00098847782813157,0.00098847539796022,-0.00098847566162083,0.00098847759481913,-0.00098847678708753,0.00098847642161104,-0.00087280248255263,0.00087280367972999,-0.00087280510291704,0.00087280073612868,0.61488004256102,128566,2924,0.0047397177467094,0.006702811554914,0.0034654051173365,25.931081377706,-3.0151348978353e-05,-3.0151348978353e-05,-3.0151348978353e-05,3921455.0151587,0.015020641808653
15619200,0.97327069292362,0.015235683875346,0.004925285711537,0.0064110990625266,0.0038992991012827,-0.0011405316967095,0.0011405318755353,-1.8672374375622e-09,2.0499275311058e-09,-8.2280488837546e-10,1.038453483253e-09,-0.0012830824707105,0.0012830801005521,-0.0012830807828043,0.0012830818349534,-0.0012830813801895,0.0012830812426366,-0.0012830802978252,0.0012830824261242,-0.0010818632890355,0.0010818610284972,-0.0010818604527161,0.0010818642706728,-6.8980266323743e-10,1.819600853443e-09,-3.7615247957054e-09,4.8530486831058e-09,-0.0016153379055505,0.0016153389901685,-0.0017535255083768,0.0017535220040143,-0.001753522091769,0.0017535255206743,-0.0017535241208635,0.0017535233916857,-0.0017535213371841,0.0017535263966659,-0.0014116580592292,0.0014116519123298,-0.0014116502366526,0.0014116600191461,-0.0015062426141668,0.0015062446855583,-0.0015062407526003,0.0015062467165458,-1.9166001901761e-09,1.6801094569201e-09,-0.00083221298958352,0.00083221273792246,1.4697725419871e-09,-1.782174265828e-09,-0.00098876262514103,0.00098876177010425,-0.00098876330407054,0.0009887611933475,-0.0009887610922474,0.00098876339797434,-0.0009887623346684,0.00098876213839383,-0.00087288793455472,0.00087288911743165,-0.00087289034072013,0.00087288640537964,0.62695262721946,128566,2924,0.0047407689283336,0.0067059801335829,0.003465632238532,25.55396750979,-3.3168259921683e-05,-3.3168259921683e-05,-3.3168259921683e-05,3906193.7142255,0.01502515934426
15819200,0.97419022144619,0.015249032478138,0.0049295631292975,0.0064168003879083,0.0039026689609326,-0.001140039294304,0.0011400395029795,-1.6071928393436e-09,1.8144633879325e-09,-9.2758472699868e-10,1.1869847250785e-09,-0.0012827426384384,0.0012827403938697,-0.0012827411313313,0.001282741955957,-0.0012827414964251,0.00128274159647,-0.0012827405444572,0.0012827426455618,-0.0010814591655834,0.0010814573664542,-0.0010814566884316,0.0010814602595927,-8.748705732457e-10,2.0189936872464e-09,-3.6778492788173e-09,4.7872374130655e-09,-0.0016153030324578,0.0016153041315171,-0.0017535820837677,0.001753578548444,-0.0017535787446296,0.0017535819874519,-0.0017535806045579,0.0017535800400994,-0.0017535778429047,0.0017535830099226,-0.0014115065039166,0.0014115006151299,-0.0014114988027498,0.0014115086540082,-0.0015061091279739,0.0015061107234617,-0.0015061067852088,0.0015061131645748,-1.6114694613648e-09,1.4749461856611e-09,-0.00083158151610327,0.00083158136618175,8.8765046935806e-10,-1.0960965879777e-09,-0.00098834066053876,0.00098833968231768,-0.00098834095521715,0.00098833949148136,-0.00098833933158244,0.00098834112740938,-0.00098834012290359,0.00098834030278737,-0.00087228028286865,0.0008722815564651,-0.00087228224193159,0.00087227927464055,0.6692015838762,128566,2924,0.004738729745954,0.0067058308124438,0.0034630175042584,24.792014011821,-3.9263887905429e-05,-3.9263887905429e-05,-3.9263887905429e-05,3883506.9753042,0.015020287238687
16019200,0.97506830088199,0.015261749411208,0.0049336376603848,0.0064222340834333,0.0039058776673903,-0.0011405366926009,0.0011405368683315,-1.5589780892123e-09,1.7362069128556e-09,-8.2175241639908e-10,1.0345549148222e-09,-0.001283465453383,0.0012834631641646,-0.0012834638478747,0.0012834648276343,-0.0012834642514548,0.0012834644266974,-0.0012834634906007,0.0012834652879171,-0.0010821103106097,0.0010821089818438,-0.001082108414783,0.0010821112918468,-8.2972479900635e-10,1.9702111545781e-09,-3.1706787411174e-09,4.2785173058803e-09,-0.0016164011499432,0.0016164022453852,-0.0017547194922842,0.0017547161781343,-0.0017547163364898,0.0017547194138546,-0.00175471789656,0.0017547177770877,-0.0017547156126528,0.0017547202634281,-0.0014125111063476,0.001412506624083,-0.0014125048303454,0.0014125132111664,-0.0015070946437304,0.001507096411214,-0.0015070928644739,0.0015070983883677,-1.5169823884628e-09,1.4320968627359e-09,-0.00083186611228244,0.0008318660177545,5.9974459253791e-10,-7.3217907242733e-10,-0.00098897304760826,0.00098897180689691,-0.00098897298379924,0.00098897197395833,-0.00098897162096612,0.00098897334582369,-0.00098897233936535,0.00098897259362297,-0.00087264540064978,0.00087264638372194,-0.00087264682509886,0.00087264465350152,0.66743248197075,128566,2924,0.0047407948518306,0.0067103654628151,0.0034642143252693,24.5933101087,-4.0853519130401e-05,-4.0853519130401e-05,-4.0853519130401e-05,3862941.6144015,0.015028206553527
16219200,0.9759347869802,0.015274241650612,0.0049376388362408,0.0064275767029936,0.0039090261113777,-0.0011420313555151,0.0011420315533667,-1.4945258514192e-09,1.6938631343379e-09,-9.0015769355955e-10,1.1380934903192e-09,-0.0012852049825812,0.0012852029784239,-0.0012852037028733,0.0012852043229682,-0.0012852040149802,0.0012852040084699,-0.0012852029935042,0.0012852051330119,-0.0010837598490795,0.001083757764393,-0.0010837571175191,0.0010837609220354,-9.8448869472263e-10,2.1377548407041e-09,-2.9511127551193e-09,4.0702592281392e-09,-0.0016185681278823,0.0016185692346505,-0.0017569307019863,0.0017569277242905,-0.0017569279795444,0.0017569305291303,-0.0017569292965252,0.0017569291440854,-0.0017569268563547,0.0017569317726799,-0.0014145568193719,0.001414552004958,-0.0014145500565801,0.0014145590152353,-0.0015091483176282,0.0015091487743697,-0.0015091453242702,0.0015091519134227,-1.4141999527137e-09,1.4172060703191e-09,-0.00083308174259791,0.00083308173894303,9.0442602952327e-11,-1.242847419199e-10,-0.00099056798677213,0.00099056679216636,-0.00099056784448272,0.00099056703707979,-0.00099056688482778,0.00099056800840827,-0.00099056694585574,0.00099056791172296,-0.00087397165194207,0.00087397385916755,-0.00087397383636445,0.00087397136658693,0.6642605779128,128566,2924,0.0047469947208847,0.0067193220823889,0.0034692804646695,24.944950245915,-3.8040398032677e-05,-3.8040398032677e-05,-3.8040398032677e-05,3854119.3368695,0.015048739094225
16419200,0.97672961704986,0.015284479565605,0.0049409010455835,0.0064320457611795,0.0039115327588418,-0.0011411076472503,0.0011411078467893,-1.590368520804e-09,1.7870389561593e-09,-8.8448428256083e-10,1.1350200082708e-09,-0.0012844882096941,0.0012844860130011,-0.0012844867261393,0.0012844875525934,-0.0012844871128229,0.001284487171919,-0.001284486158516,0.0012844882175932,-0.0010829452338077,0.0010829434029296,-0.001082942761256,0.0010829462678151,-7.9431882275227e-10,1.9296111448805e-09,-3.0895220619864e-09,4.1930033170386e-09,-0.0016181504082974,0.0016181514994577,-0.0017565587908027,0.0017565557074846,-0.001756555839849,0.0017565587347483,-0.0017565573773971,0.0017565571322557,-0.0017565549963896,0.0017565597047648,-0.0014140804074561,0.001414075584973,-0.0014140738338055,0.0014140824952236,-0.0015086038368723,0.001508605143251,-0.0015086016022084,0.0015086074634883,-1.5434481797838e-09,1.4666068190687e-09,-0.00083205691161709,0.00083205682341067,5.0746199479616e-10,-6.4604717163528e-10,-0.00098982388341688,0.0009898227244595,-0.000989823916878,0.00098982279533927,-0.00098982259317868,0.00098982413997891,-0.00098982309595887,0.00098982359447399,-0.00087292940757638,0.00087293102254338,-0.00087293136629864,0.00087292873556467,0.5998214379336,128566,2924,0.0047431670940728,0.0067175861380452,0.0034650332347667,24.073139735486,-4.501488211611e-05,-4.501488211611e-05,-4.501488211611e-05,3829298.9301018,0.015038785001647
16619200,0.97748471393071,0.015296069500759,0.004944620953451,0.0064369494535416,0.0039144990937664,-0.0011412992905427,0.0011412995037555,-1.5977754505347e-09,1.8108640075218e-09,-9.4605152118719e-10,1.2019571707394e-09,-0.0012847535536604,0.0012847513257735,-0.0012847520658991,0.0012847528713766,-0.0012847524208172,0.0012847525225983,-0.0012847514508035,0.0012847535812793,-0.0010832007296589,0.0010831989059553,-0.0010831982052405,0.0010832018470537,-7.7235905043177e-10,1.9060937075574e-09,-3.2763434823674e-09,4.3800266003704e-09,-0.0016187176830144,0.0016187187729941,-0.0017572123289936,0.0017572091326008,-0.001757209251745,0.0017572122830679,-0.001757210933513,0.0017572105392046,-0.0017572084212142,0.0017572132475298,-0.0014145189596659,0.0014145137498302,-0.0014145119983377,0.0014145210225618,-0.0015091240433173,0.0015091255182963,-0.0015091218784617,0.00150912782195,-1.5655018559451e-09,1.4641762481408e-09,-0.00083211285365716,0.00083211274397801,6.419029849809e-10,-7.9502445508171e-10,-0.00098997162596814,0.00098997053608002,-0.00098997175809773,0.00098997051132371,-0.00098997033680356,0.00098997195547499,-0.00098997092652247,0.00098997131854878,-0.00087301980514405,0.00087302132102653,-0.00087302179923452,0.00087301901797907,0.70236008229526,128566,2924,0.0047439629160853,0.0067199307940139,0.0034652704475637,23.766251331022,-4.7469989351828e-05,-4.7469989351828e-05,-4.7469989351828e-05,3825039.2632357,0.015042213848368
16819200,0.97821036306857,0.015307260202526,0.0049482122608526,0.0064416865200753,0.0039173614215986,-0.0011417976835619,0.0011417979011511,-1.6071097196145e-09,1.8241001440325e-09,-9.7258856534062e-10,1.2342438242866e-09,-0.0012854768512008,0.0012854746082895,-0.0012854753644664,0.0012854761542243,-0.0012854757074162,0.0012854758143489,-0.0012854747238306,0.0012854768961795,-0.0010838924248469,0.0010838905725575,-0.0010838898538779,0.00108389356632,-7.5289300275322e-10,1.8840768024529e-09,-3.4209022406083e-09,4.5214520691547e-09,-0.0016198075669047,0.0016198086542081,-0.0017582872482211,0.0017582839811602,-0.0017582840967219,0.001758287222933,-0.0017582858765416,0.0017582853651613,-0.0017582832639103,0.0017582881772858,-0.0014155652933315,0.0014155597556929,-0.0014155580184895,0.0014155673386005,-0.0015101261691624,0.0015101277424818,-0.0015101239979329,0.0015101300287243,-1.5813816979849e-09,1.4589546849161e-09,-0.00083242225302691,0.00083242212036139,7.7813751334487e-10,-9.5865456709191e-10,-0.00099063928987962,0.00099063828215764,-0.00099063953181359,0.00099063814670949,-0.00099063800147037,0.0009906396954394,-0.00099063868490381,0.0009906389684546,-0.00087341761310434,0.00087341903942588,-0.00087341964523655,0.00087341669945595,0.70571911106021,128566,2924,0.0047460320437607,0.0067244299898734,0.0034665712935465,23.643556699788,-4.8451546401692e-05,-4.8451546401692e-05,-4.8451546401692e-05,3806089.6375935,0.015050206957719
17019200,0.97890352092591,0.015317734777018,0.0049515703111344,0.0064461364379865,0.0039200280278969,-0.0011420364821256,0.0011420367233075,-1.2642304637577e-09,1.5036163309792e-09,-1.0534505427704e-09,1.3458371445991e-09,-0.0012859411568317,0.0012859393393698,-0.0012859401381857,0.00128594041732,-0.0012859401941936,0.0012859403667803,-0.0012859391903237,0.0012859414675324,-0.0010843191254416,0.0010843172821163,-0.0010843164724019,0.0010843203455986,-7.9437782536154e-10,1.9295622241986e-09,-3.8252565973897e-09,4.929692385458e-09,-0.0016206346481925,0.0016206357391609,-0.0017590950377452,0.0017590917215829,-0.0017590918651489,0.001759094990071,-0.0017590938770675,0.001759092889785,-0.0017590907617827,0.0017590962159232,-0.0014163545277231,0.0014163474988818,-0.0014163457539888,0.0014163566382024,-0.0015108663883706,0.0015108674354633,-0.0015108634238047,0.0015108705320954,-1.2416373964456e-09,1.1225550831535e-09,-0.00083249772747109,0.00083249759698985,7.6299320546367e-10,-9.4538499356753e-10,-0.00099106374751449,0.0009910632066449,-0.00099106422558348,0.00099106283395503,-0.00099106293053163,0.00099106414773985,-0.00099106336333441,0.00099106367382959,-0.00087357248451283,0.00087357399221426,-0.00087357457616327,0.00087357158180512,0.69246305570216,128566,2924,0.0047470246370404,0.0067278415742741,0.003466900345343,23.416325865532,-5.0269393075747e-05,-5.0269393075747e-05,-5.0269393075747e-05,3787161.7708567,0.015055016601851
17219200,0.97955818221969,0.015327355557358,0.0049546504097521,0.0064502420253023,0.0039224631223033,-0.0011418508725931,0.0011418511215364,-1.3437129503594e-09,1.590210214139e-09,-1.0845134073304e-09,1.3847252981221e-09,-0.0012859466676578,0.0012859447287034,-0.0012859455397161,0.0012859459106749,-0.0012859456318355,0.0012859458241877,-0.0012859446186738,0.0012859469382986,-0.0010842918758612,0.0010842900949204,-0.0010842892586282,0.0010842931248315,-7.7772014747746e-10,1.9111115667947e-09,-4.0377451951853e-09,5.1409349193789e-09,-0.0016209677314453,0.0016209688207999,-0.0017594200509595,0.0017594165574471,-0.0017594166943356,0.0017594200203603,-0.0017594188504244,0.0017594177716158,-0.0017594156595143,0.001759421174392,-0.001416651182488,0.001416643859367,-0.0014166421295684,0.0014166532799716,-0.001511118596105,0.0015111199369584,-0.0015111157727972,0.0015111228593543,-1.3399909617658e-09,1.1809466875088e-09,-0.00083219323900671,0.00083219306738905,9.9294760674985e-10,-1.2225780085645e-09,-0.00099104255281675,0.0009910420393447,-0.00099104315175336,0.00099104154542688,-0.00099104163639433,0.00099104308212672,-0.00099104228145792,0.00099104239403051,-0.00087331480172076,0.00087331613831154,-0.00087331692430729,0.00087331369258833,0.67476321227004,128566,2924,0.0047462570696459,0.0067292108585672,0.0034656479941477,22.993192358544,-5.3654461131646e-05,-5.3654461131646e-05,-5.3654461131646e-05,3769287.3141598,0.015054360072997
17419200,0.98018313141152,0.015336136371349,0.0049574557183432,0.0064540158291189,0.0039246648238867,-0.0011419301282837,0.0011419303569911,-1.4551475657646e-09,1.6826669504927e-09,-1.0133025602803e-09,1.288010860917e-09,-0.0012861898995874,0.0012861879682065,-0.0012861887421437,0.0012861891768141,-0.0012861889585535,0.0012861889723201,-0.0012861878329716,0.001286190183256,-0.0010844985443113,0.001084496394107,-0.0010844956087908,0.0010844996988799,-7.0648580216723e-10,1.8277361039755e-09,-3.9473396083081e-09,5.040019681976e-09,-0.0016215194772131,0.0016215205557909,-0.0017599836510297,0.0017599803001265,-0.0017599803879055,0.0017599836510424,-0.0017599825361675,0.0017599814216678,-0.0017599793696649,0.0017599847955239,-0.001417145718666,0.0014171384099049,-0.0014171367244925,0.0014171477404284,-0.0015115927975479,0.0015115941010359,-0.0015115900311935,0.001511596995361,-1.4668315980332e-09,1.2477872581653e-09,-0.00083215060998241,0.00083215038126408,1.2516680257833e-09,-1.5428907309715e-09,-0.00099123577666144,0.00099123537619922,-0.00099123660609531,0.00099123465171043,-0.0009912348369286,0.00099123644477627,-0.00099123563331965,0.00099123560008967,-0.00087330763830158,0.00087330900778585,-0.0008733100520393,0.00087330627857831,0.64748128108014,128566,2924,0.0047465872255123,0.0067314864486816,0.0034654812237812,22.736681381728,-5.5706548946178e-05,-5.5706548946178e-05,-5.5706548946178e-05,3758576.5314166,0.015056838788558
17619200,0.98069284453976,0.015343014032938,0.0049596484028147,0.0064569921072258,0.0039263735228978,-0.001137065003655,0.0011370652604842,-1.560919318205e-09,1.813899188025e-09,-1.1199939381691e-09,1.4305455798145e-09,-0.0012813291504108,0.0012813269222873,-0.0012813277508706,0.0012813283693806,-0.0012813279624972,0.0012813281712924,-0.0012813269260452,0.001281329301096,-0.0010796673433701,0.001079665565371,-0.001079664683437,0.0010796686138239,-5.4241337246733e-10,1.6524491094611e-09,-4.7773041510492e-09,5.8596465780546e-09,-0.0016166858963541,0.0016166869645555,-0.0017551696882413,0.0017551657172051,-0.001755165724286,0.0017551698060083,-0.0017551685178939,0.0017551668958848,-0.0017551649726263,0.0017551706689902,-0.0014123805658776,0.0014123719989238,-0.0014123704741678,0.001412382504043,-0.0015067143540582,0.0015067170238273,-0.0015067123917517,0.0015067190724209,-1.6457540922466e-09,1.2936160877272e-09,-0.00082753833857334,0.00082753796979789,2.0591652670322e-09,-2.5156087734137e-09,-0.00098655966036345,0.00098655947390572,-0.00098656091300725,0.00098655832662094,-0.00098655848253123,0.00098656077848673,-0.00098656003118827,0.00098655918510055,-0.00086851290767649,0.000868513293267,-0.00086851505133304,0.00086851082798221,0.62390559908597,128566,2924,0.0047264162834719,0.0067114866811228,0.003446316173357,19.884330825029,-7.8525353399771e-05,-7.8525353399771e-05,-7.8525353399771e-05,3712451.9862868,0.014996609589732
17819200,0.9811694171214,0.015349220534281,0.0049616248671823,0.0064596841664523,0.0039279115006461,-0.0011362225599456,0.0011362228012745,-1.5732568089043e-09,1.8141064999139e-09,-1.0657418204881e-09,1.3521985594975e-09,-0.0012805012303472,0.0012804990298136,-0.0012804998299232,0.0012805004824233,-0.0012805000892313,0.0012805002337502,-0.0012804990480459,0.0012805013702317,-0.0010788503580159,0.0010788484995313,-0.0010788476825163,0.0010788515957747,-6.4177089363385e-10,1.7615406458483e-09,-4.5063799824201e-09,5.5988000822065e-09,-0.0016160138230949,0.0016160149004486,-0.0017545302488829,0.0017545263959074,-0.0017545264585979,0.0017545303035954,-0.0017545290151257,0.0017545276420219,-0.0017545256378334,0.0017545312401167,-0.0014116711790037,0.0014116632093808,-0.0014116615868938,0.0014116731767366,-0.0015060024098417,0.0015060047064716,-0.0015060002630189,0.0015060069801417,-1.6196070620535e-09,1.3205538433386e-09,-0.00082670501061772,0.00082670469942626,1.7755463506895e-09,-2.15846020096e-09,-0.00098572821037315,0.00098572786918951,-0.00098572925381989,0.00098572693162989,-0.00098572703581001,0.00098572917039248,-0.0009857283696725,0.00098572779178579,-0.00086764271681277,0.0008676433703557,-0.00086764487677143,0.0008676409047955,0.60341924731706,128566,2924,0.0047229238368791,0.0067087053152565,0.0034428543575988,19.210666456422,-8.391466834862e-05,-8.391466834862e-05,-8.391466834862e-05,3704666.0633863,0.014986727098379
18019200,0.9816332019191,0.015355254766252,0.0049635463758374,0.0064622985953897,0.0039294097950245,-0.0011365657434413,0.0011365659743428,-1.4521867607979e-09,1.6819982303988e-09,-1.0254520041213e-09,1.3021679531923e-09,-0.0012808746569712,0.0012808726158907,-0.0012808733973462,0.0012808739323509,-0.0012808736036438,0.0012808737305175,-0.0012808725901855,0.0012808748465915,-0.0010791984794691,0.0010791966580261,-0.0010791958884118,0.0010791996763649,-8.2154756699164e-10,1.9574267837201e-09,-4.0619672715705e-09,5.1682254854355e-09,-0.0016165585144345,0.0016165596060502,-0.0017551396571111,0.0017551360425541,-0.001755136210413,0.0017551396009993,-0.0017551383595982,0.0017551373570243,-0.0017551352115264,0.0017551407173306,-0.0014121311875245,0.0014121240436353,-0.0014121222726449,0.0014121333127766,-0.0015065035767866,0.001506505055992,-0.0015065008797645,0.0015065078668008,-1.4239588944303e-09,1.250794155854e-09,-0.00082698142435675,0.00082698123976378,1.1020386713868e-09,-1.343511879251e-09,-0.00098602983437491,0.00098602926762435,-0.0009860304436167,0.00098602876334869,-0.00098602880223492,0.00098603042595207,-0.00098602958835434,0.00098602959535622,-0.00086790863695547,0.0008679098147174,-0.00086791070358834,0.0008679074361099,0.60266015068262,128566,2924,0.0047243471125049,0.006710958974529,0.003444003294269,19.169451834154,-8.4244385326768e-05,-8.4244385326768e-05,-8.4244385326768e-05,3711097.0346564,0.014991624752345
18219200,0.98204578004969,0.015360729239853,0.0049652909971886,0.0064646618729111,0.0039307763697534,-0.0011341896204785,0.0011341898877878,-1.2221676957666e-09,1.483063804064e-09,-1.1419388709061e-09,1.4736606097976e-09,-0.0012784695239881,0.0012784676165692,-0.0012784684574833,0.0012784687401515,-0.0012784684357794,0.0012784687710766,-0.001278467504374,0.0012784698005062,-0.0010768001903351,0.0010767987365861,-0.0010767978567118,0.0010768014918667,-9.2848913400018e-10,2.075209443776e-09,-4.3382931350638e-09,5.4542053334769e-09,-0.0016141807705172,0.0016141818729103,-0.001752819700497,0.0017528159036094,-0.0017528161367559,0.0017528195929248,-0.0017528183913854,0.0017528172405568,-0.0017528150121087,0.0017528208301184,-0.0014097465193873,0.0014097387423656,-0.0014097369383426,0.0014097487738087,-0.0015040953216495,0.0015040966076021,-0.0015040921938992,0.0015040997689561,-1.1817921974677e-09,1.0539625478942e-09,-0.00082473299091421,0.00082473284698002,8.5360438020742e-10,-1.0653757842097e-09,-0.00098369001656543,0.00098368952126856,-0.00098369051375835,0.00098368913074247,-0.00098368918405256,0.00098369048692693,-0.00098368975007057,0.00098368987801746,-0.0008655438048746,0.00086554494710596,-0.00086554558674137,0.00086554282420982,0.61339063947608,128566,2924,0.0047144954130584,0.0067011230159736,0.0034346570644864,17.68435398523,-9.6125168118158e-05,-9.6125168118158e-05,-9.6125168118158e-05,3694383.1280083,0.014962153816211
18419200,0.98241849108807,0.015365713523274,0.004966880390189,0.0064668065673482,0.0039320265657366,-0.0011321984818495,0.0011321987243548,-1.3372415500875e-09,1.5778074915612e-09,-1.0737964700895e-09,1.3632740641484e-09,-0.0012764517419463,0.0012764498024726,-0.0012764506106888,0.0012764509923611,-0.0012764507022638,0.0012764508997825,-0.0012764497171215,0.0012764520014712,-0.001074802120616,0.0010748004189562,-0.0010747996144774,0.00107480337398,-8.4952512294357e-10,1.9914447067312e-09,-4.0835779522025e-09,5.1954074416925e-09,-0.0016121939799919,0.0016121950769306,-0.001750866413092,0.001750862814488,-0.0017508630054477,0.0017508663492356,-0.0017508651488182,0.001750864101106,-0.0017508619290547,0.0017508675339283,-0.001407763963169,0.0014077566431426,-0.0014077548460435,0.0014077661188288,-0.0015020832786901,0.0015020845653524,-0.001502080353367,0.001502087589116,-1.2844390762477e-09,1.1502455324618e-09,-0.00082285723643827,0.00082285708872729,9.4708433657656e-10,-1.1462956183105e-09,-0.0009817435170713,0.00098174299572344,-0.00098174405705186,0.00098174255887729,-0.00098174261532147,0.00098174401993133,-0.00098174323043646,0.00098174336431161,-0.00086358346071641,0.00086358470579885,-0.00086358544191477,0.00086358240993547,0.61738717270607,128566,2924,0.0047062399155247,0.0066929038117978,0.0034268604453954,16.425674939174,-0.00010619460048661,-0.00010619460048661,-0.00010619460048661,3678230.4372702,0.014937517952416
18619200,0.982773109509,0.015370411173814,0.0049683781045309,0.006468827938295,0.0039332051309876,-0.0011316825631913,0.0011316828538066,-1.0707442571928e-09,1.35984238013e-09,-1.2779463361203e-09,1.6119383330963e-09,-0.0012759465556281,0.0012759446069609,-0.001275945513268,0.0012759457347768,-0.0012759452997693,0.0012759459374683,-0.0012759446021743,0.0012759468314522,-0.001074295146183,0.0010742944009636,-0.0010742935450202,0.0010742967438938,-1.1419495191672e-09,2.3603244108271e-09,-4.2268398034748e-09,5.4183242756186e-09,-0.0016117705728944,0.0016117717465585,-0.0017504733846627,0.0017504694634742,-0.001750469815927,0.0017504732629153,-0.0017504718582085,0.0017504710745773,-0.0017504686025637,0.0017504745538321,-0.0014073150161175,0.0014073078818976,-0.0014073059752403,0.0014073175790436,-0.0015016285134541,0.0015016295672112,-0.0015016252143022,0.0015016329787965,-9.1456317241404e-10,1.027587352841e-09,-0.00082236004212504,0.00082236012012843,2.3658061562459e-10,-1.5107337497294e-10,-0.00098125023296942,0.00098124942041632,-0.00098125013323391,0.00098124965471614,-0.00098124941392566,0.00098125036357002,-0.00098124956871102,0.00098125021373591,-0.000863059666432,0.00086306094189852,-0.00086306089348826,0.00086305941203706,0.61178947435437,128566,2924,0.0047041014172295,0.0066911521221474,0.0034247946989069,15.967093191427,-0.00010986325446859,-0.00010986325446859,-0.00010986325446859,3673869.976592,0.014931472668956
18819200,0.98311680242522,0.015375274145833,0.0049699330609557,0.0064708958655181,0.0039344452193592,-0.0011317048520669,0.0011317051046189,-1.2248122163386e-09,1.4762662486521e-09,-1.1123226792616e-09,1.410951943916e-09,-0.0012759847891309,0.0012759827680427,-0.0012759835954863,0.0012759840262228,-0.0012759835867895,0.0012759840317723,-0.0012759828132543,0.0012759849262302,-0.001074328848382,0.0010743278096841,-0.0010743269762419,0.0010743301499965,-1.0620339823556e-09,2.2297190737893e-09,-3.6771973409689e-09,4.8133397736563e-09,-0.0016119025689204,0.0016119036893897,-0.0017506421897488,0.0017506385874831,-0.0017506388976025,0.001750641999483,-0.0017506406457756,0.0017506401661489,-0.0017506378166315,0.0017506431948009,-0.0014074036253448,0.0014073976604957,-0.0014073956825027,0.0014074059449148,-0.0015017343046727,0.001501735327182,-0.0015017313538254,0.0015017383765,-1.0928525973717e-09,1.107095523466e-09,-0.00082236560463455,0.00082236560673808,1.5644489098067e-10,-1.8258624695372e-10,-0.0009812716322964,0.0009812706137154,-0.00098127145455542,0.0009812708986985,-0.00098127067489833,0.00098127169849089,-0.00098127084674738,0.00098127148908793,-0.00086306110002903,0.00086306243171023,-0.00086306243849984,0.00086306077488189,0.64923265335622,128566,2924,0.0047041942822387,0.0066916982354478,0.0034248175884859,15.791031145324,-0.00011127175083741,-0.00011127175083741,-0.00011127175083741,3674858.057326,0.014932144180879
19019200,0.98346197835425,0.01538047164513,0.0049715991410823,0.0064730847349297,0.0039357877691179,-0.0011327773175876,0.0011327775049246,-1.5235338374804e-09,1.7099538638082e-09,-8.5789478536275e-10,1.0867123940941e-09,-0.001277148555118,0.0012771464006328,-0.0012771471057721,0.0012771479104367,-0.0012771474581988,0.0012771475593836,-0.0012771465816784,0.0012771485380414,-0.0010754785954592,0.0010754770127225,-0.0010754764041631,0.0010754796151041,-8.6256380779717e-10,2.005562178158e-09,-2.9064025422797e-09,4.0194020833195e-09,-0.0016132311918656,0.001613232289506,-0.0017519729945857,0.0017519699267197,-0.001751970112161,0.0017519728955883,-0.0017519714979678,0.0017519714460398,-0.0017519692455344,0.0017519738770147,-0.0014086918239914,0.0014086874783591,-0.0014086856212606,0.0014086939502233,-0.0015030229072926,0.0015030240505691,-0.0015030206128455,0.0015030264453167,-1.3804073282224e-09,1.3421045769472e-09,-0.00082333079058446,0.0008233307449054,3.2117467418711e-10,-4.0361529136207e-10,-0.00098239317356999,0.00098239198031685,-0.00098239303344112,0.00098239222380089,-0.00098239196611659,0.00098239331426905,-0.00098239233251991,0.00098239290140693,-0.00086408414965622,0.00086408559552642,-0.00086408577310603,0.00086408366455551,0.68719398539424,128566,2924,0.0047086421933235,0.0066971919102792,0.0034288333974271,16.172234449624,-0.00010822212440301,-0.00010822212440301,-0.00010822212440301,3677595.8895736,0.014946312358441
19219200,0.98382938209051,0.015386175280486,0.0049734294385813,0.0064754779636581,0.0039372678782469,-0.0011356044667751,0.0011356046410578,-1.5724541298631e-09,1.7473297777498e-09,-8.0921547337018e-10,1.0191271746585e-09,-0.0012801627693699,0.0012801606964096,-0.0012801613730709,0.0012801621573269,-0.0012801617964444,0.0012801617345582,-0.0012801608105734,0.001280162824507,-0.001078451974029,0.0010784500117761,-0.0010784494692133,0.0010784529710438,-9.1989027333653e-10,2.072039665787e-09,-2.5106405769479e-09,3.6342602021984e-09,-0.0016165258528568,0.0016165269600137,-0.0017552436133177,0.0017552408557128,-0.0017552410655542,0.0017552434819763,-0.0017552421623205,0.0017552423358376,-0.0017552400806136,0.0017552445875399,-0.0014119241372487,0.001411920355623,-0.0014119184572696,0.001411926313461,-0.0015062607179674,0.0015062612299739,-0.0015062580666535,0.0015062640104483,-1.3870618399059e-09,1.412534477789e-09,-0.00082590617904204,0.00082590619765818,-9.892620904869e-12,9.2826300690821e-12,-0.00098529560267621,0.00098529428077165,-0.00098529530193335,0.00098529468939868,-0.00098529445527898,0.00098529555991266,-0.0009852944944182,0.00098529547347525,-0.0008668058864382,0.00086680795200924,-0.00086680783125602,0.00086680571131794,0.70678360285065,128566,2924,0.0047203662389988,0.0067108159765518,0.0034395465152898,17.485958330693,-9.7712333354454e-05,-9.7712333354454e-05,-9.7712333354454e-05,3689111.6171247,0.014982918404048
19419200,0.98420564734854,0.015391885525422,0.0049752597517707,0.0064778870766822,0.0039387386969687,-0.0011373464002896,0.0011373466332134,-1.5566660826219e-09,1.7862892496678e-09,-1.0054087839647e-09,1.2910564680523e-09,-0.0012821075213163,0.0012821054584098,-0.0012821062361931,0.0012821068110612,-0.0012821065146888,0.0012821065306601,-0.0012821054014969,0.0012821077552426,-0.0010803568269059,0.0010803546761271,-0.0010803539336922,0.0010803580308907,-1.0802176480335e-09,2.2476588912696e-09,-2.927407661823e-09,4.0633627987616e-09,-0.0016187313251537,0.0016187324460729,-0.0017574168879103,0.0017574138772242,-0.0017574141949422,0.0017574166727996,-0.001757415451729,0.0017574153515892,-0.0017574129750308,0.0017574180067676,-0.0014140991245949,0.0014140942804561,-0.0014140922761709,0.001414101450521,-0.0015084012908624,0.0015084014157546,-0.0015083979072787,0.0015084048373576,-1.3728023127802e-09,1.4398959180932e-09,-0.00082745037619455,0.00082745043246317,-2.2665432786587e-10,2.5394685090317e-10,-0.00098717446190987,0.00098717314298546,-0.00098717413088378,0.00098717358176666,-0.00098717342922108,0.00098717430960917,-0.00098717319796586,0.00098717449663341,-0.00086845522728128,0.00086845789016961,-0.00086845754446338,0.00086845524492226,0.69265169331204,128566,2924,0.0047275908148317,0.0067199324817382,0.0034459755491147,18.222494688341,-9.1820042493268e-05,-9.1820042493268e-05,-9.1820042493268e-05,3689798.4354601,0.015006035284521
19619200,0.98457864480124,0.015397400385391,0.0049770252985164,0.0064802254890564,0.0039401495978186,-0.0011381281265597,0.0011381284316896,-1.4704602846977e-09,1.7720215898398e-09,-1.2660921094886e-09,1.6300099084338e-09,-0.0012830479771791,0.0012830459507983,-0.0012830468506697,0.001283047140541,-0.0012830469049326,0.001283047092669,-0.0012830456850353,0.0012830484001126,-0.0010812732536853,0.0010812711038159,-0.0010812700750336,0.0010812747016023,-1.2067769666156e-09,2.3772766752412e-09,-3.7663016400702e-09,4.9064373276487e-09,-0.0016198930093478,0.0016198941342871,-0.0017585603309255,0.0017585568308177,-0.0017585572138818,0.0017585600326537,-0.0017585589400006,0.0017585582563961,-0.0017585558080602,0.0017585615827745,-0.0014152342937746,0.0014152275157369,-0.0014152254498106,0.0014152367397053,-0.0015095077448575,0.0015095077909539,-0.0015095037505352,0.0015095118678448,-1.3278910714735e-09,1.3751782533733e-09,-0.0008281046714487,0.00082810471109162,-2.2271425349714e-10,2.2963561759098e-10,-0.00098807542063765,0.00098807426862725,-0.00098807523332317,0.00098807456382978,-0.00098807456022645,0.00098807527998962,-0.00098807421279242,0.00098807557202408,-0.00086917137565866,0.00086917427934355,-0.00086917393830222,0.00086917136612158,0.67639367724968,128566,2924,0.0047308338028295,0.0067247318910299,0.0034487041502835,18.456194518071,-8.9950443855428e-05,-8.9950443855428e-05,-8.9950443855428e-05,3685751.4074552,0.015016971656046
19819200,0.98494524888939,0.015402658600228,0.0049787063699885,0.0064824665960171,0.0039414856342221,-0.0011386458155569,0.0011386460783034,-1.4572477280601e-09,1.7172391768685e-09,-1.1398319564217e-09,1.4546370097202e-09,-0.0012836893273803,0.0012836872667825,-0.001283688110331,0.0012836885386385,-0.0012836882297884,0.0012836884207509,-0.0012836871638994,0.0012836896064155,-0.001081896606414,0.0010818947481011,-0.0010818938708548,0.0010818979165491,-9.062311515545e-10,2.0564288982735e-09,-3.8699210758617e-09,4.9906315990421e-09,-0.001620736154941,0.0016207372599389,-0.001759401258921,0.0017593977763516,-0.0017593979908004,0.0017594011633322,-0.0017593999535622,0.0017593991091814,-0.0017593968885946,0.0017594023774841,-0.0014160384941983,0.0014160316558777,-0.001416029811837,0.0014160407059787,-0.0015103027394374,0.0015103037784152,-0.0015102996970753,0.0015103069050915,-1.3532186542718e-09,1.2709612472228e-09,-0.00082851909367127,0.00082851899905336,5.6812453453839e-10,-7.0742438258891e-10,-0.00098867578231609,0.00098867497821106,-0.00098867604787818,0.00098867481667635,-0.00098867482539864,0.00098867606288571,-0.00098867516490623,0.00098867568302076,-0.00086962973576258,0.00086963150261633,-0.00086963189229669,0.00086962901366303,0.65787306945675,128566,2924,0.004732981361684,0.0067282147988381,0.0034504337229841,18.558179796716,-8.9134561626275e-05,-8.9134561626275e-05,-8.9134561626275e-05,3682799.8283954,0.015024444732943
20019200,0.98529975836653,0.015407936656713,0.0049803961740326,0.0064847022575846,0.0039428382250957,-0.0011386836681527,0.0011386839206451,-1.402367458078e-09,1.6512245214016e-09,-1.1052371485542e-09,1.4100609633702e-09,-0.0012838040827775,0.0012838019777022,-0.0012838028049616,0.0012838033077009,-0.0012838029130786,0.0012838032059906,-0.0012838019815304,0.0012838042498776,-0.0010820094290989,0.0010820079426373,-0.001082007093645,0.0010820106981436,-7.3695236878747e-10,1.8704718436044e-09,-4.1644998089189e-09,5.2703938408506e-09,-0.0016210160523501,0.0016210171422901,-0.0017596949396408,0.0017596912607119,-0.0017596913817173,0.0017596949452625,-0.0017596936493378,0.001759692575536,-0.0017596904842073,0.0017596959481651,-0.0014162765605381,0.0014162693185453,-0.0014162676124604,0.0014162786491543,-0.0015105489210848,0.0015105507847121,-0.0015105465187203,0.0015105532517118,-1.3423270583739e-09,1.1511925851145e-09,-0.00082849548062451,0.00082849527526859,1.1543647598313e-09,-1.4203413873323e-09,-0.00098875927440343,0.00098875873557199,-0.00098875986921289,0.00098875824546694,-0.00098875826087163,0.00098875987722558,-0.00098875912748276,0.00098875896827889,-0.00086962486994201,0.00086962567406387,-0.00086962660504522,0.00086962361484733,0.68048788184138,128566,2924,0.004733139055988,0.0067293693537568,0.003450340406467,18.401210650522,-9.0390314795824e-05,-9.0390314795824e-05,-9.0390314795824e-05,3679017.766999,0.015025683000263
20219200,0.98564495972148,0.015413230098959,0.0049820927010586,0.0064869341145732,0.0039442032833277,-0.0011389198345478,0.0011389200948862,-1.4398431768491e-09,1.6971741453737e-09,-1.1423320356103e-09,1.4524764827816e-09,-0.0012841410720574,0.0012841389324008,-0.0012841397752339,0.001284140280742,-0.0012841398870554,0.0012841401757976,-0.001284138917067,0.0012841412559145,-0.0010823457002112,0.0010823441292727,-0.0010823432469591,0.0010823470149095,-7.3255097412941e-10,1.865166834257e-09,-4.4294815436147e-09,5.5351454680466e-09,-0.0016215351484065,0.00162153623754,-0.0017602065928055,0.001760202746036,-0.0017602028679915,0.0017602065998152,-0.0017602053171407,0.0017602040457587,-0.0017602019611168,0.0017602076173374,-0.0014167687034605,0.0014167609097555,-0.0014167592123929,0.0014167707933185,-0.0015110304898657,0.001511032514068,-0.0015110280793731,0.0015110350069209,-1.3982719523178e-09,1.1696914416191e-09,-0.00082865178814967,0.00082865154515375,1.3778911467536e-09,-1.6838480973648e-09,-0.0009890709975293,0.00098907056752153,-0.00098907176296878,0.00098906990831889,-0.0009890699701475,0.00098907172685926,-0.00098907098703542,0.0009890706638201,-0.00086981845176387,0.00086981915173432,-0.00086982028812265,0.00086981699929044,0.69909043559395,128566,2924,0.0047341193818758,0.0067315122448664,0.0034509967869501,18.352401623765,-9.0780787009878e-05,-9.0780787009878e-05,-9.0780787009878e-05,3673394.3410709,0.015029521382873
20419200,0.98598770911482,0.015418493515036,0.00498377947891,0.0064891533457483,0.0039455606903778,-0.0011397277581643,0.0011397279771888,-1.5776873592525e-09,1.7947603579827e-09,-9.9984849262921e-10,1.2629198154312e-09,-0.0012850862991096,0.0012850841203994,-0.0012850848950099,0.0012850855753591,-0.0012850851930405,0.0012850852868865,-0.0012850841738037,0.0012850864101419,-0.0010832795465891,0.0010832776880965,-0.0010832769397463,0.0010832806979674,-6.2821561315013e-10,1.7473540541213e-09,-4.1043055456358e-09,5.1970872516107e-09,-0.0016226998376173,0.001622700914205,-0.0017613499349619,0.0017613463362666,-0.0017613463933337,0.0017613499956661,-0.0017613486964519,0.0017613475899669,-0.0017613455855193,0.0017613509090042,-0.0014179023362407,0.0014178951987936,-0.0014178935616792,0.0014179043167596,-0.0015121504394704,0.001512152538607,-0.0015121483449292,0.0015121547345185,-1.5375572880332e-09,1.2560640919902e-09,-0.00082933545139816,0.00082933515721564,1.6385715241176e-09,-2.0008198727427e-09,-0.00098997416366382,0.00098997377195912,-0.0009899750904532,0.00098997295003334,-0.00098997302856584,0.00098997503236876,-0.00098997426814329,0.00098997374739666,-0.00087056957520458,0.00087057015114555,-0.00087057154583281,0.00087056787624094,0.6999878384049,128566,2924,0.0047374704717893,0.0067363244779172,0.0034538469087682,18.616054680753,-8.8671562553975e-05,-8.8671562553975e-05,-8.8671562553975e-05,3670279.9622306,0.01504070352662
20619200,0.98631759518115,0.015423012675334,0.0049852204929551,0.0064910962930355,0.0039466958893435,-0.0011395694326092,0.0011395696650346,-1.6492080777315e-09,1.8770134442683e-09,-1.0322714507257e-09,1.3176436947719e-09,-0.0012850564201878,0.0012850541506363,-0.001285054940734,0.0012850556831204,-0.0012850552669186,0.0012850553689328,-0.0012850542154355,0.0012850565190258,-0.0010832280034811,0.0010832260912401,-0.0010832253134462,0.0010832292006881,-6.7242335469279e-10,1.7989207585586e-09,-4.1847700533239e-09,5.2848287171103e-09,-0.0016228439189461,0.001622845002681,-0.0017614774594399,0.00176147374588,-0.0017614738317081,0.0017614774986748,-0.0017614761705876,0.001761475058133,-0.0017614730136787,0.0017614784231378,-0.0014180350893155,0.0014180278836355,-0.001418026241363,0.0014180371373777,-0.0015122418315118,0.0015122439662314,-0.0015122396839713,0.0015122461646333,-1.605416474568e-09,1.3331076238177e-09,-0.00082912038704614,0.00082912009862362,1.6403976489484e-09,-2.0034758119052e-09,-0.0009899466460577,0.00098994618928663,-0.00098994755133704,0.00098994539146638,-0.00098994544279915,0.00098994752582137,-0.00098994670516336,0.00098994621597567,-0.00087037162839239,0.00087037229588335,-0.00087037366728389,0.00087036994257298,0.63099508834859,128566,2924,0.0047368152066842,0.0067369146133498,0.0034529616229574,18.385288764825,-9.05176898814e-05,-9.05176898814e-05,-9.05176898814e-05,3660182.8997678,0.015039741427046
20819200,0.98662639713991,0.015427582815469,0.0049866825884211,0.0064930336924361,0.0039478665346115,-0.0011385841624547,0.0011385843974119,-1.4245307330897e-09,1.653191834155e-09,-1.0780229042009e-09,1.3692451287953e-09,-0.0012840673208714,0.0012840653389907,-0.0012840661774511,0.0012840665446,-0.0012840662883101,0.0012840664203965,-0.0012840652653474,0.0012840676262383,-0.0010822591940502,0.0010822572727269,-0.0010822564908,0.0010822604711811,-6.8326295578571e-10,1.8282221182457e-09,-4.458907248856e-09,5.5707407672229e-09,-0.0016219415526173,0.0016219426491388,-0.0017606171744374,0.0017606134289802,-0.0017606135693781,0.0017606172501754,-0.0017606160307485,0.0017606145887961,-0.0017606125166882,0.0017606183409569,-0.0014170899603977,0.0014170817424295,-0.0014170800527977,0.0014170920353671,-0.0015113277683786,0.0015113296000514,-0.0015113250792253,0.0015113323134824,-1.342530094061e-09,1.1325710116742e-09,-0.0008281650638923,0.00082816482847177,1.5867020876051e-09,-1.890704069647e-09,-0.00098895559235614,0.00098895544594173,-0.00098895659894829,0.00098895453891016,-0.00098895469343681,0.00098895642589986,-0.00098895573781909,0.00098895537568732,-0.0008693778944958,0.00086937868793734,-0.00086937997719057,0.00086937628681358,0.67643100432654,128566,2924,0.0047327300751481,0.0067331813115087,0.0034489920446341,17.704321959248,-9.5965424326012e-05,-9.5965424326012e-05,-9.5965424326012e-05,3654164.4801666,0.015027774574584
21019200,0.98691071022908,0.015431651001124,0.0049879821536707,0.0064947673774485,0.0039489014700046,-0.0011370607828466,0.001137061024011,-1.9701569648512e-09,2.2065382188136e-09,-1.0718764670935e-09,1.3666276194643e-09,-0.0012825787136019,0.0012825759126829,-0.0012825767255748,0.0012825779502059,-0.0012825772346375,0.0012825774533981,-0.0012825762554835,0.0012825785206425,-0.0010807850248277,0.0010807833944503,-0.0010807825440837,0.0010807862274101,-6.6732032329278e-10,1.7811703182341e-09,-4.278397518775e-09,5.3645681498313e-09,-0.0016205229375929,0.0016205240079879,-0.0017591949500149,0.0017591908775907,-0.0017591909681051,0.001759194970745,-0.0017591933648405,0.0017591924715019,-0.0017591904506996,0.0017591955954487,-0.0014156891038345,0.0014156825852752,-0.0014156809152373,0.0014156911032684,-0.0015098807890321,0.001509883871749,-0.0015098795362476,0.0015098851910843,-1.9485592771899e-09,1.6207814102382e-09,-0.00082670071061628,0.00082670037206753,1.8428781773661e-09,-2.269480623991e-09,-0.00098752663342407,0.00098752578599572,-0.0009875273987381,0.00098752512021209,-0.00098752492263647,0.00098752762402014,-0.00098752663446185,0.00098752586000004,-0.00086786679806797,0.0008678670037563,-0.0008678685826748,0.00086786489992602,0.65602047868076,128566,2924,0.0047264145469144,0.0067273098168121,0.0034429095506534,16.748274629641,-0.00010361380296287,-0.00010361380296287,-0.00010361380296287,3636404.7016998,0.015009230745177
21219200,0.98715876620247,0.015435224422618,0.0049891240551058,0.0064962867505452,0.003949813616967,-0.0011339157436814,0.0011339160070867,-1.5356192725986e-09,1.7945932848196e-09,-1.1599769339862e-09,1.4760641403714e-09,-0.0012793920025816,0.0012793897833148,-0.001279390638437,0.001279391201968,-0.0012793908010591,0.0012793910472664,-0.0012793897723623,0.0012793921835181,-0.0010776418750986,0.0010776400952627,-0.0010776391951461,0.0010776432068309,-6.8061845574984e-10,1.8069856196532e-09,-4.7210792632692e-09,5.8207486588887e-09,-0.0016173050266588,0.0016173061094618,-0.0017559841796483,0.001755980160351,-0.0017559802610135,0.0017559842194431,-0.001755982938787,0.0017559814193952,-0.0017559793800518,0.0017559852043846,-0.0014125250791587,0.0014125166933131,-0.0014125150423481,0.0014125271354376,-0.0015066553163153,0.0015066576745374,-0.0015066530446724,0.0015066600295371,-1.4980847637667e-09,1.2159134749624e-09,-0.00082374699600272,0.00082374669760154,1.7611265922327e-09,-2.1361323988881e-09,-0.00098447223090304,0.00098447197618747,-0.00098447326944396,0.00098447104256487,-0.00098447115098678,0.00098447318445442,-0.00098447245147969,0.00098447183894239,-0.00086479381003267,0.00086479430356177,-0.00086479577040422,0.00086479202565043,0.65967491614611,128566,2924,0.0047133746877892,0.0067139969650715,0.0034306337770168,14.935029584713,-0.0001181197633223,-0.0001181197633223,-0.0001181197633223,3608776.6439305,0.014970021013311
21419200,0.98738503910364,0.01543850900239,0.0049901742359862,0.0064976786921837,0.0039506560742197,-0.0011320145987714,0.0011320148583207,-1.6071636136666e-09,1.8641854402369e-09,-1.1396262063873e-09,1.4490398061227e-09,-0.0012774648496854,0.0012774625036483,-0.0012774633470571,0.0012774640655913,-0.0012774635802197,0.0012774638487562,-0.0012774625806564,0.0012774649273983,-0.0010757533096752,0.0010757516491162,-0.0010757507418191,0.0010757546011147,-7.4839312839776e-10,1.8713044384633e-09,-4.4969651776242e-09,5.5944423269212e-09,-0.0016153868193237,0.0016153879006442,-0.0017540639477405,0.001754059947678,-0.00175406007403,0.0017540639296773,-0.0017540625716389,0.001754061341084,-0.0017540592533832,0.0017540648711441,-0.0014106383320459,0.0014106307027879,-0.0014106289871916,0.0014106404067014,-0.0015047302837882,0.0015047326088277,-0.0015047281454397,0.0015047348298827,-1.5522191513292e-09,1.2946214673104e-09,-0.00082196495229444,0.00082196468530114,1.5199776922543e-09,-1.8573088191734e-09,-0.00098263330257072,0.00098263277457261,-0.00098263408337946,0.00098263210094467,-0.00098263208784686,0.00098263412756114,-0.00098263331050847,0.00098263285271998,-0.00086294596935664,0.00086294651641298,-0.00086294778171276,0.00086294438453519,0.66373848954421,128566,2924,0.0047054922916371,0.0067060607577457,0.0034232278483236,13.799774974193,-0.00012720180020646,-0.00012720180020646,-0.00012720180020646,3591164.3843245,0.014946447620721
21619200,0.98759985839603,0.015441657321183,0.0049911813547303,0.0064990092159155,0.0039514667505375,-0.001131234661054,0.0011312348603798,-1.8350980132433e-09,2.0313037700049e-09,-9.6663634403719e-10,1.2048183085689e-09,-0.0012766915816695,0.0012766890286483,-0.0012766898022239,0.0012766908666479,-0.0012766902601717,0.0012766903805642,-0.00127668936154,0.0012766914863903,-0.0010750000106404,0.0010749982483427,-0.0010749976322435,0.0010750012196114,-6.9387225526713e-10,1.8503427752983e-09,-3.7128306893357e-09,4.8364595458337e-09,-0.0016146607955661,0.0016146619003213,-0.0017533359858774,0.001753332344829,-0.0017533324846143,0.0017533360506879,-0.0017533344695339,0.0017533338795508,-0.0017533317952681,0.0017533367902297,-0.0014099202677353,0.0014099146381105,-0.0014099129186194,0.0014099223472149,-0.0015039919287771,0.0015039943940321,-0.0015039903819441,0.0015039960672286,-1.6882669194078e-09,1.5428687165043e-09,-0.00082122974195363,0.00082122957107774,1.3714368485751e-09,-1.5895060012489e-09,-0.00098190238757959,0.00098190149541217,-0.00098190283967299,0.00098190114068544,-0.00098190086697319,0.00098190309678172,-0.00098190210168946,0.00098190185008307,-0.00086218758059612,0.00086218826092735,-0.00086218934222174,0.0008621862196405,0.66921248423902,128566,2924,0.0047022587636797,0.0067030562622996,0.0034201735453987,13.269063609582,-0.00013144749112335,-0.00013144749112335,-0.00013144749112335,3582894.6835106,0.014937016042801
21819200,0.98781553986886,0.01544477080885,0.00499217675982,0.006500327526557,0.0039522665224729,-0.0011320473244879,0.0011320475455941,-1.4846844297223e-09,1.7043812022516e-09,-9.865199309363e-10,1.2525662725484e-09,-0.0012775588417397,0.0012775568223961,-0.0012775575908656,0.0012775581400435,-0.0012775578469566,0.0012775578963956,-0.0012775567747386,0.0012775590333889,-0.0010758606593033,0.0010758586429355,-0.001075857873545,0.0010758617862676,-9.5608973223261e-10,2.0906086329884e-09,-3.4196826332194e-09,4.5267535817265e-09,-0.0016156438997087,0.0016156449910898,-0.0017543193138084,0.0017543160471112,-0.0017543162847699,0.0017543191406965,-0.0017543179540279,0.001754317423847,-0.001754315173339,0.0017543203871884,-0.0014108728129672,0.0014108669755155,-0.0014108650563736,0.0014108749948072,-0.0015049521711732,0.0015049529125771,-0.0015049491572471,0.0015049560369192,-1.310455409586e-09,1.2378280213107e-09,-0.00082197302259575,0.00082197294855012,4.0545266758167e-10,-5.24823091115e-10,-0.00098273879443909,0.00098273790289775,-0.00098273892423667,0.00098273787811073,-0.00098273783687315,0.00098273900320925,-0.00098273809154097,0.00098273868812078,-0.00086296740535344,0.00086296913024883,-0.0008629693992907,0.00086296681961865,0.65989248734705,128566,2924,0.0047056290574548,0.0067071216640331,0.0034232654450323,13.593547905221,-0.00012885161675823,-0.00012885161675823,-0.00012885161675823,3587550.6725583,0.014947702030849
22019200,0.98803388853014,0.015447869695866,0.0049931667269488,0.0065016437202547,0.0039530592486622,-0.0011331151374246,0.0011331153331603,-1.6006563219139e-09,1.7939036483008e-09,-9.012481795897e-10,1.1406220399561e-09,-0.0012786856193702,0.0012786834749599,-0.0012786842063383,0.0012786849561878,-0.0012786845822037,0.001278684578434,-0.0012786835670517,0.0012786857045037,-0.0010769669116076,0.0010769649308121,-0.0010769642915679,0.0010769679840622,-9.6199079166518e-10,2.1144250011206e-09,-2.876125084647e-09,3.9989583405089e-09,-0.0016168905593873,0.0016168916653497,-0.0017555828129665,0.0017555797900609,-0.0017555800409364,0.0017555826593097,-0.0017555813411715,0.0017555812842444,-0.001755579006751,0.0017555838027546,-0.0014120690757996,0.001412064616178,-0.0014120626895751,0.0014120712945913,-0.0015061724989931,0.0015061731823994,-0.0015061697521563,0.0015061760343388,-1.367380806637e-09,1.3781927824258e-09,-0.00082294942750052,0.00082294942972268,1.2432166817602e-10,-1.5389396343458e-10,-0.00098380950318744,0.00098380828798002,-0.00098380930452206,0.0009838085895879,-0.00098380837174637,0.0009838095434391,-0.00098380850834905,0.00098380936301183,-0.00086398320759662,0.00086398511316804,-0.00086398510060745,0.00086398290908861,0.64982772332161,128566,2924,0.0047100570632098,0.0067122778937771,0.0034273256084218,14.053144901597,-0.00012517484078722,-0.00012517484078722,-0.00012517484078722,3596149.8410478,0.014961551538751
22219200,0.98825578746456,0.015450992522457,0.0049941639356527,0.0065029724106182,0.0039538561761861,-0.0011343153435551,0.0011343155249715,-1.7373346384539e-09,1.9163581834614e-09,-8.4700951576423e-10,1.0699855323235e-09,-0.0012799391526549,0.001279936806925,-0.0012799375116495,0.0012799385170567,-0.0012799380135354,0.0012799380132685,-0.0012799370561164,0.0012799390813257,-0.0010781971834043,0.0010781953156331,-0.0010781947310421,0.0010781982024054,-9.2326315612081e-10,2.0731393759563e-09,-2.5572287642401e-09,3.6780346764477e-09,-0.001618265706003,0.0016182668097814,-0.0017569878077935,0.0017569848749113,-0.0017569850978934,0.0017569876749729,-0.0017569862186522,0.001756986485645,-0.0017569842325045,0.0017569886492547,-0.0014133769382461,0.0014133735064944,-0.0014133716032238,0.0014133791220688,-0.0015075203977397,0.0015075213724458,-0.0015075181603414,0.0015075237187891,-1.4879947191871e-09,1.5077480929438e-09,-0.00082404648689604,0.00082404649807796,6.7013826714771e-11,-8.3875582353387e-11,-0.0009849883204324,0.00098498684283626,-0.00098498793461255,0.00098498733242461,-0.00098498696298773,0.00098498832413711,-0.0009849871990104,0.00098498804427238,-0.00086512033194114,0.00086512210778436,-0.00086512204762228,0.00086512008509991,0.64497826956146,128566,2924,0.0047150338537355,0.0067179661426116,0.0034318864976123,14.582649279902,-0.00012093880576079,-0.00012093880576079,-0.00012093880576079,3607166.7896392,0.014977006209616
22419200,0.98847767560442,0.015454255243709,0.0049952076739985,0.0065043513466195,0.0039546962230908,-0.0011350746543141,0.0011350748520688,-1.7642505384361e-09,1.9571430438539e-09,-9.094726847209e-10,1.1554970508877e-09,-0.0012807368991558,0.0012807343789259,-0.0012807351196375,0.0012807362352732,-0.0012807355883306,0.0012807357550557,-0.0012807347598265,0.0012807367461807,-0.0010789784568709,0.0010789769372879,-0.0010789763555222,0.0010789796012456,-9.019198115571e-10,2.0727515648625e-09,-2.7241858822266e-09,3.8660367584661e-09,-0.0016191649656351,0.0016191660905657,-0.0017579215291021,0.0017579183861165,-0.0017579186026628,0.0017579214661521,-0.0017579198354406,0.0017579201180379,-0.0017579178510021,0.001757922299929,-0.0014142140651809,0.0014142106641016,-0.0014142088380138,0.0014142163278941,-0.0015083965294518,0.001508398034034,-0.0015083946742108,0.0015083999527365,-1.496346278277e-09,1.558514472182e-09,-0.00082473056854359,0.00082473060808078,1.5074048359935e-10,-1.2985906455005e-10,-0.00098572534228214,0.00098572378018234,-0.00098572487386928,0.0009857243630615,-0.00098572384275369,0.00098572539484326,-0.00098572424670445,0.00098572497087051,-0.00086582928036031,0.00086583074309723,-0.00086583069462348,0.00086582902305247,0.67139743652243,128566,2924,0.0047181825587428,0.0067216859994837,0.003434730592648,14.871345506304,-0.00011862923594957,-0.00011862923594957,-0.00011862923594957,3614618.6606159,0.01498686473506
22619200,0.98869732356016,0.015457523003732,0.0049962534537228,0.0065057305985171,0.0039555389514924,-0.0011355450893861,0.0011355453110021,-1.6629818950299e-09,1.8801523092615e-09,-9.96135831122e-10,1.2652017737778e-09,-0.0012812739647056,0.0012812715463365,-0.0012812723251673,0.001281273262616,-0.0012812726799241,0.0012812729047232,-0.0012812718140735,0.0012812739156739,-0.0010795005382407,0.0010794990154709,-0.0010794983305113,0.0010795017572434,-8.6863048187621e-10,2.0321457416366e-09,-3.1306713842558e-09,4.267464411421e-09,-0.001619809211913,0.001619810331842,-0.0017585739383647,0.0017585706481215,-0.0017585708350177,0.0017585738954135,-0.0017585723601128,0.0017585722641929,-0.0017585700302167,0.0017585747964469,-0.0014148256439567,0.0014148211679,-0.0014148193797731,0.0014148278813766,-0.0015090101341302,0.0015090116944299,-0.0015090080872045,0.0015090138015551,-1.4270547330678e-09,1.4413171600259e-09,-0.00082513494994869,0.00082513494282187,3.5739028679559e-10,-3.8566343524678e-10,-0.00098623209152762,0.00098623078960233,-0.00098623187037529,0.00098623113094773,-0.00098623074345236,0.00098623226463329,-0.00098623121698024,0.00098623176607974,-0.00086626201249355,0.00086626334253691,-0.0008662634894235,0.00086626155412567,0.67880652081401,128566,2924,0.0047201339347872,0.0067243489251499,0.0034364146522249,15.008244827538,-0.00011753404137969,-0.00011753404137969,-0.00011753404137969,3614818.3365127,0.014993258907386
22819200,0.98891395310188,0.015460735933851,0.0049972815186929,0.0065070877180244,0.0039563666971338,-0.0011359044232508,0.0011359046708182,-1.5400038600072e-09,1.7834256564456e-09,-1.099224443514e-09,1.3958189424541e-09,-0.0012817057979328,0.0012817034457912,-0.0012817042752623,0.0012817050379826,-0.0012817044767962,0.0012817048313298,-0.0012817036363035,0.0012817058158688,-0.0010799193384862,0.0010799179939204,-0.0010799171937892,0.0010799206493734,-8.5715003459599e-10,2.0163823786671e-09,-3.6507155312053e-09,4.7816624454357e-09,-0.0016203499157468,0.0016203510288512,-0.001759116020861,0.0017591124346587,-0.0017591126288668,0.0017591159749166,-0.0017591144926716,0.0017591139936953,-0.0017591117855785,0.0017591169133868,-0.0014153409567155,0.0014153353137486,-0.0014153335189274,0.0014153431728523,-0.0015095191860583,0.0015095209843654,-0.0015095170309288,0.0015095232199656,-1.3379090794118e-09,1.3014063116194e-09,-0.0008254335146873,0.00082543345837795,5.6309188242951e-10,-6.516576578555e-10,-0.00098664193231777,0.0009866408648424,-0.00098664191189035,0.00098664099795792,-0.00098664070368234,0.00098664221597168,-0.00098664128621404,0.00098664160421284,-0.00086658922312915,0.00086659027113805,-0.00086659062264969,0.00086658855910673,0.67692182808935,128566,2924,0.0047216247317975,0.0067265829872872,0.0034376596065002,15.090259527463,-0.00011687792378029,-0.00011687792378029,-0.00011687792378029,3613040.6398227,0.014998304826761
23019200,0.98912670807377,0.015463665080503,0.0049982157752401,0.0065083404128809,0.0039571088923822,-0.0011361267189501,0.0011361269056176,-2.0502712350219e-09,2.2330267366837e-09,-8.5365006784662e-10,1.0880056949964e-09,-0.0012819968529185,0.0012819946035952,-0.0012819953025267,0.0012819962050739,-0.0012819960242907,0.0012819955063479,-0.0012819945142669,0.0012819970762412,-0.0010801941300983,0.0010801906801552,-0.0010801900351792,0.0010801950927882,-5.065016557221e-10,1.6037341163177e-09,-3.2038266304133e-09,4.2775759624024e-09,-0.0016207419936854,0.0016207430505135,-0.0017595130375599,0.0017595102732976,-0.0017595102335883,0.0017595131387936,-0.0017595120531949,0.0017595112629439,-0.0017595093564283,0.0017595141397898,-0.0014157069115198,0.0014157009915421,-0.0014156994439022,0.0014157087678958,-0.0015098774455501,0.0015098787072264,-0.0015098751288943,0.0015098810968278,-1.9482862437349e-09,1.6446915642442e-09,-0.00082560483043203,0.00082560451858035,1.6065242917562e-09,-1.9944085840416e-09,-0.00098691391690425,0.00098691339657549,-0.00098691499903537,0.0009869124196754,-0.00098691268219515,0.00098691477182262,-0.00098691374321242,0.00098691364950755,-0.00086677805560879,0.00086677991168485,-0.00086678130082152,0.00086677635582642,0.63260383349818,128566,2924,0.0047225470481404,0.006728202252908,0.0034383749665796,15.108081116863,-0.0001167353510651,-0.0001167353510651,-0.0001167353510651,3610894.537283,0.015001612024524
23219200,0.98933542835738,0.015466672106777,0.0049991767990521,0.0065096160074558,0.0039578793002694,-0.0011363288290521,0.0011363289750339,-2.5675678476713e-09,2.7095487771613e-09,-7.1009158004995e-10,8.9850237336925e-10,-0.0012822011601657,0.0012821990738738,-0.0012821997102504,0.0012822005774747,-0.0012822008501654,0.0012821994556133,-0.0012821986215695,0.0012822017753,-0.0010803946653559,0.0010803889560471,-0.001080388489573,0.0010803955481402,-2.7329748442004e-10,1.3675256852055e-09,-2.9103284582869e-09,3.9812104462831e-09,-0.0016210178087324,0.0016210188617104,-0.001759834762707,0.0017598326946642,-0.0017598325339223,0.0017598350193538,-0.0017598343254699,0.0017598331306968,-0.0017598313721946,0.0017598362768131,-0.0014159195596534,0.0014159127946125,-0.0014159114215955,0.0014159212837074,-0.0015101402735275,0.0015101405384784,-0.0015101371610335,0.0015101437645181,-2.4924266413362e-09,2.0859553583146e-09,-0.00082577218963019,0.00082577176685363,2.3928153587509e-09,-2.9004428476743e-09,-0.00098706931815338,0.00098706932387073,-0.00098707135593733,0.00098706739336842,-0.0009870681769566,0.00098707058569617,-0.00098706936672995,0.00098706935128283,-0.00086694480404311,0.00086694816913538,-0.00086695022171589,0.00086694245850281,0.65900390881055,128566,2924,0.0047233849501324,0.0067293439518986,0.003439069756195,15.109152438055,-0.00011672678049556,-0.00011672678049556,-0.00011672678049556,3615690.9323966,0.015004325722778
23419200,0.98953946992299,0.01546957949845,0.0050001054988281,0.0065108517636739,0.0039586222359484,-0.001136422730048,0.0011364229739819,-1.7089173194015e-09,1.9486445876771e-09,-1.0818274840821e-09,1.3760206322789e-09,-0.0012823314331762,0.0012823291993037,-0.0012823300174622,0.0012823306816178,-0.0012823303549613,0.0012823303534666,-0.0012823291527722,0.0012823316498254,-0.0010805105443246,0.0010805083173903,-0.0010805075058286,0.0010805118258569,-6.6085085798933e-10,1.7853087698661e-09,-4.1670045618122e-09,5.2656293518143e-09,-0.0016212259763644,0.001621227057459,-0.0017600644369205,0.0017600607936138,-0.0017600608790977,0.0017600644722532,-0.0017600632316442,0.0017600620111167,-0.0017600599755798,0.0017600654853927,-0.0014160928123718,0.0014160852884011,-0.0014160836394927,0.0014160948453161,-0.0015103228246267,0.0015103246465942,-0.0015103203911217,0.0015103271877925,-1.5982338590233e-09,1.3506334724137e-09,-0.00082582876203418,0.00082582850012717,1.5370394320298e-09,-1.868492537467e-09,-0.0009871749616403,0.00098717455098686,-0.0009871758906232,0.00098717373033372,-0.00098717385388926,0.00098717579022032,-0.00098717494278121,0.00098717465338262,-0.00086700906710791,0.00086701009456013,-0.00086701135780054,0.00086700748927815,0.65256752676954,128566,2924,0.0047237749482587,0.0067302040860693,0.0034393070598168,15.055156900187,-0.00011715874479851,-0.00011715874479851,-0.00011715874479851,3614833.228337,0.015005835943522
23619200,0.98975213019492,0.015472682349954,0.0050010976833918,0.0065121650794608,0.0039594195871011,-0.0011383977546811,0.0011383979720086,-1.8431775255613e-09,2.0589551031869e-09,-1.0011087899773e-09,1.2602852759734e-09,-0.0012843750223665,0.0012843728735321,-0.0012843736567312,0.0012843743059629,-0.001284374130807,0.0012843738341925,-0.0012843727296097,0.0012843753493077,-0.0010825233053441,0.0010825203251344,-0.001082519589815,0.0010825244869768,-7.2219386576725e-10,1.8509931938403e-09,-3.7656133796843e-09,4.8664308047617e-09,-0.0016234291568512,0.0016234302405378,-0.0017622979846056,0.0017622947281736,-0.0017622948537284,0.001762297985099,-0.0017622968799203,0.001762295841775,-0.0017622937586264,0.0017622991713352,-0.0014182029587085,0.0014181959161557,-0.0014181941749511,0.0014182049956505,-0.0015124974242693,0.0015124985138303,-0.0015124945264164,0.0015125015356449,-1.6938533046869e-09,1.4884598396931e-09,-0.00082763692808426,0.00082763671173063,1.322396000357e-09,-1.5967282885183e-09,-0.00098909856415372,0.00098909808696575,-0.00098909946267721,0.00098909728966973,-0.00098909749710774,0.00098909926506451,-0.00098909829854711,0.00098909842760398,-0.00086889783441604,0.000868899692046,-0.00086890078644375,0.0008688964376372,0.66669415953841,128566,2924,0.0047319642892141,0.0067393173233411,0.0034468244534625,16.006451272588,-0.0001095483898193,-0.0001095483898193,-0.0001095483898193,3630695.0244863,0.015031030142672
23819200,0.98997734871893,0.015476151303119,0.0050022091907356,0.0065136225256202,0.0039603195867632,-0.0011409139239217,0.0011409141121045,-2.0324861156943e-09,2.2179884043439e-09,-8.71676648351e-10,1.1016893730871e-09,-0.0012870060124498,0.0012870039828503,-0.0012870046943192,0.0012870053640659,-0.0012870053878787,0.0012870046775809,-0.0012870036878105,0.0012870064684108,-0.001085110316481,0.0010851063709723,-0.0010851057514549,0.001085111351491,-7.327739055543e-10,1.8570541366238e-09,-3.1934922515921e-09,4.2913728200943e-09,-0.0016262614497673,0.0016262625302903,-0.0017651532584913,0.0017651505432693,-0.0017651506550793,0.001765153234522,-0.0017651523178483,0.0017651514936635,-0.0017651494074995,0.001765154597068,-0.0014209314732784,0.0014209250585698,-0.0014209233198516,0.001420933508948,-0.0015152915710423,0.0015152917455225,-0.0015152881458156,0.0015152952887152,-1.8549667585149e-09,1.6710426253086e-09,-0.00082993450073842,0.0008299343080689,1.1244398748984e-09,-1.3751281507771e-09,-0.00099158734491663,0.00099158680704373,-0.00099158827345558,0.00099158598079298,-0.00099158633926352,0.00099158794039154,-0.0009915868265404,0.00099158740174333,-0.00087130552502897,0.000871308390649,-0.0008713093059769,0.00087130430347239,0.70079571356918,128566,2924,0.0047423975027644,0.0067510313196008,0.0034563783400614,17.239437452064,-9.9684500383491e-05,-9.9684500383491e-05,-9.9684500383491e-05,3648462.9430171,0.015063211048291
24019200,0.99019908907355,0.015479605601109,0.0050033161863004,0.0065150739447176,0.0039612154700911,-0.0011413112940626,0.0011413115482706,-2.1211272501031e-09,2.3688652585082e-09,-1.0721900820459e-09,1.38854258733e-09,-0.0012875265806088,0.0012875245528693,-0.0012875253573659,0.0012875258399945,-0.0012875259887714,0.0012875252295865,-0.0012875240059177,0.0012875272687121,-0.0010856061195542,0.0010856016398811,-0.0010856007962393,0.0010856073550926,-9.0226909629845e-10,2.0398805149917e-09,-3.6731913687604e-09,4.7849567345034e-09,-0.0016269223529871,0.0016269234480562,-0.0017658034067803,0.0017658004465548,-0.0017658006452649,0.0017658032789013,-0.001765802530502,0.0017658013428441,-0.001765799131473,0.0017658049369116,-0.001421567337847,0.0014215595399446,-0.0014215577369651,0.0014215695620739,-0.0015159100059089,0.001515909620743,-0.0015159056667709,0.0015159140108768,-1.9528544050079e-09,1.8072063506706e-09,-0.00083024351204099,0.00083024335627953,8.5412122085947e-10,-1.0770913792347e-09,-0.00099208468441875,0.00099208410595596,-0.0009920856170856,0.00099208328341954,-0.00099208379398416,0.00099208515368392,-0.00099208391142158,0.00099208497206742,-0.00087165903395137,0.0008716629206354,-0.00087166356689653,0.00087165804534607,0.70866617800205,128566,2924,0.0047440463124687,0.0067537601740153,0.0034576705981898,17.342915612668,-9.8856675098659e-05,-9.8856675098659e-05,-9.8856675098659e-05,3642714.9121815,0.015068969390815
24219200,0.99041698377992,0.015482850922564,0.0050043542539017,0.006516447520919,0.003962049147743,-0.0011416313825065,0.0011416315995623,-1.6253184282535e-09,1.8389044648388e-09,-9.7034405817899e-10,1.238257026686e-09,-0.0012879653313206,0.00128796313423,-0.0012879638931479,0.0012879646290815,-0.0012879642465036,0.0012879642828486,-0.0012879631839309,0.0012879654266954,-0.0010860299404418,0.001086028069175,-0.0010860273465671,0.0010860310595811,-7.3152158434127e-10,1.8400483875495e-09,-3.619216401188e-09,4.7002958115423e-09,-0.0016275086054088,0.0016275096717283,-0.0017663700885904,0.0017663667057486,-0.0017663668249157,0.0017663700568086,-0.0017663687609986,0.0017663680414689,-0.0017663659846451,0.0017663710126424,-0.0014221337134289,0.0014221275435927,-0.0014221258289673,0.0014221357375786,-0.0015164548295581,0.0015164563824868,-0.0015164525049204,0.0015164588076929,-1.4591072967957e-09,1.2631552272354e-09,-0.00083048176435266,0.00083048156043714,1.1189754990078e-09,-1.3914566680357e-09,-0.00099250725822506,0.00099250661017103,-0.00099250781465482,0.00099250614849139,-0.00099250614348143,0.00099250785491324,-0.00099250701396457,0.00099250692568878,-0.00087194543973795,0.00087194638711927,-0.00087194730577378,0.00087194420174982,0.68010474160462,128566,2924,0.0047453745134636,0.0067561798277689,0.0034586689243903,17.418127705967,-9.8254978352265e-05,-9.8254978352265e-05,-9.8254978352265e-05,3635731.7094023,0.015073789976858
24419200,0.99063105309022,0.015486036450369,0.0050053730877758,0.0065177957022056,0.0039628676603871,-0.0011419487259326,0.0011419489670418,-1.8523104378347e-09,2.0896163442062e-09,-1.0634602612708e-09,1.3546597972495e-09,-0.0012883561445362,0.0012883540236692,-0.0012883548298522,0.0012883554016364,-0.0012883552758902,0.0012883549612289,-0.0012883537790449,0.0012883565580337,-0.0010864152617203,0.0010864121159598,-0.0010864113179367,0.0010864165090658,-7.7414284787916e-10,1.904995190881e-09,-3.8313791584084e-09,4.9358853745017e-09,-0.0016280296982995,0.0016280307858451,-0.0017668990650659,0.0017668958157364,-0.0017668959568651,0.0017668990320074,-0.0017668980036741,0.0017668968914774,-0.0017668947778591,0.0017669003268132,-0.0014226112386522,0.0014226038966234,-0.0014226021617954,0.0014226133480369,-0.0015169491727284,0.0015169500030479,-0.0015169459650071,0.0015169533087145,-1.6801693830853e-09,1.5126989554446e-09,-0.00083072868385524,0.00083072850486421,1.0972695828439e-09,-1.3353871812418e-09,-0.00099286113900931,0.00099286060468257,-0.00099286194999518,0.00099285989753798,-0.00099286014661434,0.00099286172800952,-0.00099286071194456,0.00099286111400458,-0.00087222391451602,0.00087222618554944,-0.00087222705703558,0.00087222272628388,0.67934994467145,128566,2924,0.0047466909205697,0.0067583322916235,0.003459700295244,17.491742937041,-9.7666056503675e-05,-9.7666056503675e-05,-9.7666056503675e-05,3633979.9208264,0.015078359361127
24619200,0.99084045289642,0.015489303929975,0.0050064200364622,0.0065191683133607,0.0039637155801521,-0.0011421473028228,0.0011421475327873,-1.5886110960546e-09,1.8144463264403e-09,-1.029571939988e-09,1.3099652117561e-09,-0.0012886167629214,0.0012886145264667,-0.0012886153201091,0.0012886160308894,-0.0012886156058165,0.0012886157478063,-0.0012886146090715,0.0012886168615495,-0.0010866743050692,0.0010866725939403,-0.0010866718406882,0.0010866755195947,-6.9769552629235e-10,1.8260848524789e-09,-3.8308230178687e-09,4.9321806255028e-09,-0.0016284109659223,0.0016284120501992,-0.0017672893253958,0.0017672858097361,-0.0017672859129874,0.001767289350193,-0.0017672879970757,0.0017672871524247,-0.0017672850922722,0.0017672902683364,-0.0014229518313664,0.0014229453441879,-0.0014229436620418,0.0014229538849869,-0.0015173069033815,0.0015173087785533,-0.0015173047360155,0.0015173110322468,-1.4145756396466e-09,1.2301355092744e-09,-0.00083086633636418,0.00083086613704307,1.2521937851923e-09,-1.5134761033936e-09,-0.0009930889576066,0.0009930883842246,-0.0009930895655186,0.00099308787914368,-0.00099308783411399,0.00099308962785073,-0.00099308882136628,0.00099308860073608,-0.00087238908048943,0.00087238977512206,-0.00087239078040578,0.00087238775939733,0.70944813618707,128566,2924,0.0047475148009446,0.0067599067009765,0.003460276823205,17.4978009091,-9.7617592727199e-05,-9.7617592727199e-05,-9.7617592727199e-05,3631581.8867337,0.015081380044988
24819200,0.99104515338261,0.015492260060666,0.0050073640536111,0.0065204261108191,0.0039644698962361,-0.0011423041113186,0.0011423043525328,-1.733819526454e-09,1.9708205918277e-09,-1.0668140942547e-09,1.3583302858833e-09,-0.0012888756077892,0.0012888734367339,-0.0012888742445891,0.0012888748605973,-0.0012888746095238,0.0012888745027442,-0.0012888733159632,0.001288875892783,-0.0010869209145371,0.0010869183546189,-0.0010869175470652,0.0010869221551885,-7.2562239014583e-10,1.8502689640238e-09,-3.9394324153968e-09,5.0380502267885e-09,-0.0016288040947756,0.001628805175951,-0.0017676656581099,0.0017676622448354,-0.0017676623594855,0.0017676656519978,-0.0017676645062744,0.0017676634097285,-0.0017676613374095,0.00176766678803,-0.0014233316694922,0.001423324466594,-0.001423322768473,0.0014233337374038,-0.0015176625274698,0.0015176639029886,-0.0015176597966566,0.0015176667263916,-1.5660031531124e-09,1.3727662754193e-09,-0.00083095667636711,0.00083095647093137,1.2283117855063e-09,-1.497275178351e-09,-0.00099333603273444,0.00099333552827201,-0.00099333681292512,0.00099333485085287,-0.00099333499811054,0.00099333669409236,-0.00099333578586514,0.00099333585588269,-0.00087251094201865,0.00087251247228209,-0.00087251346488199,0.00087250963234034,0.66112596043459,128566,2924,0.0047481660098617,0.0067615281930379,0.0034606593077672,17.49384045099,-9.7649276392078e-05,-9.7649276392078e-05,-9.7649276392078e-05,3624740.3560061,0.01508407764562
25019200,0.9912568437667,0.015495280394577,0.005008328080202,0.0065217129942454,0.0039652393201298,-0.0011441498654971,0.0011441500927279,-1.6866043070359e-09,1.9106662758114e-09,-1.0155259813728e-09,1.2900721755335e-09,-0.001290795182415,0.0012907930233133,-0.0012907938058806,0.0012907944624745,-0.0012907941718671,0.0012907941007073,-0.0012907929700529,0.0012907954059945,-0.0010888161013073,0.0010888137674452,-0.0010888130205221,0.0010888172991464,-7.8731563187141e-10,1.9205574888753e-09,-3.6461139167815e-09,4.7528223015412e-09,-0.0016309055749918,0.0016309066640381,-0.001769800782083,0.0017697974692183,-0.00176979761746,0.001769800740545,-0.0017697995325688,0.0017697987350366,-0.0017697966087134,0.0017698018628887,-0.0014253288140533,0.0014253223715714,-0.0014253206154864,0.0014253309248394,-0.0015197367505204,0.0015197379436603,-0.0015197340287418,0.0015197407697817,-1.4804847916066e-09,1.3430760179739e-09,-0.00083263485946844,0.00083263471057495,9.4970493048981e-10,-1.1517176566544e-09,-0.00099513111107309,0.00099513044112617,-0.00099513163339579,0.00099513002266679,-0.00099513006448869,0.00099513161746151,-0.00099513069657287,0.0009951309371372,-0.00087426636273329,0.00087426789337522,-0.00087426862889349,0.00087426531295188,0.65362908923564,128566,2924,0.004755818983398,0.0067702197136325,0.0034676374836949,18.392363605297,-9.0461091157627e-05,-9.0461091157627e-05,-9.0461091157627e-05,3640111.2998006,0.015107753609142
25219200,0.99148654525742,0.015498672064053,0.0050094120394988,0.0065231508383579,0.0039661091861963,-0.0011475320833775,0.0011475322849119,-1.7106268829347e-09,1.9095037681294e-09,-9.1667254852001e-10,1.1628233546624e-09,-0.0012942874475171,0.0012942853246153,-0.0012942860595056,0.0012942867783105,-0.0012942865064534,0.0012942863343666,-0.0012942853025773,0.0012942876407936,-0.0010922587618442,0.0010922563218885,-0.0010922556734207,0.0010922598594863,-8.4754072321268e-10,1.9868853456636e-09,-3.1177629515408e-09,4.2299287785205e-09,-0.0016346467854502,0.0016346478799884,-0.0017735919567531,0.0017735889483847,-0.0017735891269413,0.0017735918724315,-0.0017735906605562,0.0017735902626006,-0.0017735880818518,0.0017735930313934,-0.0014289119681327,0.0014289066298685,-0.0014289048115678,0.0014289141116882,-0.0015234413028858,0.0015234420508247,-0.0015234384807658,0.0015234449797978,-1.4550464843746e-09,1.382971666232e-09,-0.00083573495722215,0.00083573487551602,5.7925928179127e-10,-7.038468804683e-10,-0.00099841393765277,0.00099841304810204,-0.00099841418063369,0.00099841290882061,-0.00099841287836082,0.0009984142359185,-0.00099841324636577,0.00099841382038243,-0.00087750017915474,0.00087750203602657,-0.00087750243637399,0.00087749946691654,0.67455041911785,128566,2924,0.0047698421410044,0.0067856941086599,0.0034805257488815,20.101729427913,-7.6786164576694e-05,-7.6786164576694e-05,-7.6786164576694e-05,3669237.1104972,0.01515078295816
25419200,0.99172323408311,0.015502466403797,0.0050106283202819,0.0065247420047828,0.0039670960787319,-0.0011494696065224,0.0011494698250003,-1.6776417914301e-09,1.8923804502433e-09,-9.789517990107e-10,1.2452541895746e-09,-0.0012963453964537,0.0012963432690024,-0.0012963440356051,0.0012963446966714,-0.0012963444162954,0.001296344316165,-0.0012963432233128,0.0012963456175482,-0.0010942789302795,0.0010942765787901,-0.0010942758714864,0.0010942800943331,-8.8334887753344e-10,2.0268887177645e-09,-3.2576435891657e-09,4.3732211073912e-09,-0.001636914549741,0.001636915647865,-0.0017758910498215,0.0017758879318658,-0.0017758881357122,0.0017758909474354,-0.0017758897367912,0.0017758892638392,-0.0017758870567044,0.0017758921397981,-0.0014310699970524,0.0014310643911735,-0.001431062553285,0.0014310721790311,-0.0015256690953279,0.0015256698473649,-0.0015256661722959,0.0015256728692003,-1.4161352625582e-09,1.363397279212e-09,-0.00083747390075671,0.00083747383684903,4.912575078027e-10,-5.9786853180064e-10,-0.0010003403097928,0.0010003393973816,-0.0010003404929191,0.0010003393178528,-0.0010003392755924,0.0010003405602087,-0.001000339573828,0.0010003402150864,-0.00087933242845686,0.00087933432542176,-0.00087933463975597,0.00087933179628249,0.72789748416496,128566,2924,0.0047778757380621,0.0067950713729272,0.0034877592713246,21.026923991317,-6.9384608069467e-05,-6.9384608069467e-05,-6.9384608069467e-05,3681783.4186379,0.015175803553514
25619200,0.99195222145015,0.015506159019111,0.005011811908396,0.0065262916415648,0.0039680554691503,-0.0011495025853757,0.0011495028930763,-1.6571024515694e-09,1.9590167843152e-09,-1.2977614153421e-09,1.6669206030139e-09,-0.0012965220700809,0.0012965197745559,-0.0012965207042641,0.001296521212883,-0.0012965208530113,0.0012965210651369,-0.0012965196446462,0.0012965223928247,-0.0010944417076051,0.0010944396231578,-0.0010944385946103,0.0010944432128871,-1.0490458682512e-09,2.2148261663456e-09,-4.2791183551657e-09,5.4158918920438e-09,-0.001637259052952,0.0016372601728274,-0.0017762111159045,0.0017762072357582,-0.0017762075490653,0.001776210940649,-0.0017762096975024,0.0017762086828512,-0.0017762063451431,0.0017762122543234,-0.001431399222965,0.0014313917261943,-0.0014313897990381,0.0014314015994507,-0.0015259665879474,0.0015259676770808,-0.0015259632905475,0.0015259710469386,-1.4144780694582e-09,1.4028266237139e-09,-0.00083742384351941,0.00083742381592437,3.8234473174854e-10,-4.5367021019017e-10,-0.0010005099057809,0.0010005089373627,-0.001000510011063,0.0010005089393021,-0.0010005088665524,0.0010005101072574,-0.0010005090787988,0.0010005098591433,-0.00087933013111929,0.00087933221778369,-0.00087933237879138,0.00087932962228707,0.73244076698506,128566,2924,0.0047780139404098,0.0067964893902091,0.0034875620170868,20.943799639921,-7.0049602880631e-05,-7.0049602880631e-05,-7.0049602880631e-05,3669655.0865434,0.015177186600912
25819200,0.9921638660017,0.015509478233615,0.005012874477106,0.0065276906864476,0.0039689130700615,-0.0011481068799438,0.0011481067484847,-1.5716593192524e-09,1.4346836297538e-09,2.5751652584653e-10,-3.6357925790324e-10,-0.001295225267547,0.0012952239074057,-0.0012952240431106,0.0012952251405764,-0.0012952252101287,0.0012952240318183,-0.0012952241921024,0.0012952250751432,-0.0010931600091709,0.0010931569458261,-0.0010931574453208,0.0010931597025984,8.6268290927635e-10,9.3567887094689e-11,-8.4932328152146e-10,1.7943335965168e-09,-0.001636070954927,0.001636071883562,-0.0017749869155828,0.0017749865401911,-0.0017749856286681,0.0017749878253972,-0.0017749867787705,0.0017749866364608,-0.0017749857893796,0.0017749877427978,-0.0014302350350492,0.0014302329844347,-0.0014302324877763,0.0014302357211993,-0.0015247433928718,0.0015247459556836,-0.0015247441176689,0.0015247452410003,-1.5511659027553e-09,6.4701265839399e-10,-0.00083605284227375,0.00083605192628906,4.6355425027997e-09,-5.7033291140432e-09,-0.00099927753699856,0.0009992790655866,-0.00099928078891274,0.00099927591517201,-0.00099927666487689,0.00099928005236685,-0.00099928007924463,0.0009992765756798,-0.00087795423195348,0.0008779515093414,-0.00087795582304897,0.00087794966086473,0.71386865520005,128566,2924,0.0047722275913241,0.0067915676646473,0.0034818718391206,20.109982908974,-7.6720136728206e-05,-7.6720136728206e-05,-7.6720136728206e-05,3645957.5747561,0.015160541665275
26019200,0.99236506359275,0.015512505739147,0.0050138419951709,0.0065289738435223,0.0039696899004535,-0.0011475191427035,0.0011475194592276,-1.6844340488211e-09,1.9964404291517e-09,-1.343858018742e-09,1.7142686166234e-09,-0.0012947111987437,0.0012947088618654,-0.0012947098275594,0.0012947103482248,-0.0012947099741029,0.0012947102000368,-0.0012947087226265,0.0012947115232717,-0.0010926584655947,0.0010926564171473,-0.0010926553219603,0.0010926600976643,-8.114765647715e-10,1.9513622295763e-09,-4.9341384141643e-09,6.0470451140403e-09,-0.0016356783736396,0.0016356794690126,-0.0017745799745237,0.00177457561525,-0.0017745758409748,0.0017745799023575,-0.0017745786710457,0.0017745769370362,-0.0017745747595744,0.001774581088508,-0.0014298406631586,0.0014298315968934,-0.0014298298288387,0.0014298428490178,-0.0015243248555579,0.0015243268591355,-0.001524322023755,0.00152432979028,-1.5188263907603e-09,1.3474818099416e-09,-0.00083544916130402,0.00083544897659437,1.2762484259866e-09,-1.5236417361024e-09,-0.00099877992620006,0.00099877941064024,-0.00099878065740179,0.00099877879426037,-0.00099877886774721,0.00099878060738007,-0.00099877970355096,0.00099877971785727,-0.00087735990821234,0.0008773612283831,-0.00087736224042407,0.00087735863227828,0.68688839890668,128566,2924,0.0047697926263006,0.0067899393779161,0.0034793712756289,19.716658154238,-7.9866734766096e-05,-7.9866734766096e-05,-7.9866734766096e-05,3633379.3911453,0.015153879619987
26219200,0.99256007343596,0.015515621234014,0.0050148400413392,0.0065302809163111,0.0039705002763635,-0.0011475175050098,0.0011475177424358,-1.6336811219425e-09,1.8668482337511e-09,-1.0482031953215e-09,1.3336207139203e-09,-0.0012947521311565,0.00129474998994,-0.0012947507891539,0.0012947513988097,-0.0012947510982647,0.0012947510978063,-0.001294749929773,0.0012947523623091,-0.0010927130517032,0.0010927108543871,-0.001092710079633,0.0010927142935741,-5.6188272133914e-10,1.6761791876999e-09,-4.1756144101401e-09,5.2650190337532e-09,-0.001635841689174,0.0016358427607019,-0.0017747539603553,0.0017747504143684,-0.0017747504386695,0.0017747540641835,-0.0017747528565337,0.0017747515288874,-0.0017747495772755,0.0017747550253636,-0.0014299615671513,0.0014299539237166,-0.0014299523555271,0.001429963514829,-0.0015244728306778,0.0015244748476363,-0.0015244705781177,0.0015244771918698,-1.477041097287e-09,1.2015243874059e-09,-0.00083540368518998,0.00083540339455559,1.8219049111144e-09,-2.1865188078311e-09,-0.00099879251292739,0.00099879236648813,-0.00099879364457098,0.00099879133722911,-0.00099879150286938,0.00099879349973791,-0.00099879276808458,0.00099879219036241,-0.00087733390079663,0.00087733450355297,-0.00087733598692028,0.00087733209000799,0.72525110545654,128566,2924,0.0047697861007259,0.0067906124546326,0.003479185959571,19.629284346817,-8.0565725225467e-05,-8.0565725225467e-05,-8.0565725225467e-05,3630596.2062366,0.015154368384688
26419200,0.99275353316917,0.015518803309247,0.0050158604091289,0.0065316105571843,0.0039713323429334,-0.0011482144394344,0.0011482145982044,-1.5667316422069e-09,1.7219787202379e-09,-7.6258294086462e-10,9.6054980433341e-10,-0.0012955570486708,0.0012955551160484,-0.0012955557701189,0.0012955564603066,-0.0012955562339802,0.0012955560117176,-0.0012955551301523,0.0012955571898847,-0.0010935172805568,0.0010935150071865,-0.001093514505665,0.0010935182009702,-3.8537704281941e-10,1.4793533898871e-09,-3.2634545917612e-09,4.334925546706e-09,-0.0016368192079554,0.0016368202612867,-0.0017757102851949,0.0017757074432131,-0.0017757073456873,0.0017757104783878,-0.0017757092977035,0.0017757084365948,-0.0017757066154456,0.001775711311452,-0.0014309101168939,0.001430904150749,-0.0014309027002575,0.001430911892718,-0.0015254194732686,0.0015254212291541,-0.0015254176002924,0.0015254231892279,-1.4006378877332e-09,1.057541851787e-09,-0.00083599685300666,0.00083599649657372,2.1009775184907e-09,-2.5357913149529e-09,-0.00099956041863327,0.00099956048387583,-0.00099956175350815,0.00099955925146981,-0.00099955947620959,0.00099956155114673,-0.00099956095397433,0.00099956002358883,-0.00087798929721913,0.0008779893799543,-0.00087799116259602,0.00087798720881108,0.74503106299534,128566,2924,0.0047726765594261,0.0067946509060558,0.0034816586958843,19.918521689518,-7.8251826483854e-05,-7.8251826483854e-05,-7.8251826483854e-05,3628284.6677505,0.01516391504462
26619200,0.9929518991305,0.015522034617321,0.0050168959743972,0.0065329635630259,0.0039721750798976,-0.0011499225499441,0.0011499228233769,-1.778215047659e-09,2.049196708059e-09,-1.156166397991e-09,1.4775879804662e-09,-0.0012974283537885,0.0012974260519123,-0.0012974269075531,0.0012974275876171,-0.0012974272431306,0.0012974272535983,-0.0012974259594156,0.0012974286175463,-0.0010953731132021,0.001095370743336,-0.0010953698380905,0.0010953744994342,-9.9810781407965e-10,2.1528757307713e-09,-4.1003599162897e-09,5.2277673071796e-09,-0.0016389284008085,0.0016389295098864,-0.0017777872049253,0.0017777833839592,-0.0017777836722931,0.0017777870252714,-0.0017777857920218,0.0017777848176117,-0.0017777825192147,0.0017777883065004,-0.001432973097704,0.0014329659100072,-0.0014329639967483,0.0014329754027432,-0.0015274867302914,0.0015274878569156,-0.0015274836049996,0.0015274911201962,-1.507944048815e-09,1.4829287488682e-09,-0.00083752394380195,0.00083752390900524,4.7154396271444e-10,-5.4464774290462e-10,-0.001001357692148,0.0010013566851834,-0.0010013578239763,0.0010013566611415,-0.0010013565797657,0.0010013579376796,-0.0010013568474058,0.001001357616812,-0.00087962616170516,0.00087962830266678,-0.00087962854013743,0.00087962560430408,0.73848802678349,128566,2924,0.0047797600490967,0.0068033687942687,0.0034880165549979,20.757514652973,-7.1539882776219e-05,-7.1539882776219e-05,-7.1539882776219e-05,3632308.9848989,0.015186414636789
26819200,0.99315370064961,0.015525237334066,0.0050179210204661,0.0065343112361094,0.0039730050774909,-0.0011514340482427,0.0011514341666591,-1.4599505720636e-09,1.5750704824517e-09,-6.0273256869295e-10,7.6188334281039e-10,-0.0012990989292085,0.0012990971600081,-0.0012990977346171,0.0012990984088567,-0.0012990982229875,0.0012990979321215,-0.0012990972174161,0.0012990990337455,-0.0010970256824972,0.0010970234859967,-0.0010970231563636,0.0010970264400203,-5.0083066431993e-10,1.6055897382768e-09,-2.3608999238338e-09,3.4407028735949e-09,-0.001640834259833,0.0016408353223392,-0.001779671470975,0.0017796691947392,-0.0017796691568104,0.0017796715931499,-0.0017796704109978,0.0017796702631936,-0.0017796683451998,0.0017796724970618,-0.0014348202636627,0.0014348161773905,-0.0014348146188237,0.0014348221094936,-0.0015293498033814,0.001529350732084,-0.0015293476946412,0.0015293529195151,-1.2122425291372e-09,9.7560370743092e-10,-0.00083886699498255,0.00083886674627861,1.4916705307833e-09,-1.8077606743343e-09,-0.0010029551462795,0.0010029549793086,-0.0010029560517281,0.0010029541741372,-0.0010029542928562,0.0010029559487933,-0.0010029553447039,0.0010029548531559,-0.00088106935504472,0.00088106970545259,-0.00088107095348362,0.00088106779985683,0.72122276050124,128566,2924,0.0047860275130265,0.0068112454129463,0.003493608305218,21.495621075995,-6.5635031392038e-05,-6.5635031392038e-05,-6.5635031392038e-05,3636352.6854633,0.0152064540274
27019200,0.99335236609498,0.015528299183144,0.0050188995158964,0.0065356064956502,0.0039737931715971,-0.0011519778647506,0.0011519780003256,-1.3866926103125e-09,1.5172036411052e-09,-6.5435888760685e-10,8.3475843093823e-10,-0.0012997534560435,0.0012997516987216,-0.001299752307932,0.0012997529230088,-0.0012997527184102,0.00129975252763,-0.0012997517430498,0.0012997535712564,-0.0010976760531753,0.0010976740674127,-0.0010976736546407,0.0010976768768493,-5.1335405750357e-10,1.6204577327168e-09,-2.4058872186793e-09,3.4882673464152e-09,-0.0016416685253003,0.0016416695903923,-0.0017805035114394,0.0017805011173865,-0.0017805010983829,0.0017805036123316,-0.0017805024240957,0.0017805022130659,-0.0017805002697782,0.0017805045365229,-0.0014356043542716,0.0014356001606475,-0.0014355985951751,0.0014356062299804,-0.001530149234482,0.0015301501871056,-0.0015301470857638,0.0015301523915848,-1.1431065917386e-09,9.0609508151144e-10,-0.0008393096526875,0.00083930940393314,1.4706104561247e-09,-1.7895629048298e-09,-0.0010035661530377,0.0010035660002619,-0.0010035670309961,0.0010035652278953,-0.0010035653426255,0.001003566934881,-0.0010035663713457,0.0010035658576835,-0.00088156194318288,0.0008815621785716,-0.00088156340534574,0.00088156042411302,0.7022886904691,128566,2924,0.0047882829339575,0.0068146909962974,0.0034954561138168,21.714836784298,-6.3881305725613e-05,-6.3881305725613e-05,-6.3881305725613e-05,3635079.9528085,0.015214119666407
27219200,0.9935455850976,0.015531182580304,0.0050198195462404,0.006536832688889,0.0039745303451742,-0.0011521571013874,0.0011521572790354,-1.2953855080586e-09,1.4683112555193e-09,-8.0233068037235e-10,1.025729924302e-09,-0.001300000357959,0.0012999985678083,-0.001299999248185,0.0012999997579023,-0.001299999503373,0.0012999995166137,-0.0012999985754696,0.0013000005071207,-0.0010979239226263,0.0010979222491191,-0.0010979216919989,0.001097924919061,-5.8225692209777e-10,1.6954633578171e-09,-2.7966153507325e-09,3.8852833485548e-09,-0.001642061370379,0.0016420624413323,-0.0017809120436137,0.0017809093269293,-0.0017809093531458,0.0017809121027812,-0.0017809109035709,0.0017809104807759,-0.0017809084877508,0.0017809130736289,-0.001435941269322,0.0014359363688161,-0.0014359347595541,0.0014359432103186,-0.0015305156279069,0.0015305167307694,-0.0015305133596462,0.0015305190649927,-1.0617403355285e-09,8.4156281534148e-10,-0.00083942391305562,0.00083942368195285,1.3957876605274e-09,-1.6940841677748e-09,-0.0010037740772599,0.0010037739213165,-0.0010037748895741,0.001003773217282,-0.0010037733107019,0.0010037748218748,-0.0010037742837859,0.0010037737939633,-0.00088170020697854,0.00088170036644581,-0.00088170150610195,0.00088169877114103,0.68192143580975,128566,2924,0.0047890265342865,0.0068163125999046,0.0034959363235298,21.739887624135,-6.3680899006921e-05,-6.3680899006921e-05,-6.3680899006921e-05,3633863.5458961,0.01521700904141
27419200,0.99373493982109,0.015534100709574,0.0050207518760692,0.0065380666764655,0.0039752821570399,-0.001152588669697,0.0011525888808059,-1.3914153413966e-09,1.5989363865106e-09,-9.3257677936255e-10,1.1890239664281e-09,-0.0013004669948667,0.0013004650651689,-0.0013004658104124,0.0013004663308048,-0.0013004660400397,0.0013004661076766,-0.0013004650439383,0.0013004671843345,-0.0010983952444229,0.0010983934792153,-0.0010983928067678,0.0010983963905402,-6.5626673685461e-10,1.7787137368692e-09,-3.2453417750365e-09,4.3421323544254e-09,-0.0016426604265833,0.0016426615054107,-0.0017815467090919,0.0017815436572559,-0.0017815437357219,0.0017815467353002,-0.0017815455214127,0.0017815448611686,-0.0017815428176021,0.0017815477565202,-0.0014364633778458,0.0014364576527529,-0.001436455989133,0.0014364653852096,-0.0015310961696446,0.0015310974323921,-0.0015310937577964,0.0015310999284814,-1.1491481204534e-09,9.7417948135503e-10,-0.00083977784618729,0.00083977765960465,1.2181846489128e-09,-1.4639002516656e-09,-0.0010041742049013,0.0010041738821882,-0.0010041748809613,0.0010041733126734,-0.0010041733631999,0.0010041748537548,-0.001004174201528,0.0010041739645561,-0.00088207774075895,0.00088207829564435,-0.00088207925696829,0.00088207647997712,0.70215249507873,128566,2924,0.004790815990421,0.0068187890866106,0.0034974101686568,21.891792108483,-6.2465663132132e-05,-6.2465663132132e-05,-6.2465663132132e-05,3637678.7945099,0.01522283597305
27619200,0.99392312507048,0.015537047084012,0.0050216937466333,0.0065393097128892,0.0039760436244896,-0.0011534729212494,0.0011534731339138,-1.6090895647602e-09,1.8183877792202e-09,-9.3550276933035e-10,1.1934489147196e-09,-0.0013014202835872,0.0013014182150528,-0.0013014189585922,0.0013014196180804,-0.0013014193340568,0.0013014192529049,-0.0013014181817912,0.0013014204775513,-0.0010993429672624,0.0010993407545254,-0.0010993400703145,0.0010993441024681,-6.4579882075991e-10,1.7644890036604e-09,-3.3276382749937e-09,4.4216645723589e-09,-0.0016437641136873,0.0016437651896086,-0.0017826694480868,0.0017826663749339,-0.001782666439193,0.001782669479463,-0.0017826682796768,0.0017826675600635,-0.0017826655307095,0.0017826704973335,-0.0014374970578105,0.0014374911548484,-0.0014374895044955,0.0014374990516936,-0.0015321698023853,0.0015321711127224,-0.0015321673993901,0.0015321736035588,-1.3674430319584e-09,1.1866536708363e-09,-0.00084053796879873,0.00084053777780639,1.2119074449418e-09,-1.4625241454841e-09,-0.0010050467197668,0.0010050462591759,-0.0010050474041499,0.0010050456815178,-0.0010050457438061,0.001005047369606,-0.0010050465762387,0.0010050464834219,-0.00088288847588108,0.00088288946561384,-0.00088289042727916,0.00088288721006072,0.71253170529335,128566,2924,0.0047944825843393,0.0068233515608543,0.0035005740280356,22.281539567668,-5.9347683458657e-05,-5.9347683458657e-05,-5.9347683458657e-05,3641772.136923,0.015234403561532
27819200,0.99410746525771,0.015539982613862,0.005022632748388,0.006540545413328,0.0039768044521459,-0.0011539236041418,0.0011539238320407,-1.8655095643273e-09,2.0892222223511e-09,-9.9054882522951e-10,1.2684432425767e-09,-0.0013019492765721,0.0013019470101584,-0.0013019477825882,0.0013019485808467,-0.0013019482875425,0.0013019480841151,-0.0013019469596723,0.0013019494930639,-0.0010998664667832,0.0010998637759147,-0.0010998630388377,0.0010998676573018,-6.6794341325781e-10,1.7901295644177e-09,-3.5842672410373e-09,4.6810464380092e-09,-0.0016444349292666,0.0016444360081971,-0.0017833498167954,0.0017833465720027,-0.0017833466552816,0.0017833498423662,-0.0017833486389201,0.0017833477679047,-0.0017833457234053,0.0017833508794341,-0.0014381153265171,0.0014381089249614,-0.0014381072662984,0.0014381173506689,-0.0015328094079845,0.0015328108302316,-0.0015328069349669,0.0015328133740474,-1.6221487038768e-09,1.4508904265613e-09,-0.00084089833817172,0.0008408981547675,1.1926558871813e-09,-1.4388808011618e-09,-0.0010055276862835,0.0010055270526186,-0.0010055283616132,0.0010055264831696,-0.0010055265424638,0.0010055283287079,-0.0010055273565009,0.0010055274639125,-0.0008832887914428,0.00088329032983119,-0.00088329126094989,0.00088328754772265,0.72383699381354,128566,2924,0.0047963517720507,0.0068261226865166,0.0035020775663,22.443549342341,-5.8051605261275e-05,-5.8051605261275e-05,-5.8051605261275e-05,3640750.9845115,0.015240642432081
28019200,0.99428868287494,0.015542921673926,0.0050235735092421,0.0065417793769555,0.0039775687877285,-0.0011544915606313,0.0011544918010854,-2.7499911242066e-09,2.9870901734542e-09,-1.0463606410036e-09,1.3321720043538e-09,-0.0013026078312337,0.0013026049660264,-0.0013026057621085,0.0013026071102204,-0.0013026068234385,0.0013026060571887,-0.001302604879469,0.0013026080822142,-0.0011005237706809,0.0011005193368133,-0.0011005185442112,0.001100525015074,-7.1542644891896e-10,1.8417704921757e-09,-3.8736931973907e-09,4.9751381704734e-09,-0.0016452449249714,0.0016452460078413,-0.0017841593493578,0.001784155915191,-0.0017841560227345,0.0017841593459185,-0.0017841581611476,0.0017841571202292,-0.0017841550461172,0.0017841604395715,-0.0014388779633931,0.0014388709728502,-0.0014388692762124,0.0014388800233122,-0.0015335863357959,0.001533587791342,-0.0015335837237226,0.0015335905135523,-2.497210457056e-09,2.3523762674021e-09,-0.00084136460729609,0.00084136445146873,1.0579812451345e-09,-1.2677430325338e-09,-0.0010061393286523,0.0010061380489611,-0.0010061399256421,0.0010061375586771,-0.001006137614281,0.0010061398995349,-0.0010061383070646,0.0010061391542125,-0.0008838062950876,0.00088380974605005,-0.00088381055084524,0.00088380517525453,0.73612815013808,128566,2924,0.0047987073544281,0.0068294687702223,0.0035040223032521,22.670421094473,-5.6236631244216e-05,-5.6236631244216e-05,-5.6236631244216e-05,3639101.1166949,0.015248407288885
28219200,0.99446959931737,0.015545913716496,0.0050245318980325,0.006543032287297,0.0039783495311669,-0.0011555607621291,0.0011555609876175,-2.2219447197611e-09,2.4447567114216e-09,-9.9257202702135e-10,1.2625398775087e-09,-0.0013037904701628,0.0013037879799419,-0.0013037887476117,0.001303789771109,-0.0013037894822892,0.0013037890425069,-0.0013037879251161,0.0013037906907244,-0.0011017067582091,0.0011017033696203,-0.0011017026386572,0.001101707949587,-7.0039730263729e-10,1.8257186110202e-09,-3.6798246154133e-09,4.779932848862e-09,-0.0016466009860591,0.0016466020676591,-0.0017855052412341,0.0017855019420316,-0.001785502040053,0.0017855052490793,-0.0017855040489519,0.0017855031520412,-0.0017855010897685,0.0017855063124592,-0.0014401789118878,0.0014401723477949,-0.0014401706486104,0.0014401809431762,-0.0015349073899227,0.0015349087906893,-0.0015349048563116,0.0015349114350459,-1.961948446693e-09,1.8031859830397e-09,-0.00084228294326456,0.00084228277299197,1.1387607566406e-09,-1.364791336692e-09,-0.0010072496801591,0.0010072487995981,-0.0010072503208319,0.0010072482638439,-0.001007248316823,0.0010072502957988,-0.0010072490866284,0.0010072494744609,-0.00088480098810403,0.00088480324544331,-0.00088480412853519,0.00088479979472499,0.74949208244091,128566,2924,0.0048031411728689,0.0068350725983245,0.0035078472019191,23.163455047106,-5.2292359623155e-05,-5.2292359623155e-05,-5.2292359623155e-05,3639893.6002748,0.015262484026534
28419200,0.99464494138356,0.015548873888487,0.0050254807579938,0.0065442689538914,0.0039791241766015,-0.0011557120072615,0.0011557122662512,-1.7172302792606e-09,1.9712790550112e-09,-1.1038307494029e-09,1.4182773425419e-09,-0.0013040568444083,0.0013040545789952,-0.0013040554075815,0.0013040560874451,-0.0013040557276148,0.0013040557698081,-0.0013040545344382,0.0013040570590231,-0.0011019751879841,0.0011019729624094,-0.0011019721205809,0.0011019765009356,-7.9936071749055e-10,1.9340706017648e-09,-3.9519619145115e-09,5.058717335952e-09,-0.0016470261640349,0.0016470272534352,-0.0017859090808036,0.0017859054944381,-0.0017859056662134,0.0017859090359702,-0.0017859077846606,0.0017859068173188,-0.0017859046785948,0.0017859101277877,-0.0014405819823639,0.0014405750697404,-0.0014405732976782,0.0014405840972257,-0.0015352972764863,0.0015352987858361,-0.0015352946091304,0.0015353014746144,-1.4610173038176e-09,1.3142987489311e-09,-0.00084235991711471,0.00084235975678752,1.0873169806538e-09,-1.3140178567998e-09,-0.0010075068651663,0.00100750625167,-0.0010075074309008,0.0010075057892149,-0.0010075057908591,0.0010075074590205,-0.0010075065649279,0.0010075066346936,-0.00088492646720146,0.00088492772075971,-0.00088492853972263,0.00088492532466465,0.76402647158996,128566,2924,0.0048037694229439,0.0068368251027463,0.0035081763185918,23.176374095888,-5.2189007232896e-05,-5.2189007232896e-05,-5.2189007232896e-05,3632023.90587,0.015265237787772
28619200,0.99481521415921,0.015551768667383,0.0050264087571212,0.0065454773816047,0.0039798825286568,-0.0011559132535608,0.0011559135226672,-1.2395428766064e-09,1.5050248609151e-09,-1.1522321222908e-09,1.471692578449e-09,-0.001304381054695,0.0013043790604777,-0.0013043799090931,0.0013043802744448,-0.0013043798823014,0.001304380311339,-0.0013043790255131,0.0013043812535125,-0.0011023098078618,0.0011023086186894,-0.0011023077162667,0.0011023111516961,-8.4184859686794e-10,1.9816543414672e-09,-4.0838979202513e-09,5.1973426337501e-09,-0.0016475212402136,0.0016475223349264,-0.0017863699050913,0.0017863661965704,-0.0017863663767855,0.0017863698287025,-0.0017863685560347,0.0017863675627557,-0.001786365397436,0.0017863709331004,-0.0014410644537128,0.0014410573946762,-0.0014410555967948,0.0014410666149106,-0.0015357584191033,0.0015357599994353,-0.0015357557764852,0.0015357627403866,-9.8760111355397e-10,8.36269413151e-10,-0.0008424819065346,0.00084248174416039,1.0795455732414e-09,-1.3015044633723e-09,-0.0010078262673006,0.0010078259420965,-0.0010078268058174,0.0010078255101481,-0.0010078254905541,0.0010078268568386,-0.0010078262849785,0.0010078260112861,-0.000885105628444,0.00088510587006536,-0.00088510668828253,0.00088510448164889,0.76896222931581,128566,2924,0.0048046051319377,0.0068388660314628,0.0035086933318117,23.222761392735,-5.1817908858121e-05,-5.1817908858121e-05,-5.1817908858121e-05,3623272.0194433,0.015268686082574
28819200,0.9949869652204,0.015554609950334,0.005027318469677,0.0065466685371521,0.0039806229435046,-0.0011573194132362,0.0011573196551969,4.8234067380513e-10,-2.4146837033059e-10,-1.0699888519096e-09,1.3533490192929e-09,-0.0013059338367532,0.0013059330187765,-0.0013059338246386,0.0013059330945424,-0.001305932688299,0.0013059342392227,-0.0013059330487546,0.0013059339737186,-0.0011038720045028,0.0011038742323949,-0.0011038734242967,0.0011038732637816,-8.4396001730667e-10,1.98465572213e-09,-3.6859735080983e-09,4.8002116907102e-09,-0.0016492827431468,0.0016492838383423,-0.0017880974516565,0.0017880939765677,-0.0017880941467103,0.0017880973661653,-0.001788096057433,0.0017880953706603,-0.0017880932083492,0.0017880984393725,-0.0014427787602969,0.0014427726033603,-0.0014427708320141,0.0014427809529341,-0.0015374843537775,0.0015374857799968,-0.0015374818978843,0.0015374884861368,7.5353763866482e-10,-9.0409202779021e-10,-0.00084370013667316,0.00084369997515596,1.0818422947252e-09,-1.2912091604658e-09,-0.0010092987666798,0.0010092995751333,-0.001009299263379,0.0010092991812382,-0.0010092991243624,0.0010092993454417,-0.0010092999589062,0.0010092984649351,-0.00088642481640168,0.00088642152319076,-0.00088642236314616,0.00088642365714338,0.74978589047948,128566,2924,0.0048104362164094,0.0068461448632756,0.003513767217268,23.910483308229,-4.6316133534172e-05,-4.6316133534172e-05,-4.6316133534172e-05,3624321.8385571,0.015287151405886
29019200,0.99514970430982,0.01555715105717,0.0050281300016061,0.0065477443149685,0.0039812767405958,-0.0011567747204994,0.0011567749465863,-1.3900876921833e-09,1.612408429555e-09,-1.0043573017742e-09,1.2787011818507e-09,-0.0013054808237199,0.0013054788208111,-0.0013054795970576,0.001305480112296,-0.0013054797951628,0.0013054799211038,-0.0013054787949533,0.0013054810152056,-0.0011034286398038,0.0011034269042837,-0.0011034261697611,0.001103429827748,-7.7903193940312e-10,1.9115384451656e-09,-3.8775354401304e-09,4.983679145376e-09,-0.0016489594984134,0.0016489605862794,-0.0017877614706873,0.0017877579771096,-0.001787758121555,0.0017877614380458,-0.0017877602059104,0.0017877592601243,-0.001787757145041,0.001787762528604,-0.0014424420361979,0.0014424352475521,-0.0014424335395396,0.0014424441795219,-0.0015371313169664,0.0015371327993058,-0.0015371287079198,0.0015371354789038,-1.1299323294165e-09,9.5116030037301e-10,-0.00084313332159928,0.00084313312908062,1.2389701231661e-09,-1.4945599595289e-09,-0.0010088625282722,0.0010088622137247,-0.001008863214773,0.0010088616303187,-0.0010088616733763,0.0010088631996093,-0.0010088625520814,0.0010088622721071,-0.00088586657484113,0.00088586705079434,-0.00088586802554807,0.00088586527577466,0.71130445944528,128566,2924,0.0048081787795013,0.0068448021642949,0.0035114195444303,23.567689496224,-4.9058484030211e-05,-4.9058484030211e-05,-4.9058484030211e-05,3613272.3179537,0.015281114074635
29219200,0.99531102019352,0.015559608530151,0.0050289139455657,0.0065487879517384,0.0039819066328471,-0.001157636290454,0.0011576364921048,-2.1495110155059e-09,2.3485177431219e-09,-9.1907598476212e-10,1.1622738825072e-09,-0.001306394484127,0.0013063920707689,-0.0013063928014901,0.0013063938175279,-0.0013063935526185,0.0013063930714775,-0.0013063920413146,0.0013063946883992,-0.001104349637415,0.0011043462904,-0.0011043456692621,0.0011043507688895,-7.7407476101799e-10,1.9155478509751e-09,-3.6523919085225e-09,4.7674522879581e-09,-0.0016500296104378,0.00165003070602,-0.0017888563753806,0.0017888530569043,-0.0017888531999203,0.0017888563534306,-0.0017888551417655,0.0017888543160481,-0.0017888521912364,0.0017888574711025,-0.001443429611954,0.001443423165989,-0.001443421450063,0.0014434317555785,-0.0015381822347129,0.0015381834859416,-0.0015381795595986,0.0015381862930749,-1.8649934696782e-09,1.7058526879242e-09,-0.00084388896394823,0.00084388879023583,1.1943808796899e-09,-1.4199850957021e-09,-0.0010096990250943,0.0010096982262396,-0.0010096997010596,0.0010096976565235,-0.0010096977149698,0.0010096996659927,-0.0010096985209189,0.0010096988145759,-0.00088666933255074,0.00088667138483629,-0.00088667231531432,0.00088666809742617,0.69517197876365,128566,2924,0.0048117509762886,0.0068492260811304,0.0035145640655385,23.974420012218,-4.5804639902258e-05,-4.5804639902258e-05,-4.5804639902258e-05,3619923.0092232,0.015292425292879
29419200,0.99547149817527,0.015561881820205,0.0050296365391769,0.0065497656334335,0.003982479647595,-0.0011586584686832,0.0011586586368285,-3.6931808438162e-09,3.8596059679774e-09,-8.2169153329762e-10,1.0276857547292e-09,-0.001307456543897,0.0013074532336157,-0.0013074539230581,0.0013074559274491,-0.0013074557670835,0.0013074540966384,-0.0013074531577707,0.0013074567736026,-0.0011054096510718,0.0011054030217927,-0.0011054024672187,0.0011054106351975,-7.2560937719043e-10,1.8436205165411e-09,-3.3329787516105e-09,4.4276598583247e-09,-0.0016512201600653,0.0016512212379893,-0.0017900917263307,0.0017900887232934,-0.001790088818259,0.0017900917122151,-0.0017900905960004,0.0017900898738315,-0.0017900877926839,0.0017900928656065,-0.0014445186285875,0.0014445125713542,-0.001444510866285,0.0014445206667767,-0.0015393522383477,0.0015393531276996,-0.0015393494598755,0.001539356020922,-3.4013442007474e-09,3.2136503443327e-09,-0.00084477880129578,0.00084477860416557,1.2138764237026e-09,-1.4668083404422e-09,-0.001010651129025,0.001010649402191,-0.0010106519049917,0.0010106487363653,-0.0010106488856327,0.0010106517892804,-0.0010106496453857,0.0010106509721561,-0.00088759229800349,0.00088759746962197,-0.00088759844002316,0.00088759101779711,0.65090116808857,128566,2924,0.004815988688078,0.0068541493491197,0.0035182645900866,24.457244534458,-4.1942043724336e-05,-4.1942043724336e-05,-4.1942043724336e-05,3629773.3816671,0.015305483540904
29619200,0.99563150643158,0.015564113738424,0.0050303454888581,0.0065507278896758,0.0039830403598897,-0.0011598077087962,0.0011598078905796,-2.5983846709407e-09,2.7785610856872e-09,-8.987606204377e-10,1.120578213046e-09,-0.001308590728116,0.0013085880780341,-0.0013085888119037,0.00130859006389,-0.0013085898456987,0.0013085890357415,-0.0013085880364029,0.0013085909343231,-0.001106534879596,0.0011065306042949,-0.0011065299993459,0.0011065359605723,-8.056827046523e-10,1.9403410365603e-09,-3.3628268358309e-09,4.4709059118933e-09,-0.0016524482197922,0.0016524493093816,-0.0017914078732619,0.0017914047313324,-0.0017914048886912,0.0017914078056389,-0.0017914066306913,0.0017914059852708,-0.0017914038408082,0.0017914089780987,-0.0014456020041233,0.0014455960533288,-0.0014455942665451,0.0014456041163267,-0.0015405727478646,0.0015405736405915,-0.001540569943373,0.0015405766328636,-2.2744280180426e-09,2.1430644573666e-09,-0.00084579332778075,0.00084579318578269,9.5584551901669e-10,-1.1484478674339e-09,-0.0010116330424883,0.0010116318804617,-0.001011633579328,0.0010116314490211,-0.0010116315041686,0.001011633551295,-0.0010116321107699,0.001011632892407,-0.00088862737401858,0.00088863049577517,-0.0008886312244013,0.00088862633783869,0.64191650589173,128566,2924,0.0048207525001028,0.0068592311464286,0.0035224791710648,24.998015379149,-3.7615876966808e-05,-3.7615876966808e-05,-3.7615876966808e-05,3646607.0358483,0.015319757191746
29819200,0.99579173418476,0.015566488297041,0.0050311020086966,0.0065517409853747,0.0039836453029701,-0.0011611587087596,0.0011611588981045,-2.368281486913e-09,2.5552785318187e-09,-9.2056439748147e-10,1.1525259610054e-09,-0.0013099199195371,0.0013099173498688,-0.0013099180934017,0.0013099192425109,-0.0013099189654103,0.0013099183753861,-0.0013099173505529,0.0013099200777281,-0.0011078528528964,0.0011078491697362,-0.0011078485444121,0.0011078539552462,-7.8746481060822e-10,1.920423244094e-09,-3.3266632630149e-09,4.4325952757864e-09,-0.0016538611299127,0.001653862217006,-0.0017929172555153,0.0017929140984345,-0.0017929142438557,0.0017929171901978,-0.0017929159719625,0.0017929153871771,-0.0017929132624344,0.0017929182998786,-0.0014468578809278,0.0014468521417347,-0.0014468503718339,0.0014468599882781,-0.0015419804786981,0.0015419815531489,-0.0015419778731285,0.0015419843557082,-2.0345748699284e-09,1.920934371456e-09,-0.00084698913592396,0.00084698901283724,8.2183231564571e-10,-9.9733277618023e-10,-0.0010127894518196,0.0010127883113689,-0.0010127898420431,0.0010127880223791,-0.0010127880082276,0.0010127898865293,-0.0010127885735408,0.00101278926666,-0.00088984915843416,0.00088985182283615,-0.0008898524353234,0.00088984823842803,0.67837952779491,128566,2924,0.0048263527454419,0.0068650781530191,0.003527446322192,25.634882686024,-3.2520938511808e-05,-3.2520938511808e-05,-3.2520938511808e-05,3665147.6009252,0.015336421374073
30019200,0.9959486350933,0.01556885097883,0.0050318553433461,0.0065527470206883,0.0039842486147959,-0.0011618296101008,0.0011618298161407,-2.008686418494e-09,2.2110658888159e-09,-9.7984950979765e-10,1.2350743987367e-09,-0.0013106147772159,0.0013106123710437,-0.0013106131461018,0.0013106140718485,-0.0013106137496039,0.0013106134759917,-0.0013106123899583,0.001310614921547,-0.001108527716076,0.001108524870352,-0.0011085241826484,0.0011085288707376,-8.2426819799588e-10,1.9605231611867e-09,-3.5546686283134e-09,4.664714162302e-09,-0.0016546390961237,0.0016546401878523,-0.0017937534512843,0.0017937501003604,-0.0017937502663014,0.0017937533760966,-0.0017937521175468,0.0017937514464069,-0.0017937492909275,0.0017937544784462,-0.0014475357682517,0.0014475297002958,-0.0014475279258637,0.0014475379169277,-0.001542736393389,0.0015427376258943,-0.0015427337770573,0.0015427403789747,-1.6781177711963e-09,1.5692494337937e-09,-0.00084755005570961,0.00084754993541,8.1358636828904e-10,-9.8797649633904e-10,-0.0010133817341332,0.0010133807901117,-0.0010133820912908,0.0010133805381145,-0.0010133804890526,0.0010133821717759,-0.0010133810831192,0.0010133815249908,-0.00089043490143576,0.00089043678861084,-0.00089043738722796,0.00089043398291994,0.68873329369656,128566,2924,0.0048291342339327,0.0068682959108872,0.0035297787009542,25.914474223607,-3.0284206211145e-05,-3.0284206211145e-05,-3.0284206211145e-05,3671213.9487403,0.01534488071727
30219200,0.99610037360746,0.015571031227629,0.0050325490429164,0.0065536828780002,0.0039847993067122,-0.0011621021160831,0.0011621023350489,-1.6922833448466e-09,1.9076970391394e-09,-1.0349821067883e-09,1.3036214820821e-09,-0.0013109188080092,0.0013109165559142,-0.0013109173588123,0.0013109180739834,-0.0013109177171593,0.0013109177205924,-0.001310916585004,0.0013109189469223,-0.0011088110802392,0.0011088089476046,-0.0011088082113577,0.0011088122925106,-8.6456160694225e-10,2.0055461538828e-09,-3.8585698564572e-09,4.9726925524794e-09,-0.0016550203047065,0.0016550214005655,-0.0017941802345618,0.0017941766437355,-0.0017941768388447,0.0017941801429454,-0.0017941788553897,0.0017941780369408,-0.0017941758545565,0.0017941812520826,-0.0014478392334685,0.0014478326647737,-0.0014478308648164,0.0014478414217156,-0.0015430889173032,0.0015430903405472,-0.0015430862780746,0.0015430931056317,-1.3700513958832e-09,1.2519060093978e-09,-0.00084774839863896,0.00084774826808162,8.8928142041598e-10,-1.0751691453684e-09,-0.0010136202684861,0.0010136195538814,-0.0010136206588994,0.0010136192674112,-0.0010136192071718,0.0010136207493965,-0.0010136198776228,0.0010136200286865,-0.00089064875927918,0.00089064991649416,-0.00089065058162772,0.00089064777281786,0.66008544547477,128566,2924,0.0048302642721927,0.0068698717965956,0.0035306051448795,25.990838544343,-2.9673291645258e-05,-2.9673291645258e-05,-2.9673291645258e-05,3672096.7963303,0.01534846754307
30419200,0.99624472023374,0.015572985178636,0.0050331689736747,0.006554530058962,0.0039852861459994,-0.0011618461289827,0.0011618463554483,-1.612968272364e-09,1.8356751264014e-09,-1.0473919617181e-09,1.3237891225039e-09,-0.0013106409098605,0.0013106387152101,-0.0013106395199548,0.0013106401703899,-0.0013106398200083,0.0013106398761027,-0.0013106387237582,0.0013106410696197,-0.0011085180268321,0.0011085160132249,-0.0011085152559687,0.0011085192502008,-8.4127773083692e-10,1.9803810581298e-09,-4.0945953066299e-09,5.206753449315e-09,-0.0016547765993481,0.0016547776932159,-0.0017940077639452,0.0017940040539056,-0.0017940042363928,0.0017940076905076,-0.0017940064153104,0.0017940054133307,-0.0017940032539569,0.0017940087969119,-0.0014475096899855,0.0014475026077065,-0.0014475008350248,0.0014475118678735,-0.0015428288975977,0.0015428304865159,-0.0015428262683868,0.0015428332350926,-1.3129536774421e-09,1.151917814076e-09,-0.00084747254884491,0.00084747237406765,1.1254290787083e-09,-1.3612257545262e-09,-0.001013289662436,0.00101328914415,-0.0010132902403817,0.0010132886690866,-0.0010132886648007,0.0010132902736739,-0.0010132894969156,0.001013289392879,-0.00089035194324519,0.00089035277276501,-0.00089035365820397,0.00089035073614666,0.62526766794647,128566,2924,0.0048292027434951,0.0068688653221385,0.0035294573453372,25.786848546758,-3.1305211625937e-05,-3.1305211625937e-05,-3.1305211625937e-05,3673148.4350192,0.015345200869034
30619200,0.99638106323625,0.015574955351181,0.0050337961377329,0.0065553737806299,0.0039857854328183,-0.0011613648594404,0.0011613650731596,-1.9930228492627e-09,2.2034956811291e-09,-9.9630630298222e-10,1.2593433658658e-09,-0.0013100755657316,0.0013100732069479,-0.0013100739844657,0.0013100748449565,-0.0013100745696153,0.0013100742720509,-0.0013100731573298,0.0013100757567215,-0.001107948895493,0.0011079459330493,-0.0011079451894547,0.0011079500377681,-7.4267935871421e-10,1.8593791029506e-09,-4.0853006218114e-09,5.1756218513051e-09,-0.0016542037944319,0.0016542048668895,-0.0017935361847666,0.0017935325925221,-0.001793532715105,0.0017935361416774,-0.0017935349576933,0.0017935338157919,-0.0017935317513496,0.001793537240784,-0.0014468325533731,0.0014468252477922,-0.0014468235335681,0.0014468346175198,-0.0015422563603162,0.0015422579571154,-0.0015422537723292,0.0015422606716254,-1.7313833483187e-09,1.4746611812777e-09,-0.00084700373849467,0.00084700347308864,1.4867165829466e-09,-1.8287954163118e-09,-0.0010126633801545,0.0010126628685854,-0.0010126642886937,0.0010126620562404,-0.001012662198566,0.0010126641848243,-0.0010126632419507,0.0010126630807372,-0.00088983766472769,0.00088983902807566,-0.000889840271239,0.00088983609466916,0.66318501251193,128566,2924,0.0048272066286685,0.006866500582855,0.0035275034183209,25.453814674503,-3.3969482603974e-05,-3.3969482603974e-05,-3.3969482603974e-05,3677359.6601663,0.015338785792021
30819200,0.99651740459554,0.015577020611366,0.0050344550552255,0.0065562510143169,0.0039863145418241,-0.0011626874826267,0.0011626877007337,-1.8681143663112e-09,2.0834033824968e-09,-1.0085968203076e-09,1.2727141001049e-09,-0.0013114128813257,0.0013114105892796,-0.0013114113717735,0.0013114121618274,-0.0013114118674079,0.0013114116739444,-0.0013114105561724,0.0013114130788929,-0.0011092601961367,0.0011092575208388,-0.0011092567950961,0.00110926138467,-7.4849482905558e-10,1.87770551815e-09,-3.8433546133312e-09,4.9469593088477e-09,-0.0016556233688259,0.0016556244536924,-0.0017950155279661,0.0017950120879675,-0.0017950122107494,0.0017950155033611,-0.0017950142888037,0.00179501333383,-0.0017950112444065,0.0017950165939181,-0.001448140170335,0.0014481333798075,-0.0014481316647697,0.0014481422606402,-0.0015436538552376,0.0015436553162735,-0.0015436512859428,0.0015436580223552,-1.568400784962e-09,1.3853599626048e-09,-0.00084819362949491,0.00084819343485389,1.2192132473134e-09,-1.4735930843614e-09,-0.0010138810215078,0.0010138804382752,-0.0010138817139275,0.0010138798480657,-0.0010138799111145,0.0010138816796809,-0.0010138807618761,0.0010138807784673,-0.00089108031365939,0.00089108166766305,-0.00089108264777413,0.00089107901863624,0.69236590353105,128566,2924,0.004832690052542,0.0068723730972799,0.0035324488311378,26.087260889846,-2.8901912881233e-05,-2.8901912881233e-05,-2.8901912881233e-05,3688946.9557885,0.01535533751233
31019200,0.99665811585874,0.015579218114812,0.0050351571168803,0.0065571805476325,0.003986880450299,-0.0011651274130853,0.0011651276367495,-1.7810981755998e-09,2.0019530724647e-09,-1.0171664494783e-09,1.286975555839e-09,-0.0013139427846221,0.001313940535357,-0.0013139413208432,0.001313942064677,-0.0013139417525085,0.0013139416398865,-0.0013139405084722,0.0013139429760606,-0.0011117553082293,0.0011117528459292,-0.0011117521069642,0.0011117565092965,-7.0520508576282e-10,1.8300395537831e-09,-3.3890236215959e-09,4.4888124486845e-09,-0.0016582574825635,0.0016582585634989,-0.0017976799295639,0.0017976768041236,-0.0017976768944955,0.0017976799249752,-0.0017976787083095,0.001797678031293,-0.0017976759707025,0.0017976809736192,-0.0014506553683994,0.0014506494736834,-0.0014506477813165,0.0014506574131223,-0.0015462563505742,0.0015462576269729,-0.0015462539034715,0.0015462602097375,-1.4476381620081e-09,1.3284588070372e-09,-0.00085035611543796,0.00085035598592614,8.5699845569721e-10,-1.0372886928062e-09,-0.0010162114794536,0.0010162107418007,-0.0010162118958098,0.0010162104282936,-0.0010162104176535,0.0010162119363807,-0.0010162110149172,0.0010162112874633,-0.00089335131564613,0.00089335278682857,-0.00089335343894975,0.0008933503498176,0.71216092764585,128566,2924,0.0048428060590752,0.0068832661975551,0.0035414405412961,27.297075330656,-1.9223397354751e-05,-1.9223397354751e-05,-1.9223397354751e-05,3703221.4527309,0.015385802349851
31219200,0.99680360757111,0.015581605406618,0.0050359216468708,0.006558183875888,0.003987499883859,-0.0011677525713819,0.0011677527914876,-1.647619464996e-09,1.8647330065262e-09,-9.9224412965787e-10,1.2580227521508e-09,-0.0013167003257197,0.0013166981635706,-0.0013166989359926,0.0013166996209562,-0.0013166992933588,0.001316699269458,-0.0013166981591687,0.0013167004957403,-0.0011144798760291,0.0011144777162328,-0.0011144769989425,0.0011144810560273,-6.3696506286044e-10,1.7546963781125e-09,-2.9646091697543e-09,4.0577012846581e-09,-0.0016611441772052,0.001661145251559,-0.001800575032993,0.0018005722046803,-0.0018005722514738,0.0018005750635232,-0.0018005738369703,0.0018005734042031,-0.0018005713911321,0.0018005760454151,-0.0014534298384604,0.0014534247795249,-0.0014534231276827,0.0014534318167269,-0.0015491081417055,0.0015491093195926,-0.0015491058835827,0.0015491117086355,-1.2927724116939e-09,1.2040140458343e-09,-0.00085266627562723,0.00085266617729625,6.6658037539768e-10,-8.1082341388382e-10,-0.0010187594150348,0.0010187586425444,-0.0010187596733405,0.0010187584871671,-0.0010187584273214,0.0010187597616259,-0.0010187589038114,0.0010187592333137,-0.00089579049922283,0.00089579180894366,-0.00089579229537199,0.00089578970181994,0.74546454429175,128566,2924,0.0048536901386949,0.0068952018186751,0.0035510487528907,28.603138687649,-8.7748904988085e-06,-8.7748904988085e-06,-8.7748904988085e-06,3715558.0173532,0.01541873386548
31419200,0.99694773878302,0.015583854956795,0.0050366407770363,0.006559138013652,0.0039880761661071,-0.0011690441838195,0.0011690444151305,-1.6323273699973e-09,1.8597835067764e-09,-1.0561106889662e-09,1.3366435949851e-09,-0.0013181517188643,0.001318149519896,-0.0013181503302022,0.0013181509781458,-0.0013181506337283,0.0013181506790149,-0.0013181495116779,0.0013181518951999,-0.0011159013995017,0.0011158993249744,-0.0011158985545943,0.0011159026425384,-7.5202344984688e-10,1.8816655558207e-09,-3.2443428497882e-09,4.3483047464513e-09,-0.0016627308656831,0.001662731950948,-0.0018021389158249,0.0018021358198777,-0.001802135941964,0.0018021388811494,-0.0018021376363468,0.0018021371076709,-0.001802135005592,0.0018021399402549,-0.0014549661378437,0.0014549606260698,-0.0014549588960044,0.0014549682238276,-0.0015506460848625,0.0015506472444433,-0.001550643600428,0.0015506498507499,-1.2722721471155e-09,1.1985468995233e-09,-0.00085375006944304,0.00085374998502867,5.9671672733123e-10,-7.2769261869773e-10,-0.0010201109464795,0.0010201101404935,-0.0010201111467716,0.0010201100438548,-0.0010201099649656,0.0010201112555306,-0.0010201103946443,0.0010201107741248,-0.00089696998338123,0.00089697132311878,-0.00089697173387113,0.00089696925312119,0.71243068063763,128566,2924,0.0048590460690792,0.0069017576081068,0.003555563743585,29.222121247048,-3.8230300236156e-06,-3.8230300236156e-06,-3.8230300236156e-06,3712898.5970833,0.015435418746488
31619200,0.99708375610856,0.015585874516175,0.0050372850780671,0.006560001730891,0.003988587707217,-0.0011687526526388,0.0011687529398791,-1.6188710127231e-09,1.9000276213487e-09,-1.2382943424303e-09,1.5870823330183e-09,-0.0013179308968493,0.001317928588713,-0.0013179294947055,0.0013179300738047,-0.0013179296611173,0.0013179298972276,-0.0013179285426037,0.0013179311263108,-0.0011156769163245,0.0011156750167981,-0.0011156740777437,0.0011156783674312,-9.6832592936637e-10,2.1189299299098e-09,-4.1502663042721e-09,5.2726122010224e-09,-0.0016625905748846,0.0016625916794026,-0.0018020076239835,0.0018020037985173,-0.001802004059674,0.0018020074747055,-0.0018020061971804,0.0018020052476674,-0.0018020029867887,0.0018020086726263,-0.0014547890502209,0.0014547819485733,-0.0014547800657801,0.0014547913203197,-0.0015504731667255,0.0015504745381945,-0.0015504702388707,0.0015504775307323,-1.2848724592894e-09,1.1999634272815e-09,-0.00085340616837808,0.00085340607991689,5.8292454093776e-10,-7.1957524393715e-10,-0.0010198717310523,0.0010198708973906,-0.0010198719163349,0.0010198708160887,-0.0010198707329756,0.0010198720363803,-0.0010198711669636,0.0010198715504592,-0.00089664221754006,0.0008966435716057,-0.00089664395646321,0.00089664148785502,0.68058195615742,128566,2924,0.0048578381553177,0.0069011734669521,0.0035541408902265,29.011555071233,-5.5075594301353e-06,-5.5075594301353e-06,-5.5075594301353e-06,3703990.1263979,0.015432155715811
31819200,0.99721094195778,0.015587695192102,0.0050378649623156,0.0065607846371988,0.003989045592588,-0.0011681449802597,0.0011681452202674,-1.7133103894187e-09,1.9495633147782e-09,-1.085232590972e-09,1.375347538665e-09,-0.0013173233260113,0.0013173210713402,-0.0013173218895474,0.0013173225653514,-0.0013173222298715,0.0013173222306564,-0.0013173210375258,0.0013173235270152,-0.0011150769718828,0.0011150746976743,-0.0011150738956525,0.001115078224477,-7.9700480963839e-10,1.9308584624817e-09,-4.2260996100872e-09,5.3337153673626e-09,-0.0016620192229952,0.0016620203118751,-0.0018014737733826,0.0018014700629749,-0.0018014702153609,0.001801473734179,-0.001801472492168,0.001801471357392,-0.0018014692402805,0.0018014748296473,-0.0014541662167554,0.0014541587943394,-0.0014541570575541,0.0014541683565921,-0.0015498879522467,0.0015498896364568,-0.0015498853410255,0.0015498923564641,-1.4063251846813e-09,1.213156121808e-09,-0.00085278609848648,0.00085278589289582,1.2595790476659e-09,-1.5288093459956e-09,-0.0010192390807858,0.0010192386094264,-0.0010192397848077,0.0010192380053956,-0.001019238057664,0.0010192397628492,-0.0010192389662241,0.0010192388065554,-0.00089600646303652,0.00089600739909063,-0.00089600840570263,0.00089600512248513,0.65806102308784,128566,2924,0.0048553188735866,0.0068988096830614,0.0035515652816511,28.629603604128,-8.5631711669783e-06,-8.5631711669783e-06,-8.5631711669783e-06,3698043.1761833,0.0154245812572
32019200,0.9973321061956,0.015589603502587,0.0050384753951204,0.006561591597024,0.003989536510443,-0.0011681354974373,0.0011681357700621,-1.5788680218201e-09,1.8487003999956e-09,-1.2223621769962e-09,1.5413710184087e-09,-0.0013172836411593,0.0013172813826368,-0.0013172822687702,0.0013172828242018,-0.0013172824276303,0.0013172826607798,-0.0013172813553505,0.0013172838779033,-0.0011150432149663,0.0011150413736855,-0.0011150405018499,0.0011150446687058,-9.8430814529711e-10,2.1563623079646e-09,-4.7156203185656e-09,5.8609882426559e-09,-0.0016620177703472,0.0016620188960524,-0.0018015301187971,0.001801525952164,-0.0018015262251534,0.0018015300155028,-0.0018015286932819,0.0018015274153636,-0.0018015251289081,0.0018015312198907,-0.0014540857465492,0.0014540775546713,-0.0014540757075408,0.0014540881039769,-0.0015498828767054,0.0015498845799439,-0.0015498799333288,0.0015498876589606,-1.2427512817738e-09,1.1325324797305e-09,-0.0008527361291722,0.00085273599767372,1.0814325673303e-09,-1.2556758447388e-09,-0.0010191343126664,0.0010191338138909,-0.0010191348473371,0.0010191333905501,-0.0010191333510677,0.0010191349043659,-0.0010191341352036,0.0010191340895508,-0.00089595229728643,0.00089595315125874,-0.00089595394821806,0.00089595118310357,0.71766731547709,128566,2924,0.0048552793645639,0.0068988053443083,0.003551356426143,28.559347010595,-9.1252239152387e-06,-9.1252239152387e-06,-9.1252239152387e-06,3700758.0677041,0.015424323122141
32219200,0.99744890485382,0.015591486475625,0.0050390782436038,0.0065623852870392,0.0039900229449824,-0.0011684917323655,0.0011684919990609,-1.5042711855699e-09,1.768305866432e-09,-1.184830836893e-09,1.5004329725673e-09,-0.0013177077468072,0.0013177055426327,-0.0013177064104527,0.0013177069412738,-0.0013177065423948,0.0013177068081604,-0.0013177055187351,0.001317707947189,-0.0011154580447113,0.0011154563541098,-0.0011154554608654,0.0011154594175215,-1.0170693060544e-09,2.1746476748298e-09,-4.6747953519756e-09,5.8040496147977e-09,-0.0016625307521886,0.0016625318626205,-0.0018020413905505,0.0018020372103697,-0.0018020375033326,0.0018020412284941,-0.0018020399276794,0.00180203869569,-0.0018020364097195,0.0018020424472347,-0.001454569164891,0.001454561116788,-0.0014545592109638,0.0014545714909569,-0.0015503662211002,0.0015503678730839,-0.0015503632574417,0.0015503709628142,-1.1702623365573e-09,1.0398855690134e-09,-0.00085300949554865,0.00085300935132434,1.001775101223e-09,-1.1995701016765e-09,-0.0010195228155662,0.0010195223099458,-0.0010195232895785,0.0010195219375059,-0.0010195218972445,0.0010195233605041,-0.0010195226419999,0.0010195225699637,-0.00089626555589323,0.00089626625630984,-0.00089626700708429,0.00089626447337179,0.73341165180635,128566,2924,0.0048567571318416,0.0069009237606263,0.0035524976654386,28.694113834845,-8.0470893212416e-06,-8.0470893212416e-06,-8.0470893212416e-06,3696735.1901603,0.015429135596797
32419200,0.99756236800963,0.015593363779362,0.0050396798581565,0.0065631737206042,0.0039905102006016,-0.0011691023773504,0.0011691026069662,-1.5175273646358e-09,1.7445520283036e-09,-1.0786183301011e-09,1.3552690820481e-09,-0.0013184141092544,0.0013184119628939,-0.0013184127826012,0.0013184133481928,-0.0013184129949508,0.0013184131367861,-0.0013184119661551,0.0013184142791685,-0.0011161561434356,0.0011161543131615,-0.0011161535353175,0.0011161573852793,-9.3791679610922e-10,2.087497180747e-09,-4.3045285457253e-09,5.4267353387252e-09,-0.0016633515317992,0.0016633526349797,-0.0018028455935966,0.0018028417287831,-0.001802841966139,0.0018028454759817,-0.0018028441957011,0.0018028431467397,-0.0018028409202427,0.0018028466450638,-0.0014553644083089,0.001455357018911,-0.0014553551680464,0.0014553666600875,-0.0015511543919792,0.0015511559302543,-0.0015511515723816,0.0015511588727057,-1.1656049014932e-09,1.0247800601593e-09,-0.00085351687612541,0.00085351672311176,1.0289783809756e-09,-1.234534167926e-09,-0.0010201921854042,0.0010201917080572,-0.0010201926897761,0.0010201913044633,-0.0010201912805585,0.0010201927436835,-0.0010201920403202,0.0010201919378901,-0.00089683210499492,0.00089683277521479,-0.00089683356122155,0.00089683098908569,0.75109667281944,128566,2924,0.0048592897685935,0.0069043139263553,0.0035546132654431,28.971779847931,-5.825761216554e-06,-5.825761216554e-06,-5.825761216554e-06,3693181.5610637,0.015437300849567
32619200,0.99767547059199,0.015595087139511,0.0050402301517574,0.0065639073079846,0.003990949679769,-0.0011705936870747,0.0011705938750454,-1.3692161145787e-09,1.5553189212661e-09,-8.9547534169593e-10,1.1231775450499e-09,-0.0013200453147094,0.001320043391848,-0.0013200441116087,0.001320044650574,-0.0013200443502415,0.0013200444161618,-0.001320043421042,0.0013200454525691,-0.0011177784398631,0.0011177767304298,-0.0011177761227243,0.0011177794972963,-7.078862097975e-10,1.8336303878503e-09,-3.5307320842643e-09,4.6312754308323e-09,-0.0016651243326719,0.0016651254140095,-0.0018045857105477,0.0018045825066324,-0.0018045825959611,0.0018045857182814,-0.001804584477447,0.0018045837504083,-0.0018045816960031,0.0018045867380041,-0.0014570949433763,0.0014570888713734,-0.0014570871864285,0.0014570969917455,-0.0015528907291452,0.0015528921629492,-0.0015528883555636,0.0015528946713599,-1.0059956851768e-09,8.3762869198994e-10,-0.00085480606045717,0.00085480588044991,1.1256455160963e-09,-1.3581562639955e-09,-0.0010217270470439,0.0010217267454046,-0.0010217276373835,0.001021726256802,-0.001021726270389,0.0010217276506201,-0.0010217270912526,0.0010217267806626,-0.00089821984992434,0.00089822010478766,-0.00089822101112712,0.00089821863350541,0.69654115754579,128566,2924,0.0048654734376838,0.0069116398308516,0.003559980630142,29.721444539179,1.715563134316e-07,1.715563134316e-07,1.715563134316e-07,3694195.5436128,0.015456473604459
32819200,0.99777825593151,0.015596525193459,0.0050406875753414,0.0065645286011168,0.0039913090170006,-0.0011690695893677,0.0011690698229779,-2.5936968512681e-09,2.8217103278649e-09,-1.0981739694122e-09,1.3942760235304e-09,-0.0013185271501983,0.0013185243012483,-0.001318525146228,0.0013185263586131,-0.0013185260542489,0.0013185254546687,-0.001318524243551,0.0013185273414951,-0.0011162751188092,0.0011162710774699,-0.0011162701877146,0.001116276298098,-8.2010920281504e-10,1.9234618030916e-09,-4.0518203240233e-09,5.1248716236309e-09,-0.0016636111196961,0.0016636121777465,-0.0018030925867786,0.0018030889519464,-0.0018030891389525,0.001803092471584,-0.0018030912880964,0.0018030902287805,-0.0018030881304833,0.0018030936091317,-0.0014555739559054,0.0014555668350593,-0.0014555650193904,0.0014555760196278,-0.0015513659372029,0.0015513674122642,-0.0015513632140241,0.0015513701827138,-2.2778274540231e-09,2.0481852586523e-09,-0.00085333971567795,0.0008533394821021,1.1762102995827e-09,-1.4991754573227e-09,-0.0010202471177337,0.0010202460436244,-0.0010202477976548,0.0010202454492542,-0.0010202455384839,0.0010202477475143,-0.0010202463819886,0.0010202468370916,-0.00089670092026518,0.00089670358772741,-0.00089670459230094,0.00089669956964142,0.64446385493584,128566,2924,0.0048591551685975,0.0069053793783601,0.0035538892273342,28.866200926218,-6.6703925902545e-06,-6.6703925902545e-06,-6.6703925902545e-06,3679830.9561684,0.015437514271569
33019200,0.99787480317047,0.015597994667213,0.0050411569111155,0.0065651532289845,0.0039916845271129,-0.0011685895341044,0.0011685897624732,-2.8046411730307e-09,3.0305158193042e-09,-1.1146835029783e-09,1.3856813743852e-09,-0.0013179698602791,0.0013179669037738,-0.0013179677518039,0.0013179690744625,-0.0013179687760801,0.001317968040848,-0.0013179668583347,0.0013179700977768,-0.0011157424230809,0.0011157379434356,-0.0011157371503529,0.0011157437170625,-8.0999336837625e-10,1.9500038423682e-09,-4.0505490970349e-09,5.1631439083801e-09,-0.0016630565739161,0.0016630576672802,-0.0018026047231106,0.0018026011188228,-0.0018026012965822,0.0018026046781305,-0.0018026034503423,0.0018026023939059,-0.0018026002606459,0.0018026058223175,-0.0014549457770741,0.0014549386127482,-0.0014549368310059,0.0014549479220275,-0.0015508240069614,0.0015508254683284,-0.0015508213014059,0.0015508283665777,-2.449335167525e-09,2.2869934443457e-09,-0.0008528709655756,0.00085287078911563,1.2298781430081e-09,-1.4586427280275e-09,-0.0010196443706256,0.0010196432284605,-0.0010196450627417,0.001019642632777,-0.0010196426893211,0.0010196450234604,-0.001019643523062,0.0010196441506355,-0.0008961973467127,0.00089620049577829,-0.00089620147181212,0.00089619605838487,0.69524391537313,128566,2924,0.0048571642515627,0.0069030891920992,0.0035519372020703,28.558410289894,-9.1327176808447e-06,-9.1327176808447e-06,-9.1327176808447e-06,3682488.6353519,0.015431181768062
33219200,0.99796804392341,0.015599489423523,0.0050416353528767,0.0065657833705328,0.0039920707001133,-0.0011689879792487,0.0011689881752765,-3.3717451101962e-09,3.5657087871546e-09,-9.9361906365826e-10,1.2301328015226e-09,-0.0013183908683723,0.001318387621964,-0.0013183884114188,0.0013183901414718,-0.0013183899109958,0.0013183886395797,-0.001318387573049,0.0013183911024984,-0.0011161632056008,0.001116157422206,-0.0011161567376996,0.0011161643616771,-7.5617290190749e-10,1.8880831472382e-09,-3.6298355768971e-09,4.7352653280711e-09,-0.0016635433488901,0.001663544435558,-0.0018031085690387,0.0018031053108726,-0.0018031054485943,0.0018031085484986,-0.0018031073662698,0.0018031065163692,-0.0018031044175,0.0018031096857461,-0.0014553871450179,0.0014553806741554,-0.0014553789154249,0.001455389220125,-0.0015512963464373,0.0015512975320175,-0.0015512936441423,0.0015513003919079,-3.0050364906079e-09,2.8262764224633e-09,-0.00085320607225239,0.00085320588202316,1.2542584472066e-09,-1.4992095808997e-09,-0.001020020599412,0.0010200191260732,-0.0010200213490139,0.0010200184750201,-0.0010200185751864,0.0010200212645047,-0.0010200194005553,0.0010200203998953,-0.00089655791244019,0.00089656219465334,-0.00089656320568453,0.00089655659144803,0.72923014142642,128566,2924,0.0048588163834405,0.0069051015644438,0.0035533317069879,28.72631195111,-7.7895043911177e-06,-7.7895043911177e-06,-7.7895043911177e-06,3683902.5271629,0.015436319286181
33419200,0.99805949844582,0.015600984971116,0.005042114387804,0.0065664122331416,0.0039924583501701,-0.0011699017095643,0.0011699019377787,-8.1566336690433e-10,1.0422175345866e-09,-1.0868201149926e-09,1.3574220419825e-09,-0.0013193906846953,0.0013193889929323,-0.0013193898185027,0.0013193899270894,-0.0013193895612027,0.0013193901873736,-0.0013193890088372,0.0013193908406482,-0.0011171504650101,0.0011171500691672,-0.0011171492882678,0.0011171517332712,-9.5212368868664e-10,2.1042581166531e-09,-3.8583966414546e-09,4.9863717297076e-09,-0.0016646541529507,0.0016646552609227,-0.0018042069090384,0.0018042032800089,-0.0018042035122893,0.001804206767067,-0.0018042054762629,0.001804204725531,-0.0018042024763511,0.0018042079481962,-0.001456469713422,0.0014564632232628,-0.0014564613637188,0.0014564719876175,-0.0015523775563927,0.0015523787892784,-0.0015523747674006,0.0015523817890529,-3.9330375090656e-10,3.4230750255465e-10,-0.00085400785530769,0.00085400779348366,5.6912377063006e-10,-6.6455837482834e-10,-0.001020974478268,0.0010209742272915,-0.0010209746262957,0.0010209741872522,-0.0010209740688845,0.0010209747801208,-0.0010209744907465,0.0010209743051725,-0.00089742316625092,0.00089742278058012,-0.00089742313555901,0.00089742249091783,0.74278857699733,128566,2924,0.0048626055355908,0.0069096921096508,0.0035566698441398,29.176605032035,-4.1871597437211e-06,-4.1871597437211e-06,-4.1871597437211e-06,3684636.0748315,0.015448220688437
33619200,0.99814810475446,0.015602434225978,0.0050425785362908,0.0065670220069635,0.0039928336827233,-0.0011704375476498,0.0011704377443463,-2.2642192551707e-09,2.4581634651185e-09,-9.7873608254003e-10,1.2215852284686e-09,-0.0013200264196323,0.0013200238660635,-0.0013200246479126,0.0013200257013671,-0.0013200254237125,0.0013200249171982,-0.0013200238698692,0.0013200266165761,-0.0011177818407683,0.0011177783374498,-0.001117777687507,0.0011177830032461,-8.6771059456637e-10,2.0205000875798e-09,-3.4709712846804e-09,4.5950259047598e-09,-0.0016653976301252,0.0016653987351146,-0.0018049254840338,0.0018049222332068,-0.0018049224362073,0.0018049254139853,-0.0018049241674076,0.0018049235633522,-0.0018049213686248,0.001804926583482,-0.0014572019409068,0.0014571960049808,-0.0014571942045003,0.0014572041587545,-0.0015530907197984,0.0015530917234165,-0.0015530878934999,0.0015530946543416,-1.8305237457561e-09,1.7637380733278e-09,-0.000854453552758,0.0008544534681265,7.5185813416186e-10,-8.7775929103504e-10,-0.0010215881762663,0.0010215871150066,-0.0010215885089358,0.0010215868836771,-0.0010215868372647,0.0010215885674672,-0.0010215873383617,0.0010215880342034,-0.00089792086617832,0.00089792332453817,-0.00089792385133609,0.0008979200240376,0.74303226751374,128566,2924,0.00486482808283,0.0069127622410154,0.0035585291434488,29.431307191925,-2.1495424646034e-06,-2.1495424646034e-06,-2.1495424646034e-06,3680870.0824192,0.015455486059117
33819200,0.99823431971997,0.015603848894511,0.0050430316264609,0.0065676170875943,0.0039932001804559,-0.0011711325801391,0.0011711327972604,-6.4877710792969e-10,8.6273108373756e-10,-1.0582765731345e-09,1.319700416764e-09,-0.0013208203476131,0.0013208187895401,-0.0013208196068957,0.0013208195971885,-0.0013208192465742,0.0013208199579957,-0.0013208188114672,0.001320820494871,-0.0011185773004323,0.0011185771897872,-0.0011185764321029,0.0011185785151857,-9.5392124500782e-10,2.1024040374704e-09,-3.6737040285695e-09,4.7950867226274e-09,-0.0016663075771543,0.0016663086792974,-0.001805810496697,0.0018058069967633,-0.0018058072374854,0.0018058103474924,-0.001805809068707,0.0018058084373865,-0.0018058061915869,0.0018058115275955,-0.0014580903380101,0.0014580842105694,-0.0014580823376248,0.001458092594532,-0.0015539742024254,0.0015539753097031,-0.0015539713897166,0.0015539782976484,-2.0804223655174e-10,1.6597457024476e-10,-0.00085504230364619,0.00085504225106098,4.5576850440857e-10,-5.4619484746149e-10,-0.0010223467714501,0.0010223465749657,-0.0010223468463751,0.001022346603298,-0.0010223464759353,0.0010223470070364,-0.0010223468179881,0.0010223466125004,-0.0008985722096656,0.00089857159324437,-0.00089857186337905,0.0008985716164639,0.74517939773314,128566,2924,0.0048677105668288,0.0069165206808378,0.003560983437005,29.775082005942,6.0065604753976e-07,6.0065604753976e-07,6.0065604753976e-07,3678773.3330488,0.015464724658377
34019200,0.99831852324705,0.015605188311283,0.0050434600261255,0.0065681834351585,0.0039935448499987,-0.001171985751199,0.0011719859700917,-5.9154115028714e-10,8.086668169016e-10,-1.0448147123704e-09,1.3074094540092e-09,-0.0013217769511545,0.0013217754290017,-0.0013217762289294,0.001321776209328,-0.0013217758673383,0.0013217765820606,-0.0013217754198312,0.0013217770832435,-0.0011195396095559,0.0011195395362211,-0.0011195387381999,0.0011195407592377,-9.2031616556111e-10,2.0403646162027e-09,-3.6002376138004e-09,4.6946676315382e-09,-0.0016673798730447,0.001667380949751,-0.0018068569779311,0.0018068535741641,-0.0018068537795858,0.0018068568071309,-0.0018068555893653,0.0018068549665062,-0.0018068527773511,0.0018068579705689,-0.0014591347435908,0.0014591287244699,-0.0014591268548298,0.0014591368996783,-0.0015550219432965,0.001555023038398,-0.0015550191869599,0.0015550259257527,-1.7691607690514e-10,7.9362524534867e-11,-0.00085576528546709,0.00085576518845979,4.7068441100257e-10,-6.2177023253002e-10,-0.0010232492467376,0.0010232490860124,-0.0010232493671569,0.0010232490638283,-0.0010232489878495,0.0010232494986351,-0.0010232493554816,0.001023249054058,-0.000899360611144,0.00089935986528086,-0.00089936020004052,0.00089935994657657,0.72426717999069,128566,2924,0.0048712484957594,0.0069209503250871,0.0035639957554645,30.203855644163,4.0308451533043e-06,4.0308451533043e-06,4.0308451533043e-06,3677938.1064183,0.015475877245675
34219200,0.99839928348912,0.01560643751444,0.0050438590990884,0.0065687140898883,0.0039938643254631,-0.0011722644123134,0.0011722646145113,-2.85746434858e-09,3.0573557704937e-09,-9.7520297930295e-10,1.2246196503574e-09,-0.0013221185237788,0.0013221155718057,-0.0013221163411233,0.0013221178095424,-0.0013221175358278,0.0013221166176724,-0.0013221155475661,0.0013221187122974,-0.0011198920042783,0.0011198873037994,-0.0011198866215276,0.0011198931367964,-8.1637371216701e-10,1.9475937242898e-09,-3.4924555038817e-09,4.5984879875838e-09,-0.0016678107407181,0.0016678118278059,-0.0018072836485588,0.0018072804311843,-0.0018072805925307,0.0018072835832952,-0.0018072823800733,0.0018072817134152,-0.0018072795754075,0.0018072847204149,-0.0014595341568694,0.0014595281283665,-0.0014595263569608,0.0014595362945403,-0.0015554366706144,0.0015554377579126,-0.0015554339408122,0.0015554405775165,-2.4529459932168e-09,2.3243089839036e-09,-0.00085597375511482,0.00085597361839654,8.5391865992992e-10,-1.0451653561382e-09,-0.0010235603307733,0.0010235589191945,-0.0010235607650052,0.0010235585850764,-0.0010235585972447,0.0010235607827751,-0.0010235591823161,0.0010235601459516,-0.00089959862954606,0.00089960213633893,-0.00089960279632402,0.0008995976448358,0.70594539691794,128566,2924,0.0048724042296122,0.0069227288855628,0.0035648672830914,30.330242049469,5.0419363957488e-06,5.0419363957488e-06,5.0419363957488e-06,3676332.586479,0.0154797432168
34419200,0.99847760588023,0.015607654316509,0.0050442478894042,0.0065692304786294,0.0039941759484758,-0.0011729415497717,0.0011729417649035,-2.092414524713e-09,2.3052444186465e-09,-1.0314387570352e-09,1.2896293114745e-09,-0.0013228317275636,0.0013228292668949,-0.0013228300678864,0.0013228309913349,-0.0013228306867609,0.0013228303690838,-0.0013228292540939,0.0013228319280136,-0.0011206162889874,0.0011206132090317,-0.0011206124931608,0.0011206175081406,-8.2591046029648e-10,1.9690789011677e-09,-3.6624727463246e-09,4.7792087022783e-09,-0.0016686048133039,0.00166860591088,-0.0018080916591885,0.001808088291996,-0.0018080884689098,0.0018080916084575,-0.0018080903640063,0.0018080896069164,-0.0018080874467406,0.0018080927376432,-0.0014602696029129,0.0014602632789477,-0.0014602614946876,0.0014602717645826,-0.0015562225443715,0.0015562237659858,-0.0015562198538161,0.001556226619059,-1.6712855363116e-09,1.5698205928034e-09,-0.00085654994967516,0.00085654983451862,8.5302217834623e-10,-1.0119362854235e-09,-0.0010242014313089,0.0010242005388977,-0.0010242018353915,0.0010242002383092,-0.0010242002154379,0.0010242018785032,-0.0010242008001967,0.0010242012524411,-0.00090021247900413,0.00090021443605097,-0.00090021506956494,0.00090021153287382,0.70868168019711,128566,2924,0.0048752116081243,0.0069260113633851,0.0035672649501766,30.662535945916,7.7002875673252e-06,7.7002875673252e-06,7.7002875673252e-06,3680684.8757204,0.015488362666055
34619200,0.99855819866704,0.015608959476532,0.0050446656760766,0.0065697807297006,0.0039945130707546,-0.0011757000217243,0.0011757002381605,-1.4099512012822e-09,1.6253397143999e-09,-9.9877161048678e-10,1.2525308866882e-09,-0.0013256715777587,0.0013256695862144,-0.0013256703594605,0.0013256708657438,-0.0013256705565179,0.001325670671885,-0.0013256695647535,0.0013256717631629,-0.00112345869915,0.0011234569413797,-0.0011234562123353,0.0011234598690722,-6.7226656724725e-10,1.7885326583785e-09,-3.1766218251485e-09,4.2685605226414e-09,-0.0016715645919952,0.0016715656648056,-0.0018110624979853,0.0018110595461959,-0.0018110596133592,0.0018110625071474,-0.0018110613008394,0.001811060745825,-0.0018110587180506,0.0018110635276719,-0.0014631112837309,0.0014631058167095,-0.0014631041178878,0.0014631132670969,-0.0015591737280183,0.0015591749326649,-0.0015591713784122,0.0015591774436848,-9.8771548414091e-10,8.7451965035632e-10,-0.00085900550885631,0.00085900538820976,7.6334073878794e-10,-9.2572449836139e-10,-0.001026822306024,0.001026821808951,-0.0010268226496639,0.0010268215663327,-0.0010268215441837,0.0010268227010141,-0.0010268220750215,0.0010268221166146,-0.00090278752609569,0.00090278817894279,-0.00090278876466687,0.00090278663251498,0.73613945896519,128566,2924,0.0048866472538243,0.0069382502969304,0.0035774745102287,32.086252887616,1.9090023100929e-05,1.9090023100929e-05,1.9090023100929e-05,3700222.774438,0.015522774554352
34819200,0.99864098003956,0.015610311490674,0.0050450987314608,0.0065703507508897,0.0039948620083236,-0.0011785738513025,0.0011785740340227,4.630021941449e-10,-2.8288321705284e-10,-8.0853188434711e-10,1.0304993387761e-09,-0.0013286879269403,0.0013286873005684,-0.0013286879665885,0.0013286873155761,-0.0013286870385505,0.0013286882557992,-0.0013286873146846,0.0013286880667178,-0.00112646258806,0.0011264643645623,-0.0011264638060866,0.0011264635735665,-3.6967346772932e-10,1.459742384578e-09,-2.4004263282705e-09,3.4689778846951e-09,-0.001674724278812,0.0016747253274022,-0.0018142091045479,0.0018142068384465,-0.0018142067130991,0.0018142092834456,-0.0018142081014151,0.0018142078321019,-0.0018142060273076,0.0018142100886654,-0.0014661675131142,0.0014661633605623,-0.0014661619204478,0.0014661692811205,-0.0015623102493696,0.001562311543638,-0.0015623085346802,0.0015623134174449,8.7068220556878e-10,-1.0607463758537e-09,-0.00086154238406774,0.00086154218516735,1.115597482498e-09,-1.3681032627925e-09,-0.0010296222865427,0.0010296232408949,-0.0010296228887661,0.0010296227407538,-0.0010296227893746,0.0010296228670258,-0.0010296235902306,0.0010296220107034,-0.00090546517992217,0.00090546176929722,-0.00090546270382598,0.00090546394483142,0.74236297215614,128566,2924,0.0048985612849223,0.006951312868016,0.0035880260587827,33.574836175021,3.0998689400169e-05,3.0998689400169e-05,3.0998689400169e-05,3715966.222618,0.015558859088199
35019200,0.99872336917363,0.015611614829375,0.0050455157695248,0.006570903684715,0.0039951953751356,-0.0011805234535601,0.0011805237134439,-2.4456084730899e-09,2.7009682528587e-09,-1.1606075175054e-09,1.475571058317e-09,-0.0013307808874624,0.0013307780737517,-0.0013307789429908,0.0013307800945697,-0.0013307797478445,0.0013307792904036,-0.0013307780152399,0.0013307811186736,-0.0011285484793629,0.0011285447878339,-0.0011285439081809,0.0011285498418414,-7.7175157022516e-10,1.9025337113717e-09,-3.4060931523687e-09,4.5113573881285e-09,-0.0016769506747075,0.001676951761218,-0.0018164180418612,0.0018164148165064,-0.0018164149649571,0.001816417992134,-0.0018164167682749,0.0018164161027187,-0.0018164139782299,0.001816419096538,-0.0014683160213913,0.0014683101348271,-0.0014683084120092,0.0014683181586529,-0.0015645114439534,0.0015645126072472,-0.0015645088060541,0.0015645152911106,-2.0063549405371e-09,1.9720613690117e-09,-0.00086323057958717,0.00086323053514398,3.7378218241678e-10,-4.6208382318212e-10,-0.0010315600786608,0.0010315586342925,-0.0010315601346939,0.0010315586866599,-0.0010315585931985,0.0010315602594105,-0.0010315588263137,0.0010315599694744,-0.00090726194711184,0.00090726510253805,-0.00090726530660742,0.00090726142838595,0.72136733933707,128566,2924,0.0049066440744332,0.0069605146195602,0.0035950521761087,34.583911451274,3.9071291610196e-05,3.9071291610196e-05,3.9071291610196e-05,3723456.8996836,0.015583552182655
35219200,0.9988039765725,0.01561285260763,0.0050459114130981,0.0065714315809609,0.0039955096135707,-0.001182003552419,0.001182003833161,-4.106085596433e-09,4.3830281778227e-09,-1.2843340381936e-09,1.6192683071118e-09,-0.0013323582592189,0.0013323542932032,-0.0013323552262605,0.0013323573955734,-0.001332357026892,0.0013323555902346,-0.0013323542142202,0.0013323585181057,-0.0011301283054579,0.0011301214701609,-0.0011301204950253,0.0011301297735169,-9.9739124961726e-10,2.1508528682742e-09,-4.0913767797772e-09,5.2173266317821e-09,-0.0016786396835995,0.0016786407905089,-0.0018181101391173,0.0018181063770425,-0.0018181066624812,0.001818109978248,-0.0018181087309936,0.001818107812949,-0.0018181055287196,0.0018181112277651,-0.0014699173551387,0.0014699103043317,-0.0014699083958745,0.001469919654696,-0.0015661846573445,0.0015661858326277,-0.0015661815940296,0.0015661890143567,-3.6490173925179e-09,3.6607131610456e-09,-0.00086449531208654,0.00086449531303687,1.9666434465691e-10,-2.327202174946e-10,-0.0010329963345744,0.001032993715392,-0.0010329962632457,0.0010329938892727,-0.0010329937544894,0.0010329964306631,-0.0010329938617902,0.0010329962737418,-0.00090861094206311,0.00090861749027543,-0.00090861750465838,0.00090861058997894,0.70214463077515,128566,2924,0.0049127799551932,0.0069674955359958,0.0036003157464192,35.345186228785,4.5161489830281e-05,4.5161489830281e-05,4.5161489830281e-05,3730543.8821512,0.015602221443123
35419200,0.99888187667444,0.015614010320184,0.0050462809903939,0.0065719281432623,0.0039958011865276,-0.0011831563480129,0.0011831566580819,-7.162452213472e-09,7.4689138482646e-09,-1.4526232867528e-09,1.8220918976374e-09,-0.001333568653571,0.0013335625817853,-0.0013335636076614,0.0013335676976379,-0.0013335673000516,0.0013335639927052,-0.001333562477693,0.0013335689510207,-0.0011313454115478,0.0011313327006952,-0.0011313315910716,0.0011313470239451,-1.2932682078381e-09,2.4735087451822e-09,-5.0159794919755e-09,6.1659572769436e-09,-0.0016799360898343,0.0016799372221762,-0.0018194293905637,0.0018194248873632,-0.0018194253495038,0.0018194290746929,-0.0018194277937573,0.0018194265148998,-0.0018194240254642,0.001819430527481,-0.0014711188365452,0.0014711101933223,-0.0014711080624826,0.0014711213658953,-0.0015674724448158,0.0015674736424642,-0.0015674687853974,0.0015674774477583,-6.6727697974557e-09,6.7549552634865e-09,-0.00086546690115104,0.00086546697145509,-1.1860682231946e-10,1.5647104580574e-10,-0.0010340716772276,0.0010340668929351,-0.0010340713839735,0.001034067285817,-0.0010340670850899,0.0010340716186511,-0.0010340669686248,0.0010340716931314,-0.00090964032349448,0.00090965314558294,-0.00090965285416985,0.00090964025997051,0.6816253050127,128566,2924,0.0049175586535559,0.0069728546230428,0.0036043584401805,35.930250945178,4.9842007561426e-05,4.9842007561426e-05,4.9842007561426e-05,3738016.0001712,0.015616624266592
35619200,0.99895787117174,0.015615095273155,0.005046626759518,0.0065723967181434,0.0039960717954932,-0.001184744986434,0.0011847452065508,-2.205300548946e-09,2.4230229298439e-09,-1.0508141675525e-09,1.3161495112418e-09,-0.0013351867640226,0.001335184264841,-0.0013351850662423,0.0013351860106105,-0.001335185699234,0.0013351853795451,-0.0013351842502307,0.0013351869639894,-0.001132963562498,0.001132960319247,-0.0011329595751145,0.0011329647540059,-9.0630971538972e-10,2.0556150721941e-09,-4.1099800707536e-09,5.2334527036711e-09,-0.0016816280633079,0.0016816291678756,-0.0018211634772744,0.0018211598632811,-0.0018211600611535,0.0018211633985463,-0.0018211621413832,0.0018211612148104,-0.0018211590176108,0.0018211645652583,-0.0014726846614653,0.0014726775779279,-0.0014726757072191,0.0014726868399702,-0.0015691643143332,0.0015691656738797,-0.0015691615242268,0.001569168686876,-1.7454035509358e-09,1.628238171714e-09,-0.00086683540981198,0.00086683527758778,9.6732108441663e-10,-1.1451446997138e-09,-0.0010355053580797,0.0010355045345432,-0.0010355058514963,0.0010355041392611,-0.0010355041278768,0.0010355058863832,-0.0010355048178176,0.0010355051635304,-0.00091108030245401,0.00091108218263332,-0.00091108290322234,0.00091107923616813,0.6573011950568,128566,2924,0.0049241434207226,0.0069798513734579,0.0036100477405651,36.738506899682,5.6308055197454e-05,5.6308055197454e-05,5.6308055197454e-05,3751622.7455443,0.015636196553043
35819200,0.99903244014917,0.015616229272078,0.0050469893161798,0.0065728811778866,0.0039963587780118,-0.001186690525933,0.0011866906977824,1.2554482651783e-09,-1.0857984139534e-09,-8.2784613223289e-10,1.038586856355e-09,-0.0013371362276152,0.0013371360787815,-0.0013371367641894,0.0013371355853017,-0.0013371353198471,0.0013371370411395,-0.0013371361035566,0.0013371363599867,-0.0011349097460826,0.0011349130949083,-0.0011349125277187,0.0011349107239218,-6.4973110304315e-10,1.771854532825e-09,-3.4479234659519e-09,4.5460237962112e-09,-0.0016836329372177,0.0016836340141516,-0.001823234053706,0.0018232309563295,-0.0018232310075375,0.0018232340877032,-0.0018232328686796,0.0018232321438615,-0.0018232301337344,0.0018232350844258,-0.0014745321679952,0.0014745261941734,-0.0014745244944773,0.0014745341331431,-0.001571178651306,0.0015711801054147,-0.0015711763262987,0.0015711824980706,1.6697378029191e-09,-1.9237023449354e-09,-0.00086852801223128,0.00086852774485374,1.5626133748517e-09,-1.8933224163026e-09,-0.0010372243214693,0.0010372260550192,-0.0010372252381655,0.0010372252353219,-0.0010372253506772,0.0010372251503605,-0.0010372264697868,0.0010372239836197,-0.00091284518570857,0.00091283975396924,-0.00091284104798265,0.00091284356481455,0.69619442414058,128566,2924,0.00493220723643,0.0069881440623958,0.0036170816665686,37.724291079782,6.4194328638256e-05,6.4194328638256e-05,6.4194328638256e-05,3771054.2178644,0.015659952561257
36019200,0.99910265205903,0.015617362937739,0.0050473527920886,0.0065733612502124,0.0039966488954375,-0.0011872626861578,0.0011872628750003,1.4707618226182e-10,3.8390654781922e-11,-9.3725669957803e-10,1.1731524461745e-09,-0.0013377515985773,0.0013377506376322,-0.0013377513929627,0.0013377508983847,-0.0013377506176961,0.0013377516808375,-0.0013377506498738,0.0013377517529801,-0.0011355188096057,0.0011355200121144,-0.0011355193778937,0.0011355199037099,-8.2277482138222e-10,1.9589127051497e-09,-3.9721811635332e-09,5.082518446962e-09,-0.0016843018251752,0.0016843029163143,-0.0018239294217131,0.0018239258415065,-0.0018239260116215,0.0018239293579195,-0.0018239281172169,0.001823927154769,-0.0018239250114111,0.0018239304826367,-0.0014751273943247,0.0014751204866532,-0.001475118728567,0.0014751295751868,-0.0015718343177952,0.0015718357693443,-0.0015718315979507,0.0015718385154933,5.4687925791995e-10,-7.8121789421148e-10,-0.00086896823204121,0.0008689679836963,1.4132443147092e-09,-1.7301473571951e-09,-0.0010377395837624,0.0010377404891041,-0.0010377404027906,0.0010377397729745,-0.0010377398697407,0.0010377403345316,-0.0010377408830454,0.0010377392713997,-0.00091332110853186,0.00091331809931205,-0.00091331925872356,0.00091331961851412,0.73586529984899,128566,2924,0.0049345790233719,0.0069909084918859,0.0036189149857645,37.994409328307,6.6355274626453e-05,6.6355274626453e-05,6.6355274626453e-05,3773010.8917891,0.015667032139623
36219200,0.9991673443208,0.01561837274713,0.0050476761041988,0.0065737913764972,0.0039969052664345,-0.0011870580740207,0.0011870582274391,-2.7231453510435e-09,2.8730606979087e-09,-8.3101197125214e-10,1.0300999198016e-09,-0.0013376244953462,0.0013376216995878,-0.0013376224041839,0.0013376238416908,-0.0013376236087334,0.0013376226483926,-0.0013376217337173,0.0013376246213692,-0.0011353959689291,0.0011353914648763,-0.0011353909414208,0.0011353969330025,-7.0630880151565e-10,1.8272537102417e-09,-4.0190282618571e-09,5.115581471027e-09,-0.001684236283506,0.0016842373614656,-0.0018238474807976,0.0018238439650234,-0.001823844066439,0.0018238474942289,-0.0018238462752332,0.0018238451868747,-0.0018238431339077,0.00182384853701,-0.0014750501110997,0.0014750429964091,-0.001475041337743,0.0014750521923051,-0.0015717420328962,0.001571743705648,-0.00157173952911,0.0015717462416158,-2.3406731185282e-09,2.0413000592111e-09,-0.00086869598649325,0.00086869567332052,1.749451353315e-09,-2.1410414350132e-09,-0.0010375969239626,0.0010375961224369,-0.0010375980041735,0.0010375951446401,-0.001037595313283,0.001037597863343,-0.0010375965666775,0.0010375965590706,-0.00091307744919357,0.00091307971861518,-0.00091308120068645,0.00091307563983105,0.71361274342597,128566,2924,0.0049337315540396,0.0069906325233771,0.0036177909595724,37.867280958223,6.5338247665783e-05,6.5338247665783e-05,6.5338247665783e-05,3762572.5349289,0.015664751656937
36419200,0.99922443052926,0.015619251501385,0.0050479572792028,0.0065741663605906,0.0039971278615911,-0.0011852910354745,0.0011852912373218,-3.8155078288255e-09,4.0132935204365e-09,-1.0063968547651e-09,1.2582861602215e-09,-0.0013358572247154,0.001335853625363,-0.0013358544191514,0.0013358564876015,-0.0013358562050067,0.0013358547091036,-0.0013358536162855,0.0013358574025132,-0.0011336560796078,0.0011336495918755,-0.0011336488942443,0.0011336572445505,-7.5419051387985e-10,1.8830234143978e-09,-4.6169911540307e-09,5.7206972529787e-09,-0.001682445604557,0.0016824466898115,-0.0018220589913645,0.0018220550295001,-0.0018220551795103,0.0018220589867254,-0.0018220577505949,0.0018220562985173,-0.0018220542023353,0.0018220600655174,-0.0014732702766535,0.001473262019469,-0.0014732603051894,0.0014732723929362,-0.0015699448240582,0.0015699468033492,-0.0015699422215032,0.0015699494570996,-3.4417803023695e-09,3.1495623768484e-09,-0.00086698889859881,0.00086698859047682,1.7924535067758e-09,-2.1819615146535e-09,-0.0010358775087865,0.00103587602183,-0.0010358786163414,0.0010358750201953,-0.0010358751836214,0.0010358784814073,-0.001035876462177,0.0010358771512747,-0.00091132402591472,0.00091132840371433,-0.00091132990057884,0.00091132220704013,0.70434247274995,128566,2924,0.0049264068911433,0.0069832245618238,0.0036107003481099,36.901325999587,5.7610607996696e-05,5.7610607996696e-05,5.7610607996696e-05,3743203.0286517,0.015642586286393
36619200,0.99927621213404,0.015620002531977,0.0050481969777889,0.0065744896577717,0.0039973158964164,-0.0011843817586773,0.0011843819727183,-1.4472674321425e-09,1.6592056618386e-09,-1.0637173458528e-09,1.320876242314e-09,-0.0013349333131487,0.0013349312628398,-0.0013349320817306,0.0013349325501132,-0.0013349322463562,0.0013349323917948,-0.0013349312463498,0.0013349334983969,-0.0011327570462528,0.0011327552588337,-0.0011327545040071,0.0011327582679252,-7.7627266105012e-10,1.9084128732967e-09,-4.5930556034806e-09,5.7006455976018e-09,-0.0016815201037199,0.001681521191446,-0.0018211435517012,0.0018211395911028,-0.0018211397461359,0.0018211435270595,-0.0018211422857386,0.0018211408753375,-0.0018211387689037,0.0018211446195631,-0.0014723323635967,0.0014723241927887,-0.0014723224401929,0.0014723344785298,-0.0015690172082153,0.0015690191499656,-0.0015690146183997,0.0015690218694222,-1.0589210728921e-09,7.8581225841333e-10,-0.00086609515329104,0.00086609486638873,1.703455167908e-09,-2.0603333894553e-09,-0.0010349602868081,0.0010349603400533,-0.0010349613180044,0.0010349594128193,-0.0010349595511758,0.0010349612082392,-0.0010349607679503,0.0010349599408467,-0.00091041319529187,0.0009104129754176,-0.00091041439258561,0.00091041146080617,0.66675554280094,128566,2924,0.0049226377629262,0.0069793960691112,0.0036069878496797,36.395560403904,5.3564483231234e-05,5.3564483231234e-05,5.3564483231234e-05,3733204.3288216,0.015631098613743
36819200,0.99932462442446,0.01562068515927,0.005048414580364,0.0065747846233734,0.0039974859555321,-0.0011844894600886,0.0011844896641652,-1.1894995378556e-09,1.3913539892837e-09,-1.0222589700744e-09,1.2712565918073e-09,-0.0013349982107013,0.0013349963454685,-0.0013349971451671,0.0013349974673258,-0.0013349971733146,0.0013349974454338,-0.0013349963400108,0.0013349983836695,-0.0011328346750833,0.0011328333680832,-0.0011328326475947,0.0011328358485696,-7.905440222463e-10,1.924408467407e-09,-4.1588283431194e-09,5.2678247385114e-09,-0.0016815953532978,0.001681596442102,-0.001821268371116,0.0018212646860211,-0.0018212648450316,0.0018212683330862,-0.0018212670957819,0.0018212659811897,-0.0018212638585968,0.001821269432802,-0.0014723365228964,0.0014723292166811,-0.0014723274562378,0.0014723386497845,-0.0015690985218807,0.0015691001525,-0.001569095884542,0.0015691028739941,-7.6368076295007e-10,5.4571877010229e-10,-0.00086616567320394,0.00086616544210387,1.388976212936e-09,-1.6832579566883e-09,-0.0010349630901871,0.0010349631238765,-0.0010349638899231,0.0010349624272312,-0.00103496251114,0.0010349638351584,-0.0010349634986933,0.0010349627966395,-0.00091047961232989,0.00091047916510379,-0.00091048030029868,0.00091047815700241,0.64958126824748,128566,2924,0.0049230836949771,0.0069797093581904,0.003607278847007,36.429634255892,5.3837074047137e-05,5.3837074047137e-05,5.3837074047137e-05,3738203.9348206,0.015632163472895
37019200,0.99937048511958,0.015621375844299,0.0050486354162393,0.0065750795939264,0.0039976608341334,-0.0011850778279778,0.0011850780132484,-1.1176375868617e-09,1.3009407435285e-09,-9.5539934850535e-10,1.1815785027643e-09,-0.001335538031007,0.001335536250173,-0.0013355370153015,0.0013355373202255,-0.0013355370424326,0.0013355372999147,-0.0013355362611258,0.0013355381812776,-0.0011333768945154,0.0011333756965998,-0.001133375031769,0.0011333779913549,-7.866073932135e-10,1.9237065270861e-09,-3.5906701738439e-09,4.7030711614632e-09,-0.0016821492692375,0.0016821503587769,-0.0018218902995591,0.0018218869796629,-0.0018218871305536,0.001821890249513,-0.0018218890219459,0.0018218882745573,-0.0018218861482982,0.0018218913475245,-0.0014727933302722,0.0014727871343632,-0.0014727853593817,0.0014727954388883,-0.0015696592775337,0.0015696605519574,-0.0015696566710403,0.0015696632806115,-6.5489909710565e-10,4.8936772592257e-10,-0.00086668988442081,0.00086668970697945,1.0727719320539e-09,-1.3021747181851e-09,-0.0010354104612387,0.0010354103600142,-0.0010354110241927,0.001035409897861,-0.0010354099311537,0.001035411021352,-0.0010354106855338,0.0010354102134808,-0.00091100867243436,0.00091100833057,-0.0009110091874269,0.00091100749493342,0.68962109318753,128566,2924,0.0049255219571895,0.0069820034090248,0.0036094538562497,36.71645349865,5.6131627989197e-05,5.6131627989197e-05,5.6131627989197e-05,3749573.9536675,0.015639176835334
37219200,0.99941501019116,0.015622093041336,0.0050488653670936,0.0065753827398774,0.0039978449343651,-0.0011865726287934,0.0011865728229923,-1.997143902382e-09,2.1902059940032e-09,-9.9027129588798e-10,1.2237539519215e-09,-0.0013370735147234,0.0013370711428752,-0.0013370719294166,0.0013370727951451,-0.0013370725091487,0.0013370722140492,-0.0013370711458529,0.0013370736879482,-0.0011348975873949,0.0011348946603885,-0.0011348939854068,0.001134898741451,-9.287000518509e-10,2.0760901691645e-09,-3.3289327407428e-09,4.4501527801226e-09,-0.001683764131368,0.0016837652327187,-0.0018235320699047,0.001823528846879,-0.0018235290814257,0.001823531941373,-0.0018235307062961,0.0018235302379657,-0.0018235279959474,0.0018235331411099,-0.0014743273954358,0.0014743218075132,-0.001474319906437,0.0014743296005326,-0.001571255773936,0.001571256575979,-0.0015712528511247,0.0015712596069981,-1.4720290268656e-09,1.4345321285456e-09,-0.00086804237983588,0.00086804233336611,3.9501061081463e-10,-4.7566703842919e-10,-0.0010368447978018,0.0010368437521263,-0.0010368448723229,0.0010368437813325,-0.001036843691312,0.0010368449909108,-0.0010368439460951,0.0010368446858129,-0.00091242612349761,0.00091242817308562,-0.00091242840334389,0.00091242557989784,0.73362850261331,128566,2924,0.00493171873619,0.006988681197063,0.0036150767244077,37.496701739377,6.2373613915018e-05,6.2373613915018e-05,6.2373613915018e-05,3761116.8520715,0.015657964989411
37419200,0.99945735609447,0.015622727116621,0.0050490679964996,0.0065756542609545,0.0039980048591671,-0.0011874257506929,0.0011874260092236,-4.5544506182298e-09,4.8098277894438e-09,-1.2965115062925e-09,1.6115189659077e-09,-0.0013380281101545,0.0013380238348921,-0.0013380248030084,0.0013380272323812,-0.0013380268881881,0.0013380251270559,-0.0013380237816104,0.0013380283718779,-0.0011358347880533,0.0011358270230351,-0.0011358260892136,0.0011358362610076,-1.3349934771009e-09,2.5203356780633e-09,-4.0510056002655e-09,5.2061476727034e-09,-0.0016848007938798,0.0016848019326407,-0.0018245507956063,0.0018245468607951,-0.0018245473598026,0.0018245504597324,-0.0018245491814424,0.0018245485381586,-0.0018245459752388,0.0018245519443345,-0.0014753423052608,0.0014753355676307,-0.0014753333332745,0.0014753448135612,-0.0015722594502777,0.001572259908667,-0.0015722555766825,0.0015722637175508,-3.9606133609695e-09,4.1205873690696e-09,-0.00086877698743136,0.00086877713857526,-5.7259911798999e-10,7.0209122461157e-10,-0.0010377548593139,0.0010377515682054,-0.0010377542332105,0.0010377523024481,-0.0010377520296288,0.0010377545362337,-0.001037751561646,0.0010377549613219,-0.00091322223555961,0.00091323031801052,-0.00091322960580939,0.00091322260769715,0.68665853338159,128566,2924,0.0049352564753004,0.0069929639463828,0.0036181367615194,37.94288974988,6.5943117999037e-05,6.5943117999037e-05,6.5943117999037e-05,3760089.0510745,0.015669019211135
37619200,0.99949658441815,0.015623293543653,0.0050492487154962,0.0065758982867119,0.0039981465414446,-0.0011874023493695,0.0011874024828175,-4.7893968342731e-10,6.0949548873463e-10,-7.5587958637911e-10,9.3200068701876e-10,-0.0013380105552751,0.0013380093387491,-0.0013380100046651,0.0013380099393428,-0.0013380097110465,0.0013380102390947,-0.001338009406662,0.0013380106530742,-0.0011358204882909,0.0011358203917223,-0.0011358199225949,0.0011358213398474,-8.0330306211345e-10,1.9366124217022e-09,-2.8993555450901e-09,4.0077051956514e-09,-0.0016848068219516,0.0016848079104959,-0.0018245817054004,0.0018245789042126,-0.0018245790406767,0.0018245816573638,-0.0018245804304676,0.0018245801979379,-0.0018245780642593,0.0018245827459693,-0.0014753026115897,0.0014752978403214,-0.0014752960170361,0.001475304673008,-0.0015722569414877,0.0015722577198302,-0.0015722543089689,0.0015722604380362,4.8759063047035e-11,-1.8324630623927e-10,-0.00086871801540575,0.0008687178699367,8.5033727942687e-10,-1.0468341939321e-09,-0.0010377040347998,0.0010377043014772,-0.0010377044458221,0.0010377039865094,-0.0010377039838453,0.0010377044758021,-0.001037704598054,0.0010377038173617,-0.00091317667466008,0.00091317512888141,-0.00091317578754716,0.00091317568110986,0.66415580929204,128566,2924,0.0049351592413693,0.0069929882700196,0.0036178923400321,37.916700861517,6.5733606892139e-05,6.5733606892139e-05,6.5733606892139e-05,3759716.2933649,0.015668696779154
37819200,0.99953189604619,0.015623783253089,0.0050494046661042,0.0065761106624889,0.0039982679244955,-0.0011863559395115,0.0011863560733432,-3.1113602719912e-10,4.4194370543178e-10,-8.1827210587091e-10,9.9640202871963e-10,-0.0013369066459215,0.0013369054600397,-0.0013369061744334,0.0013369059917033,-0.0013369057631805,0.0013369064093798,-0.0013369055289483,0.0013369067441022,-0.0011347326037059,0.0011347328548457,-0.0011347323651289,0.0011347335463543,-8.3121534923577e-10,1.9679997682521e-09,-3.4364287486371e-09,4.5473558084603e-09,-0.00168365842481,0.001683659516809,-0.0018234786221772,0.0018234753801837,-0.0018234755569666,0.0018234785524327,-0.0018234773143279,0.0018234767103242,-0.0018234745448312,0.0018234796757576,-0.0014741218871472,0.0014741160543988,-0.0014741142426029,0.0014741240271486,-0.0015711147927556,0.0015711158766826,-0.0015711120454376,0.0015711186176869,1.7895948687743e-10,-3.7687605288462e-10,-0.00086771955901636,0.00086771934893221,1.1793209333785e-09,-1.4520214679394e-09,-0.0010366011701518,0.0010366016822457,-0.0010366018168589,0.0010366011394274,-0.0010366011980228,0.0010366017859633,-0.0010366020418458,0.0010366008912729,-0.000912129383407,0.00091212729393215,-0.00091212825506464,0.00091212810237682,0.64016453814931,128566,2924,0.0049308210970215,0.0069882409842729,0.0036137403545749,37.335707290602,6.1085658324814e-05,6.1085658324814e-05,6.1085658324814e-05,3754215.377771,0.015655249822094
38019200,0.999563009614,0.01562423395102,0.0050495485096329,0.0065763044163565,0.0039983810250311,-0.0011844888372283,0.0011844890157351,-1.2829049091651e-09,1.4582787884159e-09,-9.8959842444375e-10,1.2160108643499e-09,-0.0013349199049211,0.001334917984987,-0.0013349187831604,0.0013349191667597,-0.0013349188988554,0.0013349190560949,-0.0013349180065611,0.0013349200540272,-0.0011327720618412,0.0011327705234802,-0.001132769868165,0.0011327731809426,-8.8323309377644e-10,2.0249708732357e-09,-4.2531842558464e-09,5.3686747114963e-09,-0.0016815663859442,0.0016815674826142,-0.0018214498544188,0.0018214460506224,-0.001821446267437,0.0018214497641228,-0.0018214485168751,0.0018214474110049,-0.0018214452167624,0.0018214509290556,-0.0014720062015327,0.0014719987843675,-0.0014719969609843,0.0014720084110024,-0.0015690435482048,0.0015690450562659,-0.0015690406838628,0.0015690479297936,-8.2804426749065e-10,6.0322152463528e-10,-0.00086597547716939,0.00086597523864248,1.3531627418071e-09,-1.6599736545941e-09,-0.0010346436278902,0.0010346435913276,-0.0010346444101223,0.0010346429132903,-0.0010346430044011,0.0010346443483096,-0.0010346439735605,0.0010346433286564,-0.00091028926987667,0.00091028898764714,-0.00091029010234837,0.00091028783176321,0.6657016177673,128566,2924,0.0049230804561256,0.0069795936425354,0.00360648612757,36.307124675119,5.2856997400955e-05,5.2856997400955e-05,5.2856997400955e-05,3745274.0988377,0.015631233617619
38219200,0.99959139009431,0.015624648616806,0.0050496809297284,0.0065764822214598,0.0039984854656174,-0.0011837091881806,0.0011837093679143,-1.9896552708972e-09,2.1674380725765e-09,-1.0017902903638e-09,1.2259599994106e-09,-0.0013340824804387,0.0013340800933637,-0.0013340808961771,0.001334081736066,-0.001334081467469,0.0013340811703972,-0.0013340801112376,0.0013340826311108,-0.0011319532026459,0.0011319502991059,-0.0011319496248852,0.0011319543318779,-8.5420608076705e-10,1.9947986223302e-09,-4.3325651620495e-09,5.4477531454691e-09,-0.0016806818825961,0.0016806829773409,-0.0018205973000255,0.0018205934590614,-0.0018205936553032,0.0018205972210361,-0.0018205959779045,0.0018205947947592,-0.0018205926274715,0.0018205983719245,-0.0014711004548582,0.0014710928531791,-0.0014710910570634,0.0014711026469594,-0.0015681643974465,0.0015681660111456,-0.0015681616183206,0.0015681688592172,-1.5385095266213e-09,1.3018850953173e-09,-0.00086524210870147,0.00086524185897657,1.4206134979093e-09,-1.7350110358409e-09,-0.0010338144974813,0.0010338140347194,-0.0010338153266669,0.0010338133091947,-0.001033813413548,0.0010338152517903,-0.0010338144276926,0.0010338141860676,-0.00090952228985901,0.00090952331492276,-0.0009095244984173,0.00090952078566881,0.67076548786023,128566,2924,0.0049198482996134,0.0069759376414482,0.0036034358704137,35.867835000012,4.9342680000096e-05,4.9342680000096e-05,4.9342680000096e-05,3740428.9021188,0.015621138182984
38419200,0.99962369671079,0.015625153234682,0.0050498425827736,0.0065766960415926,0.0039986146103154,-0.0011908810995723,0.0011908813093581,-1.2969938206372e-09,1.5112765579145e-09,-1.1350585872466e-09,1.3751842891228e-09,-0.0013413819275249,0.0013413799373135,-0.001341380810842,0.0013413811382468,-0.0013413808439029,0.0013413810986706,-0.0013413799200423,0.0013413821364256,-0.0011392146214453,0.0011392131335911,-0.0011392123539929,0.001139215925991,-1.1241806352886e-09,2.2916329201285e-09,-3.2337738975448e-09,4.3774540779004e-09,-0.0016881938433426,0.0016881949655596,-0.0018281397132342,0.0018281364494193,-0.0018281367902624,0.0018281394714154,-0.0018281382299487,0.0018281379663729,-0.0018281355654464,0.0018281408216955,-0.0014783666113943,0.0014783613183954,-0.0014783592544423,0.0014783689621124,-0.0015756636819367,0.0015756639878384,-0.0015756603290692,0.0015756674666704,-6.9365264928844e-10,7.8764460413817e-10,-0.00087179854431575,0.00087179863563875,-3.4107725705922e-10,4.3302774131261e-10,-0.0010406661184076,0.0010406651424727,-0.0010406656646832,0.0010406657051574,-0.0010406654957543,0.0010406659001857,-0.0010406651997414,0.0010406661499373,-0.00091636866391236,0.00091637002465331,-0.00091636960398764,0.00091636879514835,0.71254270939511,128566,2924,0.0049495783003963,0.0070070036047473,0.0036306871645415,39.661373473356,7.9690987786851e-05,7.9690987786851e-05,7.9690987786851e-05,3798416.0579071,0.015710569867292
38619200,0.99965358771396,0.015625621772478,0.005049992723703,0.0065768952953448,0.0039987337534304,-0.001191094607378,0.0011910947838764,-1.3176313054372e-09,1.491684771951e-09,-1.0780919723906e-09,1.3047105087543e-09,-0.0013416969308316,0.0013416949533064,-0.0013416958190867,0.0013416961417305,-0.0013416958862188,0.0013416960645035,-0.0013416949673457,0.0013416971047198,-0.0011394828385873,0.0011394812372587,-0.0011394805364481,0.0011394840276783,-1.466382166149e-09,2.6666094253831e-09,-3.7765935297777e-09,4.9449365942285e-09,-0.00168853214734,0.0016885332967919,-0.0018284792948773,0.0018284754708157,-0.0018284760356636,0.0018284788581738,-0.0018284775872103,0.0018284772258144,-0.0018284745703806,0.0018284804436415,-0.0014786993386531,0.0014786932172386,-0.0014786909226245,0.0014787019927288,-0.0015759676905545,0.0015759676997332,-0.0015759635920925,0.0015759718516874,-6.9226570319913e-10,7.8122881969343e-10,-0.00087192360703414,0.00087192368554377,-2.9711138618639e-10,3.4884184002657e-10,-0.0010409480550386,0.0010409471244278,-0.0010409476466801,0.0010409476362021,-0.0010409474401013,0.0010409478749802,-0.0010409471849166,0.0010409480838358,-0.00091651405356862,0.00091651538101813,-0.00091651496710625,0.00091651412664574,0.71626666963484,128566,2924,0.0049504640608005,0.0070083989323273,0.003631212476017,39.752443769117,8.0419550152936e-05,8.0419550152936e-05,8.0419550152936e-05,3793785.7948545,0.015713423383689
38819200,0.99968110959171,0.015626054687841,0.0050501314927338,0.0065770792607995,0.0039988439343077,-0.0011911103630551,0.0011911107837148,2.1536882751986e-10,2.0379657472531e-10,-2.2859429270623e-09,2.7854477461892e-09,-0.0013417737393792,0.0013417721151903,-0.0013417736485976,0.0013417723123162,-0.0013417718656317,0.0013417740415468,-0.0013417718443736,0.0013417742403585,-0.0011395578281343,0.0011395599205294,-0.0011395581416378,0.0011395602195496,-3.0239671862311e-09,4.3610241317063e-09,-7.1602750122781e-09,8.4505249600279e-09,-0.0016886493890887,0.0016886506643212,-0.0018285799723363,0.0018285730317405,-0.0018285745819891,0.0018285786399908,-0.0018285772873616,0.0018285758042814,-0.0018285720064729,0.0018285813819927,-0.0014788172312649,0.0014788053965651,-0.0014788019573069,0.001478821180598,-0.0015760650379657,0.0015760640896581,-0.0015760575792556,0.0015760716623604,9.6308588429909e-10,-3.9801758516733e-10,-0.00087188373649744,0.00087188429365798,-2.6474025045237e-09,3.2234555860177e-09,-0.0010410169426698,0.0010410157746131,-0.0010410148672364,0.001041017942879,-0.0010410173539393,0.0010410155122201,-0.001041015301984,0.0010410175227554,-0.00091651228916397,0.00091651329109117,-0.00091651060504379,0.00091651456279718,0.71845447012278,128566,2924,0.0049505306149916,0.0070088803845839,0.0036310533328262,39.75586030523,8.0446882441836e-05,8.0446882441836e-05,8.0446882441836e-05,3786604.2426415,0.015713820432851
38880000,0.9996892624354,0.015626183099348,0.0050501726569255,0.0065771338002764,0.0039988766421462,-0.0011911065777561,0.001191106982689,-1.4160163939138e-10,5.4619984528629e-10,-1.7196096005428e-09,2.186950037354e-09,-0.0013417922629747,0.0013417907465422,-0.0013417918933784,0.0013417911760044,-0.0013417907335986,0.0013417923047569,-0.001341790497132,0.0013417927241532,-0.0011395865338111,0.0011395875778509,-0.001139586116602,0.0011395883919327,-2.3658661561776e-09,3.7313727580647e-09,-6.1647239663262e-09,7.4818387486679e-09,-0.0016886849542113,0.0016886862527592,-0.0018286075351869,0.0018286019133258,-0.0018286029099522,0.001828606703232,-0.0018286053137892,0.0018286041833145,-0.001828600861383,0.001828608918552,-0.001478847995086,0.0014788377734154,-0.0014788348263931,0.0014788514592449,-0.0015760936202723,0.0015760934263415,-0.001576087631898,0.001576099611319,4.4576890838937e-10,-1.1524935368332e-10,-0.00087186281499666,0.00087186313405587,-1.4746388394427e-09,1.8003699486738e-09,-0.0010410362883959,0.0010410355340559,-0.0010410350929985,0.0010410368271479,-0.0010410364495238,0.0010410355084682,-0.001041035315103,0.001041036610167,-0.00091650639782617,0.00091650686426696,-0.00091650534725446,0.00091650756293299,0.71910520381328,128566,2924,0.0049505151401867,0.007009026005569,0.0036309681739649,39.755985537207,8.0447884297657e-05,8.0447884297657e-05,8.0447884297657e-05,3784130.5230292,0.015713866814307
