time,ASR_ext,ASR_strain,ASR_strain_xx,ASR_strain_yy,ASR_strain_zz,disp_x_101,disp_x_102,disp_x_103,disp_x_104,disp_x_105,disp_x_106,disp_x_p1_neg,disp_x_p1_pos,disp_x_p2_neg,disp_x_p2_pos,disp_x_p3_neg,disp_x_p3_pos,disp_x_p4_neg,disp_x_p4_pos,disp_x_p5_neg,disp_x_p5_pos,disp_x_p6_neg,disp_x_p6_pos,disp_y_101,disp_y_102,disp_y_103,disp_y_104,disp_y_105,disp_y_106,disp_y_p1_neg,disp_y_p1_pos,disp_y_p2_neg,disp_y_p2_pos,disp_y_p3_neg,disp_y_p3_pos,disp_y_p4_neg,disp_y_p4_pos,disp_y_p5_neg,disp_y_p5_pos,disp_y_p6_neg,disp_y_p6_pos,disp_y_p7_neg,disp_y_p7_pos,disp_y_p8_neg,disp_y_p8_pos,disp_z_101,disp_z_102,disp_z_103,disp_z_104,disp_z_105,disp_z_106,disp_z_p1_neg,disp_z_p1_pos,disp_z_p2_neg,disp_z_p2_pos,disp_z_p3_neg,disp_z_p3_pos,disp_z_p4_neg,disp_z_p4_pos,disp_z_p5_neg,disp_z_p5_pos,disp_z_p6_neg,disp_z_p6_pos,humidity,ndof,nelem,strain_xx,strain_yy,strain_zz,temp,thermal_strain_xx,thermal_strain_yy,thermal_strain_zz,vonmises,vstrain
2419200,0,0,0,0,0,0,0,0,0,0,0,0,0,0,0,0,0,0,0,0,0,0,0,0,0,0,0,0,0,0,0,0,0,0,0,0,0,0,0,0,0,0,0,0,0,0,0,0,0,0,0,0,0,0,0,0,0,0,0,0,0,0,0,0,0,0,0,0,0,0,0,0,0,0,0
2919200,0.076469056699112,0.001597064867991,0.00053235495599701,0.00053235495599701,0.00053235495599701,-0.00016690522652269,0.00016689737355774,-2.549275969546e-09,-2.5492758229194e-09,-2.1459971910617e-09,-2.9897272311133e-09,-0.00016699156397266,0.00016698596998855,-0.00016699362224743,0.00016698802826322,-0.00016699186321852,0.00016698569962599,-0.00016699388245478,0.00016698771886209,-0.00016726315732133,0.00016725738468629,-0.00016726429315098,0.00016725852051601,-2.5592704095016e-10,5.3542312333082e-10,-1.8998958767792e-09,2.167852606738e-09,-0.00017392768784037,0.00017392795690945,-0.00017299484059488,0.00017299335990094,-0.00017299535784912,0.00017299679843967,-0.00017299541040254,0.00017299450218777,-0.00017299592765686,0.00017299794072664,-0.00017242297884762,0.00017241957498529,-0.0001724201315259,0.00017242461507221,-0.00017465042789832,0.00017465132599531,-0.00017465053187863,0.00017465297051115,-1.025063444146e-08,-1.0250634528931e-08,-0.00015757362961385,0.00015754760606126,-8.0048028396503e-09,-1.2267487330796e-08,-0.00015848738057905,0.00015846641588188,-0.00015848883932426,0.00015846496760093,-0.00015848815782489,0.00015846719312775,-0.00015848960672721,0.00015846573500377,-0.00016216236207986,0.00016213949891982,-0.00016216172872418,0.00016213886556406,0.83502648770561,122718,2924,0.00069517931893958,0.00072443543857926,0.00065628782618722,32.416001934041,0.00017452801547233,0.00017452801547233,0.00017452801547233,1348586.1875149,0.0020780607233726
3419200,0.15573137539397,0.0031192483509656,0.0010492356031701,0.0010740984634049,0.00099591428439064,-0.00028588706579529,0.00028587918815262,-2.6913521968117e-09,-2.6913589424351e-09,-2.4427715327408e-09,-3.0656466231441e-09,-0.00029220992803709,0.0002922041346092,-0.00029221267666973,0.00029220688416273,-0.00029221013257016,0.00029220393365774,-0.00029221287014596,0.00029220667217446,-0.00028245832870036,0.00028245234807218,-0.00028246064669136,0.00028245466585732,-2.6670767880761e-10,3.131766574475e-10,-8.4327960310756e-10,8.7934504839179e-10,-0.00030788187121035,0.00030788190945328,-0.00030943063120981,0.00030942988921434,-0.0003094327688734,0.00030943318523646,-0.00030943155794587,0.00030943121514995,-0.00030943369551518,0.00030943451106806,-0.00029936395462487,0.00029936252509074,-0.00029936490322085,0.0002993668102066,-0.00030717683659807,0.00030717692035156,-0.00030717864198321,0.00030717986329587,-7.8634396269164e-09,-7.8634464738637e-09,-0.00025539708609969,0.00025537751629587,-6.825884537479e-09,-8.7038842590963e-09,-0.00026319378701244,0.00026317730206596,-0.00026319442073956,0.00026317667878762,-0.00026319473887312,0.00026317825362219,-0.00026319536571294,0.00026317762346061,-0.00026559743304683,0.0002655803695688,-0.00026559624699847,0.00026557918348751,0.77960726241633,122718,2924,0.0011904672569572,0.0012820121083656,0.0010635617595787,31.91091131334,0.00017048729050672,0.00017048729050672,0.00017048729050672,2162939.3639946,0.0035423052634227
3919200,0.24271874310666,0.0046918444125518,0.0015733381664922,0.0016890290588974,0.0014294771871622,-0.00040784531002381,0.00040783896580699,-2.3262578386579e-09,-2.3262519912437e-09,-2.0089427463628e-09,-2.390399055185e-09,-0.00042297619592847,0.00042297124720674,-0.00042297779239328,0.00042297284436014,-0.00042297630917638,0.00042297111819712,-0.00042297791628239,0.00042297272600779,-0.00039647986614784,0.00039647457682883,-0.00039648126768284,0.00039647597820274,-1.8736195835314e-10,1.6563243996912e-10,1.3540656645175e-10,-1.6375187149273e-10,-0.00046148033470964,0.00046148030794428,-0.00047331775546184,0.00047331772807209,-0.00047331927566333,0.0004733190052999,-0.00047331829818356,0.00047331851512243,-0.00047331981824277,0.00047331979219702,-0.00043632898851114,0.00043632939587039,-0.0004363304198146,0.00043633020557857,-0.0004537106833142,0.0004537102329387,-0.00045371129581309,0.00045371153243263,-3.2015493437944e-09,-3.2015437006964e-09,-0.00034882862308211,0.00034881993244327,-3.1841613659383e-09,-2.9256023592038e-09,-0.00036368763580095,0.00036368062403984,-0.00036368754319035,0.00036368072297964,-0.00036368837707,0.00036368136507124,-0.00036368828084088,0.00036368146039569,-0.00036537165878447,0.00036536473507464,-0.00036537083869256,0.0003653639149789,0.74640349119053,122718,2924,0.0016978924289915,0.0019209670273994,0.0014524350006572,32.496603397362,0.00017517282717889,0.00017517282717889,0.00017517282717889,2993471.2535809,0.005084186655283
4419200,0.33797215915582,0.006387018531925,0.0021335242802237,0.0023852935773998,0.0018682006743015,-0.00053809026515939,0.00053808655653369,-1.0787507181763e-09,-1.0787484610677e-09,-1.2908437848842e-09,-1.092478254951e-09,-0.00056346305923073,0.00056346046036936,-0.00056346387772367,0.00056346127968214,-0.00056346296805975,0.00056346052064254,-0.00056346381781254,0.00056346137123841,-0.00051720210089125,0.00051719961839625,-0.00051720314070989,0.00051720065804484,-4.1834125584415e-11,-2.325412039082e-10,3.2251110471301e-10,-5.9551291310693e-10,-0.00063645259981894,0.00063645232748793,-0.00066288910464102,0.00066288923041257,-0.00066289014826052,0.00066288961569137,-0.0006628897081073,0.00066288970061344,-0.00066289075158024,0.00066289008572819,-0.00058941667139285,0.00058941725827951,-0.00058941897948011,0.00058941772845921,-0.00061831385617817,0.00061831347363004,-0.0006183154014381,0.00061831463904926,-1.0946278388737e-09,-1.0946257122259e-09,-0.00044378967668633,0.00044378589067959,-1.6146619709645e-09,-6.7817664277202e-10,-0.00046602205450062,0.0004660196675276,-0.00046602173023258,0.00046601999207924,-0.00046602256738357,0.00046602018020685,-0.00046602224565557,0.00046602050730372,-0.00046844229755428,0.00046843996798198,-0.00046844216940993,0.00046843983983121,0.74424082049435,122718,2924,0.002239514391334,0.0026483244515337,0.0018475576011216,33.598539156889,0.00018398831325511,0.00018398831325511,0.00018398831325511,3667586.474602,0.0067581561449151
4919200,0.44139271162858,0.0082172266985732,0.0027273116927681,0.0031767792742284,0.0023131357315767,-0.00067531273569584,0.0006753101898245,-5.7495806292217e-10,-5.7495098853417e-10,-9.1480995572241e-10,-5.6106900719755e-10,-0.00071256513292657,0.00071256357766463,-0.0007125655819649,0.00071256402743558,-0.00071256498764114,0.00071256369457309,-0.00071256546530787,0.00071256417299214,-0.00064406494778934,0.00064406351998062,-0.00064406602372994,0.00064406459574885,-4.8656514870988e-11,-3.7586084559152e-10,3.6968971008606e-10,-7.8822479933226e-10,-0.00083703986291464,0.00083703944381067,-0.00088173800315036,0.00088173808769815,-0.00088173872444401,0.00088173802601353,-0.00088173847827676,0.00088173834674092,-0.00088173919939603,0.00088173828487019,-0.00076279480546752,0.0007627954389968,-0.00076279728951017,0.00076279561112691,-0.00080460874324644,0.00080460826443768,-0.0008046103058263,0.00080460917420279,-5.1393222047712e-10,-5.1392538763852e-10,-0.00053965685713661,0.00053965465590508,-1.1767960235422e-09,1.0373488381977e-11,-0.00057173569287977,0.00057173489810863,-0.00057173528934958,0.00057173530070799,-0.00057173608276726,0.00057173528779152,-0.00057173568311356,0.00057173569427259,-0.00057277884981965,0.00057277778768901,-0.00057277892089972,0.00057277785876937,0.74696695512676,122718,2924,0.0028098410077138,0.0034814935627471,0.0022463670253382,35.343379052244,0.00019794703241795,0.00019794703241795,0.00019794703241795,4162911.5449035,0.0085743054118875
5419200,0.54221312171699,0.0099520987950989,0.0032735388984814,0.003963197206321,0.0027153626902965,-0.00079731825705294,0.00079731779193669,3.5842735986372e-10,3.584355264542e-10,-2.5000303167826e-10,4.3546494375665e-10,-0.00084790309802587,0.00084790337714583,-0.00084790326116873,0.00084790354115888,-0.0008479028414381,0.00084790360561332,-0.00084790303652759,0.0008479038015979,-0.00075569969618473,0.00075570031464618,-0.00075570071385548,0.00075570133214892,4.5871500686553e-11,-5.9416886075504e-10,5.0389067339758e-10,-1.0412214746928e-09,-0.0010360235804828,0.0010360230420678,-0.0011015697719258,0.0011015699855571,-0.0011015703712617,0.0011015695264085,-0.001101570290747,0.001101570070432,-0.001101570889886,0.0011015696110739,-0.00093134035632623,0.0009313411400738,-0.00093134323926626,0.00093134096103272,-0.00098630450971689,0.00098630408322512,-0.00098630652352802,0.00098630483341231,5.6097758705379e-10,5.6098532801998e-10,-0.00062224611907963,0.0006222466139271,-3.625849985713e-10,1.2294488707958e-09,-0.00066626980997,0.00066627137935767,-0.00066626926779991,0.00066627191712662,-0.00066627007881312,0.00066627164800769,-0.00066626954334036,0.00066627219247825,-0.00066191774222311,0.00066191906612946,-0.00066191807142843,0.00066191939531637,0.73229095938567,122718,2924,0.0033166735452023,0.00430729297967,0.0025899228280619,36.272805894257,0.00020538244715406,0.00020538244715406,0.00020538244715406,4478684.684302,0.010266324059519
5919200,0.63357137009373,0.011306062383478,0.0036843766004942,0.0046048343184939,0.0030168514644899,-0.00088467307561704,0.00088467414370544,9.6300155258492e-10,9.6300912898278e-10,1.4731633369742e-10,1.3004178226576e-09,-0.00094974145561909,0.00094974297326897,-0.00094974139014422,0.00094974290860105,-0.00094974104503925,0.00094974336026161,-0.00094974101245025,0.00094974332850097,-0.00083078020804409,0.00083078221467112,-0.00083078124609816,0.00083078325256332,1.5285334525875e-10,-9.3320883028729e-10,7.7648699738464e-10,-1.5377140488913e-09,-0.0011997150600218,0.0011997142966359,-0.0012906824420197,0.0012906828401319,-0.0012906829829329,0.0012906818073004,-0.0012906828953158,0.0012906825607086,-0.0012906834360338,0.0012906815276706,-0.0010622978882943,0.0010622990513072,-0.0010623013888221,0.0010622979844115,-0.0011282142400573,0.0011282137620628,-0.0011282164932716,0.0011282138762097,1.4417356828965e-09,1.4417427212771e-09,-0.00067942231754759,0.0006794250449045,1.3052799087124e-10,2.5088555914003e-09,-0.00073581244064045,0.00073581589207523,-0.00073581163378462,0.00073581669260439,-0.0007358126268413,0.00073581607808318,-0.00073581182866992,0.00073581688730158,-0.00072065075362075,0.00072065415990603,-0.00072065106910314,0.0007206544753804,0.6360792580923,122718,2924,0.0036794390353401,0.0049861108801572,0.0028278148750525,36.779011759051,0.00020943209407241,0.00020943209407241,0.00020943209407241,4635139.414376,0.011559806476216
6419200,0.71089988906707,0.012371581065318,0.0040005622243373,0.0051159334577623,0.0032550853832187,-0.00094877212069666,0.00094877492881235,1.6816825458868e-09,1.6816905241803e-09,5.4993238277592e-10,2.3227096491381e-09,-0.0010247849770728,0.0010247879294185,-0.0010247846912745,0.0010247876444423,-0.0010247843615861,0.0010247885260753,-0.0010247841110542,0.0010247882763876,-0.00088457129422112,0.00088457498993618,-0.00088457234735725,0.0008845760429095,2.9270632690499e-10,-1.387837418696e-09,1.078489109898e-09,-2.1445350996895e-09,-0.0013292703388604,0.001329269269584,-0.0014448417520846,0.0014448423576381,-0.0014448423284308,0.0014448407433964,-0.0014448422143965,0.0014448416837729,-0.0014448427905409,0.0014448400693176,-0.0011626018154806,0.0011626033636402,-0.0011626061660152,0.0011626013682653,-0.0012369296862041,0.0012369291729856,-0.0012369324510595,0.0012369286323819,2.3722593463241e-09,2.3722666978435e-09,-0.00072169990048105,0.00072170493071849,5.8511419436888e-10,3.8908060539796e-09,-0.0007864406785605,0.00078644604927735,-0.00078643955900939,0.00078644716003902,-0.00078644076360739,0.00078644613412899,-0.00078643965538053,0.00078644725621958,-0.00076354080578532,0.00076354646646323,-0.00076354112524206,0.00076354678590842,0.59525943091212,122718,2924,0.0039455739053554,0.0055230563098162,0.0030037414344776,36.741518755204,0.00020913215004163,0.00020913215004163,0.00020913215004163,4774139.5636196,0.012550658518193
6919200,0.78050991053293,0.013409113925076,0.0043069532181335,0.0056083782553878,0.0034937824515548,-0.0010113900605822,0.0010113923791223,1.5797718862334e-09,1.5797801339608e-09,3.5673191065302e-10,2.299911003827e-09,-0.0010969624279342,0.0010969650581046,-0.0010969623330068,0.0010969649639991,-0.0010969617570003,0.0010969657152169,-0.0010969616927328,0.0010969656517939,-0.00094138382021476,0.00094138732359209,-0.00094138499781291,0.00094138850102917,3.005766114732e-10,-1.5441405295079e-09,9.1085178710314e-10,-2.1218859616051e-09,-0.0014608737505063,0.0014608725356552,-0.0015956819722526,0.0015956824058669,-0.0015956826059183,0.0015956810059341,-0.0015956824967324,0.001595681692876,-0.001595683130194,0.0015956802927264,-0.0012703123007183,0.0012703134697258,-0.0012703165535903,0.0012703117382101,-0.001351270431423,0.0013512699989981,-0.0013512734066861,0.0013512693444998,1.297307148216e-09,1.2973145000759e-09,-0.00076571132211343,0.00076571362207248,-3.7744861043934e-10,2.7151332492084e-09,-0.00083919875215242,0.00083920190643204,-0.00083919770828242,0.00083920294297711,-0.000839198915235,0.00083920206932009,-0.00083919788182467,0.00083920311632951,-0.0008094537813956,0.00080945711694621,-0.00080945403201193,0.00080945736754908,0.64378173705164,122718,2924,0.0042055114232699,0.0060681605372863,0.003186866099597,38.624141937062,0.0002241931354965,0.0002241931354965,0.0002241931354965,4753074.7372294,0.013551772216287
7419200,0.84046596494932,0.014180855335029,0.0045282531057283,0.0059832375406529,0.0036693646886475,-0.0010490374451059,0.0010490396175493,1.5371855545622e-09,1.5371938969444e-09,2.8313428900616e-10,2.2828084390045e-09,-0.0011468747215222,0.0011468772299992,-0.0011468746862492,0.0011468771955474,-0.0011468740323551,0.0011468779070521,-0.0011468740257589,0.0011468779012986,-0.00097380958353501,0.00097381301039564,-0.00097381079890743,0.0009738142256088,3.0297373783087e-10,-1.5977187437303e-09,7.4099066671436e-10,-2.0017897704613e-09,-0.0015677557281411,0.0015677544633179,-0.0017202268549527,0.0017202271568556,-0.0017202274928422,0.0017202259592371,-0.0017202274314861,0.0017202264627678,-0.0017202280691681,0.0017202252649301,-0.0013558627052375,0.0013558635231773,-0.001355866752217,0.0013558621526417,-0.0014404006847779,0.0014404003535927,-0.0014404037500795,0.0014403996788867,9.3204675748818e-10,9.3205430223885e-10,-0.0007921284007694,0.00079212985255032,-6.0109534965556e-10,2.1938549220156e-09,-0.00087810695279315,0.00087810944349678,-0.00087810600976997,0.00087811038054671,-0.00087810715263368,0.00087810964314345,-0.00087810621898341,0.00087811058956989,-0.00083460879721317,0.00083461128052767,-0.00083460901543742,0.00083461149873832,0.55664260548471,122718,2924,0.0043618292335912,0.006510595168952,0.0032969154890049,40.762811798234,0.00024130249438587,0.00024130249438587,0.00024130249438587,4519823.0095529,0.014270500499645
7919200,0.88549000227192,0.014710063371215,0.0046773256483701,0.0062388940746891,0.0037938436481555,-0.0010693391421346,0.0010693436021862,2.3686945192124e-09,2.36870296947e-09,9.4928827665396e-10,3.2935365281904e-09,-0.0011737027029924,0.0011737070304548,-0.0011737023220295,0.0011737066503125,-0.0011737018956368,0.0011737078229868,-0.0011737015493476,0.0011737074775401,-0.00098986595366412,0.00098987126506297,-0.00098986711874327,0.00098987242998293,3.8408269024334e-10,-1.8382767669066e-09,8.9196651974098e-10,-2.3072743471172e-09,-0.001637261354314,0.001637259934667,-0.0018056049686448,0.0018056054050954,-0.0018056054508872,0.0018056037073807,-0.0018056054568449,0.0018056043917414,-0.0018056059388786,0.0018056026938052,-0.0014075653590191,0.0014075663526487,-0.0014075697653474,0.0014075644614778,-0.001494661281357,0.0014946609462899,-0.0014946645438398,0.0014946598422637,2.5937609850974e-09,2.5937684076694e-09,-0.00080644457233074,0.00080645029186826,8.0119030092156e-10,4.0896138470968e-09,-0.0008982617103997,0.00089826779652229,-0.00089826059536881,0.00089826890300484,-0.00089826174771755,0.00089826783364575,-0.00089826064474972,0.00089826895219561,-0.00084755997165389,0.0008475661293922,-0.00084756020582666,0.00084756636354949,0.5070717593097,122718,2924,0.0044461546804025,0.0067982439709535,0.0033566114139665,40.956062681327,0.00024284850145062,0.00024284850145062,0.00024284850145062,4426641.6504944,0.014708461745109
8419200,0.91900550048216,0.015084825012198,0.0047826769756556,0.0064177052596763,0.0038844427768657,-0.0010803010683701,0.0010803056963287,2.45749223538e-09,2.4575007644482e-09,9.1893445604161e-10,3.5102574786318e-09,-0.0011903524312693,0.0011903568786621,-0.0011903520703953,0.0011903565186075,-0.0011903515441672,0.0011903577547165,-0.0011903512166071,0.0011903574279976,-0.00099862042773575,0.00099862599659951,-0.00099862161943053,0.00099862718813569,4.4747821720057e-10,-2.0178805196647e-09,9.892296293021e-10,-2.5171212105572e-09,-0.0016892053898833,0.0016892038573567,-0.0018686136083387,0.0018686141115077,-0.0018686141916501,0.0018686123176234,-0.0018686141538799,0.0018686129959128,-0.0018686147369807,0.0018686112018049,-0.0014473548677901,0.0014473559707886,-0.0014473595850813,0.0014473537856357,-0.0015353796226617,0.0015353793101707,-0.0015353831186235,0.0015353779607893,2.5034331289779e-09,2.5034404593197e-09,-0.00081512169706294,0.00081512717227874,5.642241960734e-10,4.1554898963457e-09,-0.00091265291550597,0.00091265872726744,-0.00091265170056987,0.00091265993392713,-0.00091265295922612,0.00091265877079271,-0.00091265175616996,0.00091265998933746,-0.00085471022780688,0.00085471629137083,-0.00085471043332601,0.0008547164968755,0.48138031764921,122718,2924,0.0044917250546062,0.0070131346910962,0.0033928365584754,41.432304831753,0.00024665843865402,0.00024665843865402,0.00024665843865402,4272288.214693,0.015009592757488
8919200,0.94343538551571,0.0153296518157,0.0048509840364394,0.0065339478512078,0.0039447199280524,-0.0010833890688318,0.0010833940250119,2.5914013891079e-09,2.591409973601e-09,9.6243302078958e-10,3.7468772890002e-09,-0.0011986356621268,0.0011986403511065,-0.0011986352816756,0.0011986399714741,-0.0011986347120901,0.0011986412922067,-0.0011986343645744,0.0011986409455311,-0.0010006463023023,0.0010006522135913,-0.0010006474979891,0.0010006534091214,5.0039245864799e-10,-2.1538042094657e-09,1.068972203633e-09,-2.6772378641033e-09,-0.0017255775266598,0.0017255759135597,-0.0019127996217904,0.0019128001875666,-0.0019128002562994,0.0019127982860005,-0.0019128001963647,0.0019127989751857,-0.0019128008306622,0.0019127970733963,-0.0014753322930429,0.0014753334880751,-0.0014753372367319,0.0014753310587676,-0.0015632497388779,0.0015632494497996,-0.0015632533973083,0.0015632478914496,2.6033334726461e-09,2.6033408676109e-09,-0.00081862007485121,0.00081862579913472,5.457209239239e-10,4.377489290877e-09,-0.00092161651999415,0.00092162248335156,-0.00092161522490999,0.00092162377021952,-0.00092161655318093,0.00092162251634349,-0.00092161526999498,0.00092162381511418,-0.00085646517703472,0.00085647152985264,-0.00085646536436978,0.0008564717171732,0.43063171924148,122718,2924,0.0045046269129688,0.0071635530812805,0.0034075190293104,41.891325976729,0.00025033060781383,0.00025033060781383,0.00025033060781383,4096293.6355513,0.01519031639822
9419200,0.96015606227312,0.015488686542868,0.0048954139099077,0.0066083265608999,0.00398494607206,-0.0010823784374712,0.0010823853184411,3.3062332767271e-09,3.3062419101372e-09,1.5136633487616e-09,4.6552283422637e-09,-0.0012002570832124,0.0012002633227889,-0.0012002564449926,0.0012002626853879,-0.0012002560123888,0.0012002643839636,-0.0012002554114017,0.0012002637838169,-0.00099902333254993,0.0009990308782744,-0.0009990245115888,0.00099903205715624,5.9357081446612e-10,-2.3974770921323e-09,1.2883541964872e-09,-3.0423921450084e-09,-0.0017467854973484,0.0017467837381584,-0.0019398123909996,0.0019398131398996,-0.0019398129513822,0.0019398107473399,-0.0019398128937635,0.0019398116170008,-0.0019398134539343,0.0019398092242184,-0.0014904398594747,0.0014904413622993,-0.0014904452884396,0.0014904382822545,-0.0015782491276806,0.0015782488189404,-0.0015782530034452,0.0015782468203187,3.8570478698866e-09,3.8570552279518e-09,-0.00081826335963126,0.00081827226735959,1.4912370589668e-09,5.9362191940251e-09,-0.00092398005297082,0.00092398865370735,-0.000923978547551,0.00092399014855497,-0.00092397995293481,0.00092398855347685,-0.00092397846182332,0.00092399006263645,-0.00085502174398485,0.0008550309409028,-0.00085502191425153,0.00085503111115384,0.40723906797413,122718,2924,0.0045005026637114,0.0072512583604474,0.0034061432914723,41.151250189593,0.00024441000151675,0.00024441000151675,0.00024441000151675,3995807.820161,0.015273791049787
9919200,0.97140224305318,0.015595199608396,0.0049253443505009,0.0066574007728976,0.0040124544849973,-0.0010786416293939,0.0010786496442834,3.734692933086e-09,3.7347015530887e-09,1.7439037301973e-09,5.3114999833803e-09,-0.001199221208463,0.0011992282934474,-0.001199220438481,0.0011992275242836,-0.0011992199983087,0.0011992294976121,-0.0011992192665418,0.0011992287666852,-0.00099531813504147,0.00099532672802422,-0.00099531930907001,0.00099532790189507,7.2008734794346e-10,-2.6858299423271e-09,1.6038488805176e-09,-3.513978602307e-09,-0.0017604939752784,0.0017604920595078,-0.0019566808208173,0.0019566818207901,-0.0019566814885004,0.0019566790038955,-0.0019566813497056,0.0019566800434816,-0.0019566820171761,0.0019566772263624,-0.0015007607727408,0.0015007627507532,-0.0015007669124137,0.0015007588411151,-0.0015881348193687,0.0015881344943503,-0.0015881390273327,0.0015881320125913,4.5488983848982e-09,4.5489057567419e-09,-0.00081573863518969,0.00081574927869024,1.790558346701e-09,7.0332092306544e-09,-0.00092441659109896,0.00092442647260015,-0.00092441481793577,0.00092442823404295,-0.00092441641993871,0.00092442630124515,-0.0009244146621844,0.0009244280781014,-0.00085163468074326,0.00085164559669743,-0.00085163483116068,0.00085164574709934,0.40432824355073,122718,2924,0.0044850599022634,0.0073079197505313,0.0033957425507677,39.82825569161,0.00023382604553288,0.00023382604553288,0.00023382604553288,3896096.2694375,0.015305098088473
10419200,0.97895913080099,0.015671285140954,0.0049469012326155,0.0066918719836627,0.0040325119246758,-0.0010733324760272,0.0010733413134369,4.0431835462423e-09,4.0431922074808e-09,1.8742906639366e-09,5.8271848109157e-09,-0.0011966882806915,0.0011966959376196,-0.0011966874238227,0.0011966950815688,-0.0011966869456024,0.0011966972709794,-0.0011966861268923,0.0011966964531089,-0.00099048644743813,0.00099049582305872,-0.00099048761585223,0.00099049699131561,8.4336299207479e-10,-2.9405812209681e-09,1.9320531139859e-09,-3.9684410614967e-09,-0.0017695332653117,0.0017695312227963,-0.0019672148087872,0.0019672160710663,-0.0019672156256858,0.0019672128809191,-0.0019672153805386,0.0019672140836574,-0.0019672161972242,0.0019672108932854,-0.0015080015464501,0.0015080040389809,-0.0015080083980597,0.0015079993074238,-0.0015948203004129,0.0015948199562346,-0.00159482481608,0.0015948170379945,5.0365475816566e-09,5.0365549995899e-09,-0.00081191812556811,0.00081192999118766,1.8935463410473e-09,7.9234320091572e-09,-0.00092364218158748,0.00092365286910605,-0.00092364014554327,0.00092365489275725,-0.00092364196177701,0.00092365264910095,-0.00092363994173871,0.00092365468876231,-0.00084723621767835,0.0008472484223474,-0.00084723635179129,0.00084724855644439,0.42845224819223,122718,2924,0.0044630884143736,0.007345254645374,0.0033799491087664,38.100154824885,0.00022000123859908,0.00022000123859908,0.00022000123859908,3802598.413665,0.015304678680418
10919200,0.98450022915727,0.015722877352438,0.0049614452353305,0.0067152688684909,0.0040461632486167,-0.0010693897577574,0.0010693964195559,3.2515380879217e-09,3.2515467983238e-09,1.0868388203918e-09,5.0082606941324e-09,-0.0011961706071012,0.0011961764192873,-0.0011961700666319,0.0011961758796355,-0.0011961692897996,0.0011961777416749,-0.0011961687804149,0.0011961772331294,-0.00098730272094447,0.00098731039972697,-0.00098730390488117,0.00098731158350733,8.5539001342225e-10,-2.9189234736562e-09,1.9789203634001e-09,-3.9817522723189e-09,-0.0017790740460593,0.0017790720369991,-0.0019772804230495,0.0019772817022655,-0.001977281573742,0.001977278849855,-0.0019772811931772,0.0019772799419849,-0.0019772823436565,0.0019772770893494,-0.0015167356227165,0.001516738223061,-0.0015167426274436,0.0015167335096973,-0.0016027227594106,0.0016027224308745,-0.0016027273866548,0.0016027196338651,3.5159053296288e-09,3.5159127884841e-09,-0.00081037984098677,0.00081038782288226,3.7173157614963e-10,6.4195107317737e-09,-0.00092574990916773,0.00092575714444184,-0.00092574787620204,0.000925759168219,-0.00092574985288007,0.0009257570879596,-0.00092574783268412,0.00092575912451097,-0.00084497860696474,0.00084498761058155,-0.00084497874757342,0.0008449877511746,0.39597081456719,122718,2924,0.0044467821305223,0.0073846470417389,0.003373618542359,37.946263903603,0.00021877011122883,0.00021877011122883,0.00021877011122883,3686026.4469082,0.015321710390952
11419200,0.98853750641615,0.015760427744457,0.0049720723835514,0.0067321054141702,0.0040562499467349,-0.0010677947987139,0.0010678017598035,3.3622364083717e-09,3.3622451229108e-09,1.1885041149232e-09,5.1287154603808e-09,-0.0011948128533321,0.0011948189246987,-0.0011948122754446,0.0011948183476289,-0.0011948115291333,0.0011948202537149,-0.0011948109828791,0.0011948197083,-0.00098576620943491,0.00098577413134811,-0.00098576739237747,0.0009857753141342,8.5023228757547e-10,-2.9384061661792e-09,2.0013781225075e-09,-4.028313565374e-09,-0.0017836356262789,0.0017836335931263,-0.0019836322494369,0.0019836335360923,-0.0019836333833018,0.001983630617013,-0.0019836329947406,0.0019836317383253,-0.0019836341283922,0.001983628819021,-0.0015193579996966,0.0015193606377069,-0.0015193650600431,0.0015193558459273,-0.0016052441164867,0.0016052437530869,-0.0016052487445118,0.0016052409300403,3.683357850674e-09,3.6833652842139e-09,-0.00080943550672228,0.00080944392278021,5.0188639280344e-10,6.6242932476108e-09,-0.00092501165397179,0.00092501925647101,-0.00092500959540957,0.0009250213055358,-0.00092501157610942,0.00092501917841422,-0.00092500953072869,0.00092502124066488,-0.00084384438736309,0.00084385377226632,-0.00084384452495584,0.00084385390984284,0.39457194111806,122718,2924,0.0044401861659676,0.0074035144316635,0.0033697232733199,37.628568284081,0.00021622854627265,0.00021622854627265,0.00021622854627265,3661679.9375158,0.015330214710387
11919200,0.99146340474084,0.015789801908698,0.0049804494862566,0.0067451247214104,0.004064227701031,-0.0010651099808977,0.001065117301564,3.492171232963e-09,3.4921799800258e-09,1.2975661752863e-09,5.291230998878e-09,-0.0011935725532796,0.0011935789067436,-0.0011935719316079,0.0011935782858895,-0.0011935712109247,0.0011935802537021,-0.0011935706214635,0.0011935796650802,-0.00098339636311194,0.00098340458105659,-0.00098339754265257,0.00098340576044092,8.7163771441908e-10,-2.9673211729633e-09,2.0634199973472e-09,-4.0972804859525e-09,-0.0017878259631028,0.0017878239229719,-0.0019882891128454,0.0019882904563538,-0.0019882902413886,0.0019882874405948,-0.0019882898383136,0.0019882886027028,-0.0019882909666435,0.0019882855867181,-0.001522974127368,0.0015229768688932,-0.001522981294519,0.0015229719287144,-0.0016084843744689,0.0016084840085527,-0.0016084890230241,0.0016084811078761,3.9035722044715e-09,3.9035796516447e-09,-0.00080788778716698,0.00080789676545074,6.5560836723206e-10,6.9133673538012e-09,-0.0009250048489728,0.00092501289387626,-0.00092500274441525,0.00092501498862964,-0.000925004747521,0.00092501279222966,-0.00092500265646167,0.00092501490048601,-0.00084194618179608,0.00084195607721987,-0.00084194631161322,0.00084195620702077,0.42516298576731,122718,2924,0.0044290764274336,0.0074208155355162,0.0033633282927754,37.105153017168,0.00021204122413735,0.00021204122413735,0.00021204122413735,3610288.5429853,0.015330016965493
12419200,0.99361744789061,0.015812548076222,0.0049869546382292,0.0067551434351953,0.0040704500027971,-0.0010613629168226,0.0010613699420527,3.380690878865e-09,3.3806996736349e-09,1.1910141758308e-09,5.1793036608872e-09,-0.0011924637887907,0.0011924698771135,-0.0011924632128929,0.0011924693020329,-0.0011924624492647,0.001192471222028,-0.0011924619044907,0.0011924706780934,-0.00098036306715993,0.00098037104826134,-0.00098036424433568,0.00098037222528103,8.8545847149856e-10,-2.9515061087497e-09,2.0952380377397e-09,-4.0996573471645e-09,-0.0017925963684748,0.0017925943577547,-0.0019926510865441,0.0019926524649437,-0.0019926522702175,0.0019926494882548,-0.0019926518368497,0.0019926506408834,-0.0019926530203094,0.0019926476639691,-0.0015279536856721,0.0015279564926166,-0.0015279608918324,0.0015279515219422,-0.0016128079835828,0.00161280763597,-0.0016128126358451,0.0016128047412326,3.6901479792586e-09,3.69015546491e-09,-0.00080613394705925,0.00080614238195144,4.2972446171267e-10,6.7162269278978e-09,-0.00092597204245241,0.0009259795783192,-0.00092596992965356,0.00092598168188619,-0.00092597196520151,0.00092597950087383,-0.00092596986530781,0.0009259816173503,-0.00083976739484181,0.00083977685091031,-0.00083976752207647,0.00083977697812923,0.44663644431852,122718,2924,0.0044135702870982,0.0074404874247226,0.0033560855545125,36.802505921507,0.00020962004737206,0.00020962004737206,0.00020962004737206,3527448.3232067,0.01532690779428
12919200,0.99518454579768,0.015828069573824,0.0049913728471843,0.0067619930558378,0.0040747036708024,-0.0010569667090549,0.0010569743147348,3.586530347798e-09,3.5865391615498e-09,1.375542729226e-09,5.4235280180596e-09,-0.0011899329532616,0.0011899394975137,-0.0011899323048349,0.0011899388499043,-0.0011899315931038,0.0011899408624834,-0.0011899309769097,0.0011899402471283,-0.00097651802194128,0.00097652646695624,-0.00097651919302692,0.00097652763788615,9.099747048974e-10,-2.9816711442874e-09,2.1622527418983e-09,-4.171501315263e-09,-0.0017951757138274,0.0017951736982111,-0.0019953094009139,0.0019953108451541,-0.0019953105505566,0.0019953077342594,-0.0019953101107512,0.0019953089396869,-0.0019953112601801,0.0019953058285665,-0.0015302502404,0.0015302531581575,-0.0015302575451496,0.0015302480168911,-0.0016146256027729,0.0016146252553561,-0.0016146302632729,0.0016146222627299,4.0506171486233e-09,4.0506246632503e-09,-0.00080340319340643,0.00080341255857163,7.1945424531372e-10,7.1520348739407e-09,-0.00092509451873951,0.00092510280517918,-0.00092509235567323,0.00092510495844038,-0.00092509440156261,0.0009251026878075,-0.00092509225198349,0.00092510485456052,-0.00083673611113051,0.00083674638193499,-0.00083673622956511,0.00083674650035338,0.41875849256559,122718,2924,0.004395365846287,0.0074511158521535,0.0033447807867514,36.136974329024,0.00020429579463219,0.00020429579463219,0.00020429579463219,3466112.4562607,0.015307747010491
13419200,0.99630105020405,0.015838881140963,0.0049944523117342,0.0067667448465043,0.0040776839827243,-0.0010536609880048,0.0010536696757319,3.9811901060405e-09,3.9811989041312e-09,1.6896560858668e-09,5.9159128608053e-09,-0.0011859825989412,0.0011859900129191,-0.0011859818084939,0.0011859892232893,-0.0011859811787455,0.0011859914380234,-0.0011859804226723,0.0011859906827894,-0.00097310172868279,0.00097311107642676,-0.00097310289877543,0.00097311224636351,9.536705572544e-10,-3.1051002815531e-09,2.2997754850258e-09,-4.3860175591743e-09,-0.0017938197904317,0.001793817697647,-0.0019952896586032,0.0019952912108457,-0.0019952907716597,0.001995287814468,-0.0019952903173123,0.001995289134512,-0.0019952914301551,0.0019952857379087,-0.0015275003358501,0.0015275034620934,-0.0015275079336774,0.0015274979289001,-0.0016119549681222,0.0016119545848525,-0.0016119597313898,0.0016119513691027,4.740589562515e-09,4.7405970297115e-09,-0.00080005958489316,0.00080007071862749,1.2287770060001e-09,8.0277572205026e-09,-0.00092109181417618,0.00092110154721683,-0.00092108952602826,0.00092110382420068,-0.00092109161859023,0.00092110135143645,-0.00092108934532678,0.0009211036433093,-0.00083339014900883,0.00083340200170643,-0.0008333902549457,0.00083340210762695,0.40900439415344,122718,2924,0.004381657875765,0.0074455255774048,0.0033309052133236,34.796283763578,0.00019357027010862,0.00019357027010862,0.00019357027010862,3473372.6043996,0.015274060948555
13919200,0.99712320569722,0.015846675793879,0.0049966725053359,0.0067701705183726,0.0040798327701709,-0.0010508684929613,0.0010508766669898,3.7994674970268e-09,3.7994762849672e-09,1.4726635459815e-09,5.7613360654909e-09,-0.0011833755143083,0.0011833824852495,-0.0011833747966265,0.0011833817683854,-0.0011833740760286,0.001183383931175,-0.0011833733908294,0.001183383246815,-0.00097031049134572,0.00097031946859138,-0.00097031166757733,0.00097032064466714,9.7528684642101e-10,-3.1503131699187e-09,2.3749724557511e-09,-4.4838467422069e-09,-0.0017934600501979,0.0017934579346833,-0.0019954267070985,0.0019954283075679,-0.0019954279499857,0.0019954249379178,-0.0019954274369239,0.0019954262640653,-0.0019954286795973,0.0019954228941895,-0.0015266556046789,0.0015266588590713,-0.0015266634000622,0.0015266531793952,-0.0016110124048154,0.0016110120094983,-0.0016110172691698,0.0016110087606465,4.3957922686812e-09,4.3957997406414e-09,-0.00079756166233524,0.00079757190325525,8.0433191900611e-10,7.766721958424e-09,-0.00091882090845679,0.0009188298135053,-0.0009188185682638,0.00091883214324281,-0.0009188207512514,0.00091882965610545,-0.00091881842522223,0.00091883200001123,-0.00083073952091341,0.00083075069616526,-0.00083073962833881,0.00083075080357423,0.40047476240274,122718,2924,0.0043700804919864,0.0074440349178083,0.0033205384530399,33.829320105911,0.00018583456084729,0.00018583456084729,0.00018583456084729,3461550.41792,0.015250270367139
14419200,0.99772954119252,0.015852160010291,0.0049982318555817,0.0067725845783904,0.0040813435763185,-0.0010476974921712,0.0010477060185662,3.9282734709089e-09,3.9282822609041e-09,1.5598513082346e-09,5.9403024502495e-09,-0.0011804197078186,0.0011804269479309,-0.0011804189462971,0.0011804261872269,-0.0011804182392754,0.0011804284247088,-0.001180417510644,0.0011804276969166,-0.00096718007785479,0.00096718936051361,-0.00096718125329616,0.00096719053579914,1.0032546591412e-09,-3.2107768799115e-09,2.4711637633492e-09,-4.6113122889867e-09,-0.001792357625992,0.0017923554791069,-0.0019946794946525,0.0019946811705035,-0.0019946807617509,0.0019946776731326,-0.0019946802189754,0.0019946790605877,-0.00199468148586,0.0019946755629911,-0.0015251805391045,0.0015251839511632,-0.0015251885339395,0.0015251780335056,-0.001609458653383,0.0016094582375946,-0.0016094635815927,0.0016094548791728,4.6190487837671e-09,4.6190562520725e-09,-0.00079461531951014,0.00079462612960194,9.1618253886998e-10,8.1059110187325e-09,-0.0009161214096566,0.00091613073995292,-0.00091611899303918,0.0009161331457274,-0.00091612122841113,0.00091613055851301,-0.00091611882633801,0.00091613297883633,-0.00082770813564941,0.00082771985809486,-0.00082770823768992,0.00082771996011909,0.38210045494667,122718,2924,0.0043569334948959,0.0074394713426209,0.0033083122275972,32.643242203435,0.00017634593762748,0.00017634593762748,0.00017634593762748,3452415.8458244,0.015219879166275
14919200,0.99816445434949,0.015856248531963,0.0049993995830997,0.0067743731464233,0.0040824758024396,-0.0010433839214437,0.0010433937958494,4.419988449056e-09,4.4199972460139e-09,1.937014873562e-09,6.5734816724707e-09,-0.0011758505570663,0.0011758588590915,-0.0011758496192999,0.0011758579221427,-0.0011758490028244,0.0011758604219601,-0.0011758481004562,0.001175859520431,-0.00096277786339401,0.00096278828059775,-0.00096277903437368,0.00096278945142161,1.0765668645036e-09,-3.380586211e-09,2.6942123050752e-09,-4.9273761607465e-09,-0.0017889868504896,0.0017889846103227,-0.0019918514897382,0.0019918533469424,-0.0019918527434499,0.00199184946028,-0.0019918521633186,0.0019918510148456,-0.0019918534168166,0.0019918471279576,-0.0015212291421754,0.0015212329040768,-0.0015212375948423,0.0015212263934933,-0.0016055892833375,0.0016055888271982,-0.0016055943664681,0.0016055851484945,5.4978327493216e-09,5.4978401879349e-09,-0.00079002150474359,0.00079003455811077,1.5210807099108e-09,9.2672933663201e-09,-0.00091130211065758,0.00091131323478878,-0.00091129950501933,0.00091131582790749,-0.000911301833912,0.0009113129578488,-0.0009112992444676,0.00091131556716589,-0.00082316240067116,0.00082317616455554,-0.0008231624874523,0.00082317625132039,0.39678962402156,122718,2924,0.0043390420309466,0.0074255364611301,0.0032892434787757,30.580255095115,0.00015984204076092,0.00015984204076092,0.00015984204076092,3462260.5360475,0.015168209786244
15419200,0.99846079579676,0.015859669927855,0.0050003879013806,0.0067758488329645,0.00408343319351,-0.0010346798315778,0.0010346918696098,5.202352875165e-09,5.2023617230328e-09,2.5401557746042e-09,7.590668593932e-09,-0.0011685421821649,0.0011685521489844,-0.0011685409691328,0.0011685509367698,-0.0011685404896715,0.0011685538507247,-0.0011685393157546,0.0011685526776469,-0.00095433157257741,0.0009543438019877,-0.00095433273032862,0.00095434495958326,1.2147965893863e-09,-3.63726295229e-09,3.0742457446086e-09,-5.4205938002861e-09,-0.0017841654454444,0.0017841630916201,-0.001986659895339,0.001986662082201,-0.0019866611339516,0.0019866575732945,-0.0019866604891345,0.0019866593933569,-0.0019866617275333,0.0019866548842246,-0.0015166225849922,0.0015166269508566,-0.0015166317650203,0.0015166194656362,-0.001600791987805,0.0016007915060025,-0.0016007973067462,0.0016007872904523,6.9066956504866e-09,6.9067030878637e-09,-0.00078178511817967,0.00078180177092293,2.4894556121928e-09,1.1137056635418e-08,-0.0009045133082618,0.00090452726343877,-0.00090451039682671,0.00090453015987704,-0.00090451288239378,0.0009045268373763,-0.00090450998950422,0.00090452975236456,-0.00081485117545597,0.00081486821875821,-0.00081485123663132,0.00081486827991724,0.48651353790675,122718,2924,0.0043029534658499,0.0074055636880301,0.0032550681281371,27.072287180124,0.00013177829744099,0.00013177829744099,0.00013177829744099,3438540.5900478,0.015076617792314
15919200,0.99868850679305,0.015862893775361,0.0050013245096353,0.0067772275108911,0.004084341754835,-0.0010257564656265,0.0010257658892152,4.2478288420682e-09,4.2478377647826e-09,1.6044478637706e-09,6.5889448691394e-09,-0.0011640850431317,0.0011640927819723,-0.0011640841957444,0.0011640919354019,-0.0011640833804748,0.0011640944604679,-0.0011640825645309,0.0011640936453626,-0.00094658685470205,0.00094659702748405,-0.00094658801867098,0.00094659819129763,1.2426634029566e-09,-3.5719012776914e-09,3.1740896133293e-09,-5.4282731020417e-09,-0.0017852816186011,0.0017852793568428,-0.0019858374486882,0.0019858397119446,-0.0019858390954992,0.0019858355896857,-0.0019858382802161,0.0019858373123736,-0.0019858399268129,0.0019858331898887,-0.001519333897163,0.0015193384870695,-0.0015193432913187,0.0015193309858222,-0.0016025807165677,0.0016025802692288,-0.0016025861406451,0.0016025762208232,5.1748499257766e-09,5.1748574290571e-09,-0.0007758912618483,0.00077590347570184,7.3648595097739e-10,9.4398955046335e-09,-0.00090299335172624,0.0009030033383029,-0.00090299043176228,0.00090300624684674,-0.00090299312049331,0.00090300310687532,-0.00090299021532984,0.00090300603022414,-0.00080852941967039,0.00080854282364024,-0.00080852950047464,0.00080854290442799,0.59571470761932,122718,2924,0.0042659821078769,0.007410078617525,0.003230634699119,25.3547631938,0.0001180381055504,0.0001180381055504,0.0001180381055504,3324333.0093247,0.015018897589269
16419200,0.99887327179539,0.015865096828464,0.0050019554389465,0.0067781825097638,0.0040849588797537,-0.0010167300265342,0.0010167382862438,3.813310049036e-09,3.8133190404723e-09,1.2639833163703e-09,6.0481342784141e-09,-0.0011596257124854,0.0011596325074714,-0.0011596250212425,0.0011596318170454,-0.0011596241173001,0.0011596341184025,-0.0011596234549567,0.0011596334568977,-0.00093890574694247,0.00093891493321149,-0.00093890691132099,0.00093891609743515,1.2068840569323e-09,-3.417141911072e-09,3.1197115518947e-09,-5.2577368550423e-09,-0.0017880119743282,0.0017880098289183,-0.0019871153159,0.0019871175430916,-0.0019871170510848,0.001987113676709,-0.0019871161913486,0.0019871153228951,-0.0019871179263191,0.0019871114562863,-0.001523079128396,0.0015230836825711,-0.0015230883496934,0.0015230764421676,-0.0016053245381594,0.001605324101846,-0.0016053298325547,0.0016053202947139,4.3901963845011e-09,4.3902039926492e-09,-0.00077079471011832,0.00077080493686007,7.0459103728629e-11,8.5363643043538e-09,-0.0009021194494652,0.00090212774093072,-0.00090211661211221,0.00090213056844711,-0.00090211930170391,0.00090212759297475,-0.00090211647759704,0.00090213043374172,-0.00080297974025486,0.00080299141409146,-0.00080297982711376,0.00080299150093397,0.50210013400473,122718,2924,0.004228595979835,0.0074212699103129,0.0032095211947841,24.412516978747,0.00011050013582997,0.00011050013582997,0.00011050013582997,3197406.438034,0.014970903119298
16919200,0.99902682460475,0.015867484234719,0.0050026513707067,0.0067791875024737,0.0040856453615384,-0.0010167836730985,0.0010167915367066,3.6810789956094e-09,3.6810878519892e-09,1.2062708216754e-09,5.8052872064608e-09,-0.0011552702239206,0.0011552768161316,-0.0011552695755435,0.0011552761685721,-0.0011552686896131,0.0011552783662177,-0.0011552680695692,0.0011552777470132,-0.00093818674638963,0.00093819558252846,-0.00093818792825739,0.00093819676424079,1.0979328351997e-09,-3.3400944163495e-09,2.9390123734835e-09,-5.1097914343204e-09,-0.0017843205845296,0.0017843184066157,-0.0019871008414797,0.0019871028638246,-0.0019871025206841,0.0019870991636923,-0.0019871016941081,0.0019871007439387,-0.0019871033730987,0.0019870970435804,-0.0015158687926862,0.001515873054427,-0.0015158777441708,0.0015158661872129,-0.001598677920488,0.0015986773771679,-0.0015986830974699,0.001598673820467,4.1137593096828e-09,4.1137667748504e-09,-0.00076909308783481,0.00076910260940841,-4.6092955127155e-11,8.0888788617913e-09,-0.00089619267167971,0.00089620053081614,-0.00089618994550272,0.00089620324741585,-0.00089619254385529,0.00089620040279727,-0.00089618983095399,0.00089620313267732,-0.00080151164044196,0.00080152261813934,-0.00080151173352853,0.00080152271120923,0.65164127745866,122718,2924,0.0042287832655766,0.0074061078640059,0.0032024245516725,23.780088199098,0.00010544070559278,0.00010544070559278,0.00010544070559278,3276134.1231805,0.014948471143338
17419200,0.99914728337963,0.015869167943241,0.0050031360976357,0.0067799101778649,0.0040861216677403,-0.0010054541052395,0.0010054636549998,4.2643154602185e-09,4.2643244378454e-09,1.7856425421769e-09,6.4629040219537e-09,-0.0011502258745183,0.0011502337559262,-0.0011502250205856,0.0011502329028105,-0.001150224309907,0.0011502353315908,-0.0011502234880306,0.0011502345105528,-0.00092818262022338,0.00092819274955962,-0.00092818378419756,0.00092819391337901,1.16954325008e-09,-3.3370069496107e-09,3.0534850785974e-09,-5.1503620025644e-09,-0.0017868276762101,0.0017868255721967,-0.0019868212362396,0.001986823425505,-0.0019868227371857,0.0019868194182204,-0.0019868219406587,0.0019868210989249,-0.0019868234413904,0.0019868170914142,-0.0015209586714329,0.001520963128666,-0.0015209676474199,0.0015209559928253,-0.0016024699481343,0.0016024694895825,-0.0016024750310864,0.001602465708569,5.1660972839194e-09,5.1661048486377e-09,-0.00076230978846789,0.00076232204498111,9.2736277652727e-10,9.2383574494433e-09,-0.00089539357459291,0.00089540365415351,-0.00089539078465792,0.00089540643309252,-0.00089539333468484,0.00089540341405082,-0.00089539055931859,0.0008954062075631,-0.00079386007396382,0.00079387335211102,-0.00079386013540022,0.00079387341353105,0.58772740813402,122718,2924,0.0041818599822282,0.0074163346422151,0.0031743201469062,21.983776567717,9.1070212541736e-05,9.1070212541736e-05,9.1070212541736e-05,3116666.4700212,0.014882744133157
17919200,0.99923931406241,0.015870244487978,0.0050034432579435,0.0067803743662447,0.0040864268637895,-0.0010002261115613,0.0010002368049206,4.6850188645973e-09,4.6850277422574e-09,2.098370361792e-09,6.9996734067822e-09,-0.0011420038207337,0.0011420126460681,-0.001142002816801,0.0011420116429528,-0.0011420021817983,0.0011420142977178,-0.001142001211978,0.0011420133287367,-0.00092257031132652,0.0009225814134646,-0.00092257148650029,0.0009225825884833,1.2053471922354e-09,-3.5099933512301e-09,3.1854393723079e-09,-5.415072974473e-09,-0.0017807920500843,0.0017807898130568,-0.0019837282215648,0.0019837304930596,-0.0019837296897564,0.0019837261742812,-0.00198372887883,0.0019837279706371,-0.0019837303468074,0.0019837236516329,-0.0015120202788499,0.0015120249188055,-0.0015120296013252,0.001512017356353,-0.0015938343056924,0.0015938337798149,-0.0015938395471552,0.001593829749669,5.8609705681149e-09,5.8609781082127e-09,-0.00075602438877836,0.00075603843697533,1.4176860156065e-09,1.0143582667897e-08,-0.00088631640206744,0.0008863279698615,-0.00088631347093137,0.00088633088840526,-0.0008863160751528,0.00088632764275251,-0.00088631316030842,0.00088633057759237,-0.00078774848590517,0.00078776337479359,-0.00078774853025397,0.00078776341912533,0.4915601615792,122718,2924,0.0041601515338816,0.0073914424674856,0.0031482076833807,19.503919780167,7.1231358241333e-05,7.1231358241333e-05,7.1231358241333e-05,3166603.221489,0.014808929782503
18419200,0.99931246961753,0.015871140041446,0.005003700447036,0.006780757915498,0.0040866816789123,-0.00099927106577517,0.00099928119152148,4.5052679878706e-09,4.5052768009797e-09,1.84105111036e-09,6.8629776041569e-09,-0.0011366438565848,0.0011366522608973,-0.0011366429195884,0.0011366513247188,-0.0011366421807581,0.0011366539535282,-0.0011366412761278,0.0011366530497374,-0.00092056881864111,0.00092057955726159,-0.0009205700142708,0.00092058075273596,1.2061722079729e-09,-3.6315599923939e-09,3.2440300405208e-09,-5.5919645737913e-09,-0.0017743592525687,0.0017743568971527,-0.0019801821594284,0.0019801844239653,-0.0019801837802266,0.0019801801129552,-0.0019801829158187,0.0019801819247541,-0.001980184536403,0.0019801776135182,-0.0015030041137128,0.0015030088291674,-0.001503013733634,0.0015030010970541,-0.0015855382007033,0.0015855375989115,-0.0015855436422061,0.0015855335261407,5.5059895067081e-09,5.5059969172354e-09,-0.00075230307650171,0.00075231617697179,9.4656949727514e-10,9.897163676948e-09,-0.0008785308806078,0.00087854164861859,-0.00087852787691517,0.00087854464010137,-0.000878530590373,0.00087854135818944,-0.00087852760270953,0.00087854436570598,-0.00078429285446323,0.00078430705015422,-0.00078429290326034,0.00078430709893461,0.51421839069127,122718,2924,0.0041561434300253,0.0073649368303506,0.0031327124033098,17.480437368742,5.5043498949934e-05,5.5043498949934e-05,5.5043498949934e-05,3262974.4270276,0.01476221769516
18919200,0.99937631193214,0.015872033164884,0.0050039584850778,0.0067811391042789,0.0040869355755272,-0.00099671692891295,0.00099672491651786,3.7355621856284e-09,3.7355710299761e-09,1.1729451105967e-09,5.9563027170406e-09,-0.0011355983176697,0.0011356049794574,-0.0011355976671815,0.0011356043297867,-0.0011355967240304,0.0011356065913185,-0.0011355961010234,0.0011356059691507,-0.00091817693060719,0.00091818593855619,-0.00091817812662546,0.00091818713441927,1.1541112021656e-09,-3.4668171738798e-09,3.1032739348762e-09,-5.3427115218304e-09,-0.0017747879997087,0.0017747857530431,-0.001979710894857,0.0019797130389722,-0.0019797126949355,0.0019797091999132,-0.0019797117946714,0.0019797108461747,-0.0019797135945358,0.0019797070068897,-0.0015044978871054,0.0015045024100482,-0.0015045072317779,0.0015044951551054,-0.0015866600346436,0.001586659470006,-0.0015866653900377,0.0015866557309993,4.1444640436191e-09,4.1444715025847e-09,-0.00075061229542374,0.0007506218812059,-2.0876524639444e-10,8.3217458032539e-09,-0.00087842544147671,0.00087843324540418,-0.00087842258446428,0.00087843609300046,-0.0008784253104068,0.00087843311413989,-0.00087842246655618,0.00087843597490245,-0.00078223307357493,0.00078224424209534,-0.00078223314786875,0.00078224431637262,0.5877987766322,122718,2924,0.0041455569908868,0.0073666742021266,0.0031256924228114,16.875332657935,5.020266126348e-05,5.020266126348e-05,5.020266126348e-05,3222624.9035858,0.014746127494903
19419200,0.99943652371817,0.015872975261652,0.0050042315725439,0.0067815389283038,0.0040872047608047,-0.00099386601938991,0.00099387203749112,3.0164995707881e-09,3.0165084942534e-09,6.5274659030444e-10,5.0010702276198e-09,-0.0011361137338827,0.0011361188631293,-0.0011361133341257,0.0011361184641895,-0.0011361122840381,0.0011361203285509,-0.0011361119087413,0.0011361199540928,-0.00091626997033124,0.00091627729733425,-0.00091627116348483,0.00091627849033294,1.0382459054767e-09,-3.1655019865578e-09,2.7841177569372e-09,-4.8446617922607e-09,-0.0017790089826796,0.0017790069154076,-0.0019822735458772,0.0019822754392884,-0.0019822753541157,0.0019822721745141,-0.0019822745004246,0.0019822735914286,-0.0019822763084488,0.0019822703264282,-0.001510230368798,0.0015102344149684,-0.0015102390143777,0.0015102280543817,-0.0015916012579865,0.0015916007452265,-0.0015916063188581,0.0015915975281816,2.8821878766682e-09,2.8821953867756e-09,-0.00075053974365845,0.00075054610054659,-1.0628750262799e-09,6.6310688619302e-09,-0.00088152253631562,0.00088152777307433,-0.00088151996251048,0.00088153033984684,-0.00088152254536477,0.00088152778192884,-0.00088151998236924,0.00088153035951558,-0.00078177755303597,0.00078178577292902,-0.00078177765058403,0.00078178587046044,0.65664642788028,122718,2924,0.0041337675215469,0.0073840544735867,0.0031254173431238,17.545471881502,5.5563775052016e-05,5.5563775052016e-05,5.5563775052016e-05,3129307.9201456,0.014751540768319
19919200,0.99949458398427,0.015873860574141,0.005004487394909,0.0067819146679464,0.0040874585112853,-0.00099149650744652,0.00099150177342809,2.7383058109882e-09,2.7383148179706e-09,5.5364755747473e-10,4.5252463727707e-09,-0.0011364070041731,0.0011364116208616,-0.0011364066924734,0.0011364113099791,-0.0011364056760298,0.0011364129599303,-0.0011364053888173,0.0011364126735565,-0.00091479674635244,0.00091480335547512,-0.0009147979378882,0.0009148045468563,9.2299014657871e-10,-2.9116658955467e-09,2.4483166719592e-09,-4.3756019864217e-09,-0.0017837306884504,0.0017837287549233,-0.001986167593488,0.0019861692272451,-0.0019861692425102,0.0019861663404765,-0.0019861684988544,0.0019861675769503,-0.0019861701476623,0.0019861646899555,-0.0015155881529269,0.0015155916666199,-0.0015155960566023,0.001515586141912,-0.0015962341786856,0.0015962337083323,-0.001596238922825,0.0015962309014334,2.3947501289575e-09,2.3947576183367e-09,-0.00075108624696362,0.00075109136953227,-1.1540958417231e-09,5.7276869036243e-09,-0.00088444249863854,0.000884446923651,-0.00088444019583222,0.00088444922030483,-0.0008844425582886,0.00088444698310641,-0.00088444026552627,0.00088444928980887,-0.00078196891584524,0.00078197583645949,-0.00078196902105989,0.0007819759416576,0.63949909152815,122718,2924,0.0041239773627807,0.0074035239085159,0.0031277148395978,18.681308737962,6.4650469903698e-05,6.4650469903698e-05,6.4650469903698e-05,3044603.4347844,0.014763706861274
20419200,0.99954642934032,0.015874715139987,0.0050047355302287,0.0067822736948922,0.0040877059148661,-0.00098992669553464,0.00098993380174261,3.3960350515136e-09,3.3960440667831e-09,1.2295569366608e-09,5.2007283996703e-09,-0.0011338451238251,0.0011338512708225,-0.0011338445781883,0.0011338507260032,-0.0011338437904131,0.0011338526104163,-0.0011338432739322,0.0011338520947746,-0.00091323502276474,0.00091324304842056,-0.00091323621176058,0.0009132442372619,9.0632014765926e-10,-2.9128507256451e-09,2.3494981519736e-09,-4.2945262409948e-09,-0.0017835630238806,0.0017835610727093,-0.0019874249397985,0.0019874265162867,-0.0019874262802695,0.001987423408336,-0.0019874256596166,0.0019874246727004,-0.0019874269998734,0.0019874215645236,-0.0015140359903201,0.0015140393052798,-0.0015140436198951,0.0015140338726887,-0.0015945857774704,0.0015945853245085,-0.0015945903865193,0.0015945824209377,3.5283889502021e-09,3.5283963730658e-09,-0.00074988443143399,0.00074989249303724,6.0873781024246e-11,6.7848565493844e-09,-0.00088231624014122,0.00088232326596807,-0.00088231398370786,0.00088232551417048,-0.00088231616817335,0.00088232319380561,-0.00088231392396757,0.00088232545424017,-0.00078064900004477,0.00078065827930928,-0.00078064908193138,0.0007806583611791,0.69004788769245,122718,2924,0.0041174687851849,0.0074028555816194,0.0031227290916596,18.601931697814,6.4015453582513e-05,6.4015453582513e-05,6.4015453582513e-05,3044567.7194305,0.014751356391507
20919200,0.99958955136453,0.01587537851588,0.0050049270238658,0.0067825544277345,0.0040878970642801,-0.0009836413094735,0.00098365034934808,4.085944515345e-09,4.0859535584531e-09,1.8207724337292e-09,6.0450833351477e-09,-0.0011294471725074,0.0011294548290994,-0.0011294463884272,0.0011294540458365,-0.0011294457527306,0.0011294562535385,-0.0011294450017192,0.001129455503366,-0.00090739247474651,0.00090740207018084,-0.0009073936607954,0.00090740325607525,9.9415996468373e-10,-3.0611382777386e-09,2.4757262085579e-09,-4.4781963466462e-09,-0.0017832117282509,0.0017832097193934,-0.0019867412163252,0.0019867429385181,-0.0019867423952793,0.0019867394350526,-0.0019867418208395,0.0019867408082468,-0.0019867429995792,0.0019867373045553,-0.0015139844313977,0.0015139879061457,-0.0015139922499417,0.0015139820660643,-0.0015940206310582,0.0015940202407047,-0.0015940253301116,0.0015940169675029,4.7209715101768e-09,4.7209789691787e-09,-0.00074547302584618,0.00074548416797791,1.0926339573709e-09,8.1550078163397e-09,-0.00087967414132591,0.00087968370988478,-0.00087967176660401,0.00087968607435793,-0.00087967393571845,0.0008796835040827,-0.00087967157520265,0.00087968588276651,-0.00077585336246628,0.00077586528750265,-0.00077585341075313,0.00077586533577278,0.64466974006305,122718,2924,0.004091423436407,0.0074013607863372,0.003104434843857,17.278090140439,5.3424721123511e-05,5.3424721123511e-05,5.3424721123511e-05,2988643.2355255,0.014704858857245
21419200,0.99962415940031,0.015875908300903,0.0050050801272811,0.0067827777614269,0.0040880504121952,-0.00097951308142225,0.00097952333646947,4.5327200901909e-09,4.5327290708346e-09,2.0999041704003e-09,6.6801042477536e-09,-0.001123270963033,0.0011232795604253,-0.001123270027163,0.001123278625373,-0.0011232694263316,0.0011232811044574,-0.0011232685253965,0.0011232802043616,-0.000902973332061,0.00090298399905305,-0.0009029745274927,0.00090298519433009,1.0912251747023e-09,-3.306167282506e-09,2.6898344015819e-09,-4.83482988256e-09,-0.0017785841712765,0.0017785820194849,-0.0019840181822041,0.0019840200772925,-0.0019840193801869,0.0019840161995731,-0.0019840187780987,0.0019840177032114,-0.0019840199758673,0.0019840138252659,-0.0015075403538234,0.0015075441283133,-0.0015075486778445,0.0015075376789881,-0.0015877476549455,0.0015877472611985,-0.0015877526277183,0.0015877435903036,5.461712709582e-09,5.4617201074415e-09,-0.00074049435365142,0.00074050739671041,1.5457699897291e-09,9.1949318902913e-09,-0.00087289269667057,0.00087290376787175,-0.00087289012362897,0.0008729063291197,-0.00087289240397493,0.00087290347498156,-0.00087288984668856,0.00087290605198937,-0.00077093055491281,0.0007709442429974,-0.00077093058227329,0.00077094427034118,0.64095610021346,122718,2924,0.0040742815535357,0.0073822685939972,0.003083751131115,15.232485798533,3.7059886388267e-05,3.7059886388267e-05,3.7059886388267e-05,3022769.2782133,0.014647093154934
21919200,0.99965358847602,0.015876345945227,0.0050052063394117,0.0067829629657085,0.0040881766401072,-0.00097613608722423,0.00097614516221567,4.1165046854936e-09,4.1165136563045e-09,1.6373759384912e-09,6.2858822262599e-09,-0.0011197748288534,0.0011197824306043,-0.0011197740491946,0.0011197816517632,-0.0011197732740438,0.0011197839970886,-0.0011197725259228,0.0011197832498068,-0.00089954480772945,0.00089955459809367,-0.0008995460078625,0.00089955579807209,1.1170212564733e-09,-3.3592934983013e-09,2.7549082399149e-09,-4.9262190273902e-09,-0.0017767328958084,0.0017767307175787,-0.0019825977306459,0.0019825996599116,-0.0019825991456586,0.0019825959180237,-0.0019825984706707,0.0019825973904388,-0.0019825998854691,0.0019825936483249,-0.0015053731830364,0.0015053770649559,-0.0015053817274989,0.0015053705202919,-0.0015854664948182,0.0015854661058279,-0.0015854716282789,0.0015854624348797,4.7191467989195e-09,4.7191542023786e-09,-0.00073728407764412,0.00073729518834332,7.3446570207696e-10,8.5204198116457e-09,-0.00086966860956624,0.00086967796369874,-0.00086966599545401,0.00086968056747725,-0.00086966840373281,0.0008696777576708,-0.00086966580387736,0.00086968037571066,-0.00076755044964963,0.00076756260273379,-0.00076755049080619,0.00076756264387357,0.62311101531201,122718,2924,0.0040602691941369,0.0073746142471987,0.0030704139497708,13.996713063394,2.7173704507154e-05,2.7173704507154e-05,2.7173704507154e-05,3016990.9940095,0.014611578648469
22419200,0.99968213915141,0.015876789749116,0.0050053347089194,0.0067831500337985,0.0040883050063986,-0.0009776886264384,0.00097769447356481,2.9564665844238e-09,2.9564755004916e-09,6.8363271870662e-10,4.8396800048627e-09,-0.0011205945159659,0.0011205995799592,-0.0011205941442902,0.0011205992091012,-0.0011205931275665,0.0011206009809309,-0.0011205927811355,0.0011206006353391,-0.0009010495663366,0.00090105670257983,-0.00090105076635442,0.00090105790244293,9.5944930060011e-10,-3.0538094224537e-09,2.3816982843993e-09,-4.4116472104413e-09,-0.0017782056158847,0.0017782035795592,-0.0019846383072453,0.0019846398932209,-0.0019846398804625,0.0019846369443063,-0.0019846392162193,0.0019846381249918,-0.0019846407892222,0.0019846351758511,-0.0015064212666705,0.0015064245861329,-0.0015064291217978,0.0015064190760345,-0.0015864490240786,0.0015864486322984,-0.0015864539213871,0.0015864456283817,2.6927660141417e-09,2.6927734486251e-09,-0.00073888686113606,0.00073889275401378,-8.4006033985091e-10,6.0147288851226e-09,-0.00087063816859059,0.00087064328353044,-0.00087063587378667,0.00087064557179117,-0.0008706381905652,0.00087064330531059,-0.00087063590632213,0.00087064560413674,-0.00076905803174001,0.0007690655784174,-0.00076905812378179,0.00076906567044228,0.65096373206224,122718,2924,0.0040667013377632,0.0073807218426204,0.0030770537076639,14.849548173498,3.3996385387987e-05,3.3996385387987e-05,3.3996385387987e-05,3017672.1007284,0.014631034821837
22919200,0.99970914141679,0.015877168157277,0.005005443457991,0.0067833108401495,0.0040884138591366,-0.00097673503353007,0.00097674135583257,3.1205671483193e-09,3.1205760871428e-09,9.3656499822741e-10,4.9267200699661e-09,-0.0011209385516655,0.0011209440553374,-0.0011209381142139,0.0011209436187033,-0.0011209372140887,0.0011209454008121,-0.0011209368040898,0.0011209449916523,-0.00090043318745548,0.00090044062466678,-0.00090043438408179,0.00090044182113843,9.0934388016866e-10,-2.934227885117e-09,2.210964037684e-09,-4.1742525575673e-09,-0.0017804345214173,0.0017804325520184,-0.0019863280076744,0.0019863294784367,-0.0019863293816643,0.0019863265876007,-0.0019863288128201,0.0019863277117765,-0.0019863301865957,0.0019863248207144,-0.0015092169609539,0.0015092199994156,-0.0015092243911048,0.0015092148702718,-0.0015888651640869,0.0015888648062723,-0.0015888698554941,0.0015888619339285,2.9827932761008e-09,2.9828007469162e-09,-0.00073924827987575,0.00073925493797804,-3.5551240028138e-10,6.102650232968e-09,-0.00087221569179848,0.0008722215930845,-0.00087221352634308,0.00087222375144483,-0.00087221567903961,0.00087222158013118,-0.00087221352474165,0.00087222374965343,-0.00076916075319176,0.00076916878659764,-0.00076916083681409,0.00076916887020308,0.58748017292924,122718,2924,0.0040627646197416,0.0073899107752647,0.0030785674912677,15.357160775141,3.8057286201125e-05,3.8057286201125e-05,3.8057286201125e-05,2976521.9106299,0.014637908042222
23419200,0.99973436561692,0.015877532379635,0.0050055486002861,0.0067834644793888,0.0040885192999599,-0.00097908712496859,0.00097909371334611,3.2202390993012e-09,3.2202479412685e-09,1.0707027023262e-09,4.9865968055964e-09,-0.0011206975729978,0.0011207033407017,-0.0011206971007934,0.0011207028693151,-0.001120696258053,0.0011207046616408,-0.0011206958144988,0.0011207042189259,-0.00090238995247523,0.00090239757753251,-0.00090239115354693,0.0009023987784493,8.6796554813065e-10,-2.8979829170817e-09,2.0568526292699e-09,-4.0260654739928e-09,-0.001779523556401,0.0017795215812185,-0.0019870526900114,0.0019870540347582,-0.0019870539327075,0.0019870512057655,-0.0019870534459736,0.0019870522661702,-0.0019870546884555,0.0019870494369514,-0.0015068056793646,0.0015068084389887,-0.0015068128111245,0.0015068036074968,-0.0015867710857617,0.0015867707441565,-0.0015867756974228,0.0015867679472363,3.1301122050424e-09,3.1301196693957e-09,-0.00074028228796669,0.00074028933259584,-6.2960312282148e-11,6.0988103135166e-09,-0.00087089065372971,0.00087089700472121,-0.00087088858558394,0.00087089906538106,-0.00087089062005998,0.00087089697085713,-0.00087088856355272,0.00087089904316001,-0.00077036579906085,0.00077037404812289,-0.00077036588165319,0.00077037413069818,0.60459639632209,122718,2924,0.0040725001299932,0.0073862018793197,0.0030828430567685,15.705555011182,4.0844440089453e-05,4.0844440089453e-05,4.0844440089453e-05,3023975.8965198,0.014648345418734
23919200,0.99975922457179,0.015877955523719,0.0050056716767536,0.006783641608129,0.0040886422388368,-0.00098063657324725,0.00098064167419862,2.6803580078549e-09,2.6803668687167e-09,6.3900615785749e-10,4.3089471160352e-09,-0.0011233087452608,0.0011233133339721,-0.0011233084594403,0.0011233130489691,-0.0011233075128681,0.0011233145719358,-0.0011233072531589,0.0011233143130658,-0.00090411872222515,0.00090412510936052,-0.00090411992036969,0.00090412630735021,7.9966197093452e-10,-2.7345205698619e-09,1.8285335374968e-09,-3.7061860811475e-09,-0.0017828996901979,0.0017828978068409,-0.0019897612434355,0.0019897624048775,-0.001989762512375,0.0019897599849533,-0.0019897620686335,0.0019897608709084,-0.0019897633373587,0.0019897584507581,-0.0015109592583172,0.0015109616544706,-0.0015109659312906,0.0015109574322505,-0.0015906177616556,0.0015906174737775,-0.0015906222355833,0.0015906149913664,2.1965526752941e-09,2.1965601750053e-09,-0.00074280048532254,0.00074280513395991,-7.2100526049009e-10,4.8749816727895e-09,-0.00087442881997289,0.00087443325425143,-0.00087442694408678,0.00087443512446047,-0.00087442889163808,0.0008744333257222,-0.00087442702558985,0.00087443520577365,-0.00077260733311427,0.00077261341612059,-0.00077260743632239,0.00077261351931162,0.71228945632067,122718,2924,0.0040789392907129,0.0074001411336959,0.0030933022624368,17.003831497998,5.1230651983983e-05,5.1230651983983e-05,5.1230651983983e-05,2989838.3988913,0.014679643099645
24419200,0.99978293017606,0.015878340005519,0.0050057829571251,0.0067838033655241,0.0040887536828702,-0.00097717608022255,0.00097718178562628,2.8900861317128e-09,2.8900950765774e-09,8.9840698191391e-10,4.4917591553705e-09,-0.0011242866629154,0.0011242917662395,-0.0011242862949396,0.0011242913990808,-0.0011242854526026,0.0011242929783725,-0.0011242851130236,0.0011242926396321,-0.00090174485552898,0.00090175167061087,-0.00090174604776791,0.00090175286269591,7.8874781253104e-10,-2.6640794868474e-09,1.7295534214478e-09,-3.549308501591e-09,-0.001788024136509,0.0017880223111814,-0.001992689126571,0.0019926902441543,-0.0019926902263121,0.0019926878105682,-0.0019926898625161,0.0019926886680159,-0.0019926909620427,0.0019926862342035,-0.0015180518689394,0.0015180540952034,-0.0015180582551636,0.0015180500938269,-0.0015968186655189,0.0015968184386523,-0.0015968230042222,0.0015968159839495,2.5780632404432e-09,2.5780707997366e-09,-0.00074299671500232,0.0007430023553165,-2.2042444336103e-10,5.1325227084773e-09,-0.00087857744204854,0.00087858280849689,-0.0008785756440831,0.00087858460014079,-0.00087857747126367,0.00087858283751743,-0.00087857568378047,0.00087858463964823,-0.00077236267982356,0.00077236949159957,-0.00077236276846323,0.00077236958022255,0.6789410524186,122718,2924,0.0040646397318309,0.0074212341624446,0.0030941583232592,17.881340323453,5.8250722587624e-05,5.8250722587624e-05,5.8250722587624e-05,2878765.9717503,0.014687429771065
24919200,0.99980488612091,0.015878659068338,0.0050058749305103,0.0067839376545462,0.004088846483281,-0.00097759440965734,0.00097760077354772,3.1294450215053e-09,3.1294539461101e-09,1.122318333313e-09,4.7542455475914e-09,-0.0011232110326729,0.0011232166828705,-0.0011232105842181,0.0011232162352334,-0.001123209808143,0.0011232179082157,-0.0011232093896896,0.0011232174906014,-0.00090215624064191,0.00090216358249453,-0.00090215743612898,0.00090216477782711,7.8966326997621e-10,-2.6953345304391e-09,1.6814635990883e-09,-3.5307014614939e-09,-0.0017883096082946,0.0017883077534659,-0.0019944623652276,0.0019944634508591,-0.0019944633579791,0.0019944609434877,-0.00199446304877,0.0019944617947034,-0.0019944640413071,0.0019944592871056,-0.0015168694858114,0.0015168716031871,-0.00151687577824,0.0015168676433039,-0.0015956355069371,0.0015956353005067,-0.0015956398441207,0.0015956327835081,2.966459668164e-09,2.9664671756883e-09,-0.00074338096463135,0.00074338761169452,1.979992664642e-10,5.4925386128323e-09,-0.00087758979479929,0.00087759606340074,-0.00087758801415893,0.00087759783693432,-0.0008775897768369,0.00087759604524389,-0.00087758800751678,0.00087759783010223,-0.00077274863910371,0.00077275625847254,-0.00077274871994472,0.00077275633929647,0.60789483588396,122718,2924,0.0040663707626148,0.0074224503125732,0.0030957517660214,18.351717107348,6.2013736858782e-05,6.2013736858782e-05,6.2013736858782e-05,2892432.4214791,0.014692024788566
25419200,0.99982645014712,0.015879039782274,0.005005986006042,0.006784095490461,0.0040889582857706,-0.00098283342836384,0.00098283810429326,2.5254867445896e-09,2.5254956063843e-09,5.9846799651498e-10,4.0232422145944e-09,-0.0011254267841141,0.0011254310959032,-0.0011254265505846,0.0011254308631916,-0.0011254256306787,0.0011254322515752,-0.0011254254237282,0.0011254320454642,-0.00090683806151148,0.00090684403721813,-0.00090683925988487,0.00090684523543679,7.1634266357629e-10,-2.5765249201088e-09,1.464149504473e-09,-3.2703567334349e-09,-0.0017894730780361,0.0017894712664568,-0.0019974454398604,0.0019974463268365,-0.0019974465135109,0.0019974442418109,-0.0019974462294339,0.0019974449180277,-0.0019974473028701,0.001997442832776,-0.0015165041962923,0.0015165059589978,-0.0015165101193452,0.0015165025573869,-0.0015955653179252,0.0015955651320719,-0.0015955695891324,0.0015955629226609,1.8977352688689e-09,1.8977427213361e-09,-0.00074716992495386,0.00074717382329142,-6.2715302372915e-10,4.1668374930217e-09,-0.00087870068876199,0.00087870472884476,-0.00087869907986286,0.00087870633262199,-0.00087870078926394,0.00087870482915233,-0.00087869918976259,0.00087870644233183,-0.00077655480591307,0.00077655999441072,-0.00077655491649353,0.00077656010497393,0.7372586897946,122718,2924,0.0040880757735044,0.0074273318689441,0.0031114564223894,19.919329842065,7.4554638736524e-05,7.4554638736524e-05,7.4554638736524e-05,2941651.9088055,0.014734921562909
25919200,0.99984652023842,0.015879389746203,0.005006087642631,0.0067842417241188,0.0040890603794531,-0.00097891943372804,0.00097892522427197,2.917773112707e-09,2.9177820916274e-09,1.0042216193825e-09,4.4417693638184e-09,-0.0011268517269017,0.0011268569497731,-0.0011268513453461,0.0011268565690352,-0.0011268505655105,0.0011268581095955,-0.0011268502137682,0.0011268577586922,-0.00090395786779469,0.0009039646926218,-0.00090395905913519,0.0009039658838079,7.3577326833759e-10,-2.5605100884097e-09,1.4403159498658e-09,-3.2117321013772e-09,-0.0017950773517575,0.0017950755750106,-0.0020002119619097,0.0020002128731508,-0.0020002128496241,0.0020002106354844,-0.0020002126377002,0.0020002113376779,-0.0020002135252001,0.0020002090997852,-0.001524826265135,0.001524827974728,-0.0015248320405366,0.0015248245957159,-0.0016028821006557,0.0016028819760297,-0.0016028862794411,0.0016028796715505,2.6077857841274e-09,2.607793314509e-09,-0.00074729842417201,0.00074730415702675,1.1343630453994e-10,4.8455770699402e-09,-0.00088361088446936,0.00088361653212769,-0.0008836092916916,0.00088361811856801,-0.00088361090712282,0.00088361655458647,-0.000883609324929,0.00088361815161526,-0.00077605421382586,0.0007760608856685,-0.00077605429892328,0.00077606097074813,0.72914636768882,122718,2924,0.0040719027880602,0.0074503888360099,0.0031120343997822,20.734036908178,8.1072295265424e-05,8.1072295265424e-05,8.1072295265424e-05,2814092.1542656,0.014742526252834
26419200,0.99986394311414,0.015879720543746,0.0050061842529953,0.0067843782726962,0.0040891580180544,-0.00097669591818825,0.00097670354543821,3.5798169227176e-09,3.5798259093616e-09,1.5649181330385e-09,5.2461723562709e-09,-0.0011241457057526,0.0011241523856444,-0.0011241451001045,0.0011241517808139,-0.0011241444613779,0.0011241536275409,-0.0011241438891473,0.0011241530561493,-0.00090195897673788,0.00090196730515207,-0.00090196017116259,0.00090196849942256,8.0604087882797e-10,-2.7168796726027e-09,1.571778717592e-09,-3.4258659151479e-09,-0.0017946059998121,0.0017946041401516,-0.0020007050711004,0.0020007061107833,-0.0020007058256325,0.0020007034843188,-0.00200070564131,0.00200070430454,-0.0020007063956277,0.0020007016778492,-0.0015233281829269,0.001523330065815,-0.0015233341979436,0.0015233262587832,-0.0016012370168897,0.001601236908161,-0.0016012413008932,0.0016012342679917,3.7257904657194e-09,3.7257979601651e-09,-0.00074565383166927,0.00074566244923021,1.0542945002326e-09,6.1562548611095e-09,-0.00088150715629708,0.00088151519112296,-0.00088150543518335,0.00088151690381256,-0.00088150705064042,0.00088151508527175,-0.00088150534219851,0.00088151681063772,-0.00077437941400683,0.00077438858383993,-0.00077437947075257,0.00077438864056843,0.7920419595447,122718,2924,0.0040626860993147,0.0074484508825455,0.0031052148654613,20.399042207975,7.8392337663797e-05,7.8392337663797e-05,7.8392337663797e-05,2808854.7160637,0.014724280827106
26919200,0.99988016405366,0.015880010778373,0.0050062686131481,0.0067844987509746,0.0040892434142498,-0.00097485855572506,0.00097486429889443,2.90421610773e-09,2.9042250665102e-09,9.0782121778422e-10,4.5131710423697e-09,-0.0011243973862461,0.0011244025215971,-0.0011243970163185,0.0011244021524868,-0.0011243961716556,0.0011244037373032,-0.0011243958308652,0.0011244033973519,-0.00090066279974121,0.00090066964944961,-0.00090066399261118,0.00090067084216557,7.9430251177997e-10,-2.6698461596795e-09,1.5261666135399e-09,-3.345857591759e-09,-0.0017982727712637,0.0017982709460189,-0.0020037235743555,0.0020037245631084,-0.002003724544456,0.0020037222656958,-0.0020037243096913,0.0020037229785869,-0.0020037252795772,0.0020037206809479,-0.0015276191157442,0.0015276209382951,-0.0015276251109086,0.001527617345843,-0.0016049451366904,0.0016049450555238,-0.0016049494864691,0.0016049425895159,2.5634367264147e-09,2.5634442923131e-09,-0.00074622589167703,0.00074623150203165,-3.6830122688563e-11,4.9112892909503e-09,-0.00088388754116928,0.00088389301630729,-0.00088388587724632,0.00088389467403367,-0.00088388756925606,0.00088389304419953,-0.00088388591575137,0.00088389471234881,-0.00077454173178686,0.00077454838046068,-0.00077454181378871,0.00077454846244557,0.74688297492095,122718,2924,0.0040550930676765,0.0074635695999258,0.0031076029182906,21.286669894242,8.5493359153936e-05,8.5493359153936e-05,8.5493359153936e-05,2744498.5660509,0.014734352365426
27419200,0.99989522168816,0.015880272831745,0.0050063448052354,0.0067846071952446,0.0040893208312649,-0.00097690417691196,0.0009769097926082,2.8599666857052e-09,2.8599755840991e-09,8.9309268573076e-10,4.428183635559e-09,-0.0011243475243081,0.0011243525834395,-0.0011243471708774,0.0011243522308265,-0.0011243463325032,0.0011243537758111,-0.0011243460081416,0.0011243534522888,-0.00090254122533775,0.00090254795700491,-0.00090254241999504,0.00090254915150774,7.6112935466773e-10,-2.6332849308353e-09,1.4419971152721e-09,-3.2589695230711e-09,-0.0017991962990461,0.0017991944766222,-0.0020063579553828,0.002006358866628,-0.0020063588903298,0.0020063566483632,-0.0020063586821062,0.0020063573197522,-0.0020063596168386,0.0020063551012611,-0.0015270232077031,0.0015270248885357,-0.0015270290482481,0.0015270214766859,-0.0016043442574051,0.0016043441674215,-0.0016043485564382,0.0016043417883714,2.467496548177e-09,2.4675040860193e-09,-0.00074787189243608,0.00074787726389352,-4.8602409200349e-11,4.7274587997556e-09,-0.00088373976334827,0.0008837450913911,-0.0008837381569656,0.00088374669170984,-0.00088373979943657,0.00088374512728495,-0.0008837382034051,0.00088374673795956,-0.00077608996142107,0.00077609635253215,-0.00077609004904516,0.00077609644013887,0.72588280929977,122718,2924,0.0040635667044393,0.0074674375284346,0.0031144264265114,22.250586661762,9.3204693294096e-05,9.3204693294096e-05,9.3204693294096e-05,2765504.4087366,0.014753786315814
27919200,0.99990886938762,0.015880523292076,0.0050064178267935,0.0067847105438136,0.0040893949214689,-0.00097824440283131,0.00097825048992005,3.0300015020119e-09,3.030010395992e-09,1.0564641924114e-09,4.6141135373516e-09,-0.0011247673520347,0.0011247728014896,-0.0011247669396333,0.0011247723899058,-0.0011247661514695,0.0011247740015744,-0.0011247657693159,0.0011247736202602,-0.00090371984886015,0.00090372695310165,-0.00090372104538973,0.00090372814947682,7.6385919427301e-10,-2.6487837310635e-09,1.4263489386072e-09,-3.2558953974541e-09,-0.0018002412796775,0.001800239444691,-0.0020081250213241,0.0020081259262645,-0.0020081258870212,0.002008123643024,-0.0020081257075407,0.0020081243222752,-0.0020081265730233,0.0020081220388085,-0.0015275631484111,0.0015275647899188,-0.0015275689480641,0.0015275613770766,-0.0016048167260744,0.0016048166452714,-0.0016048210138093,0.0016048142209453,2.7504564011049e-09,2.7504639193311e-09,-0.00074909698073293,0.00074910308611014,2.40778476324e-10,5.0050534034815e-09,-0.00088423645990208,0.00088424243259782,-0.00088423485584104,0.00088424403005436,-0.00088423646263869,0.00088424243514001,-0.00088423486948809,0.0008842440435115,-0.00077713361748155,0.00077714060571478,-0.00077713369694339,0.00077714068515932,0.76533978020323,122718,2924,0.0040691222715263,0.0074717804371799,0.0031195075280899,22.918283387341,9.8546267098725e-05,9.8546267098725e-05,9.8546267098725e-05,2770142.688663,0.014768983342177
28419200,0.99992107552387,0.015880764995407,0.0050064884635136,0.0067848100007547,0.0040894665311389,-0.00097709229225092,0.00097709861301695,3.1127318072755e-09,3.112740731378e-09,1.1248641588247e-09,4.722270280708e-09,-0.001125151354012,0.001125156979979,-0.0011251509132278,0.0011251565400124,-0.0011251501400058,0.0011251581932754,-0.0011251497299269,0.0011251577840357,-0.00090291367735769,0.00090292097280258,-0.00090291487254901,0.00090292216783945,7.8190888474971e-10,-2.668741450957e-09,1.4466946950584e-09,-3.2778581837413e-09,-0.0018026127396117,0.0018026109029732,-0.0020098256405445,0.0020098265729472,-0.0020098264880423,0.0020098242400264,-0.0020098263152135,0.0020098249306895,-0.0020098271624967,0.0020098225975423,-0.0015306399969209,0.0015306416646934,-0.0015306458223562,0.0015306381961196,-0.0016074927475214,0.0016074926875729,-0.0016074970506667,0.0016074902043037,2.8955387620927e-09,2.8955463029387e-09,-0.00074948863549474,0.0007494951130263,3.639474097741e-10,5.1741204459331e-09,-0.00088599504624396,0.00088600132219395,-0.00088599342618841,0.00088600293545086,-0.00088599503393704,0.0008860013096925,-0.00088599342496609,0.00088600293403854,-0.0007772484049591,0.00077725571532388,-0.00077724847736234,0.00077725578770971,0.82558911402084,122718,2924,0.0040643646866627,0.0074815529015494,0.0031211459345298,23.441233618184,0.00010272986894547,0.00010272986894547,0.00010272986894547,2725725.3881784,0.014775744603228
28919200,0.99993195476987,0.015880964333331,0.0050065464525821,0.0067848923598854,0.0040895255208634,-0.0009748209818668,0.00097482727744862,3.1018335799883e-09,3.1018425214142e-09,1.1062135679845e-09,4.7238888277919e-09,-0.001124960095451,0.0011249656866996,-0.0011249596592289,0.0011249652512951,-0.0011249588750781,0.0011249669066179,-0.0011249584693935,0.0011249665017725,-0.00090123781379444,0.0009012450935932,-0.00090123900671966,0.00090124628636413,7.9481199498031e-10,-2.6766213704662e-09,1.463345068695e-09,-3.2893283251011e-09,-0.0018054634055729,0.00180546157409,-0.0020119282078748,0.002011929160793,-0.0020119290682495,0.0020119268230077,-0.0020119288908638,0.002011927513838,-0.002011929751024,0.0020119251758264,-0.0015341463742897,0.0015341480681892,-0.0015341522248332,0.0015341445692856,-0.0016104796643066,0.001610479621033,-0.0016104839834801,0.0016104771123561,2.878517999604e-09,2.878525577662e-09,-0.00074949043490573,0.00074949686722436,3.3376812599521e-10,5.1713597485931e-09,-0.00088775506797343,0.00088776128887856,-0.00088775343895762,0.00088776291120952,-0.00088775505877179,0.00088776127948245,-0.00088775344071537,0.00088776291277744,-0.00077697625991587,0.00077698354326978,-0.00077697633002257,0.00077698361335901,0.76400561131051,122718,2924,0.0040549739047005,0.0074932950366283,0.0031211719226978,23.983500688683,0.00010706800550946,0.00010706800550946,0.00010706800550946,2667003.2073141,0.014778167841505
29419200,0.99994173338644,0.015881110628571,0.0050065886342649,0.006784953320633,0.0040895686736727,-0.00097726024707446,0.00097726616049973,2.9688875551224e-09,2.9688964259893e-09,9.794792492651e-10,4.5664990234129e-09,-0.0011248274519776,0.0011248327487429,-0.0011248270646418,0.0011248323622249,-0.0011248262425469,0.0011248339584938,-0.0011248258849247,0.0011248336017109,-0.00090343559678055,0.00090344257910233,-0.00090343679277334,0.0009034437749408,7.7410553143091e-10,-2.6691699595723e-09,1.4192228391282e-09,-3.2584720142696e-09,-0.0018056667166721,0.0018056648719587,-0.0020139912684853,0.0020139921696834,-0.002013992159943,0.0020139899186535,-0.0020139919821183,0.0020139905749373,-0.0020139928733616,0.0020139883236811,-0.0015326756529982,0.0015326772711973,-0.0015326814587971,0.001532673872059,-0.0016091057548948,0.0016091056967771,-0.0016091100848737,0.0016091032533446,2.6273900745128e-09,2.6273976079628e-09,-0.00075103095052083,0.00075103673772111,1.2098843638632e-10,4.8780933088607e-09,-0.00088711990105732,0.00088712559871445,-0.00088711830010013,0.00088712719337202,-0.00088711991774001,0.00088712561520276,-0.0008871183274062,0.00088712722048819,-0.00077850263053705,0.00077850935562514,-0.00077850271030826,0.00077850943537895,0.62417410960896,122718,2924,0.0040650731094709,0.0074941943655204,0.0031275532612178,24.778196531152,0.00011342557224922,0.00011342557224922,0.00011342557224922,2701210.5013315,0.014795788450301
29919200,0.99995041009875,0.015881253611267,0.0050066302480558,0.0067850122756528,0.0040896110875586,-0.0009838208087135,0.00098382691965638,3.0477294970809e-09,3.0477383033222e-09,1.0430752435504e-09,4.6497796523645e-09,-0.0011258249570914,0.0011258304372497,-0.0011258245467936,0.0011258300277699,-0.0011258237405997,0.0011258316540111,-0.001125823360502,0.0011258312747533,-0.00090894728893511,0.00090895444382038,-0.00090894849231806,0.00090895564704862,7.58696038298e-10,-2.7012737157657e-09,1.3858168881865e-09,-3.2720302768975e-09,-0.0018033992850683,0.0018033973934201,-0.0020146281491094,0.0020146290055417,-0.0020146290119673,0.0020146267358405,-0.0020146288526407,0.0020146273871615,-0.0020146297152843,0.0020146251172341,-0.0015278896394748,0.001527891184797,-0.0015278954275649,0.0015278878078062,-0.0016051079783904,0.0016051078943817,-0.001605112332209,0.0016051054432873,2.7267291287123e-09,2.7267365753354e-09,-0.00075383846957875,0.00075384451876546,2.2881524461605e-10,4.9683273243176e-09,-0.0008851344219349,0.00088514037158326,-0.00088513282629806,0.00088514196056786,-0.00088513442286473,0.000885140372319,-0.00088513283827043,0.00088514197235059,-0.00078164583367227,0.00078165276532319,-0.00078164591643542,0.00078165284806882,0.68688558505508,122718,2924,0.0040922302510149,0.0074849416706815,0.0031391678597086,25.464863413159,0.00011891890730527,0.00011891890730527,0.00011891890730527,2812801.2618917,0.014825715563175
30419200,0.99995805101219,0.01588135642349,0.0050066597870053,0.0067850555313911,0.0040896411050939,-0.00098305545969959,0.00098306157626498,3.0447859096617e-09,3.0447947705551e-09,1.0456812122229e-09,4.6560652422264e-09,-0.0011284538844117,0.00112845934867,-0.0011284534711073,0.0011284589361832,-0.001128452666576,0.0011284605662774,-0.0011284522835659,0.0011284601841066,-0.00090850398989162,0.0009085111405465,-0.00090850518750557,0.00090851233800608,7.7699642011625e-10,-2.688128963623e-09,1.3992595151705e-09,-3.2546247786236e-09,-0.0018068128854749,0.0018068110246559,-0.00201579915762,0.0020158000448718,-0.0020158000140011,0.0020157977706961,-0.0020157998593754,0.0020157984220068,-0.0020158007155419,0.0020157961476047,-0.0015336470355349,0.0015336486059195,-0.0015336528096298,0.0015336452233595,-0.0016103426442565,0.0016103425983986,-0.0016103469829277,0.0016103401216413,2.7519337701028e-09,2.751941293332e-09,-0.00075501777210415,0.00075502388021408,2.5551379087614e-10,4.9919763598512e-09,-0.0008893898842019,0.00088939587085824,-0.00088938828933716,0.00088939745917101,-0.00088938988722393,0.00088939587368601,-0.00088938830322003,0.00088939747286415,-0.00078238574232588,0.00078239272273321,-0.00078238581863955,0.00078239279903011,0.56251928746541,122718,2924,0.0040890868203554,0.0074989821682531,0.0031440829814308,26.130183124375,0.000124241464995,0.000124241464995,0.000124241464995,2741127.8670933,0.014841785435695
30919200,0.99996484629329,0.01588146662965,0.0050066919235618,0.0067851009476607,0.0040896737584276,-0.00098978068167365,0.00098978629792842,2.870185926439e-09,2.8701947120133e-09,8.8884126970235e-10,4.4380333657153e-09,-0.001130459848136,0.0011304649257759,-0.0011304595015942,0.0011304645800523,-0.0011304586513625,0.0011304661230781,-0.0011304583340122,0.0011304658065674,-0.00091452769432343,0.00091453444897505,-0.00091452889611886,0.00091453565061568,7.3918684723157e-10,-2.6685259234236e-09,1.3158138218498e-09,-3.1897416784636e-09,-0.0018053164977768,0.0018053146184755,-0.0020165952523822,0.0020165960472305,-0.0020165961349325,0.0020165939054332,-0.0020165959892364,0.0020165945012873,-0.0020165968715724,0.0020165923592638,-0.0015299952237759,0.0015299966513682,-0.0015300008867982,0.00152999344547,-0.0016074744130214,0.0016074743430308,-0.0016074787462033,0.0016074719728049,2.416431965289e-09,2.4164393979687e-09,-0.00075854825360413,0.00075855350546075,-3.2228957486295e-12,4.5768383022233e-09,-0.00088868900927342,0.00088869430632346,-0.00088868746823848,0.0008886958413086,-0.00088868904604431,0.00088869434290005,-0.00088868751543111,0.00088869588831146,-0.00078647708489944,0.00078648330621952,-0.00078647717785978,0.00078648339916245,0.67617106509292,122718,2924,0.0041169360290794,0.0074928976242971,0.0031587065997341,27.11920201929,0.00013215361615432,0.00013215361615432,0.00013215361615432,2842716.4615827,0.01487868621076
31419200,0.99997092564049,0.015881568473617,0.0050067215631635,0.0067851431939317,0.0040897037165217,-0.00098822722416178,0.00098823225532574,2.6492783434497e-09,2.6492872481364e-09,7.3365778093854e-10,4.1546770609971e-09,-0.001134343195323,0.0011343478015209,-0.0011343429140979,0.0011343475211132,-0.0011343420409033,0.0011343489553123,-0.0011343417881715,0.0011343487034195,-0.00091379310151526,0.00091379934286749,-0.00091379429429849,0.00091380053549633,7.2238994518893e-10,-2.5635404898918e-09,1.2397064844061e-09,-3.0277925548393e-09,-0.0018112831715742,0.0018112813782289,-0.0020192538523833,0.0020192546077862,-0.0020192547282125,0.0020192526230726,-0.0020192546006839,0.0020192531585532,-0.0020192554762985,0.0020192511736133,-0.0015391641245994,0.0015391654469007,-0.0015391695744197,0.001539162492709,-0.0016157883348919,0.0016157883142325,-0.0016157925615639,0.00161578607539,2.0816302929745e-09,2.0816378377169e-09,-0.00076052159892311,0.00076052598940905,-2.2092688674703e-10,4.1167026528429e-09,-0.00089548516186378,0.00089548977274627,-0.00089548370257509,0.00089549122673478,-0.00089548524038527,0.00089548985107315,-0.00089548379070591,0.00089549131467564,-0.00078789893295693,0.00078790436089987,-0.00078789902706158,0.00078790445498737,0.69952705654839,122718,2924,0.0041105473787642,0.0075174509115332,0.0031669357082976,28.43627059056,0.00014269016472448,0.00014269016472448,0.00014269016472448,2724405.4874509,0.01490550617088
31919200,0.99997616195854,0.015881658833401,0.0050067479273054,0.0067851803896934,0.0040897305164021,-0.00098796567454399,0.00098797147804603,2.9273175169593e-09,2.9273264322581e-09,1.0084868024829e-09,4.4527159387022e-09,-0.0011351695182843,0.0011351747633879,-0.0011351691409469,0.001135174386868,-0.0011351683541296,0.0011351759251934,-0.0011351680071573,0.0011351755790602,-0.00091402882084147,0.00091403566693681,-0.0009140300142737,0.00091403686021472,7.2830315013281e-10,-2.5740300465607e-09,1.2374802299461e-09,-3.0298367458025e-09,-0.0018136615791715,0.0018136597815554,-0.0020212929869616,0.0020212937536367,-0.0020212937593246,0.0020212916527465,-0.0020212936658073,0.0020212922167385,-0.0020212944379557,0.0020212901156219,-0.0015416840860648,0.0015416853946543,-0.001541689496422,0.0015416824065792,-0.0016180489670815,0.0016180489546494,-0.0016180531603007,0.0016180466529948,2.5557611752541e-09,2.5557687164842e-09,-0.00076162175368663,0.00076162736566862,2.4945900502216e-10,4.5973381014142e-09,-0.00089742621841251,0.00089743189132251,-0.00089742475309846,0.00089743335044461,-0.00089742624285715,0.00089743191557263,-0.00089742478806301,0.0008974333852192,-0.00078898717336868,0.00078899361099667,-0.00078898725497405,0.00078899369258475,0.71926751588325,122718,2924,0.004109483787474,0.0075272621714004,0.003171520782162,29.268766500207,0.00014935013200165,0.00014935013200165,0.00014935013200165,2692961.1122427,0.014919040013703
32419200,0.99998046153684,0.015881740310389,0.0050067717999279,0.006785213702192,0.0040897548082692,-0.00098626942389048,0.00098627654201612,3.4015006198292e-09,3.4015095546797e-09,1.40811059271e-09,5.034179463273e-09,-0.0011342757540591,0.0011342820389913,-0.0011342752161012,0.001134281501851,-0.0011342745281069,0.0011342832619775,-0.0011342740230488,0.0011342827577587,-0.00091259687164356,0.00091260479597703,-0.00091259806661656,0.0009126059907958,7.8519653484367e-10,-2.6862991244057e-09,1.3593676305461e-09,-3.2047221475853e-09,-0.0018145041411592,0.0018145022903649,-0.0020220810062444,0.0020220818893801,-0.0020220816986299,0.0020220794930743,-0.0020220816116151,0.0020220801564017,-0.002022082303786,0.0020220777598696,-0.0015425014584605,0.0015425029434968,-0.001542507087877,0.0015424995996456,-0.0016186348442897,0.0016186348400787,-0.0016186391160247,0.0016186322875867,3.3664571634158e-09,3.3664647024957e-09,-0.00076097942959354,0.0007609871256532,9.0712448091096e-10,5.5722872139102e-09,-0.00089744914790211,0.0008974565304647,-0.00089744757319491,0.00089745809750987,-0.00089744908142791,0.00089745646379602,-0.00089744751870057,0.00089745804282556,-0.00078820335408845,0.00078821161639727,-0.00078820341310348,0.00078821167539503,0.78912843059547,122718,2924,0.0041024641013419,0.0075307296998767,0.0031688675204936,29.299092484749,0.00014959273987799,0.00014959273987799,0.00014959273987799,2668556.9525103,0.014912745182226
32919200,0.99998396445168,0.015881798388426,0.0050067886830606,0.0067852376574191,0.0040897720479463,-0.00098240741124751,0.00098241480390309,3.4980770692441e-09,3.4980860153896e-09,1.4389527494573e-09,5.2126686724325e-09,-0.0011328736429414,0.0011328800964625,-0.0011328730759985,0.0011328795303372,-0.0011328723694334,0.0011328813687077,-0.0011328718352612,0.0011328808353747,-0.00090930524590181,0.00090931342833325,-0.0009093064394198,0.00090931462169713,8.4265405073247e-10,-2.7751558197182e-09,1.4941920650463e-09,-3.3690126334472e-09,-0.0018163008155103,0.0018162989350596,-0.0020230020264583,0.0020230030284456,-0.0020230027794773,0.0020230004937131,-0.0020230026508943,0.0020230012174106,-0.0020230034036986,0.0020229986824515,-0.0015450260699886,0.001545027770045,-0.0015450319688602,0.0015450241093065,-0.0016206647094482,0.0016206647191093,-0.0016206690975293,0.0016206619942853,3.536041829978e-09,3.536049427637e-09,-0.00075946926187196,0.00075947738946003,9.3262558184042e-10,5.8956303181188e-09,-0.00089799833122657,0.00089800597816566,-0.00089799665724264,0.0008980076443289,-0.00089799824806258,0.00089800589480709,-0.00089799658616695,0.00089800757306319,-0.00078640935464539,0.00078641807568384,-0.00078640940497142,0.00078641812599253,0.69092321609739,122718,2924,0.0040864774607838,0.0075381055058675,0.0031626184432812,29.174673814913,0.00014859739051931,0.00014859739051931,0.00014859739051931,2607692.053573,0.014897676848681
33419200,0.99998685910601,0.015881852370101,0.0050068045142986,0.0067852596231226,0.0040897882326796,-0.00098498736227415,0.00098499437816629,3.3713214411077e-09,3.3713302596852e-09,1.2629609390941e-09,5.1126031816587e-09,-0.0011315454254494,0.0011315515741701,-0.0011315449056101,0.0011315510551488,-0.001131544128961,0.0011315528720443,-0.0011315436407167,0.0011315523846395,-0.00091137389666679,0.00091138182740233,-0.00091137509748936,0.00091138302807047,8.4949329068073e-10,-2.8454611619971e-09,1.5532189334631e-09,-3.4897393075067e-09,-0.0018143212137929,0.0018143192715378,-0.0020235968374756,0.0020235978577554,-0.0020235977017109,0.0020235953228851,-0.0020235975256913,0.0020235960629987,-0.0020235983897121,0.0020235935279022,-0.00154070397805,0.0015407057696603,-0.0015407100865395,0.0015407019619439,-0.0016166787032547,0.0016166786678443,-0.0016166832141446,0.0016166759121589,3.288153627445e-09,3.2881611817335e-09,-0.00075999716657376,0.00076000465321588,5.9738156660908e-10,5.733673345239e-09,-0.00089524732321312,0.00089525438746705,-0.00089524559315571,0.00089525610997489,-0.00089524726410511,0.00089525432816466,-0.00089524554591209,0.00089525606254143,-0.00078705061185414,0.0007870588638856,-0.00078705067179821,0.0007870589238121,0.77567308772676,122718,2924,0.0040971422447422,0.0075300073307419,0.0031647855083822,29.316033483273,0.00014972826786619,0.00014972826786619,0.00014972826786619,2675253.1040908,0.014902457182317
33919200,0.99998931868268,0.015881897431097,0.0050068176782001,0.0067852780936427,0.004089801659254,-0.00098310056943107,0.00098310656633445,2.9996376088323e-09,2.9996465106035e-09,9.331693510485e-10,4.6871561622437e-09,-0.0011329159954846,0.0011329213032186,-0.0011329156019043,0.0011329209104558,-0.001132914732499,0.0011329225684923,-0.0011329143682234,0.0011329222050558,-0.00090996907251983,0.00090997617508777,-0.00090997026639539,0.00090997736880905,8.3800322892953e-10,-2.7719830255272e-09,1.5310050343177e-09,-3.4072741634661e-09,-0.0018181600651255,0.0018181581832036,-0.0020257320039294,0.0020257330082785,-0.0020257329698499,0.0020257306605353,-0.0020257327624655,0.0020257313496762,-0.0020257337281713,0.0020257290017066,-0.0015462492678775,0.0015462510498739,-0.0015462553189637,0.0015462473841584,-0.0016216393495609,0.0016216393315853,-0.0016216438282589,0.0016216367072246,2.6751388312237e-09,2.6751464100785e-09,-0.00076069442677797,0.00076070032900037,4.1771876103741e-11,5.0582482901385e-09,-0.00089874700211075,0.00089875270847529,-0.00089874531509877,0.00089875438925681,-0.00089874701679621,0.00089875272296611,-0.00089874534028135,0.00089875441424935,-0.00078730468833096,0.00078731159807867,-0.00078730476033471,0.00078731167006468,0.76303060755973,122718,2924,0.004089351869745,0.0075458103836911,0.0031676978178245,30.069378748706,0.00015575502998965,0.00015575502998965,0.00015575502998965,2598328.0160973,0.014913565901118
34419200,0.99999145524324,0.01588193480253,0.0050068285860225,0.0067852933849484,0.0040898128315595,-0.00098528007804075,0.00098528498908937,2.6090916229022e-09,2.6091005015776e-09,6.263615070804e-10,4.1817288463483e-09,-0.0011344165821299,0.0011344210499085,-0.0011344163220131,0.0011344207906094,-0.001134415385688,0.0011344222485714,-0.0011344151528967,0.0011344220166195,-0.00091228807074712,0.00091229426897317,-0.00091228926281838,0.00091229546089021,7.7067144716336e-10,-2.6502197698405e-09,1.3907654089538e-09,-3.2150316805185e-09,-0.0018206599866299,0.0018206581569299,-0.0020289087520289,0.002028909623743,-0.0020289097584265,0.0020289075518033,-0.0020289095567984,0.0020289081446218,-0.0020289105629813,0.0020289060724557,-0.0015481406195203,0.0015481421944711,-0.0015481464074335,0.0015481389120129,-0.0016233790644154,0.0016233790282216,-0.0016233834345218,0.0016233766650362,1.9993400340877e-09,1.9993476131484e-09,-0.00076329765426025,0.00076330181934234,-4.6645447398895e-10,4.2036071563891e-09,-0.00090075440452385,0.00090075871522415,-0.00090075283585995,0.00090076027888915,-0.00090075449431396,0.00090075880481978,-0.00090075293497493,0.00090076037781417,-0.00078981474276779,0.00078982010525144,-0.00078981483528269,0.00078982019774872,0.72790058071019,122718,2924,0.0040983935631037,0.0075561636240195,0.0031785030401696,31.478635047755,0.00016702908038204,0.00016702908038204,0.00016702908038204,2594249.2666679,0.014944210786077
34919200,0.99999333583323,0.015881969075635,0.0050068386185379,0.0067853073523784,0.0040898231047184,-0.0009901340179116,0.00099013775892149,2.1858619869829e-09,2.1858708418547e-09,3.3979489814617e-10,3.5883433436328e-09,-0.0011378108177498,0.0011378144001108,-0.0011378107013287,0.0011378142845076,-0.0011378097224512,0.0011378154959229,-0.0011378096316218,0.001137815405933,-0.00091698659576712,0.00091699178547127,-0.00091698778443366,0.00091699297398354,6.6900515911632e-10,-2.455990595879e-09,1.1413181217501e-09,-2.8771395151863e-09,-0.0018238530651267,0.001823851324238,-0.002032982088187,0.0020329827441973,-0.0020329830650789,0.0020329810460785,-0.0020329829132551,0.0020329814890467,-0.0020329838899325,0.0020329797907015,-0.0015506746518872,0.0015506758413072,-0.0015506799304214,0.0015506731966044,-0.0016258850664967,0.0016258850289149,-0.0016258892257858,0.0016258830356693,1.2688949033008e-09,1.268902451459e-09,-0.00076784210844132,0.00076784440274314,-9.0400986091341e-10,3.1651102814248e-09,-0.00090408625709969,0.00090408912735527,-0.00090408489137928,0.00090409048943607,-0.00090408642788217,0.0009040892979433,-0.00090408507020239,0.00090409066806929,-0.00079422941135433,0.00079423302810232,-0.00079422952724879,0.0007942331439792,0.75808686568768,122718,2924,0.0041185187413369,0.0075694012005947,0.0031973594759341,33.571633336874,0.00018377306669499,0.00018377306669499,0.00018377306669499,2606406.1986119,0.014997203464704
35419200,0.99999496177256,0.015881995387668,0.0050068462713005,0.0067853181646528,0.0040898309517144,-0.00099343606487026,0.0009934393042145,2.0006563507924e-09,2.0006652331227e-09,2.6968499342806e-10,3.2750450767386e-09,-0.0011422138430348,0.0011422170826874,-0.0011422137807173,0.0011422170211877,-0.0011422128262446,0.0011422180969588,-0.0011422127895913,0.0011422180611449,-0.00092052966781273,0.00092053438092012,-0.00092053085249036,0.00092053556544363,5.9307003823508e-10,-2.2933497489747e-09,9.2279672572287e-10,-2.5754602739859e-09,-0.0018291555315274,0.0018291538741081,-0.0020376548016181,0.0020376552870703,-0.0020376556741813,0.0020376538313016,-0.0020376555962887,0.0020376541610083,-0.0020376564686373,0.0020376527050131,-0.0015567090724357,0.0015567099146954,-0.0015567138716921,0.0015567078105599,-0.0016315755075041,0.0016315754942924,-0.0016315794614535,0.0016315737656193,9.6289940900313e-10,9.6290697742817e-10,-0.00077253424904883,0.00077253576630271,-9.5621120619814e-10,2.5901916323243e-09,-0.00090969958456415,0.00090970195109624,-0.00090969839317863,0.00090970313936164,-0.00090969978829801,0.00090970215463559,-0.00090969860448445,0.00090970335047755,-0.00079864205592073,0.00079864485065671,-0.00079864217933711,0.00079864497405556,0.67379056419234,122718,2924,0.00413223511914,0.0075913039532212,0.0032168473883075,35.927437804213,0.0002026195024337,0.0002026195024337,0.0002026195024337,2567514.8720086,0.015053145191405
35919200,0.99999627695462,0.015882018216935,0.0050068529532283,0.0067853274580681,0.0040898378056382,-0.00099921664496998,0.00099922110176659,2.4383231555962e-09,2.4383320069868e-09,7.2503195460787e-10,3.715041814258e-09,-0.0011448055161939,0.0011448097770526,-0.0011448053051333,0.0011448095668101,-0.0011448045004031,0.0011448107866851,-0.001144804318196,0.0011448106053177,-0.00092589718745511,0.00092590283770491,-0.00092589837815016,0.00092590402824541,5.7814570263388e-10,-2.2818804384131e-09,8.3350762509067e-10,-2.489956981994e-09,-0.0018301752181594,0.0018301735570409,-0.002040395951929,0.0020403963839749,-0.0020403966083231,0.0020403948063716,-0.0020403966206183,0.002040395136999,-0.002040397276798,0.0020403935591693,-0.0015562438845616,0.0015562445539458,-0.001556248453315,0.0015562425708905,-0.0016314028204822,0.0016314028296793,-0.0016314066767191,0.0016314010606277,1.6854119988075e-09,1.6854194925533e-09,-0.00077656758750326,0.0007765709843259,-1.5373326417195e-10,3.2366911599116e-09,-0.00091105189345391,0.00091105594003407,-0.00091105074975602,0.0009110570791751,-0.00091105201062734,0.00091105605701309,-0.00091105087598153,0.00091105720521087,-0.00080279069862004,0.00080279498053323,-0.00080279080542554,0.00080279508732132,0.72183945217264,122718,2924,0.0041561870717271,0.007595591030952,0.0032335772429521,37.534957361395,0.00021547965889116,0.00021547965889116,0.00021547965889116,2621025.0075316,0.015098773418334
36419200,0.99999724695608,0.015882034633546,0.0050068577452205,0.0067853341765389,0.0040898427117867,-0.00099727467798221,0.00099728190265585,3.4358513623751e-09,3.4358602860189e-09,1.5973116075926e-09,4.9093423469612e-09,-0.0011450967636547,0.0011451032454923,-0.0011450962058157,0.0011451026884712,-0.0011450956367054,0.0011451043635572,-0.0011450951136574,0.0011451038413486,-0.00092420432305041,0.00092421221929625,-0.00092420552008315,0.00092421341617457,6.7868469670721e-10,-2.4786621817482e-09,1.0191495253875e-09,-2.7679564451247e-09,-0.0018315988848199,0.0018315971310518,-0.0020405387017603,0.0020405393271429,-0.0020405391294334,0.0020405371710306,-0.0020405391926458,0.0020405376821262,-0.0020405396201045,0.0020405355257876,-0.0015589368000618,0.0015589377208656,-0.0015589416770856,0.0015589351533407,-0.0016337781583598,0.0016337781999605,-0.0016337821190709,0.0016337759586528,3.4034480630861e-09,3.4034555795086e-09,-0.00077606119122524,0.00077606900589643,1.3223420445053e-09,5.2136889907846e-09,-0.00091247467458772,0.00091248241938345,-0.00091247335543115,0.00091248373079154,-0.00091247459819241,0.00091248234279379,-0.00091247329124049,0.00091248366641093,-0.00080205032532406,0.00080205841277351,-0.00080205037823436,0.00080205846566631,0.70447270805609,122718,2924,0.0041481598611293,0.0076014284282654,0.0032314962273675,37.488422001255,0.00021510737601004,0.00021510737601004,0.00021510737601004,2574807.09754,0.015094452760883
36919200,0.99999794576628,0.015882045503109,0.0050068609089434,0.0067853386332493,0.0040898459609164,-0.00099595610010403,0.00099596435768111,3.8149978729576e-09,3.8150067913609e-09,1.8164239326814e-09,5.4734007800103e-09,-0.0011433426744004,0.0011433499240756,-0.0011433419938563,0.0011433492443494,-0.0011433414345284,0.0011433511577437,-0.0011433407900902,0.001143350514145,-0.00092292488983477,0.0009229337103009,-0.00092292609177628,0.00092293491208822,7.8526806248207e-10,-2.7062405101512e-09,1.2593483858301e-09,-3.1243358422729e-09,-0.0018302456221481,0.0018302437517941,-0.0020395792291697,0.0020395800562478,-0.0020395797134273,0.0020395775501107,-0.0020395797289032,0.002039578192676,-0.0020395802129463,0.0020395756863125,-0.001557154760052,0.0015571560358726,-0.0015571601676601,0.001557152832374,-0.0016320231246805,0.0016320231746368,-0.0016320273517993,0.0016320205429196,4.0362651325951e-09,4.0362726295705e-09,-0.00077457442830644,0.00077458385863286,1.65745233741e-09,6.1587502808357e-09,-0.00091062269393966,0.00091063165984019,-0.00091062116947427,0.00091063317534097,-0.00091062254691054,0.00091063151261662,-0.00091062103580782,0.00091063304148461,-0.00080063237864411,0.00080064200782104,-0.00080063241330337,0.00080064204246295,0.64727478642577,122718,2924,0.004142688577295,0.0075958412605136,0.0032253254495605,36.862167263305,0.00021009733810644,0.00021009733810644,0.00021009733810644,2582789.7445377,0.015076960178994
37419200,0.99999848507773,0.015882053988279,0.0050068633846364,0.0067853421027367,0.0040898485009055,-0.00099943238449152,0.00099943829261705,2.9736534292745e-09,2.9736622799234e-09,9.6423726845781e-10,4.5876557762063e-09,-0.001144851837525,0.0011448571325067,-0.0011448514556008,0.0011448567514005,-0.0011448506158957,0.0011448583541952,-0.0011448502640804,0.0011448580032196,-0.00092608074122463,0.0009260877425202,-0.00092608193958874,0.00092608894073019,7.7540012599958e-10,-2.7040373311627e-09,1.2635234171093e-09,-3.1360243896664e-09,-0.0018304846767003,0.0018304827987663,-0.0020407986022696,0.0020407993911105,-0.0020407994137127,0.0020407972424461,-0.0020407993310776,0.0020407977878121,-0.0020408001423062,0.0020407956389213,-0.0015565633874325,0.0015565646871514,-0.0015565689323189,0.0015565615735695,-0.0016316583567745,0.001631658392777,-0.0016316627310052,0.0016316559225332,2.5807030263436e-09,2.5807105197751e-09,-0.00077681258915823,0.00077681826204617,2.0963918234335e-10,4.6892265900634e-09,-0.00091120619226565,0.00091121188731451,-0.00091120468337163,0.00091121339003296,-0.00091120621194636,0.0009112119068009,-0.00091120471360062,0.0009112134200722,-0.00080295483589975,0.00080296137051812,-0.00080295491351651,0.00080296144811743,0.65462458225499,122718,2924,0.0041570839882306,0.0075968732772134,0.0032345966391436,37.673312549946,0.00021658650039956,0.00021658650039956,0.00021658650039956,2619155.4342121,0.015102020693033
37919200,0.99999888285265,0.015882059821985,0.0050068650807722,0.0067853445016063,0.0040898502396067,-0.00099914050125086,0.00099914772527201,3.447611951667e-09,3.4476208284067e-09,1.3799296479843e-09,5.1529234908421e-09,-0.0011453299233729,0.0011453362742061,-0.0011453293752174,0.0011453357268685,-0.001145328649963,0.0011453375463221,-0.0011453281346572,0.0011453370318558,-0.00092580993818382,0.00092581800529336,-0.00092581113804295,0.00092581920499816,8.2303311219749e-10,-2.7935040267813e-09,1.3920412755063e-09,-3.3046992224131e-09,-0.0018309359375355,0.0018309340193136,-0.0020406965506385,0.002040697458959,-0.0020406972768274,0.0020406950083448,-0.0020406971941541,0.0020406956683285,-0.0020406979201285,0.0020406932174879,-0.001557589928361,0.0015575914282114,-0.0015575956933702,0.0015575879594428,-0.0016326108898258,0.0016326109155323,-0.0016326153088972,0.0016326082243197,3.4055020047918e-09,3.4055095099564e-09,-0.00077684479756021,0.00077685259119347,8.800615238716e-10,5.6773401502924e-09,-0.00091191654542095,0.00091192398948507,-0.00091191492672353,0.0009119256004545,-0.00091191647313073,0.00091192391700044,-0.00091191486650674,0.00091192554004783,-0.00080291272573502,0.00080292111264389,-0.00080291277987651,0.00080292116676798,0.61069305856341,122718,2924,0.0041558818379347,0.007598722094813,0.0032347376311566,37.676461540348,0.00021661169232278,0.00021661169232278,0.00021661169232278,2605354.6071728,0.015102825961394
38419200,0.99999917043165,0.015882064642101,0.00500686649348,0.006785346463424,0.0040898516851969,-0.00099961283547391,0.00099962089190012,3.7544601793407e-09,3.7544690427377e-09,1.5962038019409e-09,5.5649970798062e-09,-0.0011445377944155,0.0011445447996053,-0.0011445371429392,0.001144544148947,-0.0011445364560457,0.0011445461376172,-0.0011445358387854,0.0011445455211963,-0.0009260623963705,0.00092607118234347,-0.00092606360064448,0.00092607238646313,8.7643166590833e-10,-2.9276716191123e-09,1.551893053556e-09,-3.5425508257393e-09,-0.0018291237033696,0.0018291217069396,-0.002039488423727,0.0020394894569132,-0.0020394891663621,0.0020394867486845,-0.0020394890484799,0.0020394875170164,-0.0020394897909004,0.0020394848085613,-0.0015551998956239,0.0015552016424172,-0.0015552060114755,0.0015551977478754,-0.0016304624620869,0.0016304624573879,-0.0016304670203848,0.001630459538036,3.9249204218459e-09,3.9249278953492e-09,-0.0007762392725707,0.0007762483918694,1.2001482638826e-09,6.4038085525711e-09,-0.00091023353804083,0.00091024202560672,-0.00091023178187983,0.00091024377296695,-0.00091023340713582,0.00091024189450724,-0.00091023166410446,0.00091024365500172,-0.00080247819304107,0.00080248781261825,-0.00080247823453161,0.00080248785409141,0.69725492786578,122718,2924,0.004157826777034,0.0075912555052723,0.0032322169807047,37.198386008254,0.00021278708806603,0.00021278708806603,0.00021278708806603,2636512.1634929,0.015094655045294
38880000,0.99999937125248,0.01588206813633,0.0050068675170447,0.0067853478884318,0.0040898527308536,-0.00099626920628356,0.00099627647715263,3.4652755480967e-09,3.4652844807638e-09,1.2903690494128e-09,5.2915377008614e-09,-0.0011448676784388,0.0011448739804639,-0.0011448671320775,0.0011448734349202,-0.0011448663326374,0.0011448753287111,-0.0011448658178615,0.0011448748147744,-0.00092332512732637,0.0009233333073652,-0.00092332632384159,0.00092333450372631,9.1003939774461e-10,-2.9363580023963e-09,1.6557068347633e-09,-3.6212741762067e-09,-0.0018315267048251,0.001831524733378,-0.002039874788391,0.0020398759079108,-0.0020398756971174,0.002039873261186,-0.0020398755024028,0.0020398740388127,-0.0020398764109145,0.0020398713918614,-0.00155941328732,0.0015594152286507,-0.0015594196044854,0.0015594111714384,-0.0016341880011901,0.001634188007255,-0.0016341926317261,0.0016341850725944,3.4503872043022e-09,3.4503947351167e-09,-0.00077540396618119,0.00077541185575552,6.4669579050516e-10,6.0148356914875e-09,-0.00091248422606551,0.00091249155199046,-0.00091248241851846,0.00091249335190631,-0.00091248415487196,0.00091249148060238,-0.00091248235918664,0.00091249329238451,-0.00080141195008944,0.00080142061832111,-0.00080141200040478,0.00080142066861911,0.72416034322613,122718,2924,0.0041439955733464,0.0076011106512171,0.0032287712248098,37.193687632903,0.00021274950106323,0.00021274950106323,0.00021274950106323,2560975.17401,0.015087142432532
