time,ASR_ext,ASR_strain,ASR_strain_xx,ASR_strain_yy,ASR_strain_zz,disp_x_101,disp_x_102,disp_x_103,disp_x_104,disp_x_105,disp_x_106,disp_x_p1_neg,disp_x_p1_pos,disp_x_p2_neg,disp_x_p2_pos,disp_x_p3_neg,disp_x_p3_pos,disp_x_p4_neg,disp_x_p4_pos,disp_x_p5_neg,disp_x_p5_pos,disp_x_p6_neg,disp_x_p6_pos,disp_y_101,disp_y_102,disp_y_103,disp_y_104,disp_y_105,disp_y_106,disp_y_p1_neg,disp_y_p1_pos,disp_y_p2_neg,disp_y_p2_pos,disp_y_p3_neg,disp_y_p3_pos,disp_y_p4_neg,disp_y_p4_pos,disp_y_p5_neg,disp_y_p5_pos,disp_y_p6_neg,disp_y_p6_pos,disp_y_p7_neg,disp_y_p7_pos,disp_y_p8_neg,disp_y_p8_pos,disp_z_101,disp_z_102,disp_z_103,disp_z_104,disp_z_105,disp_z_106,disp_z_p1_neg,disp_z_p1_pos,disp_z_p2_neg,disp_z_p2_pos,disp_z_p3_neg,disp_z_p3_pos,disp_z_p4_neg,disp_z_p4_pos,disp_z_p5_neg,disp_z_p5_pos,disp_z_p6_neg,disp_z_p6_pos,humidity,ndof,nelem,strain_xx,strain_yy,strain_zz,temp,thermal_strain_xx,thermal_strain_yy,thermal_strain_zz,vonmises,vstrain
2419200,0,0,0,0,0,0,0,0,0,0,0,0,0,0,0,0,0,0,0,0,0,0,0,0,0,0,0,0,0,0,0,0,0,0,0,0,0,0,0,0,0,0,0,0,0,0,0,0,0,0,0,0,0,0,0,0,0,0,0,0,0,0,0,0,0,0,0,0,0,0,0,0,0,0,0
2919200,0.076598486095322,0.0015997062515438,0.00053323541718128,0.00053323541718128,0.00053323541718128,-0.00016044335511597,0.00016042179311092,-8.33114539183e-09,-8.3311455018781e-09,-8.0143287752425e-09,-8.2166560362688e-09,-0.0001621527653988,0.00016213442862104,-0.00016215345452921,0.00016213511775135,-0.00016215430952167,0.00016213598358947,-0.00016215499383874,0.00016213666790644,-0.00016565544142466,0.00016563786551074,-0.00016565609172604,0.00016563851581186,-8.0143277750715e-09,-8.2166574801783e-09,-8.7423090672174e-09,-7.9199822264588e-09,-0.00016044335511617,0.00016042179311072,-0.00016215291971385,0.00016213429545046,-0.00016215330021377,0.00016213525092234,-0.00016215446143084,0.00016213584801142,-0.00016215484193072,0.00016213680348328,-0.00016565585646096,0.00016563748051425,-0.00016565567669095,0.00016563890080716,-0.00016336829445961,0.00016335152343372,-0.00016336904352818,0.00016335203084018,-1.8748995401281e-09,-1.8748993889268e-09,-0.00017010664591665,0.00017010043643455,-1.4312808742562e-09,-2.2788447223065e-09,-0.00017095053601104,0.00017094640286736,-0.00017095268478342,0.00017094797846495,-0.00017095239819602,0.00017094826505235,-0.00017095446899037,0.00017094976267191,-0.00017092210374459,0.00017091769925234,-0.00017092098177083,0.00017091657727823,0.83502648770561,125301,3014,0.00066824559228064,0.00066824559228064,0.00070851195672427,32.434411985993,0.00017467529588795,0.00017467529588795,0.00017467529588795,1437193.1934756,0.0020470981764642
3419200,0.15540813569822,0.0030952629816773,0.0010122130868053,0.0010122130868046,0.0010708368080675,-0.00026443443942249,0.00026441446333214,-8.4077481170516e-09,-8.4077483433683e-09,-7.8098212479394e-09,-8.0827642879154e-09,-0.00027493815897221,0.00027492061597721,-0.00027493916601614,0.00027492162308547,-0.00027494018667072,0.0002749225797724,-0.00027494118019108,0.0002749235733555,-0.0002772413696665,0.000277223851599,-0.00027724311788448,0.00027722559977147,-7.8098199975459e-09,-8.0827662172678e-09,-9.3120206438639e-09,-7.5034768433273e-09,-0.00026443443942262,0.00026441446333167,-0.00027493850443597,0.0002749203254299,-0.00027493882055092,0.00027492191363291,-0.00027494052536244,0.00027492228245011,-0.00027494084150011,0.000274923870676,-0.00027724229061151,0.00027722301620454,-0.00027724219694125,0.00027722643516354,-0.00026889974299825,0.00026888384896116,-0.00026890115057568,0.00026888489430287,-4.0471350834336e-09,-4.047135080272e-09,-0.00029705203658813,0.00029704197318122,-3.0474346791609e-09,-4.9315146030699e-09,-0.00030577397858662,0.00030576653108762,-0.00030577766249915,0.00030576893639899,-0.00030577702321417,0.00030576957568363,-0.00030578060104957,0.00030577187491981,-0.00029519172287713,0.00029518261535009,-0.00029518874437343,0.00029517963681352,0.77960726241633,125301,3014,0.0011011687856208,0.0011011687856201,0.0012369199038286,31.910844247829,0.00017048675398263,0.00017048675398263,0.00017048675398263,2260449.3222677,0.0034451880079689
3919200,0.24172034669013,0.0046209047265116,0.0014843551569937,0.0014843551569933,0.0016521944125246,-0.00036903039141775,0.00036902256457992,-2.9829730313244e-09,-2.982967345954e-09,-2.7715999596855e-09,-2.9132571555083e-09,-0.00039270948017689,0.00039270357237907,-0.00039271007088856,0.00039270416315975,-0.00039271035114484,0.00039270437598219,-0.00039271092843753,0.00039270495334297,-0.00039332600738646,0.0003933194029798,-0.00039332685430411,0.00039332024984468,-2.7715992340442e-09,-2.9132577375742e-09,-3.8408646980986e-09,-2.1250756062591e-09,-0.00036903039141745,0.00036902256457993,-0.00039270979999114,0.00039270329759949,-0.00039270975107274,0.00039270443793966,-0.00039271066424838,0.00039270409448848,-0.00039271061533338,0.00039270523483631,-0.00039332689060653,0.00039331861357949,-0.00039332597108411,0.00039332103924483,-0.00037374496893097,0.00037373921421886,-0.00037374572217245,0.00037373976332706,-3.2783104710125e-09,-3.2783045225472e-09,-0.00043539189640983,0.00043538402629793,-2.307482093778e-09,-4.116911617926e-09,-0.00046061205782942,0.00046060615390061,-0.0004606139164551,0.00046060677968496,-0.00046061330003691,0.00046060739610323,-0.00046061511648513,0.00046060797971179,-0.00042627883956794,0.00042627124924678,-0.00042627756076276,0.00042626997040881,0.74640349119053,125301,3014,0.0015364604777893,0.0015364604777887,0.001812437635355,32.49709604292,0.00017517676834336,0.00017517676834336,0.00017517676834336,3110045.7981697,0.0048973349768677
4419200,0.33626219727249,0.0062499958201078,0.0019777428938607,0.0019777428938598,0.0022945100323874,-0.00047881923361672,0.00047881565823316,-1.3723494861211e-09,-1.3723431513587e-09,-1.1280446435987e-09,-1.1290214731102e-09,-0.00051962339571664,0.00051962189898908,-0.00051962371879328,0.00051962222211848,-0.00051962348139646,0.00051962199606468,-0.00051962379655245,0.00051962231127169,-0.00051939120141073,0.00051938795523502,-0.00051939170789593,0.00051938846171062,-1.1280436795608e-09,-1.1290213357541e-09,-1.1433767711224e-09,-1.6013146606205e-09,-0.00047881923361576,0.00047881565823364,-0.0005196233391958,0.00051962198102341,-0.00051962377531151,0.00051962214008531,-0.00051962342091923,0.00051962207413892,-0.0005196238570276,0.00051962223319813,-0.00051939101300963,0.00051938821698713,-0.00051939189629512,0.00051938819995942,-0.00048423371648405,0.00048423083719758,-0.00048423418158249,0.00048423132318095,-1.6702882527522e-09,-1.6702818841232e-09,-0.00058802489446614,0.00058802060860109,-1.8039541749235e-09,-1.4285068838747e-09,-0.00063558343621728,0.00063558027450348,-0.00063558376186419,0.00063558082728124,-0.00063558387543538,0.00063558071371032,-0.00063558423028819,0.00063558129569558,-0.00057041664434733,0.0005704130172837,-0.00057041497516975,0.00057041134805815,0.74424082049435,125301,3014,0.0019931710198302,0.0019931710198292,0.0024470109774195,33.599483395948,0.00018399586716758,0.00018399586716758,0.00018399586716758,3816807.5631823,0.0064541479794235
4919200,0.43910441831434,0.0079937149638346,0.0024963823376892,0.0024963823376881,0.0030009502884573,-0.00059377435735862,0.00059377310614278,-3.9942073814709e-10,-3.9941161839628e-10,-2.8546113868169e-10,-1.8883580101943e-10,-0.00065784134465283,0.00065784220963975,-0.00065784148680806,0.00065784235183511,-0.0006578410282371,0.00065784196844178,-0.00065784116737836,0.00065784210762098,-0.00065402661047656,0.00065402536613051,-0.00065402681381197,0.00065402556945613,-2.8546048813375e-10,-1.8883459214643e-10,9.8093615237536e-12,-8.086397906313e-10,-0.00059377435735725,0.00059377310614359,-0.00065784121412045,0.0006578423464964,-0.00065784161733755,0.00065784221497968,-0.00065784089620319,0.00065784210379398,-0.0006578412994089,0.00065784197227035,-0.00065402623132323,0.00065402578761254,-0.00065402719296217,0.00065402514797594,-0.00060056620618057,0.00060056503199373,-0.00060056671757357,0.00060056572085153,-8.886954198473e-10,-8.8868637330014e-10,-0.00075518817636396,0.00075518565224108,-1.2297832782738e-09,-4.7333716596273e-10,-0.00083181788591069,0.00083181615316691,-0.00083181759649867,0.00083181635047836,-0.00083181783986389,0.00083181610711347,-0.00083181762512502,0.00083181637909888,-0.00072880700206879,0.0007288050759875,-0.00072880546962488,0.00072880354349268,0.74696695512676,125301,3014,0.0024711889204301,0.0024711889204289,0.003141494125424,35.344887367199,0.00019795909893759,0.00019795909893759,0.00019795909893759,4337884.3315834,0.0081167597138407
5419200,0.53960554118988,0.0096329249823211,0.0029790729707675,0.0029790729707664,0.0036747790407872,-0.00069658461920762,0.00069658541578459,3.4352777022713e-10,3.4353656678193e-10,4.1184199656853e-10,5.737117425589e-10,-0.00078791524700018,0.00078791815615184,-0.00078791525481805,0.00078791816400093,-0.00078791471202581,0.00078791772790633,-0.00078791472097007,0.00078791773687958,-0.00077527093493398,0.00077527126272507,-0.00077527108634507,0.00077527141415251,4.1184180258244e-10,5.7371473800416e-10,9.5547001114904e-10,-2.6840281887087e-10,-0.00069658461920579,0.00069658541578584,-0.00078791503800596,0.00078791835675809,-0.0007879154638093,0.00078791796339585,-0.0007879145036058,0.00078791792908579,-0.00078791492938498,0.00078791753570341,-0.00077527034640889,0.00077527186781702,-0.00077527167486525,0.00077527080906436,-0.00070451764216942,0.00070451785287124,-0.00070451836228135,0.00070451885802899,-2.5626113054543e-10,-2.562523980769e-10,-0.00091071699832283,0.00091071601938678,-8.2937186378828e-10,3.5605357458711e-10,-0.001020627748944,0.0010206272927965,-0.0010206270064264,0.001020627331136,-0.0010206273968572,0.0010206269407055,-0.0010206267592525,0.0010206270839589,-0.00087579975148225,0.00087579924362482,-0.00087579805845191,0.00087579755053856,0.73229095938568,125301,3014,0.0028985641901366,0.0028985641901354,0.0037871749988828,36.273631945897,0.00020538905556718,0.00020538905556718,0.00020538905556718,4693703.6860332,0.0096306097267542
5919200,0.63092886077207,0.010902512028845,0.0033517483265644,0.0033517483265632,0.0041990153757176,-0.00077127638250259,0.00077127928825504,1.2016638788169e-09,1.2016717278418e-09,1.1779933112012e-09,1.3921788312453e-09,-0.00089048619560064,0.00089049113936329,-0.00089048605989459,0.00089049100367871,-0.000890485475444,0.00089049054360514,-0.0008904853440519,0.00089049041223216,-0.00086209801675988,0.00086210012814454,-0.00086209805150775,0.00086210016290771,1.1779927597481e-09,1.3921826399782e-09,2.0923964069002e-09,3.1094241374109e-10,-0.00077127638250053,0.00077127928825645,-0.00089048588350363,0.000890491430385,-0.00089048637198849,0.000890490712658,-0.00089048516551488,0.00089049083679453,-0.00089048565397507,0.00089049011904671,-0.00086209714708947,0.00086210099395028,-0.00086209892117274,0.00086209929710666,-0.00077695349641603,0.00077695516247938,-0.00077695435788004,0.00077695640046331,5.0642797123781e-10,5.064359744345e-10,-0.0010278797920707,0.0010278806115162,-3.7259083537044e-10,1.3930697405433e-09,-0.0011727512980264,0.0011727522798791,-0.0011727500259187,0.0011727521836958,-0.0011727506138851,0.0011727515957297,-0.0011727494641727,0.0011727516219422,-0.00098199439068171,0.00098199564971583,-0.00098199279908795,0.00098199405806905,0.6360792580923,125301,3014,0.0032090005945334,0.0032090005945321,0.0042732910023421,36.779462544707,0.00020943570035765,0.00020943570035765,0.00020943570035765,4864510.299889,0.010748977173114
6419200,0.70843692220165,0.011899301529916,0.0036477455826263,0.003647745582625,0.0046038103646644,-0.00082742997620935,0.00082743460018469,1.850608939726e-09,1.8506161877105e-09,1.7726437648321e-09,2.0316035860521e-09,-0.00096904594805949,0.00096905258263545,-0.0009690456765286,0.00096905231112325,-0.00096904505074204,0.00096905182595103,-0.00096904478550307,0.00096905156072839,-0.0009276766064535,0.00092768009465559,-0.00092767662666201,0.0009276801148809,1.77264377195e-09,2.0316068798614e-09,3.0568501117585e-09,6.4437833027684e-10,-0.00082742997620724,0.00082743460018613,-0.00096904552491267,0.0009690529773222,-0.0009690460996718,0.00096905191643789,-0.0009690446307543,0.00096905222379602,-0.0009690452054851,0.00096905116288703,-0.0009276754222969,0.0009276812615186,-0.00092767781081328,0.00092767894802223,-0.0008310878870864,0.00083109064189926,-0.00083108885108366,0.00083109206449184,1.0718878259156e-09,1.0718951735147e-09,-0.0011151600990669,0.0011151623336697,-1.4254817044242e-10,2.2712062730015e-09,-0.0012892163368522,0.0012892184354544,-0.0012892145712475,0.0012892182845368,-0.0012892153785958,0.0012892174771887,-0.0012892137486921,0.0012892174619728,-0.0010602000730629,0.0010602027132248,-0.001060198459672,0.0010602010997797,0.59525943091212,125301,3014,0.0034423472504648,0.0034423472504634,0.0046352661819443,36.741495445322,0.00020913196356257,0.00020913196356257,0.00020913196356257,5025140.6592907,0.011586989609343
6919200,0.77840164829828,0.012871035077449,0.0039398878792739,0.0039398878792726,0.0049912593189026,-0.00088434962087294,0.00088435190748307,9.2397707495813e-10,9.2398398465881e-10,8.6448718600988e-10,1.1175712017316e-09,-0.0010482846336618,0.0010482893423973,-0.0010482843897278,0.0010482890984796,-0.0010482838555955,0.0010482887210641,-0.0010482836174134,0.0010482884828959,-0.00099544953756221,0.00099545107048043,-0.00099544961838762,0.00099545115132473,8.6448805086052e-10,1.1175734237796e-09,2.3307734620947e-09,-4.8280931000989e-10,-0.00088434962087092,0.00088435190748441,-0.0010482841465176,0.0010482898045632,-0.0010482848768679,0.0010482886363155,-0.0010482833713421,0.0010482891861187,-0.0010482841016619,0.0010482880178441,-0.00099544815720868,0.00099545243378298,-0.0009954509987368,0.00099544978802568,-0.00088933642408284,0.00088933713315943,-0.00088933753040562,0.00088933870883814,1.0625940871271e-09,1.0626009761519e-09,-0.0011993884347646,0.0011993904150484,-3.5482731797488e-10,2.4626975876909e-09,-0.0013998440817143,0.0013998459936619,-0.0013998422883776,0.001399846086318,-0.0013998432313789,0.0013998451433169,-0.0013998415686535,0.0013998453665849,-0.0011407954361913,0.0011407981464576,-0.0011407936868873,0.0011407963970986,0.64378173705164,125301,3014,0.0036788242310463,0.0036788242310449,0.0049844329131365,38.62576894677,0.00022420615157416,0.00022420615157416,0.00022420615157416,5059919.8410799,0.012419119437278
7419200,0.83879713743087,0.013591695262873,0.0041576170557645,0.0041576170557631,0.0052764611513456,-0.00092091131511995,0.00092091293672262,6.3960764707249e-10,6.3961427669348e-10,5.8700385975855e-10,8.3625593757278e-10,-0.0011096452445088,0.0011096493547807,-0.0011096450400841,0.0011096491503708,-0.0011096445429008,0.0011096488130403,-0.0011096443432409,0.0011096486133928,-0.0010375982484347,0.0010375991918245,-0.0010375983835661,0.0010375993269764,5.8700509510104e-10,8.3625769218095e-10,2.1704579543165e-09,-8.9123302446772e-10,-0.00092091131511795,0.00092091293672394,-0.0011096447189098,0.0011096498594642,-0.0011096455656788,0.0011096486456894,-0.0011096440197001,0.0011096493201196,-0.0011096448664369,0.001109648106316,-0.0010375967490812,0.0010376006789781,-0.0010375998829155,0.0010375978398257,-0.00092585929984158,0.00092585935597786,-0.00092586049905875,0.00092586102699619,1.0440547641966e-09,1.0440614502276e-09,-0.0012544088559485,0.0012544107536532,-4.9480174582278e-10,2.5692160865945e-09,-0.0014818294467488,0.0014818312216377,-0.0014818276536237,0.0014818314791709,-0.0014818286789578,0.001481830453837,-0.0014818270103574,0.0014818308358955,-0.0011929598139001,0.001192962564411,-0.0011929579902276,0.0011929607406827,0.55664260548471,125301,3014,0.0038307727181661,0.0038307727181647,0.0052124319829087,40.764708807231,0.00024131767045785,0.00024131767045785,0.00024131767045785,4840481.568105,0.012957921258924
7919200,0.88421942262992,0.01408722569877,0.004310271709788,0.0043102717097866,0.0054666822791954,-0.00094165798978851,0.00094166317427744,2.0084077808445e-09,2.0084143150272e-09,1.8900434584403e-09,2.1793683420872e-09,-0.0011458155097402,0.0011458227388041,-0.0011458151660767,0.0011458223951542,-0.0011458145849338,0.0011458219750063,-0.0011458142473122,0.0011458216373959,-0.0010618593658645,0.0010618632317356,-0.001061859480363,0.0010618633462551,1.8900442313175e-09,2.1793707216984e-09,3.7722230495061e-09,2.4460224843769e-10,-0.00094165798978643,0.00094166317427883,-0.0011458149005456,0.0011458233206222,-0.0011458157752672,0.0011458218133379,-0.0011458139787762,0.0011458225598597,-0.0011458148534645,0.0011458210525455,-0.0010618576349995,0.0010618649411676,-0.0010618612112234,0.0010618616368268,-0.00094639287669076,0.00094639559139319,-0.00094639412957552,0.00094639737340078,1.7215092424273e-09,1.7215157875214e-09,-0.0012853430238266,0.0012853468298339,-6.3980502439568e-11,3.4771141935482e-09,-0.0015305273759963,0.001530530577933,-0.0015305251232785,0.0015305306983597,-0.0015305263098556,0.0015305295117828,-0.001530524191297,0.0015305297663691,-0.0012215298784696,0.0012215342470338,-0.001221528110274,0.001221532478782,0.5070717593097,125301,3014,0.0039170041159318,0.0039170041159303,0.0053406028393315,40.956269124294,0.00024285015299435,0.00024285015299435,0.00024285015299435,4742981.753671,0.013262585337318
8419200,0.91807028022146,0.014439174902998,0.0044199326217194,0.0044199326217181,0.0055993096595605,-0.00095469846684036,0.00095470342380606,1.9210093387775e-09,1.9210157616695e-09,1.7985644392674e-09,2.0899120627387e-09,-0.0011718813323941,0.0011718884049147,-0.0011718809833096,0.001171888055843,-0.0011718804235167,0.0011718876600252,-0.0011718800799249,0.0011718873164439,-0.0010769393475288,0.0010769430282979,-0.0010769394859768,0.0010769431667677,1.798564888424e-09,2.0899149954414e-09,3.8620304493492e-09,-2.0001938360878e-11,-0.00095469846683819,0.00095470342380753,-0.0011718806657358,0.0011718890463972,-0.001171881649964,0.001171887414362,-0.0011718797596208,0.0011718883042691,-0.0011718807438152,0.0011718866722033,-0.0010769374445432,0.0010769449126497,-0.0010769413889573,0.00107694128242,-0.00095981954619016,0.00095982195087174,-0.00095982084194207,0.0009598237843322,1.8174734891972e-09,1.8174799527056e-09,-0.0013033336931797,0.0013033376866167,-1.4343844525984e-10,3.7506982469196e-09,-0.0015623734813366,0.0015623767832186,-0.0015623711132129,0.0015623770237075,-0.0015623724175241,0.0015623757193966,-0.0015623701813253,0.001562376091811,-0.0012393103510371,0.0012393150293894,-0.0012393085602712,0.0012393132385671,0.48138031764921,125301,3014,0.0039712176622507,0.0039712176622493,0.0054151307426747,41.432725219941,0.00024666180175953,0.00024666180175953,0.00024666180175953,4585067.7120705,0.013448079463785
8919200,0.94276452073615,0.014669633680258,0.004492474086207,0.0044924740862057,0.0056846855078453,-0.00096095141302475,0.00096095658992309,2.0082517674635e-09,2.0082581524155e-09,1.8766855591326e-09,2.1718517142445e-09,-0.0011890252701784,0.0011890325527319,-0.0011890249058141,0.00118903218838,-0.0011890243512823,0.0011890317993661,-0.0011890239920315,0.0011890314401254,-0.001083847970142,0.0010838518381278,-0.0010838481214623,0.0010838519894701,1.8766860982105e-09,2.1718543936553e-09,4.1097340669742e-09,-9.3220905624163e-11,-0.00096095141302263,0.00096095658992451,-0.0011890245510132,0.0011890332481533,-0.0011890256249752,0.0011890314929603,-0.0011890236346903,0.0011890324973594,-0.001189024708618,0.0011890307421352,-0.0010838459110819,0.0010838538805803,-0.0010838501805177,0.0010838499470215,-0.00096650360794652,0.0009665060770386,-0.00096650493248109,0.00096650794755803,1.9481732562325e-09,1.9481796328613e-09,-0.0013106129122617,0.0013106172234971,-1.7182994938947e-10,4.0420842263956e-09,-0.0015806397703035,0.0015806432625918,-0.001580637269977,0.0015806435840702,-0.0015806386808842,0.0015806421731632,-0.0015806363113717,0.0015806426254562,-0.0012472954826302,0.0012473005424423,-0.0012472936922738,0.0012472987520288,0.43063171924148,125301,3014,0.003997243613493,0.0039972436134915,0.0054452820529636,41.891736418697,0.00025033389134958,0.00025033389134958,0.00025033389134958,4402317.1991225,0.013531477879222
9419200,0.95967434705711,0.01481988124925,0.0045402739369143,0.004540273936913,0.0057393333754222,-0.00096223042349323,0.00096223828154892,3.0536679635692e-09,3.0536743139047e-09,2.8688503001808e-09,3.1947959007076e-09,-0.0011967687357355,0.0011967784092624,-0.0011967682456682,0.0011967779192072,-0.0011967676342279,0.0011967774753276,-0.0011967671504915,0.0011967769916011,-0.0010856813726641,0.001085687466594,-0.0010856815153019,0.0010856876092541,2.868850810504e-09,3.1947986563551e-09,5.3743189666923e-09,7.3302660310458e-10,-0.0009622304234911,0.00096223828155035,-0.001196767938237,0.0011967791771965,-0.0011967690431627,0.0011967771512748,-0.0011967668399115,0.0011967782464425,-0.0011967679448024,0.0011967762204894,-0.0010856790961858,0.001085689718727,-0.0010856837917753,0.0010856853571251,-0.00096828003402083,0.00096828449119596,-0.0009682814024066,0.00096828644945578,2.548121195176e-09,2.5481275492172e-09,-0.0013119229292197,0.0013119288761616,1.9758668162721e-10,4.8590354378028e-09,-0.0015885456252874,0.0015885503781092,-0.0015885427274173,0.0015885506039356,-0.0015885442892703,0.0015885490420829,-0.0015885415303989,0.0015885494069086,-0.0012492856810355,0.0012492921757724,-0.0012492839372309,0.0012492904319105,0.40723906797413,125301,3014,0.0040025994719071,0.0040025994719056,0.0054507072630414,41.15061198111,0.00024440489584888,0.00024440489584888,0.00024440489584888,4295906.8237279,0.013547885568731
9919200,0.97105161715749,0.014920808037822,0.0045725893046533,0.004572589304652,0.0057756294285171,-0.00096082189477466,0.00096083119552256,3.6215576276357e-09,3.62156397753e-09,3.4074626085622e-09,3.7487341615093e-09,-0.0012008991189161,0.0012009100784493,-0.0012008985585146,0.0012009095180597,-0.001200897921066,0.0012009090493518,-0.0012008973672147,0.0012009084955102,-0.0010844620823254,0.0010844693848312,-0.0010844622257313,0.0010844695282597,3.4074631359562e-09,3.7487368474273e-09,6.1803782020298e-09,1.062746616621e-09,-0.00096082189477255,0.00096083119552397,-0.0012008982408789,0.0012009109257891,-0.0012008994365477,0.0012009086707215,-0.0012008970463207,0.0012009098999822,-0.0012008982419546,0.001200907644883,-0.0010844595723062,0.0010844718690844,-0.001084464735746,0.0010844670440105,-0.00096746123430398,0.00096746669038255,-0.00096746263405773,0.00096746870174591,2.9131679403662e-09,2.9131742365268e-09,-0.0013095935387214,0.0013096004591663,3.2195094388437e-10,5.4615365905414e-09,-0.0015915081827705,0.0015915136204434,-0.0015915049923026,0.0015915138733846,-0.0015915067140118,0.0015915121516756,-0.0015915036661664,0.0015915125472399,-0.0012480653575315,0.001248072792197,-0.0012480636400255,0.0012480710746335,0.40432824355073,125301,3014,0.0039967932812852,0.0039967932812838,0.0054410535526075,39.827093335042,0.00023381674668033,0.00023381674668033,0.00023381674668033,4192405.187049,0.013526386086628
10419200,0.97869843237082,0.014993124049345,0.0045958708753157,0.0045958708753143,0.0058013822987148,-0.00095782990934021,0.0009578402206101,4.0194115155019e-09,4.0194178208681e-09,3.7854638312961e-09,4.1357670728607e-09,-0.0012027770995705,0.0012027889421683,-0.0012027764899213,0.0012027883325309,-0.0012027758366408,0.0012027878482924,-0.0012027752334397,0.0012027872451008,-0.0010815726436375,0.0010815807958533,-0.0010815727879467,0.0010815809401853,3.7854642456155e-09,4.1357700000948e-09,6.797680405964e-09,1.2411521934558e-09,-0.00095782990933806,0.00095784022061153,-0.0012027761485793,0.0012027898628336,-0.0012027774409085,0.001202787411867,-0.0012027748888904,0.0012027887721974,-0.0012027761811845,0.0012027863211991,-0.0010815699191696,0.0010815834951655,-0.0010815755124097,0.001081578240877,-0.00096518215051877,0.00096518827584015,-0.00096518357265575,0.00096519032150179,3.1772263266814e-09,3.177232647253e-09,-0.0013051689826717,0.0013051766120613,3.6704148698746e-10,5.9448251754069e-09,-0.0015915952466495,0.0015916011393817,-0.0015915918199502,0.0015916014482182,-0.0015915936877226,0.001591599580446,-0.0015915904054875,0.0015916000337469,-0.0012449910019676,0.0012449991508299,-0.0012449893074391,0.0012449974562436,0.42845224819223,125301,3014,0.0039844115901893,0.0039844115901879,0.0054227188990197,38.098640234429,0.00021998912187543,0.00021998912187543,0.00021998912187543,4096232.2979849,0.01348275926099
10919200,0.98430694196518,0.015042208452022,0.0046117334934951,0.0046117334934938,0.0058187414650335,-0.00095685741518251,0.00095686443283247,2.7392245945983e-09,2.7392309341105e-09,2.5629503991246e-09,2.8790548812026e-09,-0.0012068615208811,0.0012068704485043,-0.0012068610601104,0.0012068699877455,-0.0012068604863955,0.0012068695828547,-0.0012068600294934,0.0012068691259621,-0.0010802719589606,0.0010802773867513,-0.0010802721249473,0.001080277552761,2.5629508374494e-09,2.8790576632371e-09,5.5886701889895e-09,-1.1021153513365e-10,-0.00095685741518041,0.00095686443283384,-0.0012068605566367,0.0012068713942427,-0.0012068620243508,0.0012068690420086,-0.0012068595241022,0.0012068705305429,-0.0012068609917811,0.0012068681782769,-0.0010802691708545,0.001080280165581,-0.0010802749130488,0.0010802747739352,-0.00096485980846906,0.00096486326094734,-0.00096486119484295,0.00096486522627689,2.5447627806556e-09,2.5447690782279e-09,-0.0013016239414267,0.001301629788665,-3.14894457514e-10,5.3874591321746e-09,-0.0015927256808471,0.0015927300311346,-0.0015927225095571,0.0015927306720925,-0.0015927244156857,0.0015927287659641,-0.0015927213767887,0.0015927295393156,-0.0012429550935153,0.0012429619206457,-0.0012429533492476,0.0012429601763198,0.39597081456719,125301,3014,0.0039804029353264,0.0039804029353249,0.0054080317130688,37.946101204627,0.00021876880963701,0.00021876880963701,0.00021876880963701,3976294.914234,0.013459803947253
11419200,0.98839387312689,0.015078023915344,0.0046233652767777,0.0046233652767763,0.0058312933617898,-0.00095616093593055,0.00095616831389443,2.8752163412321e-09,2.8752226751268e-09,2.6909070418135e-09,3.0119495547145e-09,-0.0012074225334627,0.0012074317856564,-0.0012074220524439,0.0012074313046493,-0.0012074214740198,0.0012074308951693,-0.0012074209969288,0.0012074304180878,-0.00107984988551,0.0010798556064027,-0.0010798500520357,0.0010798557729515,2.6909074693817e-09,3.0119523609817e-09,5.7952035736177e-09,-4.4761311447345e-11,-0.00095616093592842,0.00095616831389585,-0.0012074215453208,0.0012074327548904,-0.0012074230405819,0.0012074303354169,-0.0012074204878586,0.0012074318663828,-0.0012074219830845,0.0012074294468775,-0.0010798470281494,0.0010798584539562,-0.0010798529093914,0.0010798529254019,-0.00096454563088329,0.00096454931693325,-0.00096454702509319,0.00096455129761622,2.6494857003247e-09,2.6494920161317e-09,-0.0013002496376748,0.0013002557648488,-2.8142884654192e-10,5.5623274390972e-09,-0.0015926807978176,0.0015926853495193,-0.0015926775434372,0.001592686001982,-0.0015926794968632,0.0015926840485561,-0.0015926763760191,0.0015926848345556,-0.0012420434960829,0.0012420505945019,-0.0012420417557841,0.0012420488541448,0.39457194111806,125301,3014,0.0039775194316079,0.0039775194316065,0.0054023362136224,37.628291424524,0.00021622633139619,0.00021622633139619,0.00021622633139619,3949108.6704397,0.013448195940752
11919200,0.99135602619548,0.015106087532508,0.0046324932504418,0.0046324932504404,0.0058411010316256,-0.00095490565518174,0.00095491352146782,3.0661253198879e-09,3.0661316512533e-09,2.8725687777309e-09,3.1977076404619e-09,-0.0012085096593961,0.0012085193364645,-0.0012085091554717,0.0012085188325518,-0.0012085085686235,0.0012085184145671,-0.0012085080686751,0.0012085179146282,-0.0010785040663342,0.0010785101956154,-0.001078504233768,0.0010785103630723,2.8725691351229e-09,3.1977104867334e-09,6.0613739664921e-09,7.0886204967342e-11,-0.00095490565517963,0.00095491352146921,-0.0012085086458782,0.0012085203307969,-0.0012085101689857,0.0012085178382208,-0.0012085075571104,0.0012085194109033,-0.0012085090801826,0.0012085169182952,-0.0010785011352417,0.0010785131166383,-0.0010785071648557,0.0010785074420534,-0.00096364004376703,0.0009636440719614,-0.00096364144892301,0.0009636460689123,2.7624069055417e-09,2.7624132089962e-09,-0.0012977559290811,0.0012977623698548,-2.4428145942792e-10,5.7503422329626e-09,-0.0015923676370262,0.0015923723995945,-0.0015923642893521,0.0015923730595195,-0.0015923662931562,0.0015923710557156,-0.0015923630798022,0.0015923718499613,-0.0012402920971495,0.0012402994913988,-0.0012402903676299,0.0012402977618209,0.42516298576731,125301,3014,0.0039723249071768,0.0039723249071754,0.0053920068443795,37.10469753197,0.00021203758025576,0.00021203758025576,0.00021203758025576,3896054.8817479,0.013427227289474
12419200,0.99353694508803,0.015127847092554,0.0046395846562763,0.004639584656275,0.0058486777800031,-0.00095344327265708,0.00095345069858404,2.8966709452498e-09,2.89667727538e-09,2.7108899204385e-09,3.0296901692803e-09,-0.0012104532670135,0.001210462541904,-0.0012104527844511,0.0012104620593534,-0.0012104522095716,0.0012104616528939,-0.0012104517304431,0.0012104611737749,-0.0010767279924725,0.0010767337622166,-0.0010767281645581,0.0010767339343256,2.7108902882814e-09,3.0296930601846e-09,5.9441222402087e-09,-1.507707574197e-10,-0.00095344327265494,0.00095345069858546,-0.0012104522382952,0.0012104635539249,-0.0012104538131654,0.0012104610473339,-0.0012104511825871,0.0012104626666475,-0.001210452757422,0.0012104601600245,-0.0010767250116209,0.00107673673649,-0.0010767311454047,0.0010767309600564,-0.00096267084991991,0.00096267449696248,-0.00096267225273603,0.00096267648252217,2.6749527352066e-09,2.6749590463079e-09,-0.001294049037366,0.0012940552401403,-3.7924182768719e-10,5.7159066160059e-09,-0.0015918417012301,0.0015918462176088,-0.0015918383624589,0.001591846952103,-0.0015918403990961,0.001591844915466,-0.0015918371920607,0.0015918457816965,-0.0012377478107257,0.0012377550541101,-0.0012377460801147,0.0012377533234404,0.44663644431852,125301,3014,0.003966277298199,0.0039662772981976,0.005376654698575,36.802237032648,0.00020961789626118,0.00020961789626118,0.00020961789626118,3811504.1566459,0.013399453206342
12919200,0.99512366234547,0.015142703606829,0.0046444401348023,0.0046444401348009,0.0058538233372254,-0.0009508864910919,0.00095089471473054,3.2044538896627e-09,3.2044602219987e-09,3.0040063411977e-09,3.3298193107763e-09,-0.0012103800004621,0.0012103899607239,-0.0012103794800201,0.0012103894402937,-0.0012103788907822,0.0012103890192324,-0.0012103783740572,0.0012103885025168,-0.0010740206517882,0.0010740270830512,-0.0010740208232365,0.001074027254523,3.0040066689755e-09,3.3298222522582e-09,6.3115017568228e-09,9.7415621918488e-11,-0.00095088649108977,0.00095089471473197,-0.0012103789505995,0.0012103909925153,-0.0012103805298788,0.0012103884085038,-0.0012103778427949,0.001210390052898,-0.0012103794220388,0.0012103874688545,-0.0010740176119806,0.001074030114543,-0.0010740238630391,0.0010740242230352,-0.00096056600070358,0.00096057024453021,-0.00096056741742145,0.00096057225280384,2.845333226376e-09,2.8453395509475e-09,-0.0012895891165479,0.0012895958084908,-2.7109674870983e-10,5.9453869810676e-09,-0.0015897934946765,0.0015897983678595,-0.0015897900455806,0.0015897990736913,-0.0015897921230489,0.0015897969962232,-0.0015897888072664,0.0015897978353689,-0.0012342063036186,0.0012342139615705,-0.0012342045895907,0.0012342122474838,0.41875849256559,125301,3014,0.0039556835933683,0.0039556835933669,0.0053581811017471,36.136398982882,0.00020429119186306,0.00020429119186306,0.00020429119186306,3748160.7181851,0.013359289126326
13419200,0.99625416566831,0.015153062826016,0.0046478336225194,0.004647833622518,0.0058573955809784,-0.00094755894464777,0.00094756863756312,3.7699859215473e-09,3.7699922497658e-09,3.5416325480861e-09,3.8842104443019e-09,-0.0012069051047399,0.0012069163640316,-0.0012069045115924,0.0012069157708958,-0.0012069038929989,0.0012069153209353,-0.0012069033042584,0.0012069147322043,-0.0010709826908207,0.0010709903329748,-0.001070982859761,0.0010709905019385,3.5416328990689e-09,3.8842133595216e-09,6.9797182457953e-09,5.602631839773e-10,-0.00094755894464563,0.00094756863756454,-0.0012069040176655,0.0012069174297325,-0.0012069055986629,0.0012069147051963,-0.0012069028081448,0.0012069163888556,-0.0012069043891068,0.0012069136642873,-0.0010709795487997,0.0010709934621815,-0.0010709860017771,0.0010709873727359,-0.00095742279646679,0.00095742813535342,-0.00095742423734585,0.00095743019101442,3.1750060017461e-09,3.1750123431994e-09,-0.0012863023848644,0.0012863099929085,-5.0412587430059e-11,6.3764911967768e-09,-0.0015864278153117,0.0015864333991545,-0.0015864241605455,0.0015864340414114,-0.0015864263090614,0.0015864318928956,-0.001586422792459,0.0015864326733168,-0.0012309942616196,0.0012310027016073,-0.0012309925658705,0.0012310010057994,0.40900439415344,125301,3014,0.0039418733224078,0.0039418733224064,0.0053445575799345,34.795130165375,0.000193561041323,0.000193561041323,0.000193561041323,3753854.4749107,0.013317489152929
13919200,0.99708667516023,0.015160531227165,0.0046502801112096,0.0046502801112082,0.0058599710047476,-0.00094513567671521,0.00094514459178935,3.469429037295e-09,3.4694354036593e-09,3.2547503473757e-09,3.5897434027443e-09,-0.0012050700763337,0.0012050806618761,-0.0012050695190067,0.0012050801045607,-0.0012050689178024,0.0012050796720653,-0.0012050683641784,0.0012050791184507,-0.0010685548126186,0.0010685618117836,-0.0010685549875893,0.0010685619867781,3.2547506919972e-09,3.5897463642513e-09,6.7370445958285e-09,2.0182312173264e-10,-0.00094513567671308,0.00094514459179081,-0.001205068972925,0.001205081747178,-0.0012050706224113,0.0012050790192603,-0.0012050678162621,0.0012050807592346,-0.001205069465713,0.0012050780312847,-0.0010685516155409,0.0010685650003682,-0.001068558184662,0.0010685587981978,-0.00095510113575497,0.00095510581673409,-0.00095510256955882,0.00095510785580376,3.0314662559632e-09,3.031472618063e-09,-0.0012835526114296,0.0012835598008405,-2.4559778795028e-10,6.291797091506e-09,-0.0015842179892757,0.0015842231975288,-0.001584214367038,0.0015842239441793,-0.0015842165514864,0.001584221759731,-0.0015842130648893,0.0015842226420224,-0.001228433379242,0.0012284415418889,-0.0012284316678263,0.0012284398304148,0.40047476240274,125301,3014,0.003931816309657,0.0039318163096557,0.0053331617825417,33.828476830529,0.00018582781464424,0.00018582781464424,0.00018582781464424,3741297.6563966,0.013285568236395
14419200,0.99770066033406,0.015165785549529,0.0046520021112435,0.0046520021112421,0.0058617813270436,-0.00094226408401637,0.0009422734725704,3.6525941323741e-09,3.6526004932092e-09,3.4292905650272e-09,3.7688876899211e-09,-0.0012027212778588,0.0012027322789643,-0.0012027206978747,0.0012027316989918,-0.0012027200873328,0.001202731257178,-0.0012027195111669,0.0012027306810215,-0.0010657096260259,0.0010657170169703,-0.001065709800771,0.0010657171917392,3.4292909019995e-09,3.7688905361816e-09,6.9811499299374e-09,3.2404788217599e-10,-0.00094226408401428,0.0009422734725718,-0.0012027201536254,0.0012027333845296,-0.0012027218221042,0.0012027305934281,-0.0012027189650254,0.0012027323646681,-0.0012027206334687,0.0012027295735345,-0.0010657063690425,0.0010657202647555,-0.0010657130577495,0.0010657139439581,-0.00095234626506773,0.00095235128263142,-0.00095234770763803,0.00095235333655231,3.1405769081195e-09,3.1405832672781e-09,-0.0012804236287441,0.0012804311197155,-1.9842763978946e-10,6.4615662272636e-09,-0.0015815707703931,0.0015815761926782,-0.0015815670647468,0.0015815769379525,-0.0015815692902115,0.001581574712488,-0.0015815657214864,0.0015815755946839,-0.0012254953210383,0.001225503760196,-0.0012254936166645,0.0012255020557638,0.38210045494667,125301,3014,0.0039199017607217,0.0039199017607203,0.0053201951245248,32.64222385603,0.00017633779084824,0.00017633779084824,0.00017633779084824,3731648.65789,0.01324829122589
14919200,0.99814105647458,0.015169705930161,0.0046532874258676,0.0046532874258663,0.0058631310784267,-0.00093774886011637,0.00093776012355844,4.3786555464022e-09,4.3786618963553e-09,4.1211936368633e-09,4.480024059752e-09,-0.0011982003360569,0.0011982129868084,-0.001198199666828,0.001198212317591,-0.001198199016809,0.0011982118365243,-0.0011981983523258,0.0011982111720505,-0.0010613798829227,0.0010613888251407,-0.00106138005249,0.0010613889947317,4.121194006879e-09,4.4800269673359e-09,7.8151091836457e-09,9.4221176973589e-10,-0.0009377488601142,0.00093776012355992,-0.0011981991719286,0.0011982141279111,-0.0011982008309523,0.0011982111764898,-0.0011981978550705,0.0011982129800159,-0.0011981995140587,0.0011982100285623,-0.0010613765181671,0.0010613921749164,-0.0010613834172401,0.00106138564496,-0.00094791419663781,0.00094792063502023,-0.00094791566842911,0.00094792274364717,3.5445275784685e-09,3.5445339400977e-09,-0.0012762232214354,0.0012762318395912,8.94838565649e-11,6.971815749991e-09,-0.0015773528312005,0.0015773591296863,-0.0015773488817806,0.0015773597817646,-0.0015773511825342,0.0015773574810113,-0.001577347375921,0.0015773582758968,-0.0012213041952875,0.0012213135816512,-0.0012213025188689,0.0012213119051742,0.39678962402156,125301,3014,0.0039011656617746,0.0039011656617732,0.0053027854182705,30.578506974237,0.0001598280557939,0.0001598280557939,0.0001598280557939,3741333.4332594,0.01319268417557
15419200,0.99844112355975,0.015172991739514,0.0046543643578007,0.0046543643577993,0.0058642630239137,-0.00092974065127831,0.00092975494860926,5.5558381248119e-09,5.5558444560303e-09,5.2459495728415e-09,5.6314003825839e-09,-0.0011918840137482,0.0011918992981327,-0.0011918832041528,0.0011918984885487,-0.001191882491568,0.0011918979439522,-0.0011918816880337,0.0011918971404272,-0.0010533431437351,0.0010533546036819,-0.0010533433038926,0.0010533547638632,5.2459495317828e-09,5.6314029779733e-09,9.1743171547246e-09,1.9373685167446e-09,-0.00092974065127635,0.00092975494861055,-0.0011918827833482,0.0011919004993576,-0.0011918844345495,0.0011918972873255,-0.0011918812642153,0.0011918991482233,-0.001191882915381,0.0011918959361591,-0.0010533395978683,0.0010533581264974,-0.001053346849754,0.0010533512410513,-0.0009401346024046,0.00094014334745153,-0.00094013612090031,0.00094014553540087,4.1808532590969e-09,4.1808596231966e-09,-0.0012676601163964,0.001267670531255,5.3241858218366e-10,7.7878334189466e-09,-0.001570358111281,0.00157036576545,-0.0015703537715284,0.0015703662792082,-0.0015703561982882,0.0015703638524487,-0.0015703520094967,0.0015703645171683,-0.0012132087481212,0.0012132196422563,-0.0012132071252831,0.0012132180193599,0.48651353790675,125301,3014,0.0038679472607133,0.003867947260712,0.0052673011683144,27.069355802161,0.00013175484641729,0.00013175484641729,0.00013175484641729,3717537.9012142,0.013089447747683
15919200,0.99867172218064,0.015176092358428,0.0046553813073108,0.0046553813073095,0.0058653297438079,-0.00092416438101593,0.00092417491281671,4.0987087852601e-09,4.0987151849763e-09,3.8585872912481e-09,4.2010893840442e-09,-0.0011910231788403,0.0011910351193147,-0.0011910225498161,0.0011910344903023,-0.0011910219215244,0.0011910340282497,-0.0011910212957922,0.001191033402527,-0.0010471770369856,0.0010471853893548,-0.0010471772134522,0.0010471855658455,3.8585878730096e-09,4.2010921157181e-09,7.7568777880487e-09,4.4054932109145e-10,-0.00092416438101383,0.00092417491281813,-0.0011910219469572,0.0011910363349986,-0.0011910237816952,0.0011910332746198,-0.0011910206913042,0.0011910352455954,-0.0011910225260068,0.0011910321851844,-0.0010471734587303,0.001047188961997,-0.0010471807917027,0.0010471819932072,-0.00093517159706579,0.00093517732836115,-0.00093517306408389,0.00093517940585851,3.3960700483324e-09,3.3960763787272e-09,-0.0012585734917144,0.0012585817183033,-2.6718949501492e-10,7.0468515824625e-09,-0.0015658617016714,0.0015658674691184,-0.0015658576911163,0.0015658683439822,-0.0015658601338302,0.0015658659012684,-0.0015658562604941,0.0015658669133519,-0.0012056908929523,0.001205700117163,-0.0012056892200738,0.0012056984442258,0.59571470761932,125301,3014,0.0038448279137749,0.0038448279137736,0.0052296595649899,25.353298336781,0.00011802638669425,0.00011802638669425,0.00011802638669425,3602528.1543246,0.013004536107892
16419200,0.99885884030576,0.015178210133989,0.0046560784110005,0.0046560784109991,0.0058660533119891,-0.00091928847249493,0.00091929735715009,3.4566721471857e-09,3.4566786390756e-09,3.2442190336884e-09,3.5710386570438e-09,-0.0011909333189673,0.0011909437930142,-0.0011909327668849,0.0011909432409435,-0.0011909321752707,0.0011909428167991,-0.0011909316255049,0.0011909422670428,-0.0010417810972957,0.0010417880850821,-0.0010417812836788,0.0010417882714899,3.2442196561106e-09,3.5710411224134e-09,7.0806136369657e-09,-1.6725970817086e-10,-0.00091928847249285,0.00091929735715147,-0.0011909321026847,0.0011909449976626,-0.0011909339831634,0.0011909420362969,-0.0011909309601636,0.0011909440226214,-0.0011909328406067,0.0011909410612234,-0.0010417775548417,0.0010417916282945,-0.0010417848261286,0.0010417847282816,-0.00093111062263917,0.00093111505850612,-0.00093111206707829,0.00093111709393469,3.0389086573089e-09,3.0389149324701e-09,-0.0012491119324972,0.0012491191879916,-5.8196886225074e-10,6.6577046482813e-09,-0.0015613606079533,0.0015613655638703,-0.0015613567715916,0.0015613665609028,-0.0015613591882931,0.0015613641442014,-0.0015613554826766,0.0015613652719795,-0.001198025044805,0.001198033482152,-0.0011980233513714,0.0011980317886593,0.50210013400473,125301,3014,0.0038246166182282,0.0038246166182269,0.0051904737154187,24.411719195174,0.00011049375356139,0.00011049375356139,0.00011049375356139,3473583.0341557,0.012923955679287
16919200,0.99901435286652,0.015180516551002,0.0046568405502352,0.0046568405502338,0.0058668354505326,-0.00091715350415149,0.00091716173399865,3.1946662287279e-09,3.194672729794e-09,2.9898846718991e-09,3.3176043262592e-09,-0.001185164157116,0.0011851741174155,-0.0011851636264839,0.001185173586795,-0.0011851630504395,0.0011851731792826,-0.0011851625219264,0.001185172650779,-0.0010404642355431,0.0010404706623021,-0.0010404644284625,0.0010404708552459,2.9898852158024e-09,3.3176070134988e-09,6.7775179455549e-09,-3.8817576140273e-10,-0.00091715350414935,0.00091716173400003,-0.0011851629552123,0.0011851753084935,-0.0011851648283835,0.0011851723957186,-0.0011851618496124,0.0011851743714359,-0.0011851637227481,0.0011851714586287,-0.0010404607335664,0.0010404741656601,-0.0010404679304344,0.0010404673518919,-0.00092900172501665,0.00092900564259009,-0.00092900316469206,0.00092900767860081,2.9532122118647e-09,2.9532185304364e-09,-0.0012489898957666,0.0012489968666525,-6.252772352979e-10,6.5308999008146e-09,-0.0015576207254333,0.0015576255366897,-0.0015576169617265,0.0015576265504582,-0.0015576193504684,0.0015576241617164,-0.0015576157178142,0.001557625306538,-0.001197217462763,0.0011972256712917,-0.0011972157373701,0.0011972239458399,0.65164127745866,125301,3014,0.003815722738629,0.0038157227386275,0.0051899383745034,23.779557651465,0.00010543646121172,0.00010543646121172,0.00010543646121172,3549306.3118832,0.012905334767892
17419200,0.9991363438964,0.015182137473102,0.0046573751711944,0.0046573751711931,0.0058673871307147,-0.00091080741330506,0.00091081805717881,4.1274917109026e-09,4.1274980800904e-09,3.885542745748e-09,4.2260489998686e-09,-0.0011852843973196,0.0011852963776487,-0.0011852837582851,0.0011852957386259,-0.0011852831364551,0.0011852952825483,-0.0011852825007428,0.0011852946468454,-0.0010329903054969,0.0010329987402876,-0.0010329904963615,0.0010329989311767,3.8855428829805e-09,4.2260522903821e-09,7.7480439659273e-09,5.0694913974423e-10,-0.00091080741330286,0.00091081805718026,-0.0011852831776194,0.0011852975808803,-0.0011852849779816,0.0011852945353956,-0.0011852819184326,0.0011852964874572,-0.0011852837187593,0.0011852934419401,-0.0010329867641424,0.0010330022760254,-0.0010329940377109,0.0010329953954429,-0.00092322494030782,0.0009232307754012,-0.00092322642255693,0.00092323286490365,3.408510373936e-09,3.4085167810344e-09,-0.0012373609967709,0.0012373693328309,-2.1826325726614e-10,7.0220183248956e-09,-0.0015524950319197,0.0015525008590125,-0.0015524910405606,0.0015525017041849,-0.0015524934588306,0.001552499285915,-0.0015524896017633,0.0015525002653796,-0.0011874607876254,0.0011874700418761,-0.0011874591184852,0.0011874683726762,0.58772740813402,125301,3014,0.0037894254446604,0.0037894254446589,0.0051417883712373,21.98231320442,9.1058505635362e-05,9.1058505635362e-05,9.1058505635362e-05,3389025.3826849,0.012803391974038
17919200,0.99922954350339,0.015183174556067,0.0046577189381611,0.0046577189381598,0.0058677366797459,-0.0009042542680658,0.00090426636154511,4.6775298493798e-09,4.6775362183323e-09,4.4047733858143e-09,4.7666239104997e-09,-0.0011765586894304,0.0011765719807161,-0.0011765579707052,0.0011765712620024,-0.0011765573227961,0.0011765707810094,-0.0011765566081615,0.001176570066384,-0.0010271159517643,0.0010271255675478,-0.0010271161456806,0.0010271257614885,4.4047737119856e-09,4.7666268004555e-09,8.3988598236854e-09,9.5620942916841e-10,-0.00090425426806369,0.00090426636154651,-0.0011765574326796,0.0011765732172126,-0.0011765592274523,0.0011765700255074,-0.0011765560681075,0.001176572019567,-0.0011765578628446,0.0011765688278296,-0.0010271123096981,0.0010271291985966,-0.0010271197877419,0.0010271221304438,-0.00091690221006631,0.00091690910723582,-0.00091690372160188,0.00091691125753601,3.7673903373407e-09,3.7673967606738e-09,-0.0012319922839533,0.0012320016031261,3.2296651535936e-11,7.4802136957827e-09,-0.0015448735726461,0.0015448802013309,-0.0015448693697215,0.0015448809754753,-0.0015448718582602,0.0015448784869368,-0.0015448677956752,0.0015448794014212,-0.0011819084497281,0.0011819185435599,-0.0011819067849111,0.0011819168786837,0.4915601615792,125301,3014,0.0037622079341799,0.0037622079341785,0.0051195125404874,19.501902518327,7.1215220146615e-05,7.1215220146615e-05,7.1215220146615e-05,3436408.9851269,0.012725661286066
18419200,0.99930363074316,0.015184037726879,0.0046580047012606,0.0046580047012592,0.0058680283243594,-0.00090033717979673,0.00090034838915971,4.3381941177064e-09,4.33820050757e-09,4.0770429317841e-09,4.4377881827937e-09,-0.0011688428355008,0.0011688554376681,-0.0011688421534723,0.001168854755651,-0.0011688415208895,0.0011688542924097,-0.0011688408423883,0.0011688536139176,-0.0010238999192904,0.001023908797019,-0.0010239001217781,0.001023908999531,4.0770433872775e-09,4.4377909764418e-09,8.1291668797006e-09,5.472309981846e-10,-0.00090033717979458,0.00090034838916111,-0.0011688415579985,0.0011688566975322,-0.0011688434309706,0.0011688534957885,-0.0011688402451679,0.0011688555540533,-0.0011688421181044,0.0011688523522772,-0.0010238962101457,0.0010239124983159,-0.001023903830918,0.0010239052982381,-0.00091268912621826,0.00091269525893425,-0.00091269063167022,0.00091269740669486,3.6396767009634e-09,3.6396830801215e-09,-0.001231330925486,0.0012313398070927,-1.6009900687935e-10,7.4228485903355e-09,-0.0015402432388282,0.0015402495460401,-0.0015402390567245,0.0015402504295912,-0.0015402415895561,0.0015402478967599,-0.0015402375476405,0.0015402489204994,-0.0011801641632812,0.0011801739987912,-0.0011801624624508,0.0011801722979019,0.51421839069127,125301,3014,0.0037459169103155,0.0037459169103141,0.0051167402857655,17.478775898439,5.503020718751e-05,5.503020718751e-05,5.503020718751e-05,3533429.9892841,0.012689809832778
18919200,0.9993682911514,0.015184898110363,0.0046582886561538,0.0046582886561525,0.005868320798057,-0.00089879172724114,0.00089879999138186,3.2098693960756e-09,3.2098757770572e-09,3.0049851330904e-09,3.3318022512577e-09,-0.0011689633464681,0.001168973354959,-0.0011689628128749,0.0011689728213772,-0.001168962240097,0.0011689724170423,-0.0011689617082047,0.0011689718851593,-0.0010218823829222,0.001021888840562,-0.0010218825916962,0.0010218890493605,3.0049854761103e-09,3.3318051464248e-09,6.9421972848524e-09,-5.2244890080062e-10,-0.00089879172723902,0.00089879999138324,-0.0011689620964272,0.0011689745960527,-0.0011689640629118,0.0011689715802849,-0.0011689609909236,0.0011689736590025,-0.0011689629573725,0.0011689706432023,-0.0010218787355214,0.0010218924917777,-0.0010218862390921,0.0010218853981488,-0.00091111193014927,0.00091111577863521,-0.00091111338934701,0.00091111783330054,3.0077695124119e-09,3.0077758353364e-09,-0.0012287924020178,0.001228799495059,-7.1653362694837e-10,6.7351512234592e-09,-0.0015391975482486,0.0015392023894165,-0.0015391936849168,0.0015392034993862,-0.0015391961715718,0.0015392010127314,-0.0015391924383557,0.0015392022528172,-0.0011779715212367,0.0011779799407556,-0.0011779697825033,0.0011779782019631,0.5877987766322,125301,3014,0.0037395041598231,0.0037395041598217,0.0051062257270195,16.8748159008,5.0198527206401e-05,5.0198527206401e-05,5.0198527206401e-05,3493127.6286289,0.012666204555896
19419200,0.99942927848291,0.015185806770257,0.0046585887931808,0.0046585887931795,0.0058686291838972,-0.00089886899499275,0.00089887459494425,2.1837413862879e-09,2.1837477928863e-09,2.0253109814927e-09,2.3260727000463e-09,-0.0011723620865643,0.0011723697562665,-0.0011723616833833,0.0011723693530971,-0.0011723611637526,0.0011723690030101,-0.0011723607610938,0.0011723686003606,-0.0010213596133913,0.0010213638742247,-0.0010213598284798,0.001021364089338,2.0253114048346e-09,2.3260755480769e-09,5.7604898425212e-09,-1.3929974717738e-09,-0.00089886899499063,0.00089887459494563,-0.0011723608935595,0.0011723709459308,-0.0011723628763842,0.0011723681634342,-0.0011723599710259,0.0011723701929514,-0.001172361953815,0.0011723674104224,-0.0010213561210435,0.001021367378114,-0.0010213633208228,0.0010213605854525,-0.00091161423037507,0.00091161606364478,-0.00091161564532129,0.00091161804061144,2.4146708113466e-09,2.4146771362122e-09,-0.0012256076052524,0.0012256130475988,-1.1436841415875e-09,5.9890657541817e-09,-0.0015393812663731,0.0015393848208928,-0.0015393777506661,0.001539386062768,-0.0015393801294614,0.0015393836839728,-0.0015393767350392,0.0015393850471332,-0.0011759793117928,0.0011759863435234,-0.0011759775407646,0.0011759845724359,0.65664642788028,125301,3014,0.0037398400369192,0.0037398400369177,0.0050930482199426,17.545999907938,5.5567999263504e-05,5.5567999263504e-05,5.5567999263504e-05,3398889.4677333,0.012653587126215
19919200,0.99948808779849,0.015186661438143,0.004658871888755,0.0046588718887536,0.0058689176606343,-0.00089943904340332,0.00089944366255318,1.8054176425244e-09,1.8054240874452e-09,1.6637307395797e-09,1.9541563311302e-09,-0.0011756459596622,0.0011756527764257,-0.001175645603621,0.0011756524203962,-0.0011756451037214,0.0011756520897555,-0.001175644748103,0.0011756517341464,-0.001021500960523,0.0010215044105243,-0.0010215011801102,0.0010215046301365,1.6637314111273e-09,1.9541589059872e-09,5.2313405011138e-09,-1.6204956629414e-09,-0.00089943904340119,0.00089944366255461,-0.0011756448174021,0.0011756539158412,-0.001175646745877,0.0011756512809824,-0.0011756439616899,0.0011756532293981,-0.0011756458901291,0.0011756505945069,-0.0010214976160939,0.0010215077673197,-0.0010215045245345,0.0010215012733446,-0.00091270161525644,0.0009127027664229,-0.00091270301764631,0.00091270471722985,2.1840768997146e-09,2.1840832065808e-09,-0.0012227419182854,0.0012227467294916,-1.2224422048768e-09,5.607958620743e-09,-0.0015394275549322,0.0015394306799874,-0.0015394242263187,0.0015394319072386,-0.0015394265042554,0.0015394296293022,-0.0015394232935086,0.0015394309744206,-0.0011742879312389,0.0011742943659135,-0.0011742861472163,0.0011742925818315,0.63949909152816,125301,3014,0.0037422182203137,0.0037422182203123,0.0050811946293125,18.682230113204,6.4657840905635e-05,6.4657840905635e-05,6.4657840905635e-05,3312464.7685755,0.012646433926051
20419200,0.9995405989676,0.015187487978974,0.0046591463076449,0.0046591463076436,0.0058691953636851,-0.00089804941513037,0.00089805654735437,2.769469745865e-09,2.7694761872271e-09,2.584065964735e-09,2.8984679215299e-09,-0.0011737804400628,0.0011737894325008,-0.0011737799608153,0.0011737889532648,-0.0011737794146375,0.0011737885755894,-0.0011737789374774,0.0011737880984386,-0.0010202465683379,0.0010202520901862,-0.0010202467839958,0.001020252305869,2.5840665373604e-09,2.8984705409094e-09,6.1530382936142e-09,-6.1408917443122e-10,-0.00089804941512827,0.00089805654735576,-0.001173779304484,0.0011737905572644,-0.0011737810963899,0.0011737878285028,-0.0011737782801197,0.0011737897014125,-0.0011737800719899,0.0011737869726185,-0.0010202432615691,0.0010202553986123,-0.0010202500907599,0.0010202489974467,-0.00091152271865303,0.00091152589575157,-0.00091152416175937,0.00091152791784509,2.7212698248395e-09,2.7212761642341e-09,-0.0012209070508262,0.0012209133969431,-6.5848935286698e-10,6.1000457218199e-09,-0.0015370847398635,0.0015370891517367,-0.0015370812121444,0.0015370901365429,-0.0015370834684112,0.0015370878802763,-0.0015370800655777,0.0015370889899685,-0.0011726574915828,0.0011726650763269,-0.0011726557428269,0.0011726633275115,0.69004788769245,125301,3014,0.0037364466487587,0.0037364466487573,0.0050735872394848,18.601885359627,6.4015082877017e-05,6.4015082877017e-05,6.4015082877017e-05,3310675.3252114,0.01262702855934
20919200,0.99958427232092,0.015188128908031,0.0046593591990269,0.0046593591990256,0.0058694105099782,-0.00089372766190816,0.00089373742372574,3.7820170582103e-09,3.7820234672203e-09,3.5512435810639e-09,3.8886906436407e-09,-0.0011716369447843,0.0011716482023388,-0.0011716363389975,0.0011716475965635,-0.0011716357435364,0.0011716471689205,-0.0011716351412659,0.0011716465666592,-0.001015565753661,0.0010155734510225,-0.0010155659702762,0.0010155736676625,3.5512442207682e-09,3.8886931434633e-09,7.2217527594049e-09,3.422908995886e-10,-0.00089372766190603,0.00089373742372708,-0.0011716357841483,0.0011716493453333,-0.0011716374996292,0.0011716464535706,-0.0011716345846759,0.0011716483136888,-0.0011716363001211,0.0011716454218937,-0.0010155623887065,0.0010155768086832,-0.0010155693352259,0.0010155703100055,-0.00090749679633817,0.00090750203278151,-0.00090749828769931,0.00090750413166382,3.273483189512e-09,3.273489516907e-09,-0.0012143723698835,0.0012143803048193,-1.7576683072338e-10,6.7062017553162e-09,-0.0015327730801198,0.0015327787435994,-0.0015327692814353,0.0015327795435108,-0.0015327715807374,0.0015327772442088,-0.0015327679132402,0.001532778175308,-0.0011668722963224,0.0011668811340093,-0.0011668705875114,0.0011668794251385,0.64466974006305,125301,3014,0.0037185215488285,0.0037185215488269,0.0050465200982008,17.277026936856,5.3416215494848e-05,5.3416215494848e-05,5.3416215494848e-05,3253443.1857143,0.012563350750641
21419200,0.99961932182025,0.015188641225212,0.0046595296362383,0.004659529636237,0.0058695819527368,-0.00088861849520923,0.00088862981603214,4.3794390439669e-09,4.3794454550652e-09,4.1188063704103e-09,4.4745764086445e-09,-0.0011651297232648,0.0011651423687713,-0.0011651290366593,0.0011651416821772,-0.001165128412646,0.0011651412262904,-0.0011651277303004,0.0011651405439541,-0.0010108385545017,0.001010847532526,-0.0010108387743111,0.0010108477523601,4.1188069869693e-09,4.474578962982e-09,7.9393850373835e-09,8.1950262343676e-10,-0.00088861849520713,0.0008886298160335,-0.0011651285192683,0.001165143551515,-0.0011651302406517,0.0011651404994351,-0.0011651272107967,0.0011651424111799,-0.0011651289321443,0.0011651393590676,-0.0010108350699807,0.0010108510047476,-0.0010108422588274,0.0010108442801424,-0.0009024902892896,0.0009024966757285,-0.00090249181291228,0.00090249883239681,3.6437225334248e-09,3.6437288811427e-09,-0.0012102483257836,0.0012102572825237,6.7283995020138e-11,7.195161391479e-09,-0.0015270652013273,0.0015270716666173,-0.0015270611752033,0.0015270724050018,-0.0015270635574617,0.0015270700227436,-0.001527059667975,0.0015270708977658,-0.0011626077724693,0.00116261749021,-0.0011626060742822,0.0011626157919634,0.64095610021346,125301,3014,0.0036973032697554,0.0036973032697539,0.0050294085539606,15.23082428751,3.7046594300083e-05,3.7046594300083e-05,3.7046594300083e-05,3286751.6523744,0.01250303360811
21919200,0.9996491276901,0.015189064119147,0.0046596702280356,0.0046596702280343,0.0058697236630776,-0.00088542293417695,0.00088543258631295,3.7396903714085e-09,3.739696787389e-09,3.5088793711438e-09,3.8485596571148e-09,-0.001162165477604,0.0011621766801863,-0.0011621648729284,0.001162176075522,-0.0011621642815479,0.0011621756527191,-0.001162163679941,0.0011621750511214,-0.0010075711015825,0.0010075787046732,-0.0010075713268418,0.0010075789299575,3.508879782217e-09,3.8485623823716e-09,7.3365656057045e-09,1.4282458747575e-10,-0.00088542293417487,0.00088543258631427,-0.0011621642665256,0.0011621778756815,-0.0011621660840029,0.0011621748800282,-0.0011621630720209,0.0011621768497647,-0.0011621648894625,0.0011621738540789,-0.0010075675836444,0.0010075822177911,-0.0010075748447752,0.0010075754168432,-0.00089933144797484,0.00089933648625409,-0.00089933294731494,0.00089933859818878,3.3043879743333e-09,3.3043942983754e-09,-0.0012068606581174,0.0012068686313806,-2.9798574556355e-10,6.8945935312679e-09,-0.0015237880275441,0.0015237936689965,-0.0015237841303504,0.0015237945762492,-0.0015237865325777,0.001523792174022,-0.0015237827670932,0.0015237932129844,-0.0011593272370302,0.0011593362315684,-0.0011593255107359,0.0011593345052146,0.62311101531201,125301,3014,0.0036840324063813,0.0036840324063798,0.005015363137996,13.995690130607,2.7165521044854e-05,2.7165521044854e-05,2.7165521044854e-05,3280676.7258029,0.012461946614732
22419200,0.99967804698894,0.015189493226881,0.0046598128785763,0.004659812878575,0.00586986746973,-0.00088693115066277,0.00088693638971391,2.0393670089142e-09,2.0393734465117e-09,1.8866276836722e-09,2.1848967814325e-09,-0.0011631704039155,0.0011631777652675,-0.001163170014043,0.0011631773754064,-0.0011631695087646,0.0011631770397571,-0.0011631691196627,0.0011631766506644,-0.0010090536698148,0.0010090576263401,-0.0010090538984436,0.0010090578549938,1.8866281147676e-09,2.1848995949569e-09,5.4567717865156e-09,-1.378028090263e-09,-0.00088693115066064,0.00088693638971531,-0.0011631692626609,0.0011631789018476,-0.0011631711552936,0.0011631762388278,-0.0011631683679124,0.0011631781767385,-0.0011631702605094,0.0011631755136862,-0.0010090503328291,0.0010090609729118,-0.0010090572354244,0.0010090545084261,-0.00090085000029766,0.00090085164599143,-0.00090085142125403,0.00090085362696436,2.3603422973395e-09,2.3603485939413e-09,-0.0012083224604328,0.0012083277515493,-1.0417606252809e-09,5.7749895148139e-09,-0.0015246553953635,0.0015246589406983,-0.00152465201817,0.0015246601113758,-0.0015246542921096,0.0015246578374363,-0.0015246510340413,0.0015246591272395,-0.0011608062760129,0.001160813086701,-0.0011608044868652,0.0011608112974938,0.65096373206224,125301,3014,0.0036902776218464,0.003690277621845,0.0050214160318554,14.850213296326,3.4001706370604e-05,3.4001706370604e-05,3.4001706370604e-05,3281247.8201659,0.012480715387551
22919200,0.99970539741654,0.015189858734779,0.0046599344339534,0.004659934433952,0.0058699898668732,-0.0008873212460902,0.0008873271943036,2.3124673269458e-09,2.3124737601904e-09,2.1472879612973e-09,2.4512050335747e-09,-0.0011649056813744,0.0011649136538609,-0.0011649052579674,0.0011649132304652,-0.0011649047383681,0.0011649128801746,-0.0011649043164642,0.0011649124582799,-0.0010091124055147,0.0010091169483111,-0.0010091126336461,0.0010091171764675,2.1472883284127e-09,2.4512078964431e-09,5.6509855018537e-09,-1.0260412088996e-09,-0.00088732124608807,0.000887327194305,-0.0011649045631988,0.0011649147638811,-0.001164906376139,0.0011649121204465,-0.0011649036209611,0.0011649139909624,-0.0011649054338655,0.0011649113474953,-0.001009109144112,0.0010091202148247,-0.001009115895044,0.0010091139099579,-0.00090138411645672,0.00090138637856502,-0.00090138555025757,0.00090138837911464,2.4920362933842e-09,2.4920425843391e-09,-0.0012071618821468,0.0012071675664845,-8.379495974797e-10,5.826773798266e-09,-0.0015248625486985,0.0015248664591913,-0.0015248591588727,0.0015248675178882,-0.0015248613831382,0.0015248652936229,-0.0015248581139966,0.0015248664730044,-0.0011601284051426,0.0011601354574708,-0.0011601266299899,0.0011601336822585,0.58748017292924,125301,3014,0.0036919043455142,0.0036919043455128,0.0050166200698597,15.357580690458,3.8060645523666e-05,3.8060645523666e-05,3.8060645523666e-05,3239492.8299438,0.012479174400966
23419200,0.99973094661791,0.015190210958539,0.0046600516750005,0.0046600516749992,0.0058701076085394,-0.00088817369576584,0.00088817997170655,2.4363741081787e-09,2.4363805414822e-09,2.264985923823e-09,2.5741121484349e-09,-0.0011635062761019,0.0011635145448456,-0.0011635058341301,0.001163514102885,-0.0011635053096173,0.0011635137480825,-0.0011635048695289,0.0011635133080033,-0.0010103582512271,0.0010103630602051,-0.0010103584790398,0.0010103632880426,2.2649863338539e-09,2.5741150350563e-09,5.7317011367317e-09,-8.5894320008917e-10,-0.00088817369576368,0.00088817997170799,-0.0011635051705607,0.0011635156403614,-0.0011635069396673,0.0011635130073707,-0.0011635042050348,0.0011635148445561,-0.0011635059741057,0.001163512211533,-0.0010103550311489,0.0010103662827146,-0.0010103616991131,0.0010103600655372,-0.0009021662024438,0.00090216874955233,-0.00090216764107114,0.00090217076273948,2.5793707313182e-09,2.5793770290376e-09,-0.001209580181726,0.0012095860994639,-7.1123411030085e-10,5.870271904414e-09,-0.0015248789296325,0.0015248830771951,-0.0015248755360958,0.0015248840778459,-0.0015248777331937,0.0015248818807482,-0.001524874461976,0.0015248830037185,-0.0011621106093162,0.0011621178193757,-0.001162108832573,0.0011621160425731,0.60459639632209,125301,3014,0.0036954274128805,0.003695427412879,0.0050266266260657,15.705842464109,4.0846739712874e-05,4.0846739712874e-05,4.0846739712874e-05,3287385.8280179,0.012496406947604
23919200,0.99975612693943,0.015190620317686,0.004660187685815,0.0046601876858136,0.0058702449460576,-0.00089070245369528,0.00089070673148012,1.6671436894929e-09,1.6671501332372e-09,1.5316854163855e-09,1.8199963333319e-09,-0.0011670695469947,0.0011670760661249,-0.0011670692035257,0.0011670757226673,-0.0011670687175274,0.0011670754061051,-0.0011670683749547,0.0011670750635416,-0.0010124983614574,0.0010125015215016,-0.0010124985913652,0.0010125017514344,1.5316857334924e-09,1.8199992844623e-09,4.8567764115608e-09,-1.5224792957033e-09,-0.0008907024536931,0.00089070673148151,-0.0011670684809872,0.0011670771268055,-0.0011670702695291,0.0011670746619881,-0.0011670676519851,0.0011670764672499,-0.0011670694404912,0.0011670740024,-0.0010124952471306,0.001012504644551,-0.0010125017056871,0.0010124986283893,-0.00090467955685529,0.00090468058644407,-0.00090468096159075,0.00090468253807196,2.1326748683643e-09,2.1326811252026e-09,-0.0012109833441145,0.0012109880112585,-1.0431775808469e-09,5.319551380048e-09,-0.0015273028215364,0.0015273059911849,-0.0015272996807384,0.0015273070960871,-0.0015273018035927,0.001527304973233,-0.0015272987788778,0.0015273061942189,-0.0011637739181822,0.001163780087074,-0.0011637721174861,0.0011637782863183,0.71228945632067,125301,3014,0.0037059246565355,0.003705924656534,0.0050324536913449,17.004878674575,5.1239029396598e-05,5.1239029396598e-05,5.1239029396598e-05,3252992.1771175,0.012523582190478
24419200,0.99978013841578,0.015190992185827,0.0046603113808017,0.0046603113808003,0.005870369424225,-0.00089107810156177,0.00089108328228309,2.0183989672088e-09,2.0184054277467e-09,1.8662179667927e-09,2.1616624411668e-09,-0.0011715411681589,0.0011715484681426,-0.001171540783239,0.0011715480832341,-0.0011715402779503,0.001171547747351,-0.0011715398947396,0.0011715473641495,-0.0010121358224296,0.001012139734298,-0.0010121360544868,0.0010121399663804,1.8662183125571e-09,2.1616653136857e-09,5.1448924689743e-09,-1.1080847762106e-09,-0.00089107810155963,0.00089108328228453,-0.0011715401197224,0.0011715495074458,-0.0011715418316715,0.0011715470439324,-0.0011715392303854,0.0011715487875249,-0.0011715409422987,0.001171546323979,-0.0010121327681854,0.001012142792577,-0.001012139108726,0.0010121369081055,-0.00090552484988945,0.0009055266425229,-0.0009055262736711,0.00090552862182611,2.2925078566057e-09,2.2925140777392e-09,-0.0012070200345952,0.0012070251840836,-8.2757764661509e-10,5.4153006367386e-09,-0.0015277778781578,0.0015277814708595,-0.0015277746974132,0.0015277824580663,-0.001527776781393,0.0015277803740866,-0.0015277737182669,0.0015277814789122,-0.0011611448276829,0.0011611513131844,-0.0011611430458702,0.001161149531312,0.6789410524186,125301,3014,0.0037075095905975,0.0037075095905961,0.0050160681127591,17.882064228903,5.8256513831226e-05,5.8256513831226e-05,5.8256513831226e-05,3140451.0343427,0.012510259604845
24919200,0.99980237715319,0.015191301042639,0.0046604144663637,0.0046604144663623,0.0058704721099127,-0.00089124735399975,0.00089125338042053,2.341479391706e-09,2.3414858794195e-09,2.1743325523095e-09,2.4791644026999e-09,-0.0011706576553594,0.0011706656940308,-0.0011706572270374,0.0011706652657202,-0.0011706567080875,0.0011706649162106,-0.001170656282065,0.0011706644901973,-0.001012540614808,0.0010125452217091,-0.001012540847147,0.0010125454540733,2.1743329930586e-09,2.479167179615e-09,5.4519475955039e-09,-7.6897911219848e-10,-0.00089124735399764,0.00089125338042193,-0.0011706566095742,0.0011706667278133,-0.0011706582728185,0.0011706642319393,-0.0011706556634692,0.0011706659511587,-0.0011706573266777,0.0011706634552523,-0.0010125375748277,0.0010125482617282,-0.0010125438871225,0.0010125424140582,-0.00090588091076355,0.00090588338466974,-0.00090588234921997,0.00090588539131694,2.4894067565089e-09,2.4894130260526e-09,-0.0012072167299558,0.0012072224311921,-6.2042941982181e-10,5.5951664341238e-09,-0.0015268471070668,0.001526851173299,-0.0015268438599978,0.0015268520777261,-0.0015268459357499,0.0015268500019741,-0.0015268428089328,0.0015268510266536,-0.0011614446922665,0.0011614515958788,-0.0011614429165787,0.0011614498201313,0.60789483588396,125301,3014,0.0037082036537464,0.003708203653745,0.0050168744928372,18.352108171738,6.2016865373904e-05,6.2016865373904e-05,6.2016865373904e-05,3152982.4070096,0.012512458494204
25419200,0.99982421993037,0.015191670193832,0.0046605375421298,0.0046605375421285,0.0058705951095741,-0.00089478168741907,0.0008947853709446,1.4360209540456e-09,1.4360274556705e-09,1.3111069155249e-09,1.5945358077021e-09,-0.0011716290939475,0.0011716350920513,-0.0011716287782343,0.0011716347763494,-0.0011716283061734,0.001171634474161,-0.0011716279915066,0.0011716341595033,-0.0010163218726802,0.0010163245395026,-0.0010163221056854,0.0010163247725329,1.3111072026272e-09,1.5945389032619e-09,4.4506627519629e-09,-1.5786109632488e-09,-0.00089478168741689,0.00089478537094607,-0.0011716280854796,0.0011716360944183,-0.0011716297866982,0.0011716337739838,-0.0011716272982458,0.0011716354770674,-0.0011716289994285,0.0011716331566004,-0.0010163189292926,0.0010163274904905,-0.0010163250490678,0.0010163218215493,-0.00090919099480222,0.00090919166614401,-0.0009091923901163,0.00090919360273094,1.9987235501322e-09,1.9987297876182e-09,-0.0012125115234907,0.0012125158231274,-1.0041094834239e-09,5.0106544231086e-09,-0.0015293134326611,0.001529316409324,-0.0015293104619186,0.0015293174529753,-0.0015293124691196,0.0015293154457745,-0.0015293096123139,0.0015293166033631,-0.0011661353359879,0.0011661411001746,-0.0011661335233728,0.0011661392875001,0.7372586897946,125301,3014,0.0037228500366198,0.0037228500366184,0.0050388003367726,19.920595061693,7.4564760493547e-05,7.4564760493547e-05,7.4564760493547e-05,3202766.3720476,0.012564283231212
25919200,0.99984454863382,0.015192009016133,0.0046606503901392,0.0046606503901378,0.005870708235856,-0.00089516257349913,0.00089516788031429,2.0662789200385e-09,2.0662853996347e-09,1.9117027517344e-09,2.2082270250037e-09,-0.0011769052573551,0.0011769126657377,-0.0011769048661117,0.0011769122745056,-0.0011769043596513,0.0011769119374824,-0.0011769039706079,0.0011769115484481,-0.0010156819229537,0.0010156859384877,-0.0010156821583548,0.0010156861739143,1.9117025404506e-09,2.2082307265561e-09,5.0562199786825e-09,-9.2365229427682e-10,-0.00089516257349694,0.00089516788031581,-0.0011769042521683,0.0011769136594128,-0.0011769058712949,0.0011769112808318,-0.0011769033555812,0.001176912932274,-0.0011769049746719,0.0011769105536604,-0.0010156790012896,0.0010156888610461,-0.0010156850800134,0.0010156832513603,-0.00090990976188938,0.00090991174436658,-0.00090991119081588,0.00090991373041366,2.306802881079e-09,2.3068091062711e-09,-0.00120809902047,0.0012081042255375,-6.8166806231744e-10,5.2924437331386e-09,-0.0015301783426674,0.001530182066141,-0.0015301752406711,0.0015301829544107,-0.0015301772358082,0.0015301809592737,-0.0015301742512168,0.0015301819649488,-0.0011630374457726,0.0011630438769846,-0.0011630356645559,0.0011630420957081,0.72914636768882,125301,3014,0.0037244614842162,0.0037244614842149,0.0050205637016428,20.734716547892,8.1077732383138e-05,8.1077732383138e-05,8.1077732383138e-05,3073682.6700039,0.012549156232216
26419200,0.99986219503438,0.015192330123824,0.0046607576392966,0.0046607576392952,0.0058708148452317,-0.00089339748127441,0.00089340522076121,3.0009961912734e-09,3.0010026914866e-09,2.8038057837462e-09,3.1237844454706e-09,-0.0011750143408933,0.0011750238611601,-0.0011750138294374,0.0011750233497155,-0.0011750132795608,0.0011750229687898,-0.0011750127716257,0.0011750224608639,-0.001014058817004,0.0010140648407588,-0.0010140590528397,0.0010140650766199,2.8038057971712e-09,3.1237877629649e-09,6.0652716381787e-09,-6.3269452553888e-11,-0.00089339748127226,0.00089340522076266,-0.0011750133050314,0.0011750248791559,-0.0011750148652955,0.001175022331721,-0.0011750122454762,0.0011750239885623,-0.0011750138057044,0.0011750214410948,-0.0010140558194944,0.0010140678306249,-0.0010140620503442,0.0010140620867581,-0.00090845048807861,0.00090845435722002,-0.00090845196086622,0.00090845641715217,2.8475195982309e-09,2.8475258441577e-09,-0.001205616840702,0.0012056235762309,-2.2772293470595e-10,5.9052143651517e-09,-0.0015275630736294,0.0015275680127096,-0.0015275597038917,0.0015275687427393,-0.0015275617537795,0.0015275666928517,-0.0015275585082008,0.0015275675470409,-0.0011609424359454,0.0011609500990027,-0.0011609406841727,0.0011609483471702,0.7920419595447,125301,3014,0.0037171355440082,0.0037171355440068,0.005010274553261,20.398785715385,7.8390285723077e-05,7.8390285723077e-05,7.8390285723077e-05,3067186.9103912,0.012523893213786
26919200,0.99987862498216,0.015192611668567,0.0046608517415965,0.0046608517415952,0.0058709081853751,-0.00089397975940538,0.00089398493570561,2.0161081831907e-09,2.0161147496371e-09,1.8631596263994e-09,2.1589536165666e-09,-0.0011776996727969,0.0011777069713693,-0.0011776992871829,0.0011777065857669,-0.0011776987851709,0.0011777062534461,-0.0011776984015281,0.0011777058698125,-0.0010141601095247,0.0010141640182319,-0.0010141603504422,0.0010141642591749,1.8631594762851e-09,2.1589569325811e-09,5.0505111883859e-09,-1.0182852620151e-09,-0.00089397975940343,0.00089398493570704,-0.0011776986537537,0.0011777079799462,-0.0011777003062227,0.0011777055771911,-0.0011776977671301,0.0011777072630249,-0.0011776994195633,0.0011777048602372,-0.0010141571447923,0.0010141669851637,-0.0010141633151699,0.0010141612922471,-0.00090931142038541,0.00090931326953768,-0.00090931285212766,0.00090931525794326,2.2908051943561e-09,2.290811380373e-09,-0.0012033368779652,0.0012033420332666,-7.4024495708351e-10,5.3212527105e-09,-0.0015276066065257,0.0015276102648035,-0.0015276034883096,0.0015276111945513,-0.0015276055122957,0.0015276091705654,-0.0015276025105378,0.001527610216772,-0.0011594360357564,0.0011594424610669,-0.001159434248112,0.0011594406733623,0.74688297492095,125301,3014,0.0037195543595981,0.0037195543595971,0.0050008471505809,21.287381105325,8.5499048842599e-05,8.5499048842599e-05,8.5499048842599e-05,3001418.7688386,0.012519276467914
27419200,0.99989387662459,0.015192866093957,0.0046609369250602,0.0046609369250588,0.0058709922438379,-0.00089537103436099,0.00089537600542862,1.9336033767441e-09,1.9336099519256e-09,1.7843791169722e-09,2.0795019629366e-09,-0.0011776027775609,0.0011776098988973,-0.0011776024002877,0.0011776095216355,-0.0011776019039142,0.0011776091952001,-0.0011776015285872,0.0011776088198823,-0.0010156902824679,0.0010156940162418,-0.0010156905226515,0.0010156942564509,1.7843792433168e-09,2.0795051455489e-09,4.9331265073884e-09,-1.0659098502471e-09,-0.00089537103435884,0.00089537600543006,-0.0011776017701592,0.0011776108958885,-0.0011776034076856,0.0011776085246456,-0.0011776008975026,0.0011776101931807,-0.001177602534993,0.0011776078219052,-0.0010156873518743,0.001015696948972,-0.0010156934532399,0.001015691323725,-0.00091075263009231,0.00091075433522766,-0.00091075405635125,0.00091075631802961,2.2595066741809e-09,2.2595128722857e-09,-0.0012052140880946,0.0012052191479498,-7.3675899057739e-10,5.2550879318033e-09,-0.0015277287457717,0.0015277323547543,-0.0015277256684492,0.0015277332790242,-0.0015277276692494,0.0015277312782241,-0.0015277247080709,0.0015277323186384,-0.0011612546691114,0.0011612610006264,-0.0011612528750376,0.0011612592064928,0.72588280929977,125301,3014,0.0037253149625881,0.0037253149625867,0.005008614230025,22.251380898756,9.3211047190051e-05,9.3211047190051e-05,9.3211047190051e-05,3021829.6144108,0.012538780045139
27919200,0.9999076999094,0.015193109274715,0.0046610182887912,0.0046610182887898,0.005871072697134,-0.00089648661753023,0.00089649221868587,2.1754116609611e-09,2.1754182047318e-09,2.0151633459666e-09,2.3164404398346e-09,-0.0011781523041393,0.0011781599752624,-0.0011781518955375,0.001178159566672,-0.0011781513878477,0.001178159228808,-0.0011781509816239,0.0011781588225934,-0.0010167160978107,0.0010167203508102,-0.0010167163386954,0.0010167205917204,2.0151635861733e-09,2.3164434640658e-09,5.1711566232433e-09,-8.2032351907222e-10,-0.00089648661752811,0.00089649221868729,-0.001178151296052,0.0011781609708511,-0.0011781529036209,0.0011781585710847,-0.0011781503809665,0.0011781602256018,-0.0011781519884994,0.0011781578258028,-0.0010167131699047,0.0010167232780566,-0.0010167192665965,0.0010167176644781,-0.00091179882099314,0.00091180102888304,-0.00091180025933988,0.00091180303182044,2.3988474827678e-09,2.3988536703729e-09,-0.0012064919665343,0.0012064974201123,-5.9776966076778e-10,5.3899236527234e-09,-0.0015282482044607,0.0015282521442411,-0.0015282450721308,0.0015282530119207,-0.0015282470721396,0.0015282510119121,-0.001528244057777,0.0015282519975595,-0.0011624524940416,0.0011624591275217,-0.0011624507070122,0.0011624573404326,0.76533978020323,125301,3014,0.003729939508009,0.0037299395080076,0.0050139083334676,22.918840762217,9.8550726097737e-05,9.8550726097737e-05,9.8550726097737e-05,3026443.1667405,0.012553499725119
28419200,0.99992006295385,0.015193344002877,0.0046610967916334,0.0046610967916321,0.0058711504196116,-0.00089691709161898,0.00089692301866501,2.3025192734402e-09,2.30252580977e-09,2.1365044580495e-09,2.4399938033936e-09,-0.0011800791705587,0.0011800871220614,-0.0011800787472482,0.0011800866987623,-0.0011800782329979,0.001180086354241,-0.0011800778122335,0.0011800859334858,-0.0010167711074427,0.0010167756327176,-0.0010167713503741,0.0010167758756745,2.1365048976254e-09,2.4399967438828e-09,5.3060482103919e-09,-7.0099971527105e-10,-0.0008969170916168,0.00089692301866653,-0.0011800781591327,0.0011800881201926,-0.0011800797586701,0.0011800857006327,-0.0011800772228621,0.0011800873536614,-0.0011800788223636,0.0011800849340688,-0.0010167681715919,0.0010167785669686,-0.0010167742862198,0.0010167729414279,-0.00091237124549937,0.00091237370973678,-0.00091237269210521,0.00091237572339317,2.4625287487606e-09,2.4625349365128e-09,-0.0012050825859454,0.0012050882264668,-5.4341638039965e-10,5.4611778112372e-09,-0.0015284499324254,0.0015284540159061,-0.0015284467667018,0.0015284548618884,-0.0015284487725588,0.0015284528560315,-0.0015284457252052,0.0015284538203843,-0.0011615340077599,0.001161540788177,-0.0011615322268222,0.0011615390071795,0.82558911402084,125301,3014,0.0037317327339731,0.0037317327339718,0.0050080855323577,23.44166986636,0.00010273335893088,0.00010273335893088,0.00010273335893088,2981249.4829581,0.012551259336308
28919200,0.99993108202265,0.015193537573383,0.0046611616298966,0.0046611616298952,0.005871214313591,-0.00089695444597768,0.00089696033883539,2.2900859457993e-09,2.2900924926581e-09,2.1245250362773e-09,2.4269468161466e-09,-0.0011820900761392,0.0011820979932766,-0.0011820896553681,0.0011820975725168,-0.0011820891418425,0.0011820972286841,-0.0011820887235568,0.0011820968104076,-0.0010164390338412,0.0010164435329641,-0.0010164392789494,0.0010164437780979,2.1245254258287e-09,2.4269496549826e-09,5.2984257069633e-09,-7.1824405012382e-10,-0.00089695444597557,0.0008969603388368,-0.0011820890633654,0.0011820989930407,-0.001182090668138,0.0011820965727542,-0.0011820881303286,0.0011820982297071,-0.0011820897350652,0.0011820958093879,-0.0010164360934633,0.0010164464722206,-0.0010164422193225,0.0010164408388454,-0.00091273566989901,0.00091273810506787,-0.0009127371180808,0.00091274011863489,2.4500711693017e-09,2.4500773573479e-09,-0.0012023913260326,0.0012023969389218,-5.6014497060271e-10,5.4536838667897e-09,-0.0015280026164839,0.0015280066672646,-0.0015279994521223,0.0015280075206035,-0.0015280014609767,0.0015280055117494,-0.0015279984142659,0.0015280064827396,-0.001159629436766,0.0011596361961578,-0.001159627656861,0.0011596344161927,0.76400561131051,125301,3014,0.0037318954760024,0.003731895476001,0.0049969554578513,23.98395137246,0.00010707161097968,0.00010707161097968,0.00010707161097968,2921201.7474,0.01254034702461
29419200,0.99994098638625,0.015193679550629,0.0046612093100589,0.0046612093100575,0.0058712609305125,-0.00089823991668388,0.0008982452437392,2.0694417024177e-09,2.0694482582762e-09,1.9136399359665e-09,2.212445116791e-09,-0.0011814418523563,0.0011814492847444,-0.0011814414570993,0.0011814488894986,-0.0011814409559768,0.001181448558429,-0.0011814405629124,0.0011814481653736,-0.0010179640342132,0.0010179680608973,-0.001017964279029,0.0010179683057387,1.9136404191236e-09,2.2124479057958e-09,5.0647097280755e-09,-9.2581652425066e-10,-0.00089823991668175,0.00089824524374062,-0.0011814408451708,0.0011814502802619,-0.0011814424642808,0.0011814478939827,-0.0011814399499048,0.0011814495550588,-0.0011814415689789,0.001181447168747,-0.0010179611071763,0.0010179709883714,-0.0010179672060611,0.0010179653782687,-0.00091403283409881,0.00091403482367588,-0.00091403427093941,0.00091403682223095,2.3467034742903e-09,2.3467096652776e-09,-0.0012047625421307,0.0012047678471199,-6.4799000054146e-10,5.3376355886761e-09,-0.0015280850536083,0.0015280888723379,-0.0015280819476282,0.0015280897645573,-0.001528083946732,0.0015280877654537,-0.0015280809573252,0.0015280887742469,-0.0011618229439334,0.0011618294637054,-0.0011618211511102,0.0011618276708223,0.62417410960896,125301,3014,0.0037372149333766,0.0037372149333752,0.0050067632464342,24.778855542167,0.00011343084433734,0.00011343084433734,0.00011343084433734,2955394.8314088,0.012561017601983
29919200,0.9999497745882,0.015193818441058,0.004661255875051,0.0046612558750497,0.0058713066909575,-0.00090078061245257,0.00090078613844636,2.1416056254476e-09,2.141612180218e-09,1.982575552266e-09,2.2857783660694e-09,-0.0011791404600821,0.001179148076839,-0.0011791400515089,0.0011791476682771,-0.0011791395485886,0.0011791473357778,-0.0011791391424094,0.0011791469296076,-0.001021209544648,0.0010212137273851,-0.0010212097869393,0.0010212139697017,1.982576057798e-09,2.2857810945816e-09,5.1402612363776e-09,-8.5704023670958e-10,-0.00090078061245044,0.00090078613844776,-0.0011791394508145,0.0011791490734067,-0.0011791410607724,0.0011791466717109,-0.0011791385405352,0.0011791483335586,-0.0011791401504572,0.0011791459318301,-0.0010212066136508,0.0010212166571304,-0.0010212127179323,0.0010212110399604,-0.00091612872882047,0.00091613086823386,-0.00091613016572047,0.00091613287382685,2.420886872009e-09,2.4208930359383e-09,-0.0012118495226851,0.0012118550110789,-5.7932690132848e-10,5.4146934805516e-09,-0.0015296906579167,0.0015296946489958,-0.001529687528658,0.0015296955241564,-0.0015296895308716,0.0015296935219429,-0.0015296865199939,0.0015296945154849,-0.0011676420295977,0.0011676487050504,-0.0011676402318593,0.0011676469072525,0.68688558505508,125301,3014,0.003747731854862,0.0037477318548606,0.0050360923309528,25.465439563797,0.00011892351651038,0.00011892351651038,0.00011892351651038,3070123.9537357,0.01261194882235
30419200,0.99995751363502,0.01519391800143,0.0046612892045498,0.0046612892045485,0.0058713395923316,-0.00090213815437032,0.00090214376610243,2.1802668537266e-09,2.1802733861447e-09,2.01994370093e-09,2.32117496311e-09,-0.0011834604572521,0.0011834681409036,-0.0011834600488755,0.0011834677325383,-0.0011834595413873,0.0011834673949976,-0.0011834591354032,0.0011834669890226,-0.001021788504333,0.0010217927669563,-0.0010217887481479,0.001021793010797,2.0199440259057e-09,2.3211778582936e-09,5.1788235831263e-09,-8.1828009749571e-10,-0.00090213815436817,0.00090214376610385,-0.0011834594480976,0.0011834691374461,-0.0011834610580259,0.0011834667359972,-0.0011834585334462,0.0011834683927525,-0.0011834601433385,0.0011834659912709,-0.0010217855736286,0.0010217956968424,-0.0010217916788474,0.0010217900809149,-0.00091740798787775,0.00091741020277038,-0.00091740942946969,0.0009174122090671,2.4104790429316e-09,2.4104851651269e-09,-0.0012108838561024,0.0012108893329754,-5.8928223094999e-10,5.4043350185249e-09,-0.0015318863920627,0.001531890356164,-0.0015318832576414,0.0015318912257404,-0.0015318852596444,0.0015318892237377,-0.0015318822429471,0.0015318902110388,-0.0011671143021405,0.0011671209607398,-0.0011671125136958,0.0011671191722355,0.56251928746541,125301,3014,0.0037533835939184,0.0037533835939169,0.0050321220293773,26.130741689799,0.00012424593351839,0.00012424593351839,0.00012424593351839,2997160.4962707,0.012619424710061
30919200,0.99996439624421,0.015194025021311,0.0046613250328908,0.0046613250328895,0.0058713749555304,-0.00090545705317935,0.00090546190878191,1.8833039466219e-09,1.8833105121566e-09,1.7371230785235e-09,2.0330473065356e-09,-0.0011823560117733,0.0011823630363351,-0.0011823556368349,0.0011823626614078,-0.0011823551462899,0.0011823623410558,-0.001182354773351,0.0011823619681258,-0.0010259458325665,0.0010259494618993,-0.0010259460724388,0.0010259497017968,1.7371233759955e-09,2.0330504415667e-09,4.8600863326182e-09,-1.0934685276648e-09,-0.00090545705317718,0.00090546190878338,-0.0011823550115068,0.0011823640257802,-0.0011823566370976,0.0011823616719643,-0.0011823541470401,0.0011823633315167,-0.0011823557725951,0.0011823609776682,-0.0010259429239024,0.0010259523717764,-0.0010259489810978,0.0010259467919238,-0.00092049123219106,0.00092049285484934,-0.00092049265460169,0.00092049483587426,2.2766682159958e-09,2.2766743327501e-09,-0.0012180347220994,0.001218039799496,-6.9794712734141e-10,5.2492043579101e-09,-0.0015342749830911,0.0015342786431127,-0.0015342719304874,0.0015342795625791,-0.0015342739165265,0.0015342775765402,-0.0015342709805017,0.0015342786125862,-0.0011732703648048,0.0011732767101013,-0.001173268560465,0.0011732749057021,0.67617106509292,125301,3014,0.0037671342292931,0.0037671342292917,0.0050617222350139,27.120029902969,0.00013216023922375,0.00013216023922375,0.00013216023922375,3101568.8499765,0.012677183928059
31419200,0.99997055375011,0.015194123743743,0.0046613580004022,0.0046613580004009,0.0058714077429403,-0.00090765564789412,0.00090765982720891,1.6276558549074e-09,1.6276624362357e-09,1.4922395048721e-09,1.7794060417198e-09,-0.0011892688743605,0.0011892753039204,-0.0011892685364083,0.0011892749659796,-0.0011892680548262,0.0011892746544394,-0.0011892677185637,0.001189274318186,-0.001027101773959,0.0010271048524048,-0.0010271020162633,0.0010271050947346,1.4922400100748e-09,1.7794087199634e-09,4.5525937374617e-09,-1.2972721884458e-09,-0.00090765564789201,0.00090765982721032,-0.0011892678928424,0.001189276276186,-0.0011892695179224,0.0011892739937156,-0.0011892670741702,0.0011892756275659,-0.0011892686992142,0.0011892733450627,-0.0010270989169535,0.0010271077131325,-0.0010271048732639,0.0010271022340108,-0.00092282555807783,0.00092282667966832,-0.00092282697215379,0.0009228286401,2.0857143318294e-09,2.0857204169671e-09,-0.0012160187674834,0.0012160233372645,-8.3389150227525e-10,5.007220209845e-09,-0.0015374159743291,0.0015374192266543,-0.0015374130172819,0.0015374201699955,-0.0015374149674802,0.0015374182197974,-0.0015374121240106,0.0015374192767166,-0.0011722478816425,0.0011722537854736,-0.0011722460790619,0.0011722519828332,0.69952705654839,125301,3014,0.0037762864545668,0.0037762864545654,0.0050534167778441,28.437380648837,0.00014269904519069,0.00014269904519069,0.00014269904519069,2981079.1538755,0.012687382486066
31919200,0.99997585722566,0.015194211515536,0.0046613873890661,0.0046613873890647,0.0058714367374047,-0.00090872756454449,0.00090873278876616,2.0312940013038e-09,2.0313006093078e-09,1.8774494753837e-09,2.1745134476951e-09,-0.0011912706024324,0.0011912779425145,-0.0011912702136727,0.0011912775537662,-0.0011912697127298,0.0011912772228439,-0.0011912693263505,0.0011912768364737,-0.0010281205781129,0.001028124521796,-0.001028120821332,0.0010281247650409,1.8774500839131e-09,2.1745161568458e-09,4.9525380799223e-09,-8.8994018852923e-10,-0.00090872756454231,0.00090873278876758,-0.001191269619106,0.0011912789133041,-0.001191271196995,0.0011912765829783,-0.0011912687306109,0.0011912781948396,-0.0011912703084639,0.0011912758644812,-0.0010281177231847,0.0010281273761431,-0.0010281236762553,0.0010281219106977,-0.00092421333400921,0.00092421529197843,-0.00092421476787325,0.00092421728484188,2.3115621559805e-09,2.3115682631469e-09,-0.0012154435081405,0.001215448719554,-6.1077485237987e-10,5.2283235269669e-09,-0.0015380057476333,0.0015380095321656,-0.0015380026992441,0.0015380103847657,-0.0015380046497429,0.0015380084342671,-0.0015380017176507,0.0015380094031648,-0.0011722405085403,0.001172246904345,-0.0011722387186161,0.0011722451143612,0.71926751588325,125301,3014,0.0037807430176981,0.0037807430176966,0.0050510466461785,29.26948186645,0.0001493558549316,0.0001493558549316,0.0001493558549316,2948630.5158287,0.012694015620101
32419200,0.99998021177439,0.015194290737865,0.0046614139273428,0.0046614139273414,0.0058714628831806,-0.0009080648691269,0.00090807185453743,2.7109952767199e-09,2.7110018813123e-09,2.5269817754119e-09,2.839030745736e-09,-0.0011914596068581,0.0011914684789386,-0.001191459132544,0.0011914680046359,-0.0011914585997338,0.0011914676405958,-0.0011914581287092,0.0011914671695803,-0.0010273343030904,0.0010273397042326,-0.0010273345476411,0.0010273399488091,2.5269823058633e-09,2.8390334264004e-09,5.7021491414605e-09,-2.801487808168e-10,-0.00090806486912479,0.00090807185453883,-0.0011914585962228,0.001191469472705,-0.0011914601431752,0.0011914670108711,-0.0011914575907605,0.0011914686360229,-0.001191459137677,0.0011914661741563,-0.0010273313776592,0.0010273426233405,-0.0010273374730676,0.0010273370297051,-0.00092373684922049,0.00092374016707074,-0.00092373831764186,0.00092374221253442,2.6975438826802e-09,2.6975499959346e-09,-0.0012135161839351,0.001213522487651,-3.0289525625784e-10,5.6824416096182e-09,-0.0015370526391764,0.0015370572799189,-0.0015370493874653,0.0015370580291396,-0.0015370513879353,0.0015370560286698,-0.0015370482572072,0.001537056898874,-0.0011706939791231,0.0011707012652767,-0.0011706922117732,0.0011706994978671,0.78912843059547,125301,3014,0.0037779987105629,0.0037779987105615,0.0050430695275622,29.29913156341,0.00014959305250728,0.00014959305250728,0.00014959305250728,2923290.7666299,0.012680388288712
32919200,0.99998375944904,0.015194347160874,0.0046614328579048,0.0046614328579035,0.0058714814450657,-0.00090662977136756,0.00090663710976268,2.8474883701555e-09,2.8474949617188e-09,2.657002051617e-09,2.9723108516496e-09,-0.0011923291265898,0.0011923382945166,-0.0011923286361102,0.0011923378040483,-0.0011923280969605,0.0011923374342208,-0.0011923276097307,0.0011923369470002,-0.0010255260867805,0.0010255317828838,-0.0010255263343789,0.0010255320305079,2.6570026351024e-09,2.9723133207764e-09,5.9009298494341e-09,-2.0594346573491e-10,-0.00090662977136552,0.000906637109764,-0.0011923280953369,0.0011923393090749,-0.0011923296673591,0.0011923367894914,-0.0011923270673498,0.00119233845042,-0.0011923286393361,0.0011923359308038,-0.001025523100531,0.0010255347631529,-0.0010255293206239,0.0010255290502425,-0.00092261901934283,0.00092262257869219,-0.0009226204958879,0.00092262463668007,2.7716266921188e-09,2.7716328199022e-09,-0.0012092572958269,0.0012092638185859,-2.909445370941e-10,5.8190615570167e-09,-0.0015354509509717,0.0015354557200251,-0.001535447629437,0.0015354564823978,-0.0015354496713948,0.0015354544404402,-0.0015354464709728,0.0015354553239263,-0.001167203380686,0.0011672108742167,-0.0011672016194161,0.0011672091128868,0.69092321609739,125301,3014,0.0037720523868372,0.0037720523868358,0.0050254443329773,29.174570863754,0.00014859656691003,0.00014859656691003,0.00014859656691003,2860938.1610147,0.012650528972293
33419200,0.99998669112506,0.01519439971573,0.0046614505013327,0.0046614505013313,0.0058714987130664,-0.00090687123580199,0.00090687798458742,2.616152025822e-09,2.6161586409434e-09,2.434575113225e-09,2.748064336815e-09,-0.0011895103101458,0.0011895189884684,-0.0011895098439527,0.0011895185222865,-0.0011895093175326,0.001189518166034,-0.0011895088542004,0.001189517702711,-0.0010262382842851,0.0010262434841863,-0.0010262385321338,0.0010262437320607,2.4345756467513e-09,2.7480670446495e-09,5.7078098698246e-09,-4.7549597896873e-10,-0.00090687123579988,0.00090687798458884,-0.0011895092678467,0.0011895200158582,-0.0011895108862478,0.0011895174948983,-0.0011895082766812,0.0011895191948704,-0.0011895098950463,0.0011895166738778,-0.0010262352612842,0.0010262465032672,-0.00102624155513,0.0010262407129837,-0.00092276995325233,0.00092277300793889,-0.00092277141874076,0.00092277505472265,2.6774295297481e-09,2.6774356531198e-09,-0.001211968038901,0.0012119742658221,-4.2002678739643e-10,5.7635557628865e-09,-0.0015345401890042,0.0015345447204662,-0.00153453689004,0.001534545553464,-0.001534538956025,0.0015345434874792,-0.0015345357777318,0.0015345444411485,-0.0011694025067374,0.0011694098096661,-0.0011694007279428,0.0011694080308118,0.77567308772676,125301,3014,0.0037730330654086,0.0037730330654073,0.0050366423739649,29.316149345498,0.00014972919476398,0.00014972919476398,0.00014972919476398,2929047.1698199,0.012663804334773
33919200,0.99998918221662,0.015194443518685,0.0046614651898337,0.0046614651898324,0.005871513139019,-0.0009076978197331,0.00090770324472907,2.109309527983e-09,2.109316160898e-09,1.9515401349649e-09,2.2500696238881e-09,-0.0011932407640906,0.0011932482789169,-0.0011932403661439,0.0011932478809816,-0.0011932398628429,0.0011932475477073,-0.0011932394669086,0.0011932471517822,-0.0010263814635701,0.0010263855752831,-0.00102638171309,0.0010263858248289,1.9515408499588e-09,2.2500720836218e-09,5.175308023346e-09,-9.5667922431138e-10,-0.00090769781973104,0.00090770324473045,-0.0011932397341168,0.0011932492980716,-0.0011932413961137,0.0011932468618286,-0.0011932388338926,0.0011932485678841,-0.0011932404958536,0.0011932461316083,-0.0010263784677636,0.001026388572814,-0.0010263847088925,0.001026382827302,-0.00092371541306586,0.00092371743604828,-0.00092371685694926,0.00092371944097778,2.3682614846785e-09,2.3682675699926e-09,-0.0012097132523294,0.0012097186198007,-6.9549767984682e-10,5.4302355923389e-09,-0.0015355607652591,0.0015355645855947,-0.0015355576061112,0.00153556551748,-0.0015355596516319,0.0015355634719595,-0.0015355566083685,0.0015355645197299,-0.0011678013476931,0.0011678079631916,-0.0011677995578426,0.0011678061732811,0.76303060755973,125301,3014,0.0037764741492837,0.0037764741492823,0.0050273322129715,30.070011005927,0.00015576008804742,0.00015576008804742,0.00015576008804742,2850835.1321898,0.012661393441452
34419200,0.99999134619319,0.015194479879925,0.0046614774066934,0.0046614774066921,0.0058715250665397,-0.00091014545780214,0.00091014941213558,1.5411798212791e-09,1.5411864600174e-09,1.4091279935188e-09,1.6944194911476e-09,-0.0011952531427494,0.0011952593795042,-0.0011952528160442,0.0011952590528104,-0.0011952523409382,0.0011952587480822,-0.0011952520154884,0.0011952584226415,-0.0010288126621992,0.0010288155559272,-0.0010288129108453,0.0010288158045992,1.409128633316e-09,1.694421913774e-09,4.5451357953666e-09,-1.4627663490497e-09,-0.00091014545780005,0.00091014941213694,-0.0011952521367525,0.0011952603782655,-0.001195253822037,0.0011952580540507,-0.0011952513355863,0.0011952597474871,-0.0011952530208349,0.0011952574232396,-0.0010288097287993,0.0010288184956875,-0.0010288158442404,0.0010288128648426,-0.00092629620100157,0.00092629709206458,-0.0009262976169661,0.0009262990525551,2.0536866009605e-09,2.0536926985684e-09,-0.001211656562157,0.0012116610349502,-9.4117114436759e-10,5.0548679620183e-09,-0.0015369913226103,0.0015369944478686,-0.0015369883367034,0.0015369954645778,-0.0015369903380154,0.0015369934632659,-0.0015369874639352,0.0015369945918023,-0.0011699596902366,0.0011699655754675,-0.0011699578798537,0.0011699637650247,0.72790058071019,125301,3014,0.003786624799398,0.0037866247993966,0.0050353848770025,31.479832544391,0.00016703866035513,0.00016703866035513,0.00016703866035513,2846297.2594132,0.012690095962344
34919200,0.99999325093516,0.015194513241485,0.0046614886142234,0.004661488614222,0.0058715360130393,-0.00091449511908784,0.00091449751047968,9.3720649310261e-10,9.3721314148774e-10,8.3340132972027e-10,1.1037536480249e-09,-0.0011984642230595,0.0011984690919646,-0.001198463972943,0.0011984688418594,-0.001198463527994,0.0011984685673795,-0.0011984632783857,0.0011984683177802,-0.001033115794837,0.0010331173941338,-0.0010331160416292,0.001033117640952,8.3340192660445e-10,1.1037562338025e-09,3.8437405419375e-09,-1.9693177010099e-09,-0.00091449511908574,0.00091449751048106,-0.0011984632527453,0.0011984700585772,-0.0011984649432532,0.0011984678752484,-0.0011984625579513,0.001198469534262,-0.0011984642484231,0.0011984673509006,-0.0010331129584741,0.0010331202413711,-0.0010331188779882,0.0010331147937188,-0.00093055579660216,0.00093055550699722,-0.0009305571819365,0.00093055741762402,1.7133409890206e-09,1.713347068129e-09,-0.0012164126241265,0.0012164161343814,-1.1773846238403e-09,4.6183306124052e-09,-0.0015403729835363,0.0015403753723981,-0.0015403702043592,0.001540376460392,-0.0015403721379487,0.0015403745268027,-0.0015403694661879,0.0015403757222135,-0.0011745692246942,0.0011745743012386,-0.0011745673939713,0.0011745724704561,0.75808686568768,125301,3014,0.0038046657466132,0.0038046657466117,0.0050550899271035,33.573431718224,0.00018378745374579,0.00018378745374579,0.00018378745374579,2858742.8999472,0.012746575129549
35419200,0.99999489773088,0.015194538825286,0.0046614972137105,0.0046614972137091,0.005871544397866,-0.00091913164599812,0.00091913342394719,7.0136367658582e-10,7.0137033982344e-10,6.0745529836349e-10,8.7218380485404e-10,-0.001204048597083,0.0012040529352529,-0.0012040483774737,0.0012040527156551,-0.0012040479426415,0.0012040524515362,-0.001204047723523,0.0012040522324269,-0.0010373427703118,0.0010373438629604,-0.0010373430163936,0.0010373441090679,6.0745586480623e-10,8.7218655700342e-10,3.5004706698161e-09,-2.0977333275352e-09,-0.00091913164599597,0.00091913342394866,-0.0012040476626742,0.0012040538660571,-0.0012040493118787,0.0012040517848527,-0.0012040470084953,0.0012040533826017,-0.0012040486576639,0.0012040513013648,-0.0010373400391928,0.0010373466052553,-0.0010373457475079,0.001037341366777,-0.00093521801559345,0.00093521730684934,-0.00093521938885572,0.00093521919848163,1.5606724856445e-09,1.560678533195e-09,-0.0012194080211515,0.0012194111118957,-1.2225123442635e-09,4.3584767061902e-09,-0.0015444611852351,0.001544463294772,-0.0015444585300464,0.0015444643635688,-0.0015444603920431,0.0015444625015721,-0.0015444578424453,0.0015444636759602,-0.0011778674343174,0.0011778721096869,-0.0011778655992686,0.001177870274578,0.67379056419234,125301,3014,0.0038239108209644,0.003823910820963,0.0050675251591551,35.929489849076,0.00020263591879261,0.00020263591879261,0.00020263591879261,2819291.5404641,0.012798166584649
35919200,0.99999622970807,0.015194561051299,0.00466150468583,0.0046615046858287,0.0058715516796408,-0.00092292779699874,0.00092293118707522,1.3190577264272e-09,1.3190643881649e-09,1.1983820397513e-09,1.4784176557672e-09,-0.0012051525350943,0.0012051582676033,-0.0012051522347583,0.0012051579672785,-0.0012051517725674,0.0012051576752924,-0.0012051514739026,0.0012051573766368,-0.0010414528440323,0.0010414552651369,-0.0010414530892579,0.0010414555103882,1.1983826395398e-09,1.4784202715016e-09,4.0732447518536e-09,-1.4351194563225e-09,-0.00092292779699661,0.00092293118707662,-0.0012051516103365,0.0012051591830594,-0.001205153159512,0.001205157051824,-0.0012051508486626,0.0012051585916002,-0.0012051523978021,0.0012051564603321,-0.0010414501541441,0.0010414579585131,-0.0010414557791415,0.0010414528170159,-0.00093884657068664,0.00093884717579195,-0.00093884797121868,0.00093884911404168,1.9191251669847e-09,1.9191312242114e-09,-0.0012253322987626,0.0012253364059073,-8.304150857715e-10,4.6700530056452e-09,-0.0015472384047292,0.001547241381291,-0.0015472356347582,0.0015472422849676,-0.0015472374715859,0.00154724044814,-0.0015472348119946,0.0015472414621966,-0.0011832839282232,0.0011832893582524,-0.0011832821101657,0.0011832875401351,0.72183945217264,125301,3014,0.0038396538610695,0.003839653861068,0.005092055615375,37.536382781818,0.00021549106225454,0.00021549106225454,0.00021549106225454,2874131.7631427,0.012854860362976
36419200,0.99999721201863,0.01519457701468,0.0046615100474701,0.0046615100474687,0.005871556919741,-0.00092254137085578,0.00092254852108008,2.7727634386567e-09,2.7727700587486e-09,2.5855005318512e-09,2.8995384109448e-09,-0.0012066996259952,0.001206708647575,-0.0012066991426101,0.0012067081642012,-0.0012066986083578,0.0012067077989899,-0.0012066981288478,0.001206707319489,-0.0010406521957964,0.0010406577301245,-0.0010406524465958,0.0010406579809498,2.5855011001858e-09,2.8995410582959e-09,5.6172737810821e-09,-7.173706381271e-11,-0.00092254137085372,0.00092254852108152,-0.0012066986615011,0.0012067095923126,-0.0012067001071004,0.0012067072194652,-0.0012066976458185,0.0012067087456811,-0.0012066990913817,0.0012067063728009,-0.0010406494125956,0.0010406605032481,-0.0010406552297919,0.00104065520783,-0.00093849368919125,0.00093849723189633,-0.00093849516632136,0.00093849928939079,2.72563112784e-09,2.7256371809492e-09,-0.0012232213037629,0.0012232276985004,-1.3423241982113e-10,5.56317176798e-09,-0.001547308480111,0.0015473132961147,-0.0015473053088728,0.0015473139356979,-0.0015473072142875,0.0015473120302834,-0.0015473041638354,0.0015473127906532,-0.0011815129051608,0.0011815201591956,-0.0011815111351594,0.0011815183891343,0.70447270805609,125301,3014,0.003838067621377,0.0038380676213758,0.0050833338076878,37.488410027344,0.00021510728021876,0.00021510728021876,0.00021510728021876,2827060.5944288,0.012842845952437
36919200,0.99999791968124,0.015194587586177,0.0046615136032867,0.0046615136032854,0.0058715603796054,-0.00092103909451587,0.00092104757300749,3.285760458597e-09,3.2857670815711e-09,3.0737872721441e-09,3.4027977384237e-09,-0.0012048976525846,0.0012049078407041,-0.0012048971032362,0.0012049072913669,-0.0012048965444542,0.001204906902581,-0.0012048959995271,0.001204906357663,-0.0010392857097518,0.0010392923436629,-0.0010392859625903,0.0010392925965273,3.0737877804455e-09,3.4028004346428e-09,6.2495336424829e-09,3.2199707436634e-10,-0.00092103909451376,0.00092104757300888,-0.0012048966459767,0.0012049088249505,-0.0012048981098401,0.0012049063071221,-0.0012048955400742,0.0012049078890541,-0.0012048970039016,0.001204905371193,-0.0010392828084631,0.001039295231325,-0.0010392888638741,0.0010392897088689,-0.00093708373576162,0.00093708825596618,-0.00093708523777445,0.00093709035894872,3.0333518747118e-09,3.0333579484086e-09,-0.001221905190342,0.001221912439594,4.9004751762001e-11,5.9893299997268e-09,-0.0015456305099917,0.0015456359679842,-0.0015456271394738,0.0015456365716325,-0.001545629126561,0.0015456345845455,-0.001545625880873,0.0015456353130244,-0.0011802645374119,0.0011802725385963,-0.001180262780616,0.0011802707817406,0.64727478642577,125301,3014,0.0038318334456476,0.0038318334456462,0.0050778746838225,36.861628806508,0.00021009303045206,0.00021009303045206,0.00021009303045206,2835032.0722203,0.012824682134096
37419200,0.9999984658563,0.015194595841179,0.0046615163787214,0.00466151637872,0.0058715630837371,-0.00092315799822202,0.00092316324403358,2.0372863023607e-09,2.0372929435696e-09,1.8828532837717e-09,2.1814144551387e-09,-0.0012053232597951,0.0012053306269692,-0.001205322867941,0.0012053302351264,-0.0012053223708755,0.001205329908302,-0.0012053219812831,0.0012053295187187,-0.0010416042227342,0.0010416081811004,-0.0010416044727236,0.0010416084311156,1.8828538926427e-09,2.1814171914687e-09,5.0047909490007e-09,-9.3020835881308e-10,-0.00092315799821987,0.00092316324403505,-0.0012053222614007,0.0012053316132542,-0.0012053238663312,0.001205329248843,-0.0012053213736293,0.001205330895734,-0.0012053229785238,0.00120532853129,-0.0010416013226106,0.0010416110809305,-0.0010416073728423,0.0010416055312896,-0.0009390507876184,0.00093905272974784,-0.00093905222774124,0.0009390547318635,2.34952372631e-09,2.3495297747135e-09,-0.0012255321162283,0.0012255374147539,-6.1859015743648e-10,5.3125492147976e-09,-0.001547287385861,0.0015472912301528,-0.0015472843063888,0.0015472921128666,-0.0015472862874858,0.0015472901317698,-0.0015472833239446,0.001547291130415,-0.0011834915162408,0.0011834980207545,-0.0011834897168233,0.0011834962212772,0.65462458225499,125301,3014,0.0038406113879474,0.0038406113879461,0.0050928864839477,37.674001103638,0.00021659200882911,0.00021659200882911,0.00021659200882911,2872412.7976913,0.012857643608716
37919200,0.99999886867847,0.015194601510999,0.0046615182841463,0.004661518284145,0.0058715649427076,-0.0009232456833507,0.0009232527370853,2.7360836753748e-09,2.7360902945843e-09,2.5491986091441e-09,2.8653514720382e-09,-0.0012060395382867,0.0012060484854873,-0.0012060390592993,0.0012060480065111,-0.0012060385262616,0.0012060476440257,-0.0012060380505455,0.0012060471683186,-0.0010415344925379,0.0010415399474419,-0.0010415347429006,0.0010415401978304,2.5491990986068e-09,2.8653542028886e-09,5.7652206761919e-09,-2.930434981086e-10,-0.00092324568334859,0.00092325273708671,-0.0012060385149821,0.001206049491918,-0.0012060400825999,0.001206047000082,-0.0012060375046099,0.0012060486521081,-0.0012060390721917,0.0012060461602394,-0.0010415315298641,0.0010415429036909,-0.0010415377055697,0.0010415372415853,-0.00093908897174636,0.00093909231275315,-0.00093909044525459,0.00093909437126096,2.7372987601077e-09,2.7373048146286e-09,-0.001225232676176,0.0012252390723542,-3.0168180612202e-10,5.7604651898014e-09,-0.0015476869014922,0.0015476916159325,-0.0015476836169216,0.0015476923835424,-0.0015476856430159,0.0015476903574483,-0.0015476824794761,0.0015476912460896,-0.0011832217171792,0.0011832291097389,-0.0011832199426456,0.0011832273351455,0.61069305856341,125301,3014,0.0038409827437319,0.0038409827437305,0.0050916550942001,37.676477906344,0.00021661182325075,0.00021661182325075,0.00021661182325075,2858458.5667874,0.012857160655036
38419200,0.99999915990129,0.015194606201466,0.0046615198591977,0.0046615198591963,0.0058715664830717,-0.00092261931974637,0.00092262746813503,3.1592828368133e-09,3.1592894596992e-09,2.9524792716673e-09,3.2801325347321e-09,-0.001204276432512,0.0012042863503048,-0.0012042758990334,0.0012042858168374,-0.0012042753451151,0.0012042854334811,-0.0012042748154405,0.0012042849038155,-0.0010411632786192,0.0010411696380194,-0.0010411635290876,0.0010411698885136,2.952479777923e-09,3.2801353173272e-09,6.2733452564873e-09,4.5230243891542e-11,-0.00092261931974425,0.00092262746813646,-0.0012042753786324,0.0012042873847888,-0.001204276952909,0.001204284782355,-0.0012042742931548,0.0012042864698832,-0.0012042758673954,0.0012042838674167,-0.0010411602315178,0.0010411726752791,-0.0010411665761842,0.0010411668512578,-0.0009383883625673,0.00093839251794889,-0.00093838985681179,0.00093839461244464,2.9913934605714e-09,2.991399516857e-09,-0.0012258943943251,0.0012259014894003,-1.3723559113513e-10,6.0984292610252e-09,-0.0015470563895804,0.0015470616458443,-0.0015470529475846,0.0015470623730919,-0.0015470550322103,0.0015470602884664,-0.0015470517150269,0.0015470611405269,-0.0011835905707416,0.0011835985681067,-0.0011835888065783,0.0011835968038837,0.69725492786578,125301,3014,0.0038383802597386,0.0038383802597372,0.0050943848003136,37.197974945916,0.00021278379956733,0.00021278379956733,0.00021278379956733,2890373.0725801,0.012854636950778
38880000,0.99999936327118,0.015194609600021,0.0046615209995241,0.0046615209995227,0.0058715676009738,-0.00092196448812942,0.00092197158969072,2.7577955887378e-09,2.7578022196823e-09,2.5707736289832e-09,2.8853111606952e-09,-0.0012067182805793,0.0012067272581241,-0.0012067178020605,0.0012067267796166,-0.0012067172676848,0.0012067264153398,-0.0012067167920188,0.0012067259396829,-0.0010400044364374,0.0010400099375137,-0.0010400046878803,0.0010400101889826,2.5707740954492e-09,2.8853139188389e-09,5.904648808969e-09,-3.8904778528233e-10,-0.0009219644881273,0.00092197158969213,-0.0012067172199062,0.0012067283039408,-0.0012067188627296,0.0012067257338014,-0.0012067162084554,0.001206727462599,-0.0012067178512427,0.0012067248924269,-0.0010400013595587,0.0010400130107435,-0.0010400077647543,0.0010400071157568,-0.00093795377993265,0.00093795708817732,-0.00093795525599077,0.00093795914589634,2.7484391488353e-09,2.7484451963565e-09,-0.0012222174400611,0.0012222238675998,-4.0410662605526e-10,5.8898762130306e-09,-0.0015469895963103,0.0015469942481513,-0.0015469862344979,0.00154699509181,-0.0015469883372375,0.0015469929890707,-0.0015469850958331,0.0015469939531378,-0.0011806408622762,0.0011806483583529,-0.0011806390923653,0.0011806465883821,0.72416034322611,125301,3014,0.0038356773920712,0.0038356773920698,0.0050791804511449,37.193674448962,0.0002127493955917,0.0002127493955917,0.0002127493955917,2813392.972852,0.012833809855688
