time,ASR_ext,ASR_strain,ASR_strain_xx,ASR_strain_yy,ASR_strain_zz,disp_x_101,disp_x_102,disp_x_103,disp_x_104,disp_x_105,disp_x_106,disp_x_p1_neg,disp_x_p1_pos,disp_x_p2_neg,disp_x_p2_pos,disp_x_p3_neg,disp_x_p3_pos,disp_x_p4_neg,disp_x_p4_pos,disp_x_p5_neg,disp_x_p5_pos,disp_x_p6_neg,disp_x_p6_pos,disp_y_101,disp_y_102,disp_y_103,disp_y_104,disp_y_105,disp_y_106,disp_y_p1_neg,disp_y_p1_pos,disp_y_p2_neg,disp_y_p2_pos,disp_y_p3_neg,disp_y_p3_pos,disp_y_p4_neg,disp_y_p4_pos,disp_y_p5_neg,disp_y_p5_pos,disp_y_p6_neg,disp_y_p6_pos,disp_y_p7_neg,disp_y_p7_pos,disp_y_p8_neg,disp_y_p8_pos,disp_z_101,disp_z_102,disp_z_103,disp_z_104,disp_z_105,disp_z_106,disp_z_p1_neg,disp_z_p1_pos,disp_z_p2_neg,disp_z_p2_pos,disp_z_p3_neg,disp_z_p3_pos,disp_z_p4_neg,disp_z_p4_pos,disp_z_p5_neg,disp_z_p5_pos,disp_z_p6_neg,disp_z_p6_pos,humidity,ndof,nelem,strain_xx,strain_yy,strain_zz,temp,thermal_strain_xx,thermal_strain_yy,thermal_strain_zz,vonmises,vstrain
2419200,0,0,0,0,0,0,0,0,0,0,0,0,0,0,0,0,0,0,0,0,0,0,0,0,0,0,0,0,0,0,0,0,0,0,0,0,0,0,0,0,0,0,0,0,0,0,0,0,0,0,0,0,0,0,0,0,0,0,0,0,0,0,0,0,0,0,0,0,0,0,0,0,0,0,0
2619200,0.021301933077786,0.00043669511703124,0.00014556503901041,0.00014556503901041,0.00014556503901041,-3.8550350253481e-05,3.8549980826977e-05,-1.8223301244884e-10,-1.8249719955274e-10,7.4368547893933e-10,-1.1458288221792e-09,-3.9004597529572e-05,3.9004854377664e-05,-3.9004585609691e-05,3.9004839101239e-05,-3.9005200339317e-05,3.9004225282361e-05,-3.9005191311888e-05,3.9004218405718e-05,-3.9795558475505e-05,3.9794571899486e-05,-3.9795536835866e-05,3.9794555234519e-05,-1.1718421783329e-09,1.8305681289255e-09,-5.5369402712781e-10,1.1581554543793e-09,-3.8549861001777e-05,3.8550470100234e-05,-3.9005167416132e-05,3.9004226067193e-05,-3.9004615154867e-05,3.9004795507668e-05,-3.9004218496923e-05,3.900522660061e-05,-3.9003662216324e-05,3.9005796609894e-05,-3.9795090823639e-05,3.9795014964754e-05,-3.9793427302963e-05,3.9796711110828e-05,-3.9277414894621e-05,3.9275649157382e-05,-3.9274488749383e-05,3.9278664119641e-05,-5.3069557566408e-10,-5.3369558031379e-10,-4.0875232140176e-05,4.0874161729707e-05,1.4559288730424e-09,-2.5853087422139e-09,-4.1083900397732e-05,4.1084185372863e-05,-4.1085247545534e-05,4.1082852674368e-05,-4.10839007853e-05,4.1084180076494e-05,-4.108524957769e-05,4.1082855047234e-05,-4.1046902579544e-05,4.104449084795e-05,-4.1046894323711e-05,4.1044480889821e-05,0.81993057827119,131329,3014,0.00016061280396539,0.00016061280401031,0.00017029666094639,32.697505865001,2.3980046920008e-05,2.3980046920008e-05,2.3980046920008e-05,602328.33811146,0.00049164321833098
2819200,0.043204451837494,0.00087319620767469,0.00028867557069282,0.0002886755703364,0.00029584506664547,-7.1490742414514e-05,7.1490566008458e-05,-6.9980037779206e-11,-1.0597412990866e-10,5.5621013488277e-10,-7.595685578196e-10,-7.2925740253139e-05,7.2926008168746e-05,-7.2925745351002e-05,7.292598467466e-05,-7.2926154351341e-05,7.2925581220709e-05,-7.29261554141e-05,7.2925560770025e-05,-7.4463300490583e-05,7.4462723400112e-05,-7.4463305633468e-05,7.446266033324e-05,-5.9559757219558e-10,7.5123766432417e-10,-5.0495108047521e-10,6.3361002487679e-10,-7.1490588884166e-05,7.1490719414809e-05,-7.2926193740601e-05,7.2925516419897e-05,-7.2925840362294e-05,7.2925881329591e-05,-7.2925769924624e-05,7.2925973751605e-05,-7.2925411393912e-05,7.2926340560884e-05,-7.4463258765576e-05,7.4462723611516e-05,-7.4462160111626e-05,7.4463844447358e-05,-7.3046428088467e-05,7.3045614798479e-05,-7.3045122022913e-05,7.3046972981949e-05,-3.1620099094957e-10,-3.5849743319729e-10,-7.7475976693181e-05,7.7475297972262e-05,1.1685390481217e-09,-1.894406835019e-09,-7.837203078683e-05,7.8372422699668e-05,-7.8373081074885e-05,7.837138308039e-05,-7.8372047855773e-05,7.8372407843509e-05,-7.837309711995e-05,7.8371372939839e-05,-7.7681352944383e-05,7.7679612697509e-05,-7.768131065712e-05,7.7679649059428e-05,0.82138593857639,131329,3014,0.00029783354024943,0.00029783353999122,0.00032276266848186,32.941538443249,2.5932307545989e-05,2.5932307545989e-05,2.5932307545989e-05,1007806.8061393,0.00091885229953937
3019200,0.065184489946429,0.001300692168326,0.00042694218134861,0.00042694218097239,0.00044680780600498,-0.00010268732893089,0.00010268704657301,-6.1925199808535e-11,-2.210386144625e-10,7.9029978527375e-10,-1.1072627815108e-09,-0.00010550980798985,0.00010551020219796,-0.00010550987044974,0.00010551015347357,-0.00010551040507841,0.00010550957665571,-0.00010551046242436,0.00010550953302632,-0.00010780924985426,0.00010780847424772,-0.00010780937977888,0.0001078083048195,2.6167290355387e-10,-6.1466117584032e-10,-3.844305798003e-10,4.0791545720388e-11,-0.00010268735943089,0.00010268701594594,-0.00010551008218143,0.0001055099000978,-0.00010550997506846,0.00010551003640692,-0.00010551037043411,0.00010550962054958,-0.00010551025964947,0.00010550976323237,-0.0001078093729755,0.00010780832163172,-0.00010780897333808,0.00010780874016125,-0.00010515111762367,0.0001051517676696,-0.00010515197266801,0.00010515089636357,-4.2746697614054e-11,-2.1169151810179e-10,-0.00011353665278836,0.00011353639615162,7.7370683513471e-10,-1.0613326474959e-09,-0.00011552368091783,0.00011552413424627,-0.0001155243255938,0.00011552348460277,-0.00011552374535511,0.00011552408192075,-0.00011552438504519,0.00011552343661074,-0.00011366013427579,0.00011365909726226,-0.00011365999870921,0.0001136592740378,0.82013449392784,131329,3014,0.00042777241047071,0.00042777241020613,0.00047295584382047,32.856728177266,2.525382541813e-05,2.525382541813e-05,2.525382541813e-05,1361239.5870054,0.0013293853582066
3219200,0.086474952568313,0.0016999017258857,0.0005544736639264,0.00055447366405787,0.00059095439790146,-0.00013050026082989,0.00013049953569787,-1.0770946671884e-10,-6.2106150359297e-10,1.5996086058492e-09,-2.3942588330582e-09,-0.00013514851444749,0.00013514929393279,-0.00013514870188003,0.00013514912088365,-0.00013514979259919,0.00013514795281142,-0.0001351499644927,0.00013514779274653,-0.00013783592638325,0.00013783432543939,-0.0001378364010334,0.00013783382605436,1.5517192841e-09,-2.6794267457023e-09,-3.0659576444457e-10,-7.5043086050394e-10,-0.00013050042650352,0.0001304993701679,-0.00013514864815431,0.00013514915691094,-0.00013514881991569,0.00013514899695113,-0.00013515000743166,0.0001351477423174,-0.00013515016442335,0.00013514759602752,-0.0001378361482014,0.00013783408823005,-0.0001378365732877,0.00013783365869624,-0.00013369527663637,0.00013369817819266,-0.00013369937083122,0.0001336939511499,3.5353616149236e-10,-1.7306103239102e-10,-0.00014696500183377,0.00014696518374315,2.912884423895e-10,-1.1859575893318e-10,-0.00015055326288517,0.00015055380207818,-0.00015055342844381,0.00015055361350723,-0.00015055344720586,0.00015055361443536,-0.0001505535798685,0.00015055342088152,-0.00014668472170598,0.00014668425679167,-0.00014668431628357,0.00014668484490457,0.80676032753272,131329,3014,0.00054360343175585,0.00054360343205509,0.00061216471072962,32.29014274901,2.072114199208e-05,2.072114199208e-05,2.072114199208e-05,1625775.5954183,0.0017008198446924
3419200,0.10518305551165,0.002035729258233,0.00066064082020942,0.00066064082035991,0.0007144476176637,-0.00015092913394687,0.00015092809591179,-6.0588794421567e-12,-1.0384531193818e-09,2.1732812835721e-09,-3.3156897170434e-09,-0.0001576009480224,0.00015760211034995,-0.00015760134559513,0.00015760177784553,-0.00015760273513678,0.0001576002513571,-0.00015760309887614,0.00015759995678438,-0.00016012093247234,0.00016011899159606,-0.00016012190826024,0.00016011803527952,2.9011199932626e-09,-4.728848719141e-09,2.1316253846345e-10,-1.9014533281784e-09,-0.00015092945884337,0.00015092777114716,-0.00015760074976228,0.00015760232032943,-0.00015760148599688,0.00015760161630512,-0.00015760323264459,0.00015759976907606,-0.00015760393884706,0.00015759910657438,-0.00016012107604073,0.00016011885914107,-0.00016012309575475,0.00016011681570863,-0.00015450921664217,0.00015451420395753,-0.00015451659273449,0.00015450662996041,8.9434762335284e-10,-1.5481087225912e-10,-0.0001728149864628,0.00017281572904441,-4.310616320873e-10,1.1975968581682e-09,-0.00017835661130222,0.0001783572038707,-0.00017835609073131,0.00017835767173151,-0.00017835698937091,0.00017835683258226,-0.00017835641375563,0.00017835731855611,-0.00017179026382246,0.00017179054359177,-0.00017178942804634,0.00017179165697128,0.78590063121869,131329,3014,0.000628674779188,0.00062867477946247,0.00071980076535442,30.387994300295,5.5039544023626e-06,5.5039544023626e-06,5.5039544023626e-06,1789291.8591743,0.0019791113460463
3619200,0.12307841293591,0.002346448676415,0.00075835568216462,0.00075835568301724,0.00082973731123318,-0.00017157422343401,0.0001715734882516,1.2217864171754e-10,-8.6286204597297e-10,1.4036445030431e-09,-2.2357174692042e-09,-0.00018039149119497,0.00018039237650878,-0.000180391852831,0.00018039204489904,-0.00018039272443508,0.00018039111564082,-0.00018039307307882,0.00018039079648786,-0.00018261939488291,0.0001826183820425,-0.0001826203589386,0.00018261742158127,1.6638947304044e-09,-2.9753851377774e-09,5.5710804422948e-10,-1.7439305548852e-09,-0.00017157444753107,0.00017157326455181,-0.00018039135507069,0.0001803925373611,-0.00018039211806935,0.0001803917679522,-0.00018039289775132,0.00018039095635887,-0.00018039364621583,0.00018039019774231,-0.00018261915578018,0.00018261865183007,-0.00018262136114402,0.00018261637460488,-0.00017536862374804,0.00017537108602186,-0.00017537308265632,0.00017536651345597,8.8539107770445e-10,-1.1944025312343e-10,-0.00019896517567467,0.00019896594462257,-4.3740206185476e-10,1.2383756540143e-09,-0.00020674684961077,0.0002067474372447,-0.00020674630086055,0.00020674794000725,-0.00020674720783761,0.00020674706478539,-0.000206746627285,0.00020674756354216,-0.0001969986941588,0.00019699901803438,-0.00019699780189542,0.00019700009612663,0.77012035418504,131329,3014,0.0007146411368647,0.0007146411376916,0.00082867329773708,29.681739515581,-1.4608387534924e-07,-1.4608387534924e-07,-1.4608387534924e-07,1979101.3112547,0.0022605137036403
3819200,0.14050036471784,0.0026455201982518,0.00085201719931123,0.00085201720002154,0.00094148579891902,-0.00019174128467354,0.0001917409085813,2.1353466576548e-10,-5.9407390154569e-10,8.4300322509484e-10,-1.294778854108e-09,-0.00020272264073185,0.00020272330965935,-0.00020272293489697,0.00020272306069055,-0.00020272336703768,0.00020272256613849,-0.00020272368576573,0.00020272229786052,-0.00020486281190737,0.0002048625394453,-0.00020486365541464,0.00020486170783526,6.0482340767356e-10,-1.2948753569177e-09,7.64300109651e-10,-1.366431577558e-09,-0.0001917413954399,0.00019174079814173,-0.00020272258831923,0.00020272337065979,-0.00020272328534617,0.00020272268534362,-0.00020272323193295,0.00020272272702793,-0.00020272395184929,0.00020272202076591,-0.00020486224941592,0.00020486313405549,-0.0002048643423206,0.00020486097042503,-0.00019578854362761,0.00019578903942656,-0.00019579039312467,0.0001957871218999,7.4858422908918e-10,-8.1873879353304e-11,-0.00022471429034546,0.00022471495917493,-2.6998974090683e-10,9.693262237088e-10,-0.000234935794214,0.00023493635086255,-0.00023493536869045,0.00023493672883771,-0.00023493608957296,0.00023493605282685,-0.00023493568598337,0.00023493641097452,-0.00022174337363148,0.00022174356478253,-0.00022174253954736,0.00022174446722824,0.7714088019627,131329,3014,0.00079861081492013,0.00079861081560014,0.00093586321665253,29.233125923515,-3.7349926118832e-06,-3.7349926118832e-06,-3.7349926118832e-06,2168150.1591417,0.0025363052563782
4019200,0.15972710800139,0.0029727135964491,0.0009540621173826,0.00095406211835785,0.0010645893607087,-0.00021700291369975,0.00021700293406009,-1.6753449075984e-11,3.5029755284139e-11,-3.0232310104561e-10,2.8065645342476e-10,-0.00023050904275924,0.0002305088577228,-0.00023050896743291,0.00023050890961025,-0.0002305088189635,0.00023050907988967,-0.00023050886589543,0.00023050899939996,-0.00023268287379614,0.0002326832616053,-0.00023268300777019,0.00023268308130492,-1.5550970183939e-09,1.6313143859405e-09,6.1723733765977e-10,-5.1074955400727e-10,-0.0002170028677189,0.00021700298046181,-0.00023050925274014,0.00023050866444594,-0.00023050953902036,0.0002305083304097,-0.00023050815836832,0.00023050975400762,-0.00023050856280199,0.00023050928384059,-0.00023268183124941,0.00023268431903098,-0.00023268308368544,0.00023268296839445,-0.00022143148687838,0.00022142819420045,-0.000221428493778,0.00022143116507349,1.3691563346844e-10,1.6192488719555e-10,-0.00025651196858307,0.00025651226917918,4.7715067667215e-10,-1.6132069458704e-10,-0.00026962419528608,0.00026962469140061,-0.00026962435152902,0.00026962450265815,-0.00026962414374944,0.0002696247037709,-0.00026962442961106,0.00026962439105342,-0.00025243334945023,0.0002524332471307,-0.00025243317226784,0.00025243346273222,0.77300335861682,131329,3014,0.00090378339727606,0.00090378339815269,0.0010682151870945,30.538595561363,6.7087644909043e-06,6.7087644909043e-06,6.7087644909043e-06,2408859.426122,0.0028799340451605
4219200,0.18076428369848,0.0033270591202583,0.0010638379699996,0.0010638379699579,0.0011993831803008,-0.00024389565265075,0.00024389573946886,-3.0339086051453e-11,1.1469320708361e-10,1.6690672227597e-10,-1.1121047691244e-10,-0.00026038075273073,0.00026038080123777,-0.00026038063851474,0.00026038091591883,-0.00026038074127335,0.00026038078339011,-0.00026038075835526,0.00026038075650653,-0.00026254837075125,0.00026254846909801,-0.00026254841450226,0.00026254836357411,-1.6244214948914e-09,1.990107753474e-09,1.7191918497404e-10,1.9290459946342e-10,-0.00024389551116889,0.00024389588130574,-0.00026038123278609,0.00026038031522157,-0.00026038115635363,0.00026038037549932,-0.00026037994451412,0.00026038159787974,-0.00026038000162188,0.00026038151990316,-0.00026254751255881,0.00026254930973396,-0.00026254768579525,0.00026254909135588,-0.00024879753166686,0.00024879451277042,-0.00024879413136721,0.00024879788924765,-3.7225139694594e-11,7.3349897225695e-11,-0.00029092338482592,0.00029092342491446,9.3160179508699e-10,-8.9420002137668e-10,-0.00030743559656099,0.00030743618711768,-0.0003074361428189,0.0003074355968185,-0.00030743549297659,0.00030743625057772,-0.00030743620255926,0.00030743554544202,-0.00028563841382715,0.00028563775782576,-0.00028563834552423,0.00028563786968781,0.77489565416112,131329,3014,0.0010157356361741,0.001015735636916,0.0012114251921725,31.781781075615,1.6654248604919e-05,1.6654248604919e-05,1.6654248604919e-05,2643845.5284875,0.0032481784568705
4419200,0.20212650522547,0.0036828974674347,0.0011733269283426,0.0011733269284616,0.0013362436106305,-0.00026879037212828,0.00026879041069206,4.8293596149082e-11,-1.08526892225e-11,4.0889753018172e-10,-3.9933968660846e-10,-0.00028853167210724,0.00028853188285203,-0.00028853163433944,0.0002885319268457,-0.00028853180633961,0.0002885317024536,-0.00028853187977202,0.00028853163345769,-0.00029056281189719,0.00029056285342907,-0.00029056301523566,0.00029056259183273,-1.0496796052808e-09,1.3770568084268e-09,-5.7822284437467e-11,3.8025522896182e-10,-0.00026879022864187,0.00026879055462167,-0.00028853213188467,0.00028853140629108,-0.00028853194103737,0.00028853159682118,-0.00028853121879568,0.00028853230966658,-0.00028853113940093,0.00028853238875342,-0.00029056235152039,0.00029056327785203,-0.00029056210250909,0.00029056351439432,-0.00027420229046454,0.00027420049818567,-0.00027420000220315,0.00027420275735355,1.5651534356369e-11,-8.6756195525426e-11,-0.00032374802479969,0.00032374795347491,9.532559370237e-10,-1.0303400173344e-09,-0.00034395094219159,0.00034395154767473,-0.00034395155908175,0.00034395088791022,-0.00034395091017793,0.00034395154405265,-0.00034395166953305,0.00034395079737023,-0.00031725573497767,0.00031725475957898,-0.00031725551683098,0.00031725502728887,0.77613010281534,131329,3014,0.0011193613582504,0.001119361359176,0.0013480102568538,31.981181243569,1.824944994855e-05,1.824944994855e-05,1.824944994855e-05,2833578.3571381,0.0035931975898046
4619200,0.22502930345704,0.0040607238166129,0.0012890190549647,0.0012890190556409,0.0014826857060073,-0.00029660697466911,0.0002966070651554,-8.265382183542e-11,1.7693336785118e-10,-8.1677810519543e-11,1.5600164074225e-10,-0.00032006550655436,0.0003200652804239,-0.00032006535568465,0.0003200654454853,-0.00032006526691911,0.00032006547009698,-0.00032006525528196,0.00032006550677528,-0.00032185521827686,0.00032185542397227,-0.0003218551464113,0.00032185545382671,-1.3963525736035e-09,1.7667557917121e-09,-1.8147700699672e-10,5.3605807603808e-10,-0.00029660684269448,0.00029660719765872,-0.00032006591414643,0.00032006485005509,-0.00032006562718125,0.00032006515293285,-0.00032006473546708,0.00032006602203025,-0.0003200645855581,0.00032006619560612,-0.00032185480349383,0.00032185580119258,-0.00032185432350029,0.00032185629120056,-0.00030265318765858,0.00030265083321532,-0.00030265020907888,0.00030265380238237,-1.8427696881804e-10,2.3871134929684e-11,-0.00036038723865664,0.00036038707305923,1.271362279483e-09,-1.4472728372715e-09,-0.00038475062442912,0.00038475125921354,-0.00038475147975848,0.00038475036667768,-0.0003847504771816,0.00038475137730864,-0.00038475149548294,0.00038475038044242,-0.00035264929110501,0.00035264826107466,-0.0003526493558201,0.00035264823139916,0.7769460950741,131329,3014,0.0012351391479236,0.0012351391490253,0.0015004436588959,33.013533905514,2.650827124411e-05,2.650827124411e-05,2.650827124411e-05,3042721.5092469,0.0039786491084299
4819200,0.25022583144738,0.0044719982818049,0.0014142823472964,0.0014142823488345,0.001643433585674,-0.00032743634758775,0.0003274364747365,-1.0685342033371e-10,2.3965144468052e-10,-1.8067728757995e-10,3.0059881223616e-10,-0.00035524208955647,0.00035524177217731,-0.00035524190147175,0.00035524197047025,-0.0003552417526737,0.00035524205165702,-0.00035524170944746,0.00035524211532063,-0.00035660794363032,0.00035660819530713,-0.00035660778572391,0.00035660830453455,-1.4001462656472e-09,1.7977275326349e-09,-4.1068625074663e-10,7.8189735331944e-10,-0.00032743622610076,0.00032743659677317,-0.00035524253254681,0.00035524130575343,-0.00035524209175958,0.00035524176410117,-0.00035524132607891,0.00035524249418881,-0.00035524102965219,0.00035524281836844,-0.0003566077576665,0.00035660833845698,-0.00035660682851575,0.00035660928894548,-0.00033426907601439,0.00033426687658359,-0.00033426606587305,0.00033426987716195,-2.6224086033937e-10,2.3427507996888e-11,-0.00040121063563883,0.00040121038885473,1.5163798548643e-09,-1.77891702785e-09,-0.0004304202015862,0.00043042092051638,-0.0004304212522989,0.00043041983526534,-0.00043042001866434,0.00043042107035445,-0.0004304212380471,0.00043041987641487,-0.00039212766679783,0.00039212644911647,-0.00039212782923811,0.00039212636376816,0.77793123220261,131329,3014,0.0013634441383523,0.0013634441394947,0.0016702538902768,34.501983147019,3.8415865176151e-05,3.8415865176151e-05,3.8415865176151e-05,3262208.5717847,0.0044068692846091
5019200,0.27748067421121,0.0049105118920169,0.0015471478530613,0.0015471478544393,0.0018162161845163,-0.00035967202629236,0.00035967216656349,-9.4724752385601e-11,2.4053378115221e-10,-2.4384291203112e-10,3.8167836863489e-10,-0.00039248819190005,0.0003924878292408,-0.00039248800798823,0.00039248802376089,-0.00039248779210669,0.00039248816532998,-0.00039248775186563,0.00039248822821979,-0.00039308831450253,0.00039308864099313,-0.00039308816342112,0.00039308874716577,-1.2561460146225e-09,1.6464506627113e-09,-5.9604449264787e-10,9.5506872040922e-10,-0.00035967191757013,0.00035967227566426,-0.00039248863181588,0.00039248736116242,-0.00039248807854045,0.0003924879388171,-0.00039248751313335,0.00039248846021133,-0.00039248710142192,0.00039248890506596,-0.00039308838896812,0.00039308851826544,-0.00039308711535105,0.00039308982557926,-0.00036739827378908,0.00036739647293776,-0.00036739554790339,0.00036739918937707,-2.6753374286603e-10,-4.0172999507147e-12,-0.00044442167001975,0.00044442139071042,1.6509167946178e-09,-1.9517911999715e-09,-0.00047922611377999,0.00047922691103071,-0.00047922727785912,0.00047922572486985,-0.00047922593998779,0.00047922706477816,-0.00047922726081205,0.00047922576306758,-0.00043385262935212,0.00043385126965562,-0.00043385280423444,0.00043385121234052,0.77678229372964,131329,3014,0.0014975893094775,0.0014975893102623,0.0018499584975015,35.811595227559,4.8892761820472e-05,4.8892761820472e-05,4.8892761820472e-05,3470885.2019948,0.0048569554133119
5219200,0.30616524569399,0.0053675827093296,0.0016852105301074,0.0016852105311276,0.0019971616480947,-0.00039242876702508,0.0003924288168832,1.8762890347756e-10,-1.1622851359281e-10,1.5818749481885e-10,-1.0007590363219e-10,-0.00043081368803288,0.00043081372020322,-0.00043081373982493,0.0004308136803413,-0.00043081357901862,0.00043081373923378,-0.00043081372622043,0.00043081361851907,-0.0004303565909518,0.00043035708138869,-0.00043035697707134,0.00043035665627225,-6.0325922239068e-10,8.7111353940378e-10,-1.0691614190973e-09,1.313951566693e-09,-0.00039242867424514,0.00039242890985544,-0.00043081429545572,0.00043081310072751,-0.00043081349305371,0.00043081393020756,-0.00043081363163916,0.00043081368465697,-0.00043081292241727,0.00043081443213961,-0.00043035751647188,0.00043035615090751,-0.00043035533061032,0.00043035835435811,-0.00040120148253808,0.00040120115527656,-0.00040120003576646,0.00040120252242308,8.4424623679816e-11,-3.0188387714007e-10,-0.00048870662268218,0.0004887063954613,1.4398224367438e-09,-1.6866866016248e-09,-0.00052976170445376,0.00052976263293681,-0.00052976273032723,0.00052976156998176,-0.00052976174231419,0.00052976252740773,-0.00052976286579333,0.00052976138999536,-0.00047659903888899,0.00047659734476374,-0.0004765987280759,0.0004765978796527,0.77856400188751,131329,3014,0.0016338908617922,0.0016338908621884,0.0020340874061844,36.763856425076,5.6510851400612e-05,5.6510851400612e-05,5.6510851400612e-05,3668901.7885466,0.0053160318067167
5419200,0.33596094775733,0.0058312806272471,0.0018250070662821,0.0018250070674124,0.0021812664935526,-0.0004252846811098,0.00042528470215549,8.1895159203219e-11,-4.6362531362374e-11,-1.810210526811e-10,2.0504768127232e-10,-0.00046980058668709,0.00046980034427484,-0.00046980057410638,0.00046980036289792,-0.00046980025726798,0.00046980058062436,-0.00046980037345896,0.00046980050119138,-0.00046762099897538,0.00046762157948976,-0.00046762128009919,0.00046762127832055,-7.0040510931973e-10,9.057657019051e-10,-1.0748758973612e-09,1.2595288090968e-09,-0.00042528460285146,0.00042528478049468,-0.00046980109794761,0.0004697998144761,-0.00046980029657666,0.00046980065368777,-0.00046980039106497,0.00046980045260706,-0.00046979969888785,0.00046980117513432,-0.0004676219410579,0.00046762064986485,-0.00046761980630893,0.00046762278161212,-0.00043504895889886,0.00043504844548077,-0.00043504741387162,0.00043504988744552,-1.0635336421302e-11,-2.2860637776149e-10,-0.00053345946799425,0.00053345922012305,1.5732972002623e-09,-1.843488809197e-09,-0.00058147323088222,0.00058147417479002,-0.0005814743467649,0.00058147304965081,-0.0005814732262822,0.00058147413279603,-0.00058147442655443,0.00058147288332401,-0.00051958186774044,0.00051958014462833,-0.00051958170002233,0.00051958060587689,0.76958753724742,131329,3014,0.001770594525594,0.0017705945257561,0.0022201165359597,37.574957535379,6.2999660283035e-05,6.2999660283035e-05,6.2999660283035e-05,3837715.5236352,0.0057780424950234
5619200,0.36560864484019,0.0062665733727276,0.0019558977460775,0.0019558977468568,0.0023547778797933,-0.00045482556993983,0.00045482557009589,5.8698808247583e-11,-4.4063611372213e-11,-2.6900417926874e-10,2.7299527185831e-10,-0.00050580411407598,0.00050580378796188,-0.00050580409409436,0.00050580381718159,-0.00050580373776633,0.00050580408020847,-0.0005058038379934,0.00050580401236545,-0.00050074363960269,0.00050074421130573,-0.00050074388114794,0.00050074394292015,-5.0474839406406e-10,6.573807724181e-10,-9.9064194403001e-10,1.1264111337911e-09,-0.00045482550585506,0.00045482563407996,-0.00050580449846057,0.00050580338925003,-0.00050580377241428,0.0005058041485868,-0.00050580393949254,0.00050580388019229,-0.00050580332124269,0.00050580453106849,-0.0005007445679995,0.0005007432819551,-0.00050074264825379,0.00050074520989288,-0.00046493965835058,0.00046493944577432,-0.00046493854489989,0.00046494047555095,-3.5718236861794e-11,-2.3470363458272e-10,-0.00057494987583066,0.00057494959672108,1.6105508628061e-09,-1.9131099213198e-09,-0.00063046464337119,0.00063046558611254,-0.0006304657919442,0.00063046442425024,-0.00063046463182989,0.00063046554625726,-0.00063046586680262,0.0006304642649226,-0.00055857180162853,0.0005585700441291,-0.00055857165021419,0.00055857047360693,0.73637637791223,131329,3014,0.0018935006855755,0.0018935006853589,0.0023925395667829,37.741752135232,6.4334017081858e-05,6.4334017081858e-05,6.4334017081858e-05,3960636.2037357,0.0061988078809508
5819200,0.39273285485995,0.0066473610757319,0.0020700523297587,0.0020700523302339,0.0025072564157393,-0.00047801052103395,0.00047801051171784,6.6765145047119e-11,-6.1737551474887e-11,-4.549344470061e-10,4.5188850976327e-10,-0.00053503632232883,0.00053503588412171,-0.00053503632215156,0.00053503589635744,-0.00053503584114758,0.00053503628969023,-0.00053503593839053,0.0005350362227321,-0.00052682783878778,0.00052682852018884,-0.00052682807565343,0.00052682825524426,-2.7664372361382e-10,3.8582983963016e-10,-8.8041483518572e-10,9.7666627373717e-10,-0.00047801047219118,0.00047801056034906,-0.00053503653829265,0.00053503565712739,-0.00053503591224676,0.00053503631552613,-0.00053503615859379,0.00053503597157831,-0.00053503562057533,0.00053503654241843,-0.00052682880874371,0.00052682754800392,-0.00052682711789515,0.00052682924783143,-0.00048794815725783,0.00048794827139659,-0.00048794749943718,0.00048794884659088,-2.1508756157558e-11,-2.5683503021907e-10,-0.00060896553340239,0.00060896524711265,1.3671652581722e-09,-1.6760089313717e-09,-0.00067183144146253,0.00067183224565657,-0.00067183244840351,0.00067183123283684,-0.00067183145715938,0.00067183218643258,-0.00067183252053858,0.00067183106701398,-0.00058975150179488,0.00058974989555987,-0.00058975135843254,0.00058975034191646,0.7131819347619,131329,3014,0.0019899650339993,0.0019899650335522,0.0025338623289361,36.553837631362,5.4830701050898e-05,5.4830701050898e-05,5.4830701050898e-05,4045206.832486,0.006535211977311
6019200,0.41832177785987,0.0069980348805241,0.0021751519316268,0.0021751519318765,0.0026477310170209,-0.00050004388851385,0.00050004388013154,6.3258645712384e-11,-5.7432474874375e-11,-5.7328385510116e-10,5.7325062732212e-10,-0.00056303563275018,0.00056303511642337,-0.00056303563079002,0.00056303513026028,-0.00056303507747221,0.00056303559877699,-0.00056303517242376,0.00056303553524293,-0.00055129805768154,0.0005512988112519,-0.00055129828704581,0.00055129855526578,-1.8136158628059e-10,2.6225446805142e-10,-7.7855938225003e-10,8.4944083629929e-10,-0.00050004385288166,0.00050004391546835,-0.0005630357470347,0.00056303499187055,-0.00056303519598944,0.00056303557427557,-0.00056303544406355,0.00056303523104564,-0.00056303498054579,0.00056303572778257,-0.00055129900394979,0.00055129786451519,-0.00055129753161875,0.0005512993415265,-0.00050967373068129,0.00050967395703777,-0.00050967329325308,0.0005096743143489,-1.8078039581241e-11,-2.5570780153748e-10,-0.00064139201682376,0.00064139173447739,1.2229246427122e-09,-1.5261170420984e-09,-0.00071130903372499,0.00071130974626974,-0.00071130994485829,0.00071130883188498,-0.00071130905582377,0.00071130968466044,-0.00071131001428033,0.00071130866485572,-0.00061935709683,0.00061935559391578,-0.00061935695951087,0.00061935604155113,0.70262235589106,131329,3014,0.002081634478201,0.0020816344775801,0.0026685581248641,35.890173411513,4.9521387292105e-05,4.9521387292105e-05,4.9521387292105e-05,4118895.782212,0.0068554021862858
6219200,0.44323743952071,0.0073408333919846,0.0022778628540013,0.0022778628540629,0.0027851076839203,-0.000522429121214,0.00052242911412318,6.570028169561e-11,-5.7909117151516e-11,-5.7497092244476e-10,5.777090580466e-10,-0.00059167826073082,0.00059167775506295,-0.00059167827109936,0.00059167776066279,-0.00059167771692926,0.00059167822955213,-0.00059167780513369,0.00059167817673384,-0.00057611820116379,0.00057611892740656,-0.00057611840648887,0.00057611870200584,-1.6193292029408e-10,2.2407500459165e-10,-7.4742791200808e-10,8.0178545691594e-10,-0.00052242909452999,0.00052242914041303,-0.00059167836127622,0.00059167764508771,-0.00059167784606116,0.0005916781933435,-0.00059167808895131,0.00059167785597642,-0.0005916776439674,0.00059167833928817,-0.00057611913366016,0.00057611800043708,-0.00057611770512279,0.00057611943325513,-0.00053179794941531,0.00053179815877092,-0.0005317975452729,0.00053179848970168,-5.7135133384424e-12,-2.5646346186434e-10,-0.00067432257891156,0.0006743223072445,1.125247671956e-09,-1.4159597265494e-09,-0.000751196368686,0.00075119703632956,-0.00075119722118896,0.00075119618270601,-0.00075119640891953,0.0007511969616754,-0.000751197283823,0.00075119602190854,-0.00064970250037055,0.00064970109296706,-0.00064970238528638,0.00064970152666059,0.70746296945238,131329,3014,0.0021747629213609,0.0021747629205333,0.0028053257179372,35.770920933583,4.8567367468665e-05,4.8567367468665e-05,4.8567367468665e-05,4184651.7107372,0.007180724612845
6419200,0.46790026023289,0.0076769430394643,0.0023782019565507,0.002378201956525,0.0029205391263886,-0.0005447835222643,0.00054478354234379,7.8729325667261e-11,-4.5745937493011e-11,-4.9790511807571e-10,5.3477958035091e-10,-0.00062054641858058,0.00062054601398695,-0.00062054643447814,0.00062054600298766,-0.00062054593711577,0.00062054644239646,-0.00062054601247308,0.00062054638901922,-0.00060077035389015,0.00060077107351534,-0.000600770548463,0.00060077084284147,-1.9789836777344e-10,2.6757053233681e-10,-7.9547856732425e-10,8.5913709425079e-10,-0.00054478350653853,0.0005447835576792,-0.00062054658293612,0.00062054582685565,-0.0006205460373398,0.00062054639874464,-0.00062054631780013,0.00062054607331012,-0.00062054581941519,0.00062054659201552,-0.00060077125752007,0.0006007700710997,-0.00060076973401989,0.00060077160844295,-0.0005538123451533,0.00055381254744813,-0.00055381191309586,0.00055381293637248,-1.5971585314326e-12,-2.6324072117666e-10,-0.00070752359862743,0.00070752332442449,9.968619941827e-10,-1.2906659556292e-09,-0.00079139936818627,0.00079139996510459,-0.0007914001559613,0.00079139919506173,-0.00079139944580887,0.00079139989104311,-0.00079140022614664,0.00079139905212642,-0.00068028344842292,0.00068028213010778,-0.00068028330172926,0.00068028254183369,0.70211761098795,131329,3014,0.0022677599689376,0.002267759968121,0.0029431919226444,35.957712469468,5.0061699755746e-05,5.0061699755746e-05,5.0061699755746e-05,4247543.451478,0.0075069977218399
6619200,0.49310388077395,0.0080427847250825,0.0024877003337345,0.0024877003334644,0.0030673840578836,-0.0005697927507447,0.000569792772871,7.8240418779501e-11,-3.6756611287227e-11,-3.68072802805e-10,4.0980947166077e-10,-0.00065185611836622,0.00065185577318904,-0.0006518561236179,0.00065185577094056,-0.00065185571751231,0.00065185611938645,-0.0006518557968923,0.0006518560682106,-0.00062942553547333,0.00062942618543304,-0.00062942573668941,0.00062942596360239,-3.3587076829396e-10,4.0615271566995e-10,-7.9877784238591e-10,8.6383390297087e-10,-0.00056979273665713,0.00056979278640226,-0.00065185636862261,0.00065185550171085,-0.00065185580991949,0.00065185608547563,-0.00065185600509112,0.00065185584252062,-0.00065185550628158,0.00065185636455246,-0.00062942639060551,0.00062942528865229,-0.00062942485814644,0.00062942683005539,-0.00057901314830879,0.00057901308024514,-0.00057901243226367,0.00057901374107652,2.5622584894678e-12,-2.6041910493393e-10,-0.00074403777362195,0.00074403750913662,1.0509322816814e-09,-1.337399434483e-09,-0.00083514417627027,0.0008351448077975,-0.00083514499280032,0.00083514401817114,-0.00083514425827347,0.00083514474409461,-0.00083514506606249,0.00083514387225158,-0.00071452046356906,0.00071451909871568,-0.00071452033448339,0.00071451954360302,0.74071518080683,131329,3014,0.0023717928288633,0.002371792827698,0.0030947908699206,36.730743593654,5.6245948749234e-05,5.6245948749234e-05,5.6245948749234e-05,4328583.2696392,0.0078694711202108
6819200,0.51974196933364,0.008461709244338,0.0026132754618306,0.0026132754611334,0.003235158321374,-0.00059909608947861,0.00059909610972769,7.3263608905862e-11,-3.4229995003031e-11,-1.7165237407898e-10,2.0670676836776e-10,-0.0006869263335088,0.00068692610665714,-0.00068692632774241,0.00068692611606153,-0.00068692605867905,0.00068692632833004,-0.0006869261444592,0.00068692627095172,-0.00066453733041714,0.00066453786514434,-0.00066453754521651,0.000664537625412,-5.3898203298068e-10,6.1529062319639e-10,-8.5259666524081e-10,9.2351617555217e-10,-0.00059909607097978,0.0005990961275742,-0.00068692673191069,0.00068692568711724,-0.0006869261256842,0.00068692631814851,-0.00068692622322217,0.00068692617433763,-0.0006869256947083,0.00068692672616027,-0.00066453810442238,0.00066453705564136,-0.00066453648159872,0.00066453868662654,-0.00060930345592847,0.00060930305022853,-0.00060930235501496,0.00060930409534432,2.8861241250067e-12,-2.6363885033762e-10,-0.00078583411179827,0.00078583384327724,1.1819087104267e-09,-1.4723102370505e-09,-0.00088476833841773,0.00088476904378532,-0.00088476923403858,0.00088476817927044,-0.00088476841521459,0.00088476899081191,-0.00088476931680137,0.00088476802227041,-0.00075443597375068,0.00075443448755137,-0.00075443581964218,0.00075443496843396,0.79222279383982,131329,3014,0.0024936754377672,0.0024936754364021,0.0032682860800743,38.163411842712,6.7707294741698e-05,6.7707294741698e-05,6.7707294741698e-05,4473884.5367083,0.0082901589161546
7019200,0.54815690565061,0.0088702102992864,0.0027339544911767,0.0027339544902789,0.0034023013178308,-0.00062855948978406,0.0006285595037421,6.4195116206795e-11,-3.0599551175304e-11,4.6896468109796e-11,-2.1477759751535e-11,-0.00072341297754475,0.0007234128926864,-0.0007234129741429,0.00072341290486957,-0.00072341285839601,0.00072341296365611,-0.00072341293368107,0.00072341291252441,-0.00069820598733814,0.00069820633534769,-0.00069820616947714,0.00069820612711662,-7.5087836561373e-10,8.3800543722787e-10,-9.8911584273569e-10,1.0697012034217e-09,-0.00062855946302552,0.0006285595296953,-0.00072341355910426,0.00072341229180728,-0.00072341286509168,0.00072341301087955,-0.00072341291008363,0.00072341291980338,-0.00072341228619191,0.00072341356838568,-0.00069820673812557,0.00069820555024596,-0.00069820482209248,0.00069820747441415,-0.00063905212357869,0.00063905137665602,-0.00063905057628015,0.00063905287007575,-3.9497104272929e-12,-2.6874569026834e-10,-0.00082917676081566,0.00082917647975005,1.2725867508336e-09,-1.5760412438307e-09,-0.00093664910971669,0.00093664987141763,-0.00093665007572728,0.0009366489388744,-0.00093664918976593,0.00093664981617084,-0.00093665015200635,0.00093664878262324,-0.00079489689486198,0.00079489534411859,-0.00079489675901445,0.00079489581876832,0.73336568083805,131329,3014,0.0026162213764239,0.0026162213747393,0.0034481533887057,39.891071015516,8.1528568124127e-05,8.1528568124127e-05,8.1528568124127e-05,4537629.9775677,0.008718790707499
7219200,0.57678101467455,0.0092635937194708,0.0028493172713695,0.0028493172702299,0.0035649591778715,-0.0006554453837894,0.00065544539243068,5.9790691023667e-11,-3.0747579006097e-11,1.4210926810058e-10,-1.252162220539e-10,-0.0007575770688613,0.00075757703268552,-0.00075757705405749,0.0007575770584104,-0.00075757700680491,0.00075757704924425,-0.00075757709048592,0.00075757698802182,-0.00072848197576501,0.00072848227799419,-0.00072848218654306,0.00072848204648135,-8.693338331066e-10,9.6865909441451e-10,-9.532217220393e-10,1.0457192293553e-09,-0.00065544534878033,0.00065544542633596,-0.00075757770788534,0.00075757637629334,-0.00075757702183141,0.00075757708656749,-0.00075757696526349,0.00075757709732192,-0.0007575763721011,0.00075757771644661,-0.00072848261057575,0.00072848160907928,-0.00072848078685537,0.00072848344559466,-0.00066576487448545,0.00066576390506902,-0.00066576311191177,0.00066576561863565,-7.4497205337985e-12,-2.7961342379596e-10,-0.00087011967619856,0.00087011938140804,1.3147067251267e-09,-1.6328160460318e-09,-0.00098631307292802,0.00098631384716042,-0.00098631406223578,0.00098631289285594,-0.00098631314573716,0.00098631379817534,-0.00098631414614572,0.00098631272127278,-0.0008325592075082,0.00083255757214177,-0.00083255903764923,0.00083255808157588,0.70719547487098,131329,3014,0.0027280474141458,0.002728047411839,0.0036180192190412,40.742055094825,8.83364407586e-05,8.83364407586e-05,8.83364407586e-05,4595259.3784387,0.0091158755781384
7419200,0.60495449815698,0.0096352714984411,0.0029577363712493,0.0029577363699789,0.003719798757213,-0.00068025206343646,0.00068025206739642,5.4825393445393e-11,-2.9668087719109e-11,2.027480673916e-10,-1.9337689932141e-10,-0.00078970762018331,0.00078970762018852,-0.00078970760707115,0.00078970765160198,-0.0007897076039957,0.00078970759819394,-0.00078970768206514,0.00078970753539753,-0.00075605036787893,0.00075605060487544,-0.00075605056156483,0.00075605038870533,-9.1789549580837e-10,1.0250631623273e-09,-9.1827648088081e-10,1.0184018058929e-09,-0.00068025202242636,0.00068025210728396,-0.00078970828151441,0.00078970694583596,-0.00078970761912337,0.00078970763167881,-0.0007897075028902,0.00078970770163334,-0.00078970693428501,0.00078970829727181,-0.00075605092108808,0.00075605001553232,-0.00075604915149068,0.00075605179874538,-0.00069008378780014,0.00069008269232312,-0.0006900819136728,0.00069008452110423,-9.6580095132624e-12,-2.8755239797163e-10,-0.00090880085912378,0.00090880055428933,1.2702998190948e-09,-1.5984278989925e-09,-0.0010337085059494,0.0010337092479039,-0.0010337094700846,0.0010337083182727,-0.0010337085790808,0.0010337091960151,-0.0010337095539897,0.0010337081419102,-0.00086771777141938,0.0008677161473953,-0.00086771759291214,0.00086771665824781,0.68502083556935,131329,3014,0.0028312244782557,0.002831224475911,0.0037784666528097,41.273117485135,9.2584939881077e-05,9.2584939881077e-05,9.2584939881077e-05,4651112.9328806,0.0094861458780735
7619200,0.63148449286049,0.009976053393126,0.0030567962481963,0.0030567962468993,0.0038624608980304,-0.00070157105457764,0.00070157105572118,4.991345632523e-11,-2.7855398389641e-11,1.7335744616666e-10,-1.685443904081e-10,-0.00081806510077268,0.00081806507608502,-0.00081806508502142,0.00081806511221255,-0.00081806506567804,0.00081806507529802,-0.00081806514255377,0.00081806501299839,-0.00077953495657116,0.00077953520279892,-0.0007795351465026,0.00077953499102897,-8.8405842741434e-10,9.9276497113439e-10,-7.9604672124947e-10,8.9765611319305e-10,-0.00070157101133099,0.00070157109783532,-0.00081806569866944,0.00081806446631577,-0.00081806511644159,0.0008180650721691,-0.00081806494059864,0.00081806520200619,-0.00081806445537159,0.00081806571517712,-0.00077953540589953,0.0007795347181763,-0.00077953387359883,0.00077953626220569,-0.00071074116738743,0.00071074005410597,-0.00071073935675656,0.0007107418211678,-6.2354689812911e-12,-2.8985666207794e-10,-0.0009433579542644,0.00094335765121924,1.1538660403022e-09,-1.4798326222762e-09,-0.0010765464637039,0.0010765471304184,-0.0010765473487772,0.0010765462796537,-0.0010765465368975,0.0010765470771463,-0.0010765474340531,0.0010765460987133,-0.00089878787575631,0.00089878632214152,-0.00089878768401464,0.00089878683747282,0.67223853428922,131329,3014,0.0029198983566019,0.0029198983542376,0.0039217800999823,41.070593761162,9.0964750089295e-05,9.0964750089295e-05,9.0964750089295e-05,4678498.4365756,0.0098099567590018
7819200,0.65655365437114,0.010293870992229,0.0031489787756996,0.003148978774388,0.0039959134421414,-0.00072144882054317,0.00072144882038216,4.5963744162696e-11,-2.5544919532008e-11,1.4698991235319e-10,-1.4479642162754e-10,-0.00084495362207565,0.00084495357826476,-0.00084495360568499,0.00084495361417119,-0.00084495357126003,0.00084495359349253,-0.00084495364408743,0.00084495353549768,-0.00080125098672109,0.00080125123604057,-0.00080125116387041,0.00080125103339098,-8.4904048305319e-10,9.5617216012259e-10,-6.9354457412063e-10,7.9401696655471e-10,-0.00072144877686556,0.00072144886304354,-0.00084495416348828,0.00084495302446514,-0.00084495365132879,0.00084495355980768,-0.00084495343096907,0.00084495373599929,-0.00084495301170821,0.00084495418248433,-0.00080125135285948,0.00080125083573661,-0.00080125001525604,0.00080125218068342,-0.00073000058876836,0.00072999946592263,-0.00072999884207133,0.00073000117186926,1.0083400488448e-12,-2.8860002182038e-10,-0.00097617540663368,0.00097617511172608,1.0494318837087e-09,-1.3660724617917e-09,-0.001117189938137,0.0011171905426264,-0.00111719075167,0.001117189762981,-0.0011171900136669,0.0011171904856624,-0.0011171908366185,0.0011171895798903,-0.00092827159398693,0.00092827012137298,-0.00092827139521363,0.00092827063227195,0.66655683954341,131329,3014,0.003002575236376,0.0030025752342549,0.0040578618874029,40.971856785353,9.0174854282822e-05,9.0174854282822e-05,9.0174854282822e-05,4695621.6615341,0.010114452844928
8019200,0.68032100430103,0.010591768256573,0.0032350740361,0.0032350740347613,0.0041216201857114,-0.00074012322390468,0.00074012322609401,4.4039446183973e-11,-2.0845054050849e-11,1.2548203105126e-10,-1.2097397818095e-10,-0.00087047111481016,0.00087047105469546,-0.0008704710967541,0.0008704710933362,-0.000870471048775,0.00087047108612752,-0.00087047111989914,0.00087047103224161,-0.00082157023904654,0.00082157049598483,-0.00082157040897008,0.00082157030061343,-8.1949835370808e-10,9.2717991676609e-10,-6.0428143619045e-10,7.0530349047092e-10,-0.00074012318089215,0.00074012326804745,-0.00087047160831941,0.00087047054820184,-0.00087047115555286,0.00087047102465682,-0.00087047089601849,0.00087047124216189,-0.00087047053609478,0.00087047163107759,-0.00082157053499031,0.00082157016893651,-0.0008215693687832,0.00082157134000472,-0.00074810522335767,0.00074810409420371,-0.00074810353385435,0.00074810574981652,1.0879029329592e-11,-2.8435984397255e-10,-0.0010074527654932,0.0010074524840334,9.6712573145806e-10,-1.2687899163537e-09,-0.0011558986930256,0.0011558992512759,-0.0011558994463261,0.001155898530653,-0.0011558987706229,0.0011558991923538,-0.0011558995339734,0.0011558983479923,-0.00095634437494544,0.00095634297147581,-0.00095634416421928,0.00095634347926165,0.66097842297361,131329,3014,0.0030802459002906,0.0030802458980785,0.004187540508024,40.977140938981,9.0217127511844e-05,9.0217127511844e-05,9.0217127511844e-05,4713608.928786,0.010402455942053
8219200,0.70290517942954,0.010871883918935,0.0033157396133398,0.0033157396120311,0.0042404046935643,-0.00075773509920932,0.00075773510075113,4.006808294757e-11,-1.8410813268175e-11,1.0712991234295e-10,-1.0422853709562e-10,-0.00089469240723455,0.00089469233222928,-0.00089469238609355,0.00089469237319016,-0.00089469232915128,0.00089469237641209,-0.00089469239818677,0.00089469232314965,-0.00084068436000687,0.00084068462425494,-0.00084068452471648,0.00084068443254116,-7.9674883321396e-10,9.0275688274801e-10,-5.311948427744e-10,6.3068673755178e-10,-0.00075773505641542,0.00075773514251224,-0.00089469286254471,0.00089469186516799,-0.00089469245713239,0.00089469229266982,-0.0008946921645581,0.00089469254376441,-0.00089469185325282,0.00089469288226948,-0.00084068459508786,0.00084068435874055,-0.00084068357339265,0.00084068538246894,-0.00076517722232197,0.00076517608779441,-0.00076517557656771,0.00076517769681019,1.9825665633641e-11,-2.8120215105555e-10,-0.0010372794465511,0.0010372791771631,9.0331050541059e-10,-1.1918679254883e-09,-0.0011928170315868,0.0011928175567266,-0.0011928177371026,0.0011928168829577,-0.0011928171098087,0.0011928174954266,-0.0011928178266535,0.0011928166971312,-0.00098307579435914,0.00098307444288502,-0.00098307557372977,0.00098307495656948,0.65549730592314,131329,3014,0.0031534965609284,0.0031534965587716,0.0043111874889266,41.071346189152,9.0970769513214e-05,9.0970769513214e-05,9.0970769513214e-05,4733622.0056423,0.010675511504207
8419200,0.72438561872423,0.011137469072294,0.0033920403894665,0.0033920403881167,0.0043533882947104,-0.00077445097474724,0.00077445097614101,3.657142759152e-11,-1.564831495472e-11,9.6064173628966e-11,-9.3825608015609e-11,-0.0009177395464849,0.00091773946261028,-0.00091773952414782,0.00091773950500012,-0.00091773946181064,0.00091773951416728,-0.00091773952772779,0.00091773946361832,-0.00085887048890779,0.000858870750488,-0.00085887064422601,0.00085887056757261,-7.7825454675443e-10,8.8286574677253e-10,-4.7718381688033e-10,5.7539558369976e-10,-0.00077445093236983,0.00077445101748302,-0.00091773997361531,0.00091773902450407,-0.00091773960468472,0.00091773941462579,-0.00091773928839261,0.00091773969021444,-0.00091773901208416,0.00091773999304923,-0.00085887067823813,0.00085887053145913,-0.00085886975935845,0.00085887145060342,-0.00078143468798859,0.00078143354787342,-0.00078143307504953,0.00078143512484159,2.9449343901582e-11,-2.7754237250633e-10,-0.00106578963116,0.0010657893752383,8.5265654663367e-10,-1.1271514241212e-09,-0.001228090801582,0.00122809130423,-0.0012280914689823,0.0012280906673906,-0.001228090881963,0.0012280912398668,-0.001228091560344,0.0012280904809836,-0.0010086409401297,0.0010086396368889,-0.0010086407119726,0.0010086401504431,0.65381527552226,131329,3014,0.0032230196296575,0.0032230196274957,0.004429361062096,41.234228399776,9.2273827198208e-05,9.2273827198208e-05,9.2273827198208e-05,4755032.6429873,0.010935571411826
8619200,0.74525399526879,0.011394975542009,0.0034658774043361,0.0034658774029529,0.0044632207347204,-0.0007913977052191,0.00079139770559836,3.331510921687e-11,-1.3742354474622e-11,1.2638899305008e-10,-1.2581117567259e-10,-0.00094087111640888,0.00094087105239432,-0.00094087109598387,0.00094087109413601,-0.00094087105438812,0.00094087108092039,-0.0009408711158749,0.00094087103627456,-0.00087734002539662,0.00087734024717686,-0.00087734016394098,0.00087734007798279,-7.9516588796484e-10,8.9802912849751e-10,-4.8139885257344e-10,5.7739867483216e-10,-0.00079139766277367,0.00079139774710115,-0.00094087155866158,0.00094087059892092,-0.0009408711909781,0.00094087098834739,-0.00094087086470882,0.00094087127316154,-0.00094087058371802,0.00094087158223188,-0.00087734020374005,0.00087734004444002,-0.00087733926436501,0.00087734097953938,-0.00079798327655499,0.00079798208842334,-0.00079798162202481,0.00079798371397726,3.9735749011908e-11,-2.7443270344576e-10,-0.001094379433049,0.0010943791897047,8.4764638927877e-10,-1.1087073830887e-09,-0.0012632445140126,0.0012632450256917,-0.0012632451762406,0.0012632443920975,-0.0012632445992808,0.0012632449554268,-0.0012632452677712,0.0012632442085298,-0.0010343658010999,0.0010343645241885,-0.0010343655730209,0.0010343650304217,0.65261450904823,131329,3014,0.0032934984792485,0.0032934984772799,0.0045478490430705,41.856639854604,9.7253118836829e-05,9.7253118836829e-05,9.7253118836829e-05,4786858.5185297,0.011197950578045
8819200,0.76493408945144,0.01162734285507,0.0035319854050933,0.0035319854036889,0.0045633720462873,-0.00080596856271015,0.00080596856324914,2.9723452057178e-11,-9.8034252473822e-12,1.0710141065483e-10,-1.067891242832e-10,-0.00096145920022554,0.00096145911991256,-0.00096145917412795,0.00096145916615354,-0.00096145912392719,0.00096145916440917,-0.00096145918550811,0.00096145911865871,-0.00089291512623646,0.00089291536712406,-0.0008929152735901,0.00089291520048123,-7.771202583507e-10,8.8267819419883e-10,-4.3418413151877e-10,5.3413332108154e-10,-0.00080596851965963,0.00080596860507029,-0.00096145961637522,0.00096145869389276,-0.00096145927436186,0.00096145905605072,-0.00096145893121901,0.0009614593601022,-0.00096145868150629,0.00096145963613023,-0.00089291526068248,0.00089291520137363,-0.00089291442728365,0.00089291604031235,-0.00081196357884732,0.00081196241272233,-0.00081196196499526,0.00081196399045997,4.53945362869e-11,-2.7357732969449e-10,-0.0011199344624728,0.0011199342279497,8.1830089935158e-10,-1.0715362003928e-09,-0.0012950551843211,0.0012950556837362,-0.0012950558212566,0.0012950550743787,-0.0012950552692892,0.0012950556135538,-0.0012950559177204,0.0012950548880881,-0.0010570062768872,0.0010570050132443,-0.0010570060336647,0.0010570055286471,0.62942560713667,131329,3014,0.0033541020669352,0.0033541020643681,0.00465374176361,41.997158346438,9.8377266771507e-05,9.8377266771507e-05,9.8377266771507e-05,4808340.6020039,0.011427678443888
9019200,0.78335762068492,0.011844971853898,0.0035938785933143,0.0035938785919464,0.0046572146686371,-0.0008193697158871,0.00081936971634896,2.6666832934794e-11,-6.1864748897916e-12,8.477874430285e-11,-8.4678325194114e-11,-0.00098050578072979,0.00098050568030163,-0.00098050575176638,0.00098050572846688,-0.00098050568856985,0.00098050574133987,-0.00098050574708783,0.00098050569679668,-0.0009073460386395,0.00090734628354073,-0.00090734617844721,0.00090734612511698,-7.5410632421509e-10,8.5639607794503e-10,-3.9510909016691e-10,4.9267242041682e-10,-0.00081936967400623,0.00081936975709379,-0.00098050616828006,0.00098050528511212,-0.00098050585146629,0.00098050561973341,-0.00098050549648435,0.00098050593481812,-0.0009805052725612,0.00098050618336276,-0.00090734615453726,0.00090734614789561,-0.00090734539436109,0.00090734691022275,-0.00082483988464316,0.00082483872487145,-0.0008248383105812,0.00082484026339904,5.4135940066544e-11,-2.7055596305399e-10,-0.0011437067586608,0.0011437065355941,7.8716670315638e-10,-1.0278985979328e-09,-0.0013247080747757,0.0013247085611972,-0.0013247086853256,0.0013247079761887,-0.0013247081591429,0.0013247084878164,-0.0013247087839195,0.0013247077878303,-0.0010780741868317,0.0010780729530423,-0.0010780739379825,0.0010780734746566,0.62978085705762,131329,3014,0.0034098398777932,0.0034098398754222,0.0047522367766105,42.046821185329,9.8774569482631e-05,9.8774569482631e-05,9.8774569482631e-05,4823131.8917433,0.011640127131196
9219200,0.8003914237932,0.01204360274499,0.0036502247889718,0.0036502247876251,0.0047431531683925,-0.00083119587570656,0.00083119587689145,2.4369479087965e-11,-4.6906354690121e-12,6.0810787125137e-11,-6.0305611940245e-11,-0.00099760441759429,0.00099760430682547,-0.00099760439121488,0.00099760435279427,-0.00099760431258909,0.00099760438193784,-0.00099760436704076,0.00099760434186444,-0.00092009140049517,0.00092009165482004,-0.00092009152942979,0.00092009150976257,-7.1177597344115e-10,8.1229576734468e-10,-3.559629063202e-10,4.5289472188474e-10,-0.00083119583504735,0.00083119591641508,-0.00099760477179633,0.00099760394421358,-0.00099760448429862,0.00099760424973955,-0.0009976041330631,0.0009976045645377,-0.00099760393153039,0.00099760479037628,-0.00092009148701941,0.00092009153056323,-0.00092009080262915,0.00092009222343028,-0.00083602404343257,0.00083602294564587,-0.00083602255517384,0.00083602439571557,6.3150569675798e-11,-2.7019016699351e-10,-0.0011651338369416,0.0011651336248298,7.4097490075482e-10,-9.7172517587466e-10,-0.0013516089193758,0.0013516093900984,-0.0013516094984439,0.0013516088353872,-0.0013516090105168,0.0013516093119535,-0.0013516095998531,0.001351608650117,-0.0010969492074741,0.0010969480168107,-0.0010969489504207,0.0010969485309912,0.62301124769325,131329,3014,0.0034590298651833,0.0034590298628149,0.0048410032382177,41.896553991453,9.7572431931624e-05,9.7572431931624e-05,9.7572431931624e-05,4831784.8736823,0.011829522950728
9419200,0.81585394859019,0.012221624017469,0.0037006256163164,0.0037006256150257,0.0048203727861271,-0.00084112643621126,0.00084112644042215,2.1979417073307e-11,8.9264593616174e-13,1.1623167449625e-11,-7.6456085789649e-12,-0.0010122770805972,0.0010122769344962,-0.0010122770499819,0.0010122769820483,-0.0010122769397352,0.0010122770447299,-0.0010122769931086,0.0010122770062477,-0.00093081087252311,0.00093081116304205,-0.00093081100141923,0.00093081101805046,-6.6750470349341e-10,7.6465152632332e-10,-2.94259821808e-10,3.8890685734215e-10,-0.00084112639845048,0.00084112647707836,-0.0010122773834749,0.0010122766221157,-0.0010122771347744,0.0010122768879743,-0.0010122767745942,0.0010122772145207,-0.0010122766129248,0.0010122773985906,-0.00093081093085577,0.00093081107069525,-0.00093081037617778,0.00093081163209073,-0.00084533900652236,0.0008453379578942,-0.00084533761266369,0.00084533931423842,7.176719391443e-11,-2.6600478567757e-10,-0.0011837185925271,0.0011837183935214,6.9268672342549e-10,-9.0970211181316e-10,-0.0013751852975338,0.0013751857432259,-0.0013751858369379,0.0013751852269559,-0.0013751853877181,0.001375185665106,-0.0013751859427996,0.0013751850393056,-0.001113178338125,0.0011131771871836,-0.0011131780704356,0.0011131777100241,0.61621359174391,131329,3014,0.0035003393513674,0.0035003393490627,0.0049179854424684,41.413546019281,9.3708368154251e-05,9.3708368154251e-05,9.3708368154251e-05,4832548.2506676,0.011991073639812
9619200,0.82954449238012,0.012377267164132,0.0037446350227903,0.0037446350215435,0.0048879971197978,-0.00084879468519862,0.00084879469104675,1.9115738703775e-11,4.8890538486433e-12,-5.3377535352935e-11,5.9097655871885e-11,-0.0010240946857267,0.001024094495548,-0.0010240946525604,0.001024094544791,-0.0010240945010668,0.0010240946504031,-0.0010240945519572,0.0010240946129131,-0.00093911285426907,0.00093911318644012,-0.00093911297884266,0.0009391130481445,-6.0262374157029e-10,6.949617550866e-10,-2.1532138651511e-10,3.0666502989859e-10,-0.0008487946502683,0.00084879472489126,-0.0010240949207861,0.0010240942524576,-0.0010240947242001,0.0010240944647396,-0.001024094355593,0.0010240948001855,-0.0010240942460263,0.0010240949298957,-0.00093911287588237,0.00093911312923268,-0.00093911248107215,0.00093911353201093,-0.00085244147945783,0.00085244050791811,-0.00085244021644948,0.000852441727223,8.0841688518378e-11,-2.6256526475257e-10,-0.0011989408277489,0.0011989406420847,6.2103181358086e-10,-8.2427132672383e-10,-0.0013948360190256,0.0013948364279662,-0.001394836504934,0.0013948359641702,-0.001394836110002,0.0013948363478829,-0.0013948366135127,0.0013948357739401,-0.0011262902093983,0.0011262891146504,-0.001126289933978,0.0011262896455217,0.6093855550106,131329,3014,0.0035322446193099,0.0035322446170451,0.0049810320232726,40.44561663521,8.5964933081681e-05,8.5964933081681e-05,8.5964933081681e-05,4821138.8945818,0.012119502876473
9819200,0.84194365644119,0.012519219584322,0.003784869745847,0.0037848697446179,0.0049494800938574,-0.00085628575300013,0.00085628575982961,1.8847783654323e-11,5.6255534667325e-12,-5.3640905836559e-11,6.0282673993925e-11,-0.0010353159220567,0.0010353157350651,-0.0010353158935999,0.0010353157798988,-0.0010353157400808,0.0010353158864366,-0.0010353157856192,0.0010353158554313,-0.00094730115282822,0.00094730146628991,-0.00094730125526389,0.0009473013399976,-5.7000171422821e-10,6.5686351978874e-10,-1.9111931558316e-10,2.7600530733144e-10,-0.00085628572073956,0.00085628579116273,-0.0010353161372853,0.0010353155113028,-0.0010353159643022,0.0010353157001366,-0.0010353155990569,0.001035316032008,-0.0010353155027322,0.0010353161488579,-0.00094730116681899,0.00094730142118516,-0.00094730080312496,0.00094730178272629,-0.00085948782029061,0.00085948687406504,-0.00085948661110482,0.00085948804279927,9.4572781337036e-11,-2.605566558789e-10,-0.0012132940560059,0.0012132938845133,5.8830839187658e-10,-7.7570867725003e-10,-0.0014131775905925,0.0014131779933283,-0.0014131780539225,0.001413177550609,-0.001413177689436,0.00141317790456,-0.0014131781624937,0.0014131773631044,-0.001138773126974,0.0011387720819893,-0.0011387728524799,0.0011387726054175,0.61214216983162,131329,3014,0.0035634080477566,0.0035634080458229,0.0050404771456519,39.872358909817,8.1378871278537e-05,8.1378871278537e-05,8.1378871278537e-05,4817020.5805616,0.01224279805441
10019200,0.85305546488425,0.012647517760235,0.0038212985819834,0.0038212985807643,0.0050049205974875,-0.00086251952799178,0.00086251953448255,1.3164907203475e-11,1.0390859095799e-11,-7.7133733705617e-11,8.3149629777063e-11,-0.0010448442834171,0.0010448440747973,-0.0010448442473357,0.0010448441260655,-0.0010448440828288,0.0010448442448623,-0.0010448441287147,0.0010448442125173,-0.00095421433624995,0.00095421466930312,-0.00095421444472111,0.00095421454170579,-5.6865125903048e-10,6.5345421944053e-10,-1.5518769730252e-10,2.393008350216e-10,-0.00086251949638044,0.00086251956511005,-0.0010448444785367,0.001044843872224,-0.0010448443245571,0.0010448440409847,-0.0010448439378003,0.0010448443942534,-0.001044843867844,0.0010448444826407,-0.00095421431706755,0.00095421465715411,-0.00095421404086846,0.00095421493472393,-0.00086537337951116,0.00086537242686161,-0.00086537218514532,0.00086537357555317,9.9634697228392e-11,-2.576419394509e-10,-0.0012255995079479,0.0012255993456337,5.6632257393999e-10,-7.4482608901543e-10,-0.0014290243491981,0.0014290247415398,-0.0014290247903784,0.0014290243202393,-0.0014290244444203,0.0014290246550563,-0.0014290249034082,0.0014290241272755,-0.0011494563781413,0.0011494553443927,-0.0011494560912048,0.001149455882581,0.61575181186416,131329,3014,0.0035893442972525,0.0035893442952003,0.0050914364187391,39.081973897019,7.5055791176156e-05,7.5055791176156e-05,7.5055791176156e-05,4806622.7647969,0.012346930166931
10219200,0.86289883748008,0.012762319371134,0.0038539702108206,0.0038539702095909,0.0050543789507228,-0.00086746351857707,0.00086746353097409,1.1895985085821e-11,1.7542308329816e-11,-9.1028972480317e-11,1.0346296921849e-10,-0.0010526495343802,0.0010526493196408,-0.001052649493241,0.00105264937012,-0.0010526493240678,0.001052649502129,-0.0010526493646945,0.0010526494699592,-0.00095980879041414,0.00095980913778167,-0.00095980889181176,0.00095980901793709,-5.6281075321669e-10,6.5123141396887e-10,-1.1905250042213e-10,2.0838063993302e-10,-0.00086746348836062,0.00086746356010762,-0.0010526497128718,0.0010526491337256,-0.0010526495778635,0.0010526492779313,-0.0010526491766288,0.0010526496548155,-0.001052649124425,0.0010526497187162,-0.0009598087319519,0.00095980914946046,-0.00095980853017711,0.00095980935679271,-0.00087005398494786,0.0008700530293843,-0.00087005280658212,0.00087005416384526,1.0404079121348e-10,-2.5735319286014e-10,-0.0012358090381658,0.0012358088819817,5.4013754199239e-10,-7.1329501029765e-10,-0.0014423310342213,0.0014423314138298,-0.0014423314555491,0.0014423310126222,-0.0014423311312125,0.0014423313258122,-0.0014423315732401,0.0014423308203716,-0.0011582907153369,0.0011582896973061,-0.0011582904095577,0.001158290230149,0.62007541902234,131329,3014,0.003609918419126,0.0036099184168714,0.0051337117922889,38.041927909283,6.6735423274265e-05,6.6735423274265e-05,6.6735423274265e-05,4789668.9281872,0.012431419175239
10419200,0.87197874489205,0.012869428241625,0.0038845400422759,0.0038845400410622,0.0051003481582865,-0.00087319951949954,0.0008731995449354,2.862223122813e-11,1.9722169413027e-11,4.7975420472072e-11,-1.9009403511065e-11,-0.0010610241556745,0.0010610240465452,-0.0010610241473401,0.0010610240945748,-0.0010610240390124,0.0010610241320755,-0.0010610240864591,0.0010610241354503,-0.00096628118340574,0.00096628140844827,-0.00096628126340242,0.00096628132836375,-5.2450074409821e-10,6.1423156498555e-10,-1.663023821205e-10,2.5332789357036e-10,-0.00087319949541996,0.00087319956790706,-0.0010610243783013,0.0010610238026012,-0.0010610242428962,0.001061023977333,-0.0010610238870278,0.0010610243016215,-0.0010610238100405,0.0010610244351526,-0.00096628117645081,0.00096628139931477,-0.00096628082849097,0.00096628176167741,-0.00087563743832597,0.00087563652836694,-0.00087563631064051,0.00087563766980011,1.4169086638247e-10,-2.4819918433235e-10,-0.0012464800412428,0.0012464799237188,5.6745613251643e-10,-6.9554267447226e-10,-0.0014558647744503,0.0014558652071909,-0.0014558652095777,0.0014558647833081,-0.001455864902455,0.0014558651096719,-0.0014558653401001,0.0014558646253392,-0.001167738456383,0.0011677375054064,-0.0011677381548041,0.0011677379956506,0.62506671266167,131329,3014,0.0036337790324963,0.0036337790301608,0.0051778983542813,37.716735810267,6.4133886482132e-05,6.4133886482132e-05,6.4133886482132e-05,4787169.013102,0.012524505264652
10619200,0.88047163307939,0.012967568805354,0.0039124847711188,0.0039124847702033,0.0051425992640315,-0.00087887389927666,0.00087887394162465,1.9107263727385e-11,4.2930294332506e-11,5.2848945265705e-11,-6.0511044958525e-12,-0.00106922001733,0.0010692199081659,-0.0010692199528107,0.0010692199836763,-0.0010692198799487,0.001069220025132,-0.0010692199394691,0.0010692199867235,-0.00097259956720423,0.00097259994141551,-0.00097259971087489,0.00097259974981103,-6.5229982598149e-10,7.6412868541524e-10,-1.8425844306735e-10,2.9384506206769e-10,-0.00087887387447507,0.00087887396545655,-0.0010692202949989,0.0010692196039865,-0.0010692200916217,0.0010692198228246,-0.0010692196974091,0.0010692202306181,-0.0010692196147989,0.0010692203336144,-0.00097259945220055,0.00097259991534836,-0.00097259920512094,0.00097260016809669,-0.00088115458837082,0.00088115361193649,-0.00088115333356032,0.0008811548470779,1.1971915036802e-10,-2.4910487095836e-10,-0.0012568054850265,0.0012568053440965,6.2666450953528e-10,-7.791452397654e-10,-0.0014689022672306,0.0014689026822465,-0.0014689027206386,0.0014689022503786,-0.0014689023639325,0.0014689026263586,-0.001468902888296,0.0014689020686917,-0.0011768836386386,0.0011768825364275,-0.0011768831854825,0.0011768830697048,0.61395643025105,131329,3014,0.0036573819311389,0.003657381929116,0.0052206515322052,37.647099330919,6.3576794647354e-05,6.3576794647354e-05,6.3576794647354e-05,4789630.3937602,0.012615626004124
10819200,0.88844198102658,0.01305793038633,0.0039381592905067,0.0039381592896886,0.0051816118061348,-0.00088422891029761,0.00088422890924012,-2.548902182788e-11,4.2012298259009e-11,-5.6035326100428e-12,5.8869251878882e-12,-0.0010769502617378,0.0010769499593301,-0.001076950097696,0.0010769501455207,-0.0010769500025472,0.0010769501818788,-0.0010769501389522,0.0010769500663041,-0.00097851287837609,0.00097851341584042,-0.0009785132539218,0.00097851301506021,-8.4289799720124e-10,9.2878035821929e-10,-2.3146335221083e-10,3.108544615874e-10,-0.00088422887516871,0.00088422894375776,-0.0010769505810901,0.0010769496345591,-0.0010769502703539,0.0010769499666526,-0.0010769497463108,0.0010769504398328,-0.0010769497389824,0.0010769504739533,-0.0009785128189438,0.00097851350280497,-0.00097851270949291,0.00097851359603742,-0.00088632919258419,0.00088632804475639,-0.00088632776378749,0.0008863294427624,1.0145601488251e-10,-2.3564181395139e-10,-0.0012665255852595,0.0012665254444397,7.1452063617915e-10,-8.6977542013442e-10,-0.0014811701831933,0.0014811705711335,-0.0014811706011371,0.0014811701666041,-0.0014811701580629,0.0014811705983318,-0.0014811708189944,0.0014811698694249,-0.001185460723986,0.0011854593005836,-0.0011854601364753,0.0011854601969512,0.60387279568575,131329,3014,0.0036796554164844,0.0036796554151966,0.0052608968765457,37.649659626402,6.3597277011216e-05,6.3597277011216e-05,6.3597277011216e-05,4794814.0388935,0.012701520506212
11019200,0.89598584588736,0.013141697532665,0.003961902806443,0.003961902805447,0.0052178919207749,-0.00088951332903905,0.00088951333528634,-7.9006116711484e-12,3.3180141369457e-11,1.5811333315797e-10,-1.5323850302186e-10,-0.0010845045002707,0.0010845043954909,-0.0010845044141015,0.001084504499313,-0.0010845044174,0.0010845044472938,-0.0010845044886089,0.001084504396077,-0.00098428849543958,0.00098428872370462,-0.00098428865098369,0.00098428854072599,-8.2138723176304e-10,9.1804085413281e-10,-3.227964886689e-10,4.1570894628933e-10,-0.00088951329228959,0.00088951337118351,-0.0010845049030186,0.0010845039800611,-0.0010845045979575,0.0010845043031757,-0.0010845041550934,0.0010845047186051,-0.0010845040091263,0.0010845048894041,-0.00098428845449913,0.00098428872878914,-0.00098428793281144,0.00098428924812926,-0.00089140965244889,0.0008914084151758,-0.00089140806143707,0.00089140997958647,1.1928436270931e-10,-2.5716676002613e-10,-0.0012759646013156,0.001275964455672,7.6192492865761e-10,-9.2222925847037e-10,-0.0014930234791143,0.0014930239689352,-0.0014930239949761,0.0014930234637028,-0.0014930235357384,0.0014930239214343,-0.0014930241721317,0.0014930232338248,-0.0011937774280475,0.0011937761292578,-0.0011937769559572,0.0011937768132185,0.59321240963324,131329,3014,0.003701633297731,0.0037016332959499,0.0052999777923192,37.826487372822,6.5011898982577e-05,6.5011898982577e-05,6.5011898982577e-05,4804802.7124994,0.012785642741975
11219200,0.90309149584489,0.013220564959119,0.0039842614774643,0.0039842614764608,0.0052520420051943,-0.00089437532880161,0.00089437534734613,-1.597581259695e-11,6.074646064909e-11,1.4935162188106e-10,-1.2824115349726e-10,-0.0010914790362428,0.0010914788292536,-0.001091478863501,0.0010914790342084,-0.0010914788599236,0.0010914789748168,-0.001091479009043,0.0010914788680044,-0.00098963145947443,0.00098963191531898,-0.00098963185487186,0.0009896315307829,-9.4773056458667e-10,1.0601307999376e-09,-3.6816545642257e-10,4.7645520080538e-10,-0.00089437529183538,0.0008943753829173,-0.0010914794852444,0.001091478363601,-0.0010914790703809,0.0010914788106482,-0.0010914785703467,0.0010914792782573,-0.001091478480142,0.0010914794170563,-0.00098963143660031,0.00098963194494526,-0.00098963106665842,0.00098963233528242,-0.00089606866713603,0.00089606742757025,-0.00089606704215329,0.00089606906144837,1.1473156914696e-10,-2.3947360383402e-10,-0.0012847255027366,0.001284725368372,8.5566046442487e-10,-1.0032630968246e-09,-0.0015040388054393,0.001504039269011,-0.0015040392933595,0.0015040387843222,-0.0015040387726582,0.0015040393163332,-0.0015040395551369,0.0015040384956512,-0.0012014808199909,0.0012014792508782,-0.0012014801293923,0.0012014801440288,0.59263757358155,131329,3014,0.0037218541804213,0.0037218541774865,0.0053362502001884,37.936403085587,6.5891224684699e-05,6.5891224684699e-05,6.5891224684699e-05,4813551.8849457,0.012863365974383
11419200,0.90971351276293,0.013294666473578,0.0040052959455752,0.0040052959447196,0.0052840745832836,-0.00089860980973876,0.00089860987179938,2.5442322372163e-11,7.605060097105e-11,2.910768624193e-10,-2.1809525081038e-10,-0.0010976464505274,0.00109764654694,-0.0010976464656562,0.0010976465550385,-0.0010976465332705,0.001097646444912,-0.0010976465062345,0.0010976465209202,-0.00099435313189466,0.00099435299236268,-0.00099435296155889,0.00099435318237801,-8.8433195624886e-10,1.0315753386348e-09,-4.2896039251218e-10,5.7658861644596e-10,-0.00089860977996012,0.0008986098996183,-0.0010976469551976,0.0010976460121656,-0.001097646667599,0.0010976463254718,-0.0010976462663471,0.0010976467395555,-0.0010976459365436,0.0010976471216029,-0.00099435315465556,0.00099435293020855,-0.00099435205580818,0.00099435406597526,-0.00090012576369546,0.00090012415756512,-0.00090012371968613,0.00090012627403455,1.4103519205993e-10,-2.5297919001234e-10,-0.0012925585586706,0.0012925584305956,8.9630114676227e-10,-1.0329222955505e-09,-0.0015139535417695,0.0015139542089179,-0.0015139542296172,0.0015139535175985,-0.0015139537090017,0.0015139540720946,-0.0015139543540667,0.0015139534342967,-0.0012083511456076,0.0012083500841381,-0.0012083509101173,0.0012083503751708,0.59626754409183,131329,3014,0.0037394669325152,0.0037394669283983,0.0053686792557398,37.863718923717,6.5309751389733e-05,6.5309751389733e-05,6.5309751389733e-05,4816640.1695866,0.01293191650604
11619200,0.91581576171425,0.013363354196303,0.0040248151370219,0.0040248151365398,0.0053137239227418,-0.00090213986047965,0.00090213987713784,-1.0645006331775e-11,5.4642011753461e-11,2.5475301473498e-10,-2.3447813073641e-10,-0.001102927000205,0.0011029269258515,-0.001102926880612,0.0011029270627909,-0.0011029269512228,0.0011029269480584,-0.001102927040599,0.0011029268848021,-0.00099835174902597,0.00099835199283878,-0.00099835196815501,0.00099835175897002,-9.2423923049415e-10,1.0414399353278e-09,-4.8090769380411e-10,5.952534777831e-10,-0.000902139821129,0.00090213991550966,-0.0011029275175918,0.0011029263928963,-0.0011029270769142,0.00110292685293,-0.0011029266717695,0.0011029272400133,-0.0011029264413837,0.0011029275019744,-0.00099835179283641,0.00099835191674986,-0.00099835102655679,0.00099835268987719,-0.00090350616868553,0.00090350489780108,-0.00090350441791975,0.00090350663458597,1.244747993215e-10,-2.660661356269e-10,-0.0012993563546131,0.0012993562013916,9.3094527679023e-10,-1.0967615137768e-09,-0.0015226608958782,0.0015226614691188,-0.001522661499152,0.0015226608668891,-0.0015226609305191,0.0015226614416768,-0.0015226617185137,0.0015226606267133,-0.0012142842397794,0.0012142827704827,-0.0012142837089608,0.0012142834934506,0.59873866949308,131329,3014,0.0037541520494283,0.0037541520473797,0.0053968202781033,37.583401288414,6.3067210307312e-05,6.3067210307312e-05,6.3067210307312e-05,4813653.3987667,0.012990194775099
11819200,0.92136155894979,0.013426279162986,0.0040427254986284,0.0040427254981338,0.0053408281662239,-0.0009048381159012,0.00090483813325957,-1.5437498924416e-11,5.8930209193149e-11,2.213764124555e-10,-2.0176795992144e-10,-0.0011071784511706,0.0011071784393027,-0.0011071784162109,0.0011071784900136,-0.0011071784684235,0.0011071783953656,-0.0011071784666644,0.0011071784227916,-0.0010014862382966,0.0010014862110307,-0.0010014861712513,0.0010014862753933,-9.1994829108317e-10,1.036622384372e-09,-5.0447849557972e-10,6.1986945847995e-10,-0.00090483807693892,0.0009048381712193,-0.0011071789629717,0.0011071779123705,-0.0011071785938289,0.0011071782996114,-0.0011071782083498,0.001107178667878,-0.0011071778736337,0.0011071790338057,-0.0010014863149689,0.0010014861055122,-0.0010014852213168,0.0010014872166879,-0.00090608561034081,0.00090608410278702,-0.00090608361037805,0.00090608609571919,1.2256067073799e-10,-2.7151431677694e-10,-0.0013049534631213,0.0013049533055477,9.498361217173e-10,-1.123092014604e-09,-0.0015299806878849,0.001529981359907,-0.0015299813918272,0.0015299806566101,-0.0015299808086443,0.0015299812446698,-0.0015299815264523,0.0015299805009597,-0.0012191221092584,0.0012191208626868,-0.0012191218248495,0.001219121337854,0.60218599604254,131329,3014,0.0037653806687697,0.0037653806666707,0.0054199887618403,37.031978838085,5.8655830704676e-05,5.8655830704676e-05,5.8655830704676e-05,4803632.6339281,0.013036433573569
12019200,0.92644895933882,0.013486055769552,0.0040598310469794,0.0040598310464902,0.0053663936760823,-0.00090759029143767,0.00090759030973614,-1.8264255421887e-11,6.2061064253558e-11,2.0724058117779e-10,-1.8683571988524e-10,-0.0011113194032053,0.001111319370782,-0.0011113193564241,0.0011113194329858,-0.0011113194001896,0.0011113193467053,-0.0011113194063287,0.0011113193666005,-0.0010047463905572,0.0010047464054467,-0.0010047463487505,0.001004746429719,-8.9611584864727e-10,1.0096805146942e-09,-5.318663831605e-10,6.4237317993895e-10,-0.00090759025407089,0.00090759034630145,-0.0011113199095141,0.0011113188481579,-0.0011113195140363,0.0011113192619234,-0.0011113191620753,0.0011113195976452,-0.0011113188203553,0.0011113199706948,-0.0010047465046808,0.0010047462591917,-0.0010047453961141,0.0010047473740478,-0.00090880290853481,0.00090880149276684,-0.00090880099032113,0.00090880340519585,1.2566761282304e-10,-2.749499692907e-10,-0.0013103739117925,0.0013103737515955,9.7387098149824e-10,-1.1483025635861e-09,-0.0015369651219036,0.0015369658001854,-0.0015369658347572,0.0015369650871869,-0.0015369652375366,0.0015369656897503,-0.0015369659798711,0.0015369649236034,-0.0012239078387805,0.0012239065594861,-0.0012239075287602,0.0012239070482731,0.61930376269216,131329,3014,0.0037768314391443,0.0037768314374658,0.0054424258127593,36.630058322398,5.5440466579184e-05,5.5440466579184e-05,5.5440466579184e-05,4795304.1837878,0.013082382698064
12219200,0.93121131673141,0.013544080817126,0.0040765161472315,0.0040765161467493,0.0053910485231456,-0.00091085065331257,0.00091085067087273,-2.4233032432788e-11,6.5763292417735e-11,1.8391300852501e-10,-1.6467315593636e-10,-0.0011158955887132,0.001115895512694,-0.0011158955131116,0.0011158956036143,-0.0011158955450729,0.0011158955289281,-0.0011158955735328,0.0011158955263024,-0.0010086108786038,0.001008610986203,-0.0010086109135944,0.0010086109323012,-9.0123267655877e-10,1.0125968560376e-09,-5.6682450905704e-10,6.7460551382784e-10,-0.00091085061632181,0.00091085070710053,-0.0011158960986071,0.00111589498629,-0.0011158956554504,0.001115895448103,-0.0011158953230161,0.0011158957635601,-0.0011158949845552,0.0011158961332057,-0.0010086110279501,0.0010086108041303,-0.0010086099400227,0.0010086118982667,-0.00091212515742392,0.00091212383801329,-0.0009121233175001,0.00091212567635366,1.2480823925279e-10,-2.7860177861279e-10,-0.0013162081847293,0.0013162080199472,1.0062673736342e-09,-1.1857780155309e-09,-0.0015442730246685,0.0015442736979738,-0.001544273735784,0.0015442729860478,-0.0015442731160354,0.0015442736108629,-0.001544273906683,0.0015442727967162,-0.0012292150700158,0.0012292136790389,-0.0012292146727707,0.0012292142533107,0.6379052013381,131329,3014,0.0037903927321804,0.0037903927305818,0.0054665751857405,36.590830782064,5.5126646256513e-05,5.5126646256513e-05,5.5126646256513e-05,4791521.5242869,0.013134346602639
12419200,0.93570771000082,0.013596888368245,0.0040916314865092,0.004091631486026,0.0054136253957095,-0.00091411408158468,0.00091411410408057,-1.3047487996433e-11,6.3191521836502e-11,2.6356338429012e-10,-2.3789387185845e-10,-0.0011204961675796,0.0011204961663696,-0.0011204961213023,0.0011204962359768,-0.0011204961925598,0.0011204961140264,-0.0011204962087535,0.0011204961361184,-0.0010123734690731,0.0010123734734163,-0.0010123734591011,0.0010123734785517,-8.1009560465372e-10,9.2276540289484e-10,-6.0391532598378e-10,7.1422092172073e-10,-0.00091411404677598,0.0009141141378903,-0.0011204966873302,0.0011204956260155,-0.0011204962441815,0.0011204960959497,-0.001120495993858,0.0011204963293993,-0.0011204956142582,0.0011204967534908,-0.0010123736722971,0.0010123732442185,-0.0010123724456683,0.0010123744865879,-0.00091543431303742,0.00091543312986122,-0.00091543258899914,0.00091543486432563,1.410343415565e-10,-2.8918932305292e-10,-0.0013219466305255,0.0013219464703051,1.0378972045117e-09,-1.2123142870719e-09,-0.0015514480812283,0.0015514488053729,-0.0015514488313377,0.0015514480511355,-0.0015514482048989,0.001551448692769,-0.0015514489963807,0.0015514478847977,-0.0012344333747315,0.0012344319991259,-0.0012344330073101,0.0012344325320289,0.61827140719681,131329,3014,0.0038039674785095,0.0038039674764084,0.0054903254455952,36.717606816654,5.6140854533236e-05,5.6140854533236e-05,5.6140854533236e-05,4789079.6182868,0.013185937417766
12619200,0.93989560524812,0.013643167736745,0.0041047791956462,0.004104779195216,0.0054336093458833,-0.00091661667518628,0.00091661668821454,-3.2200355360071e-11,6.8644274405713e-11,1.5949825476133e-10,-1.4498730109042e-10,-0.0011242478241978,0.001124247719504,-0.0011242477344071,0.0011242478195892,-0.0011242477587278,0.001124247757899,-0.001124247789161,0.0011242477458505,-0.0010151886934926,0.0010151888340966,-0.0010151887485438,0.0010151887642148,-8.6624731402888e-10,9.7590558153195e-10,-6.1683926335065e-10,7.2430538868674e-10,-0.00091661663709987,0.00091661672542733,-0.0011242483313039,0.0011242471989306,-0.0011242478446,0.0011242476999932,-0.0011242475693283,0.0011242479572196,-0.0011242472029586,0.0011242483470654,-0.0010151888984218,0.0010151885905935,-0.001015187745728,0.0010151897535078,-0.00091788791690591,0.00091788673043143,-0.00091788616329648,0.00091788845866953,1.2358878191814e-10,-2.938876271112e-10,-0.0013266856218419,0.0013266854427009,1.0457789302009e-09,-1.2417324468379e-09,-0.0015575212107523,0.0015575219029051,-0.001557521946576,0.001557521166929,-0.0015575212969926,0.0015575218163159,-0.0015575221262171,0.0015575209596479,-0.0012386146349732,0.0012386131493599,-0.0012386142032388,0.0012386137776635,0.58731727506421,131329,3014,0.0038143799071501,0.0038143799053257,0.0055099380075086,36.603354290115,5.5226834320917e-05,5.5226834320917e-05,5.5226834320917e-05,4785238.4080382,0.013226926569241
12819200,0.94379127247783,0.013686628388401,0.0041171536191231,0.0041171536186566,0.0054523211506213,-0.00091892490431932,0.00091892492268915,-3.4418335808173e-11,7.7514470868476e-11,1.2438012180207e-10,-1.0375835419468e-10,-0.0011276341554353,0.0011276340020866,-0.0011276340417562,0.0011276341306098,-0.0011276340416502,0.0011276340884796,-0.0011276340938713,0.0011276340619901,-0.001017805117968,0.0010178053422958,-0.0010178052334884,0.0010178052149496,-8.5735838595206e-10,9.6733949601594e-10,-6.2268310779626e-10,7.3028642131218e-10,-0.00091892486878457,0.00091892495738551,-0.0011276346475914,0.0011276334941772,-0.0011276341366355,0.0011276340240139,-0.0011276338708414,0.0011276342711822,-0.0011276335261758,0.0011276346471211,-0.001017805346586,0.0010178050824491,-0.0010178042500615,0.0010178061906868,-0.00092013103315328,0.00092012992844352,-0.00092012936527771,0.00092013158230066,1.2624541923028e-10,-2.9297226931004e-10,-0.0013310367884656,0.0013310366124467,1.0549398478118e-09,-1.2477715702292e-09,-0.0015630648833232,0.0015630655585359,-0.0015630655997028,0.0015630648395733,-0.0015630649479639,0.0015630654958915,-0.0015630658069301,0.0015630646142036,-0.0012424362841783,0.0012424347167221,-0.0012424357670514,0.0012424354157216,0.5913507391965,131329,3014,0.003823981166684,0.0038239811649296,0.0055279478506477,36.464344412182,5.4114755297454e-05,5.4114755297454e-05,5.4114755297454e-05,4785398.7081747,0.013264645449979
13019200,0.94733538297796,0.013726334014534,0.0041284701940909,0.0041284701936289,0.0054693936268146,-0.00092026394898743,0.00092026397327214,-3.7570130199488e-11,8.7124285442296e-11,7.4105580301861e-11,-4.662709128025e-11,-0.0011299189157042,0.0011299187739876,-0.0011299188432768,0.0011299188594822,-0.0011299188127814,0.0011299188513809,-0.0011299188139987,0.0011299188752945,-0.0010193984420877,0.0010193985480228,-0.0010193983995129,0.001019398587714,-8.3111182350157e-10,9.4310483356861e-10,-6.0384823598922e-10,7.1483697870582e-10,-0.00092026391542539,0.00092026400585553,-0.001129919376096,0.0011299182976864,-0.0011299189218935,0.0011299187691914,-0.001129918663037,0.0011299190136607,-0.0011299182825034,0.001129919424368,-0.0010193986730598,0.0010193982828757,-0.0010193974657656,0.001019399510574,-0.00092140011470647,0.00092139891189466,-0.00092139836028475,0.00092140066172964,1.2567493601109e-10,-2.9334725226633e-10,-0.0013341405576449,0.0013341403813364,1.0349575654039e-09,-1.2283763142115e-09,-0.0015672386729694,0.0015672393796145,-0.0015672394209536,0.0015672386276625,-0.0015672387832496,0.0015672392711669,-0.0015672395855108,0.0015672384511268,-0.0012450770507306,0.0012450756346605,-0.0012450766669147,0.001245076186081,0.59303210732649,131329,3014,0.0038295562388642,0.0038295562368168,0.0055407927884499,35.904309464195,4.9634475713564e-05,4.9634475713564e-05,4.9634475713564e-05,4775363.3203927,0.013288970877099
13219200,0.95053661504545,0.013762390695724,0.0041387638251894,0.0041387638247405,0.0054848630457936,-0.00092110032117824,0.00092110035923509,-2.3355427860652e-11,1.046660849053e-10,3.84310491343e-11,1.0101521140757e-11,-0.0011315840997479,0.0011315837421885,-0.0011315838850856,0.0011315840149681,-0.0011315837914002,0.0011315840171793,-0.0011315839751203,0.0011315839172881,-0.0010204564737105,0.0010204570652565,-0.0010204569504725,0.0010204566335004,-7.9491606712622e-10,9.1005667846853e-10,-5.7131646523849e-10,6.8589528132385e-10,-0.00092110029389829,0.00092110038479137,-0.0011315845170049,0.0011315833036699,-0.0011315839439351,0.0011315839351346,-0.0011315836587082,0.0011315841685095,-0.0011315834900037,0.0011315844329448,-0.0010204567803869,0.0010204568545731,-0.0010204560934371,0.0010204575682848,-0.0009221727728586,0.00092217203092445,-0.00092217153131545,0.00092217332269668,1.5540798615741e-10,-2.7499742184106e-10,-0.0013365136189765,0.0013365134856543,1.0314739902365e-09,-1.1762647651836e-09,-0.0015705631473494,0.0015705637141654,-0.0015705637067759,0.0015705631309536,-0.0015705630981608,0.0015705637713966,-0.0015705640462276,0.001570562816992,-0.0012470491869791,0.0012470473132373,-0.0012470483488589,0.0012470483832133,0.59512913339027,131329,3014,0.003833042334719,0.0038330423310644,0.0055506128278449,35.181891867469,4.385513493975e-05,4.385513493975e-05,4.385513493975e-05,4761308.5962054,0.013305996712752
13419200,0.953432573702,0.013794452253983,0.0041479070960144,0.0041479070956897,0.0054986380622791,-0.00092169738340585,0.00092169740459791,-3.5969299691997e-11,8.6604146832174e-11,5.4567401179821e-11,-2.8712916251883e-11,-0.001132934140017,0.001132934099049,-0.0011329341922045,0.0011329340678781,-0.0011329341402545,0.0011329340703723,-0.0011329340242527,0.0011329342200659,-0.0010212271688336,0.001021226886213,-0.0010212267301289,0.0010212273117739,-7.0791586291974e-10,8.0898939393301e-10,-5.4959837198707e-10,6.5029018570908e-10,-0.00092169735280749,0.00092169743426336,-0.0011329345347513,0.0011329336897349,-0.0011329342451102,0.001132934004052,-0.0011329340212485,0.0011329342005357,-0.0011329335643565,0.0011329346971579,-0.0010212274026545,0.0010212266328075,-0.0010212259068859,0.0010212281336357,-0.00092270327218924,0.00092270188041977,-0.0009227013768593,0.00092270376404902,1.474626935277e-10,-2.992588202014e-10,-0.0013384700983382,0.001338469932648,9.8070308792914e-10,-1.1579615938623e-09,-0.0015733772183476,0.0015733780214818,-0.0015733780397537,0.0015733771879161,-0.0015733774511766,0.0015733777834045,-0.001573378095141,0.0015733771231491,-0.0012486416560262,0.0012486406275922,-0.0012486416149901,0.0012486408558465,0.58608787947134,131329,3014,0.0038355334039029,0.0038355334019489,0.0055587082293598,34.451283387405,3.8010267099236e-05,3.8010267099236e-05,3.8010267099236e-05,4746758.9204085,0.013319257798211
13619200,0.95608419955752,0.013823414332776,0.004156162858197,0.004156162857869,0.0055110886167102,-0.00092245588854063,0.00092245592201628,-3.5998506946794e-11,9.8060759781689e-11,2.9041846820927e-11,1.0007220345111e-11,-0.0011343762278399,0.001134376193616,-0.001134376292121,0.0011343761437142,-0.001134376227409,0.0011343761691782,-0.0011343760872699,0.0011343763394077,-0.0010221381556808,0.0010221378509629,-0.0010221376541647,0.0010221383326251,-7.0903694048816e-10,8.170903927582e-10,-5.204792118929e-10,6.283156719406e-10,-0.00092245586108486,0.00092245594862932,-0.0011343766048603,0.0011343757991904,-0.0011343763472374,0.0011343760752562,-0.0011343761119549,0.0011343762985466,-0.0011343756498994,0.0011343767954004,-0.0010221383632774,0.001022137606231,-0.0010221368761975,0.001022139098554,-0.00092339271462375,0.00092339126390664,-0.00092339078117131,0.00092339319931659,1.4867619998532e-10,-2.9904148937012e-10,-0.0013404759153808,0.0013404757509,9.5566357860426e-10,-1.1318527949976e-09,-0.0015761604703126,0.0015761612748329,-0.001576161298437,0.0015761604367035,-0.001576160729536,0.001576161015414,-0.0015761613367388,0.0015761604010553,-0.0012503034189593,0.0012503025289536,-0.0012503034706635,0.0012503026184391,0.57890326215596,131329,3014,0.0038386932332658,0.0038386932315032,0.0055670092633446,33.906846673047,3.365477338438e-05,3.365477338438e-05,3.365477338438e-05,4737628.2615392,0.013334081607926
13819200,0.95853480732129,0.013850185298018,0.0041638022299059,0.004163802229594,0.0055225808385185,-0.00092334768776402,0.00092334771468475,-4.642903894826e-11,9.9746721953172e-11,6.9237019562461e-12,2.4492208162206e-11,-0.0011358909673461,0.0011358908605659,-0.0011358909758618,0.00113589086491,-0.0011358909042069,0.0011358908975563,-0.0011358908099378,0.0011358910177281,-0.0010231825425134,0.0010231824124032,-0.0010231822083775,0.0010231827239436,-7.3528420446797e-10,8.3861975433775e-10,-5.026801995849e-10,6.0510226138772e-10,-0.00092334765903552,0.00092334774267096,-0.0011358913372689,0.0011358904761312,-0.0011358910413573,0.001135890788631,-0.0011358907750529,0.0011358910378733,-0.0011358903765654,0.0011358914670698,-0.0010231827255926,0.0010231821992676,-0.001023181454328,0.0010231834716204,-0.00092422279254018,0.00092422144893139,-0.00092422097859011,0.00092422325540564,1.4673242530748e-10,-3.011736457048e-10,-0.0013425274695795,0.0013425273028198,9.3408661964789e-10,-1.1138987291878e-09,-0.0015789211444108,0.0015789218877038,-0.00157892191026,0.0015789211123427,-0.0015789213523739,0.0015789216748101,-0.0015789219936868,0.0015789210207355,-0.0012520344016333,0.0012520333663561,-0.0012520343099089,0.0012520336233441,0.57842618775765,131329,3014,0.0038424052170546,0.003842405215503,0.0055755006594316,33.506816963635,3.0454535709084e-05,3.0454535709084e-05,3.0454535709084e-05,4732476.2198604,0.013350216702648
14019200,0.96083740482014,0.013875351542391,0.0041709896328206,0.0041709896325063,0.005533372277064,-0.00092464739640715,0.00092464742087035,-4.0701541625254e-11,9.2771494923923e-11,8.5337153714414e-11,-5.6536947158602e-11,-0.0011377919715202,0.0011377918362277,-0.001137791908825,0.001137791917672,-0.0011377918801025,0.0011377919002229,-0.0011377918705239,0.0011377919433238,-0.0010246549905651,0.0010246550695911,-0.001024654930961,0.001024655116314,-7.0324986791173e-10,8.046534169217e-10,-4.9398498570301e-10,5.9462283836152e-10,-0.00092464736739728,0.0009246474490527,-0.0011377923541554,0.0011377914378642,-0.0011377919898215,0.0011377918243313,-0.0011377917338997,0.0011377920588554,-0.001137791423513,0.0011377924083466,-0.0010246551612077,0.0010246548805805,-0.0010246541629747,0.0010246558847191,-0.00092548177356324,0.00092548072474587,-0.00092548026672651,0.0009254822320301,1.6269340671046e-10,-3.1083684632418e-10,-0.0013449639581573,0.0013449637975885,9.2896619369104e-10,-1.1024780811102e-09,-0.0015820288460224,0.0015820295203796,-0.001582029528356,0.0015820288268892,-0.0015820289853091,0.0015820293783182,-0.0015820296985062,0.0015820286530512,-0.0012541706067837,0.0012541692975211,-0.0012541702372033,0.0012541698416179,0.57821464370273,131329,3014,0.0038478106642132,0.0038478106624778,0.0055855861524593,33.390779996281,2.9526239970252e-05,2.9526239970252e-05,2.9526239970252e-05,4733109.7009967,0.01337140003602
14219200,0.96299650067414,0.013898000888258,0.0041774263339217,0.0041774263336179,0.0055431482207188,-0.00092573709743634,0.00092573711773025,-4.5665844528031e-11,9.2584255614543e-11,1.0986880534812e-10,-8.6217740871905e-11,-0.001139460027064,0.0011394598714315,-0.001139459926997,0.0011394599889366,-0.001139459919478,0.0011394599515706,-0.001139459942595,0.0011394599591863,-0.0010258643215261,0.0010258644857903,-0.0010258643675097,0.001025864429485,-7.2807376580232e-10,8.2974913254606e-10,-4.835494065561e-10,5.8459674198822e-10,-0.00092573706638048,0.00092573714792433,-0.0011394604221941,0.0011394594614974,-0.0011394600288935,0.0011394598758414,-0.0011394597501822,0.001139460132708,-0.0011394594806561,0.0011394604382935,-0.0010258644557834,0.0010258643273797,-0.001025863590216,0.0010258652022843,-0.00092651122108058,0.00092651022679001,-0.00092650976773884,0.00092651166942129,1.6472690064744e-10,-3.1657207594038e-10,-0.0013471045070972,0.0013471043441039,9.1721487745039e-10,-1.0940358162803e-09,-0.0015848054243582,0.0015848060587813,-0.0015848060646373,0.0015848054079243,-0.0015848055300791,0.0015848059490089,-0.0015848062712927,0.0015848051932749,-0.0012560111113504,0.0012560096661942,-0.0012560106055697,0.0012560103532654,0.55856767871438,131329,3014,0.0038523436329253,0.0038523436311206,0.0055944461738803,33.233618826249,2.826895060999e-05,2.826895060999e-05,2.826895060999e-05,4732766.0537031,0.013389573194926
14419200,0.96500831556802,0.013919369252583,0.0041835133784898,0.0041835133781879,0.005552342495905,-0.00092654658844431,0.00092654661116156,-5.4495185150677e-11,1.0486055431734e-10,9.5910529410927e-11,-6.9387062419931e-11,-0.0011407471981782,0.0011407470888921,-0.001140747151074,0.0011407471519341,-0.0011407471431023,0.0011407471175899,-0.0011407470983308,0.0011407471919171,-0.0010267886794355,0.0010267886362745,-0.0010267885067604,0.0010267887981269,-7.8759317977188e-10,8.9369712816252e-10,-4.6827114090646e-10,5.7345391753971e-10,-0.00092654655681085,0.00092654664191346,-0.0011407475999791,0.0011407466725234,-0.0011407472752784,0.0011407470165016,-0.0011407469495196,0.0011407473229814,-0.0011407466278727,0.0011407476795232,-0.0010267887759062,0.0010267885185241,-0.0010267877379522,0.0010267895645655,-0.00092724653051459,0.00092724521933818,-0.00092724476619954,0.00092724697434231,1.6100928762973e-10,-3.1174622471977e-10,-0.0013488477392892,0.0013488475773134,9.0313300531839e-10,-1.0786140160822e-09,-0.0015871076874276,0.0015871083696258,-0.0015871083778786,0.0015871076683065,-0.0015871078503768,0.0015871082017091,-0.0015871085223912,0.0015871075172715,-0.001257466780435,0.0012574655354032,-0.001257466463583,0.0012574660289547,0.56383594541767,131329,3014,0.0038557108226823,0.0038557108208366,0.0056016629425713,32.955276143571,2.6042209148566e-05,2.6042209148566e-05,2.6042209148566e-05,4732434.7406149,0.013403715979926
14619200,0.96679771083507,0.013938498658923,0.004188969687131,0.0041889696868343,0.005560559284958,-0.00092570887948889,0.00092570889942224,-6.0052839897551e-11,1.0607734205707e-10,8.4498829442292e-11,-6.1402968681456e-11,-0.0011402672102102,0.0011402670543942,-0.0011402671238312,0.0011402671576686,-0.001140267112445,0.0011402671259147,-0.0011402671032852,0.0011402671646939,-0.0010259810876542,0.0010259811619635,-0.0010259810272821,0.0010259812132943,-7.8237492742897e-10,8.8613998666219e-10,-4.3007223706815e-10,5.3226912857238e-10,-0.00092570884763764,0.00092570893041398,-0.0011402675926704,0.0011402666576688,-0.0011402672575339,0.0011402670127844,-0.0011402669100303,0.0011402673401119,-0.0011402666529932,0.0011402676321399,-0.001025981144637,0.0010259810795579,-0.0010259803036658,0.0010259819310952,-0.00092630197051848,0.00092630076055749,-0.00092630033085152,0.00092630238453428,1.6520650340766e-10,-3.1317402121921e-10,-0.0013486678450076,0.0013486676863303,8.6480353037518e-10,-1.037111598982e-09,-0.0015873856219882,0.0015873862481689,-0.0015873862496131,0.0015873856096303,-0.0015873857508077,0.0015873861143218,-0.0015873864317809,0.0015873854191922,-0.0012570462547074,0.0012570449294284,-0.0012570458274831,0.0012570455351753,0.56645707384291,131329,3014,0.0038522371226401,0.0038522371208415,0.0056009168722804,31.820769775874,1.6966158206991e-05,1.6966158206991e-05,1.6966158206991e-05,4712656.1407827,0.013395921800673
14819200,0.96840983222683,0.013955874266758,0.0041939382887859,0.0041939382884915,0.0055679976894811,-0.00092509240411783,0.00092509243374536,-4.7917219220668e-11,1.0785325548061e-10,1.3841044500886e-10,-1.0394184205984e-10,-0.0011399646541147,0.0011399645679991,-0.0011399646062949,0.0011399646411409,-0.0011399646171195,0.0011399645798642,-0.0011399645849743,0.001139964655859,-0.0010254091201389,0.0010254090791799,-0.0010254089771866,0.0010254092215206,-7.3608797609879e-10,8.4393409128252e-10,-3.9616647722154e-10,5.0349870544488e-10,-0.00092509237513908,0.00092509246175139,-0.0011399650282685,0.0011399641745714,-0.0011399647495232,0.0011399644816633,-0.0011399644087417,0.0011399648046717,-0.0011399641468724,0.0011399651161887,-0.0010254091585737,0.0010254090227388,-0.0010254082817726,0.0010254099152915,-0.00092560228449025,0.00092560104310376,-0.00092560064851324,0.00092560269220374,1.8656913285282e-10,-3.15310311957e-10,-0.0013486351879989,0.0013486350452867,8.4591052398474e-10,-9.992229047791e-10,-0.00158775714111,0.0015877577949726,-0.0015877577787395,0.0015877571438065,-0.0015877573111413,0.0015877576284653,-0.001587757946351,0.0015877569893455,-0.0012568095426149,0.0012568083258424,-0.0012568091767647,0.001256808845333,0.56962156903052,131329,3014,0.003849681538309,0.0038496815362611,0.0056007807583206,30.868892508626,9.3511400690096e-06,9.3511400690096e-06,9.3511400690096e-06,4695974.3726478,0.013390606748087
15019200,0.96983335523113,0.01397116509846,0.0041983140674448,0.0041983140671746,0.0055745369638407,-0.00092365703053831,0.00092365705204565,-6.7310010637143e-11,1.1545224642489e-10,6.8744959506323e-11,-4.3659525878512e-11,-0.0011387716110187,0.0011387714366471,-0.0011387715175379,0.0011387715509904,-0.0011387714993349,0.0011387715225006,-0.0011387714902533,0.0011387715659657,-0.0010239646588134,0.0010239647405281,-0.0010239645965827,0.0010239647986469,-7.8564469954855e-10,8.8980826002911e-10,-3.6721626019559e-10,4.6985973410064e-10,-0.00092365699934766,0.00092365708233566,-0.0011387719656703,0.0011387710669728,-0.0011387716705921,0.0011387713856594,-0.0011387712788211,0.0011387717559677,-0.0011387710693066,0.0011387720053681,-0.001023964652788,0.0010239647236995,-0.0010239639469543,0.0010239654431924,-0.00092406913811206,0.00092406788888913,-0.00092406750149167,0.00092406951154367,1.7379238382079e-10,-3.1316020405308e-10,-0.0013476382705474,0.001347638120402,8.0552273683332e-10,-9.6855140880166e-10,-0.0015870899314488,0.0015870905226969,-0.0015870905123343,0.0015870899297108,-0.0015870900605413,0.0015870903910341,-0.0015870907031045,0.0015870897359876,-0.0012556390031682,0.0012556377105643,-0.0012556385566598,0.0012556383336782,0.56738228938845,131329,3014,0.0038437247607419,0.0038437247588533,0.0055966519806549,29.522770977894,-1.4178321768508e-06,-1.4178321768508e-06,-1.4178321768508e-06,4671137.1882185,0.013374350890472
15219200,0.97100285833813,0.013983127698606,0.0042017208942627,0.0042017208939973,0.0055796859103458,-0.00091973569189677,0.00091973565603529,-1.2759866206611e-10,9.2556313850498e-11,-1.1024831134271e-10,6.6620325500668e-11,-0.0011349257798137,0.0011349254892407,-0.0011349256755055,0.0011349255751068,-0.0011349255983875,0.0011349256380569,-0.0011349255333227,0.0011349256673131,-0.0010198786276897,0.001019878691183,-0.0010198784424144,0.0010198788152088,-8.5265061923448e-10,9.2208072813104e-10,-3.3319979639314e-10,3.9660121687879e-10,-0.00091973564712157,0.00091973570085809,-0.0011349260840462,0.0011349251963265,-0.0011349258245316,0.0011349254404808,-0.0011349253645984,0.0011349258609978,-0.0011349251425762,0.0011349260479496,-0.001019878544193,0.0010198787076598,-0.0010198778833026,0.0010198793443784,-0.00091996891150894,0.00091996747305962,-0.00091996707031847,0.00091996915496521,1.2092762127359e-10,-3.3786345620921e-10,-0.0013438588551539,0.0013438586423153,7.0620986380283e-10,-9.4364958897633e-10,-0.0015834928060999,0.0015834933364944,-0.0015834933695567,0.0015834927725699,-0.0015834929253495,0.0015834931654445,-0.0015834934907012,0.0015834925354077,-0.0012517071500417,0.0012517059149407,-0.0012517068295399,0.0012517065344347,0.5439144668405,131329,3014,0.0038274428012594,0.0038274428014082,0.0055810022529773,26.878146032097,-2.2574831743227e-05,-2.2574831743227e-05,-2.2574831743227e-05,4621459.2790115,0.013325490095729
15419200,0.97206745856588,0.013995772089949,0.0042053959746797,0.0042053959743339,0.0055849801409355,-0.00091886576320213,0.00091886577974286,-7.984347854242e-11,1.20301778775e-10,2.8317552682909e-11,-9.3713890928489e-12,-0.0011341332355778,0.0011341330367268,-0.0011341331428252,0.0011341331422459,-0.0011341331083444,0.0011341331373324,-0.0011341330775928,0.0011341331908658,-0.0010190661460006,0.0010190661982434,-0.0010190660231649,0.0010190662957701,-7.717981877085e-10,8.6746543289229e-10,-3.0800302543912e-10,4.0324729284739e-10,-0.00091886573219693,0.00091886581010251,-0.0011341335490907,0.0011341327112224,-0.00113413330213,0.0011341329732361,-0.0011341328805956,0.0011341333748078,-0.0011341326961332,0.0011341335860177,-0.0010190660878679,0.0010190662298166,-0.0010190654663176,0.0010190668481444,-0.00091904233961604,0.00091904104151114,-0.00091904070814995,0.00091904265782784,1.7579892893398e-10,-3.1879496556204e-10,-0.0013432645097863,0.0013432643563501,7.3974928160841e-10,-9.061119785481e-10,-0.0015830753903344,0.0015830759476347,-0.0015830759379821,0.0015830753887959,-0.0015830755278896,0.0015830757994487,-0.0015830761166445,0.0015830751938813,-0.001251002559753,0.0012510013310426,-0.0012510021346511,0.0012510019342277,0.61488005148542,131329,3014,0.0038238305211114,0.0038238305197651,0.0055785435121019,25.929184548505,-3.0166523611956e-05,-3.0166523611956e-05,-3.0166523611956e-05,4608236.9009226,0.013315676269335
15619200,0.97307136738114,0.014007973470536,0.0042089513020732,0.0042089513017306,0.0055900708667319,-0.00091893904093301,0.00091893903538714,-3.9607306729849e-11,4.9107665412178e-11,4.4733277634957e-10,-4.5742872321944e-10,-0.0011344785856165,0.0011344787268714,-0.0011344785564398,0.00113447876675,-0.0011344787727094,0.0011344785147702,-0.001134478747903,0.0011344785552689,-0.00101923914421,0.0010192389359,-0.001019239059022,0.0010192390073906,-4.3134060244289e-10,5.0467968983778e-10,-3.1018077296604e-10,3.83468024388e-10,-0.00091893900814667,0.00091893906771248,-0.0011344789422295,0.0011344783557316,-0.001134478729012,0.0011344785838782,-0.0011344785355916,0.0011344787638543,-0.001134478325823,0.0011344789923503,-0.001019239086271,0.0010192389312153,-0.0010192384181255,0.0010192396147579,-0.00091916528153816,0.0009191645950937,-0.00091916427878347,0.00091916556738953,2.335224136388e-10,-3.85182113892e-10,-0.0013437175834429,0.001343717421606,7.7295947326573e-10,-9.4838449429881e-10,-0.0015838133634734,0.001583814007026,-0.0015838139684272,0.0015838133992254,-0.0015838135754145,0.0015838137947368,-0.0015838141582421,0.0015838131875507,-0.0012514243915783,0.0012514231078398,-0.0012514239185374,0.0012514237568787,0.6269526369127,131329,3014,0.0038241407517856,0.0038241407508297,0.005580415794146,25.553216865518,-3.3174265075857e-05,-3.3174265075857e-05,-3.3174265075857e-05,4595580.5350963,0.013318209062695
15819200,0.97399738600858,0.014020123986984,0.004212520150644,0.0042125201502957,0.0055950836860442,-0.00091830743423875,0.00091830747856916,-1.8955911283452e-10,2.6045659293575e-10,-6.2732924728682e-10,6.8135783295649e-10,-0.0011340831250761,0.0011340823601072,-0.001134082879821,0.0011340826194503,-0.0011340824910175,0.0011340829698951,-0.0011340824513828,0.0011340830344357,-0.001018690224886,0.0010186907227658,-0.0010186900752231,0.0010186908565382,-1.5578137558636e-09,1.7002672560852e-09,-3.6342782469119e-10,4.9775844306245e-10,-0.00091830739876028,0.00091830751311213,-0.001134083464067,0.0011340820108966,-0.0011340830968943,0.0011340823939669,-0.0011340821964889,0.0011340832729386,-0.001134082036076,0.0011340834630079,-0.0010186900706109,0.0010186908605562,-0.0010186895181469,0.0010186914161299,-0.00091858788868111,0.00091858529811389,-0.00091858486448771,0.00091858830181002,6.2593092765158e-11,-2.0794699665611e-10,-0.0013433923314909,0.0013433921784803,7.1514569064299e-10,-8.829867320085e-10,-0.0015837348959795,0.001583735297365,-0.0015837353552622,0.0015837348235105,-0.0015837348862249,0.0015837352911648,-0.0015837355334785,0.0015837346315998,-0.0012511037041342,0.0012511024863033,-0.0012511032778079,0.001251103070968,0.66920159446982,131329,3014,0.0038215242388411,0.0038215242368871,0.0055790645372213,24.790646870473,-3.9274825036217e-05,-3.9274825036217e-05,-3.9274825036217e-05,4574330.8545167,0.013311543209817
16019200,0.97488173284173,0.014031696894224,0.0042159193574689,0.0042159193571229,0.0055998581796322,-0.0009186118101726,0.00091861184921236,-1.9246192797904e-10,2.5376372957461e-10,-5.1271726448657e-10,5.579801713829e-10,-0.001134735204423,0.001134734509772,-0.0011347349599417,0.0011347347720467,-0.0011347346401238,0.0011347350500811,-0.0011347346041042,0.0011347351131224,-0.0010191147925911,0.0010191152224455,-0.001019114649946,0.001019115338181,-1.5243707632423e-09,1.6581554912839e-09,-3.9373633471026e-10,5.1855981344152e-10,-0.0009186117746426,0.00091861188419189,-0.0011347355779949,0.0011347341228769,-0.0011347351942881,0.0011347345271252,-0.001134734328713,0.0011347353721246,-0.0011347341541001,0.0011347355783257,-0.001019114636938,0.0010191153492928,-0.0010191140400087,0.0010191159452288,-0.00091901543195204,0.00091901293564921,-0.00091901250612389,0.00091901585335397,7.2675612045233e-11,-2.1462280447947e-10,-0.0013440837131587,0.0013440835604956,7.4632387217094e-10,-9.1168086774588e-10,-0.0015847282706313,0.0015847286922346,-0.0015847287453144,0.0015847281990851,-0.0015847282634943,0.001584728683217,-0.0015847289359458,0.0015847280032966,-0.001251843039203,0.001251841790865,-0.0012518425770092,0.0012518424010892,0.66743249280037,131329,3014,0.0038227973364947,0.0038227973353422,0.0055819197209895,24.592897052395,-4.0856823580839e-05,-4.0856823580839e-05,-4.0856823580839e-05,4559325.3658355,0.013317027152553
16219200,0.97575447623137,0.014043061285763,0.0042192571954202,0.0042192571950751,0.005604546895268,-0.00091988051951436,0.00091988048520473,9.2453745866233e-11,-1.0311607405119e-10,1.3423981747749e-09,-1.3866330304598e-09,-0.0011363886361538,0.0011363895225199,-0.0011363888060412,0.0011363893900322,-0.0011363895088886,0.0011363886189548,-0.0011363895016104,0.0011363886787649,-0.0010205317962951,0.0010205309210449,-0.0010205317190977,0.0010205309999703,2.3224913702381e-10,-1.8863924229439e-10,-3.3968526267422e-10,3.9021732945823e-10,-0.00091988048498313,0.00091988051892448,-0.0011363891153156,0.0011363890202416,-0.0011363889946954,0.0011363891813222,-0.0011363892473923,0.0011363889001105,-0.0011363889515026,0.0011363892554921,-0.0010205318337205,0.0010205308586197,-0.0010205308430096,0.0010205318686876,-0.00092042813315247,0.0009204284497761,-0.00092042816454542,0.00092042841461792,4.0517965009864e-10,-5.3685366266559e-10,-0.0013458038713292,0.0013458037274599,9.2417288735855e-10,-1.0813035245666e-09,-0.0015867690519625,0.0015867700016018,-0.0015867698373669,0.0015867692029234,-0.001586769466084,0.0015867695992761,-0.0015867700563916,0.001586768996033,-0.0012536073279418,0.0012536059041202,-0.0012536068254104,0.0012536066055473,0.66426058858458,131329,3014,0.0038280745395365,0.0038280745378195,0.0055890350628107,24.945545047984,-3.8035639616126e-05,-3.8035639616126e-05,-3.8035639616126e-05,4556937.382873,0.013334943577997
16419200,0.97655495969431,0.014052303403008,0.0042219376512733,0.0042219376509405,0.0056084281007945,-0.00091886465738847,0.0009188646937028,-1.9667749054943e-10,2.5464643107927e-10,-3.908869461427e-10,4.3300848118225e-10,-0.0011356647201446,0.0011356640894824,-0.0011356644603449,0.0011356643686451,-0.0011356642270031,0.0011356645600874,-0.0011356641984952,0.0011356646177472,-0.0010194856511081,0.0010194860162687,-0.0010194855412528,0.0010194861311665,-1.4933121806892e-09,1.6338236131116e-09,-4.448831499882e-10,5.7585104354442e-10,-0.00091886461891124,0.00091886473111845,-0.0011356651407343,0.0011356636547842,-0.0011356647095355,0.001135664108667,-0.0011356638997466,0.0011356648993305,-0.0011356637007635,0.0011356651331073,-0.0010194855019387,0.0010194861325649,-0.0010194848371454,0.0010194868231091,-0.00091945171957634,0.00091944936290737,-0.00091944887343055,0.00091945218998092,7.9337677994279e-11,-2.2973783678443e-10,-0.0013450466736764,0.0013450465166844,8.0108806354484e-10,-9.745978776156e-10,-0.0015862547683395,0.0015862552186126,-0.0015862552739993,0.0015862547020872,-0.0015862547590414,0.0015862552233777,-0.0015862554758474,0.0015862544927256,-0.0012528666479476,0.0012528653207473,-0.0012528661650158,0.0012528659631834,0.59982144891552,131329,3014,0.0038238638734902,0.0038238638712697,0.0055858927168855,24.071647682542,-4.5026818539666e-05,-4.5026818539666e-05,-4.5026818539666e-05,4532068.7724468,0.013323232478115
16619200,0.97731548231737,0.014062887169699,0.00422507038548,0.0042250703851442,0.0056127463990745,-0.00091896314482173,0.00091896311171504,6.7710999475445e-11,-7.8726378580821e-11,1.1319081327482e-09,-1.1737190319834e-09,-0.0011359086044993,0.0011359093633713,-0.0011359087943112,0.0011359092065831,-0.0011359093671971,0.0011359085670668,-0.0011359092976361,0.0011359086814062,-0.0010196790596266,0.0010196781482313,-0.0010196787892317,0.0010196784002597,8.6234849832722e-12,4.266847468202e-11,-3.947532955702e-10,4.4955143743229e-10,-0.00091896310778509,0.00091896314815722,-0.0011359090980021,0.0011359088516395,-0.001135908977347,0.0011359090083725,-0.0011359091046347,0.0011359088443433,-0.001135908726071,0.001135909273918,-0.0010196791292953,0.0010196780612866,-0.001019677875969,0.0010196793129051,-0.00091959752964053,0.0009195973404865,-0.00091959699901983,0.0009195978488383,3.9072699632317e-10,-5.2927835396842e-10,-0.0013454034508995,0.0013454033006032,9.4923854791395e-10,-1.1132185646429e-09,-0.0015867700632221,0.0015867710605893,-0.0015867709124833,0.0015867702048631,-0.0015867705081428,0.0015867706234874,-0.001586771067319,0.0015867700352996,-0.001253227471454,0.0012532261788561,-0.001253227148417,0.0012532267505861,0.70236009323142,131329,3014,0.0038242753659294,0.0038242753646716,0.0055873683405053,23.765643848221,-4.747484921423e-05,-4.747484921423e-05,-4.747484921423e-05,4526940.0752519,0.013325563538198
16819200,0.97804637509922,0.014073104393239,0.0042280938538561,0.0042280938535272,0.0056169166858559,-0.00091929543331945,0.00091929552593815,-2.8706341264509e-10,3.8474045432557e-10,-6.2805568327117e-10,7.2824738118945e-10,-0.0011365895619888,0.0011365886429634,-0.0011365890807652,0.0011365891048118,-0.0011365887859552,0.0011365894271109,-0.001136588794521,0.0011365894076928,-0.0010201082253149,0.0010201090621268,-0.0010201083298609,0.0010201090085004,-1.7764267286357e-09,1.9479516481919e-09,-5.1966551885039e-10,6.7504481679166e-10,-0.00091929540599934,0.00091929555277685,-0.0011365899956466,0.0011365881852426,-0.0011365893602511,0.0011365888091952,-0.0011365884593848,0.0011365897748322,-0.0011365883091457,0.001136589913897,-0.001020108024017,0.0010201091524893,-0.0010201076347008,0.0010201096305477,-0.00092007462217815,0.00092007224424593,-0.00092007173412646,0.00092007523861354,-2.3357427740733e-11,-1.360051100196e-10,-0.001346077136041,0.0013460769618505,8.2465176136652e-10,-1.007998106938e-09,-0.0015877132914318,0.0015877135329318,-0.001587713701036,0.0015877131335495,-0.0015877131079044,0.0015877137392648,-0.0015877139915117,0.0015877128830772,-0.0012539979074812,0.0012539964067547,-0.0012539971173387,0.001253997160483,0.70571912196168,131329,3014,0.0038256650674986,0.0038256650665142,0.005590149024519,23.643313794986,-4.8453489640113e-05,-4.8453489640113e-05,-4.8453489640113e-05,4512842.7821819,0.013331208644479
17019200,0.97874454708395,0.014082654942599,0.0042309153188289,0.0042309153184926,0.005620824305278,-0.00091939591775743,0.00091939595738747,-3.0156799853994e-10,3.5101592567501e-10,-4.8292746616211e-10,5.2648882912767e-10,-0.0011370346651394,0.0011370338154956,-0.0011370342172162,0.0011370342609018,-0.0011370340053313,0.0011370344592456,-0.0011370340183063,0.0011370344465328,-0.0010202766528773,0.0010202772679353,-0.0010202767130169,0.001020277219965,-1.6138357820633e-09,1.7545389734817e-09,-5.4910573710612e-10,6.7721537904712e-10,-0.00091939587972795,0.00091939599474011,-0.0011370351004829,0.0011370333688188,-0.0011370344772624,0.0011370339945921,-0.0011370336716076,0.0011370348022344,-0.0011370335079049,0.0011370349692384,-0.0010202764929722,0.0010202773723311,-0.0010202759912757,0.001020277915813,-0.00092030873502231,0.0009203065869398,-0.0009203060404711,0.000920309278892,-1.5558806395027e-11,-1.6058291877265e-10,-0.0013464926950433,0.0013464925155633,8.509875558849e-10,-1.050650087214e-09,-0.0015883835447778,0.001588383854794,-0.0015883839791751,0.0015883834125976,-0.0015883833682649,0.0015883840174663,-0.0015883842531054,0.0015883831239919,-0.0012545100335839,0.0012545084055887,-0.001254509284596,0.0012545092962082,0.69246306660967,131329,3014,0.0038260918870664,0.0038260918856678,0.0055918603346975,23.415918326015,-5.0272653391882e-05,-5.0272653391882e-05,-5.0272653391882e-05,4497529.1488722,0.013333817781209
17219200,0.97940394082852,0.01409141223105,0.0042334967289547,0.0042334967286065,0.0056244187734889,-0.00091911522275709,0.00091911527353394,-4.7421799299524e-10,5.3536133981385e-10,-6.6296554182836e-10,7.1999353086833e-10,-0.0011370467020428,0.0011370453823538,-0.0011370458884034,0.0011370461779791,-0.0011370456794811,0.0011370463930036,-0.0011370458046487,0.0011370462508883,-0.0010200242306081,0.0010200253404219,-0.0010200246432104,0.0010200249463732,-1.7671715342946e-09,1.9208666461476e-09,-5.9708421631425e-10,7.3763348153699e-10,-0.00091911518514589,0.00091911531038619,-0.0011370470900719,0.0011370449862279,-0.0011370461839794,0.0011370458797009,-0.001137045313234,0.0011370467659407,-0.001137045343638,0.0011370467204042,-0.0010200239466219,0.0010200255460616,-0.0010200240509135,0.0010200254967074,-0.00092012656981902,0.00092012486764057,-0.00092012426870914,0.00092012715906586,-1.9513326875376e-10,5.5887257976749e-12,-0.0013464699626334,0.0013464697709964,8.2641786926608e-10,-1.0389895701406e-09,-0.0015885749488437,0.0015885748824894,-0.001588575132136,0.0015885746904933,-0.0015885744158767,0.0015885753915006,-0.0015885755321553,0.0015885742746156,-0.0012545661910577,0.0012545641901412,-0.0012545650437304,0.0012545654432991,0.67476322328657,131329,3014,0.0038249344617127,0.0038249344601557,0.0055917579542334,22.992436066893,-5.3660511464853e-05,-5.3660511464853e-05,-5.3660511464853e-05,4480996.6648206,0.013331375777117
17419200,0.98003342826404,0.014099383812012,0.0042358373142947,0.0042358373139334,0.0056277091837836,-0.00091910680259394,0.00091910686533745,-6.3166897521111e-10,7.2105145854936e-10,-7.8865453120425e-10,8.6272422501418e-10,-0.0011372994491251,0.0011372976289636,-0.0011372982599596,0.0011372988419129,-0.001137298040725,0.0011372990141102,-0.0011372983616338,0.0011372987352824,-0.0010200353112182,0.0010200369656266,-0.0010200361975531,0.0010200360693886,-1.8749436383624e-09,2.0358679618463e-09,-6.4173856233156e-10,7.8979992584604e-10,-0.00091910676827491,0.00091910689913518,-0.0011372997815033,0.0011372972789434,-0.0011372985786724,0.0011372985066578,-0.0011372976430273,0.0011372994252254,-0.0011372979538077,0.0011372991651699,-0.0010200349505966,0.0010200373066017,-0.001020035754943,0.001020036520786,-0.00092019255019416,0.00092019142740474,-0.00092019081528478,0.00092019317911092,-3.3279161050356e-10,1.9712261692172e-10,-0.0013467085486264,0.0013467084022729,8.4069904207429e-10,-1.0009837182816e-09,-0.0015890045075959,0.0015890040784147,-0.0015890043870714,0.0015890041706972,-0.0015890035839885,0.0015890049858054,-0.0015890049828905,0.0015890035992417,-0.0012548573813453,0.0012548548512472,-0.0012548556861725,0.0012548566608309,0.64748129223974,131329,3014,0.0038249060465893,0.0038249060454892,0.0055927394108769,22.736198670926,-5.5710410632588e-05,-5.5710410632588e-05,-5.5710410632588e-05,4470707.6351392,0.013332318505073
17619200,0.98054670420757,0.014105609800994,0.0042376582743088,0.0042376582739574,0.0056302932527281,-0.00091441766611439,0.00091441769202533,-1.467390820453e-10,1.9339187971671e-10,-1.6492713453043e-10,1.9571521309341e-10,-0.0011325847084511,0.001132584413839,-0.0011325846383676,0.0011325844941546,-0.0011325845200903,0.0011325845802518,-0.0011325843734653,0.0011325847469091,-0.0010151143233371,0.0010151141494933,-0.0010151138459013,0.0010151146410201,-1.0756938669965e-09,1.1952498120269e-09,-5.0609697179493e-10,6.1842905978096e-10,-0.00091441763178699,0.00091441772526678,-0.0011325851062821,0.0011325840042439,-0.0011325847906932,0.0011325843323447,-0.0011325842986861,0.0011325848114421,-0.001132583908385,0.0011325852283292,-0.0010151143514417,0.0010151140789455,-0.0010151130965426,0.0010151153710265,-0.00091539181369091,0.00091538980154875,-0.00091538928610556,0.00091539228877167,1.6418559118407e-10,-3.2832840732194e-10,-0.0013418568645627,0.0013418566947466,8.992672979131e-10,-1.0873001192277e-09,-0.001584144888226,0.0015841456237158,-0.0015841456065805,0.0015841448800226,-0.0015841450931232,0.0015841453954963,-0.0015841457491926,0.0015841447430221,-0.0012500296888828,0.0012500283689572,-0.0012500292858411,0.001250028913712,0.62390561118628,131329,3014,0.003805435881013,0.0038054358787474,0.005572646461598,19.879372356606,-7.856502114715e-05,-7.856502114715e-05,-7.856502114715e-05,4412942.9107063,0.013272495217122
17819200,0.98102672005591,0.014111223673343,0.004239297778268,0.0042392977779161,0.0056326281171594,-0.00091360027641405,0.00091360029566192,-2.8151348786795e-10,3.1966618612332e-10,-6.4984837875457e-11,8.770090617987e-11,-0.0011318192832908,0.0011318185291085,-0.0011318186867207,0.0011318191170599,-0.0011318187318636,0.0011318190551107,-0.0011318189107393,0.0011318188756231,-0.0010142581389892,0.0010142588557574,-0.0010142585967064,0.0010142583461525,-9.5370690261449e-10,1.0530426465549e-09,-5.3971616868996e-10,6.3541071435957e-10,-0.00091360024456964,0.00091360032733854,-0.0011318196362562,0.0011318181690263,-0.0011318188662309,0.001131818930783,-0.001131818479127,0.0011318193113705,-0.0011318184866536,0.0011318193088167,-0.0010142580799159,0.0010142588760116,-0.001014257982745,0.0010142589493842,-0.00091456028429088,0.00091455972536379,-0.0009145592399494,0.00091456075119138,4.0118309119077e-11,-2.0519584340784e-10,-0.0013411024031846,0.0013411022264114,8.841035613019e-10,-1.074477771324e-09,-0.001583436588451,0.0015834368142135,-0.0015834368953994,0.0015834364853182,-0.0015834363015057,0.0015834370661591,-0.0015834373491893,0.0015834360171753,-0.0012492783965534,0.0012492761387769,-0.0012492770360799,0.0012492776421952,0.60341925962214,131329,3014,0.0038020422871794,0.0038020422868417,0.0055695215242804,19.209261496291,-8.3925908029675e-05,-8.3925908029675e-05,-8.3925908029675e-05,4401565.0989294,0.01326245044143
18019200,0.981493898731,0.014116685054902,0.0042408940590952,0.0042408940587393,0.0056348969370678,-0.0009139158622687,0.00091391587530252,-1.9434110736551e-10,2.2549769640605e-10,-8.3499422297024e-11,9.7136043031151e-11,-0.0011322144637958,0.0011322140922098,-0.0011322142842806,0.0011322143050583,-0.0011322142383393,0.0011322142864795,-0.0011322141624667,0.0011322144078091,-0.001014574709592,0.0010145745885613,-0.0010145743465098,0.0010145749064654,-9.9203421980156e-10,1.0825335529111e-09,-5.4694096905218e-10,6.2934282508119e-10,-0.00091391583096952,0.00091391590653668,-0.001132214848297,0.0011322136902946,-0.0011322144358317,0.001132214136803,-0.0011322140134617,0.0011322145232768,-0.0011322137089885,0.0011322148827984,-0.0010145747555987,0.0010145745296648,-0.0010145736384519,0.0010145756245899,-0.0009148696330619,0.00091486800407948,-0.00091486753054275,0.00091487008875231,1.5514330889017e-10,-2.8817838505403e-10,-0.0013415482963541,0.0013415481477067,9.3244687327043e-10,-1.0914068554168e-09,-0.0015839521538047,0.0015839528193398,-0.0015839528061143,0.0015839521397074,-0.0015839522658656,0.0015839526921705,-0.0015839530062526,0.0015839519450321,-0.0012496989191725,0.001249697467356,-0.0012496983623621,0.0012496981908437,0.60266016308224,131329,3014,0.0038033527348562,0.0038033527347006,0.0055713685130152,19.169313909316,-8.424548872547e-05,-8.424548872547e-05,-8.424548872547e-05,4405566.7173619,0.013266976809382
18219200,0.98190943621072,0.014121646628051,0.0042423476888556,0.0042423476884997,0.0056369512506954,-0.00091163785210297,0.00091163787930638,-2.8808848074172e-10,3.3578317726031e-10,-3.3753675854254e-10,3.7160033598246e-10,-0.0011298936848171,0.0011298927633416,-0.0011298930966575,0.0011298933479318,-0.0011298929684236,0.0011298934561062,-0.0011298931304046,0.0011298932970839,-0.001012172266585,0.0010121731167115,-0.0010121726896979,0.0010121726869181,-1.1855712364919e-09,1.3080020084108e-09,-5.3283198171314e-10,6.4869237333132e-10,-0.00091163781680117,0.00091163791353962,-0.0011298940242143,0.0011298924196097,-0.0011298932675098,0.0011298931738268,-0.001129892723207,0.0011298937044283,-0.0011298927187174,0.0011298937179214,-0.0010121722042679,0.0010121731476199,-0.0010121720819757,0.0010121732821053,-0.00091250136429576,0.0009125003264629,-0.00091249977843788,0.00091250185098734,3.4962490214041e-11,-2.1667033710522e-10,-0.0013391948209413,0.0013391946363785,8.7359317568108e-10,-1.078442326739e-09,-0.0015815861700148,0.0015815864129173,-0.0015815864863906,0.0015815860721561,-0.0015815858983002,0.0015815866465371,-0.001581586931212,0.001581585610476,-0.0012473218771039,0.001247319593514,-0.0012473205313678,0.0012473211017171,0.61339065226358,131329,3014,0.0037938917856976,0.0037938917834765,0.0055616242249015,17.681777916551,-9.614577666759e-05,-9.614577666759e-05,-9.614577666759e-05,4380959.7925424,0.013237925938181
18419200,0.98228483034313,0.014126169472455,0.0042436752941735,0.0042436752938129,0.0056388188844687,-0.00090973473198956,0.00090973467496114,-1.2951533083672e-10,7.1443236516989e-11,1.8707714686275e-10,-2.5501565759377e-10,-0.0011279555962353,0.0011279558672005,-0.001127955894444,0.0011279555667054,-0.0011279559971367,0.0011279554248303,-0.0011279555426515,0.0011279558620421,-0.0010101804951538,0.0010101790015194,-0.0010101790058522,0.0010101804079145,-6.2785191309944e-10,6.6088934515181e-10,-5.2020791478332e-10,5.4543304829982e-10,-0.00090973469045001,0.00090973471678853,-0.0011279559744771,0.0011279554957123,-0.0011279560061747,0.0011279554619804,-0.0011279557968444,0.0011279556153344,-0.0011279550790934,0.0011279563231189,-0.0010101806032338,0.001010178875126,-0.0010101782517073,0.0010101811644856,-0.00091053955818777,0.00091053734979626,-0.00091053689170962,0.00091053987565313,2.3968604410882e-10,-4.4815014326192e-10,-0.0013372246503223,0.0013372244432013,8.9331502236868e-10,-1.1255976025306e-09,-0.0015796045874623,0.0015796057372268,-0.0015796056742811,0.001579604632132,-0.0015796051936755,0.0015796050756195,-0.0015796054809767,0.0015796047257072,-0.0012453438942964,0.0012453434225607,-0.0012453444678823,0.0012453431901707,0.61738718590569,131329,3014,0.0037859879613824,0.0037859879620058,0.0055534664376103,16.42337280109,-0.00010621301759128,-0.00010621301759128,-0.00010621301759128,4359249.2056644,0.013213640224007
18619200,0.98264203695752,0.01413043250279,0.0042449265156573,0.0042449265152764,0.0056405794718562,-0.00090923832486129,0.00090923833939621,-2.0627568694877e-10,2.39705622746e-10,-7.2353769818468e-11,8.925154874998e-11,-0.001127491948594,0.0011274915397022,-0.0011274917090452,0.0011274917871122,-0.0011274916951996,0.0011274917660908,-0.0011274916351334,0.0011274918429634,-0.0010096581902125,0.0010096581630187,-0.001009657924447,0.0010096584024841,-9.3196573625968e-10,1.030698966889e-09,-5.1494539258055e-10,6.0863272911458e-10,-0.00090923829162323,0.0009092383720022,-0.0011274923080519,0.0011274911696213,-0.0011274918619962,0.0011274916248659,-0.0011274914700953,0.001127491998251,-0.0011274912058158,0.0011274922859319,-0.0010096581915918,0.0010096581313107,-0.0010096572590268,0.0010096590560946,-0.00091002925246711,0.00091002784929851,-0.00091002736619616,0.00091002969771059,1.4824739849668e-10,-3.091444302028e-10,-0.0013367575210222,0.001336757351237,8.949974865882e-10,-1.0807015155458e-09,-0.0015791693586466,0.0015791699687757,-0.0015791699663457,0.0015791693383602,-0.0015791694423584,0.0015791698588766,-0.0015791701985358,0.0015791690961631,-0.0012448723021624,0.0012448706897174,-0.0012448716042241,0.0012448715469855,0.61178948774651,131329,3014,0.0037839268668519,0.0037839268655333,0.0055515323098792,15.966189380832,-0.00010987048495335,-0.00010987048495335,-0.00010987048495335,4352884.3211504,0.013207503232149
18819200,0.9829882540309,0.014134865312618,0.0042462371027334,0.0042462371023525,0.0056423911075322,-0.00090925327267478,0.0009092532802738,-2.1447250630627e-10,2.3908249992903e-10,-4.6374509114109e-11,5.4920692328196e-11,-0.0011275513998071,0.0011275509718486,-0.0011275511262029,0.0011275512564149,-0.0011275511342395,0.0011275512092726,-0.0011275511070093,0.0011275512545886,-0.0010096798826295,0.0010096799134792,-0.0010096797033424,0.0010096800673065,-9.5966967101354e-10,1.0560478283902e-09,-5.2428553380355e-10,6.1495103498274e-10,-0.00090925323716718,0.000909253315188,-0.0011275517782281,0.0011275505835454,-0.0011275512951385,0.0011275510790528,-0.0011275508895902,0.0011275514602938,-0.0011275506554238,0.0011275517196803,-0.0010096798677915,0.0010096798982352,-0.0010096790114474,0.0010096807474863,-0.0009100452951086,0.00091004394220253,-0.00091004344742027,0.00091004573768089,1.5001801117038e-10,-3.1373265050641e-10,-0.0013368341076785,0.0013368339362093,9.0215436374463e-10,-1.0905579207923e-09,-0.0015792885604475,0.0015792891533598,-0.0015792891462242,0.0015792885447081,-0.0015792886193108,0.0015792890676241,-0.0015792894075923,0.0015792882682435,-0.0012449432496574,0.0012449415176218,-0.0012449424456838,0.0012449424950058,0.64923266685463,131329,3014,0.0037839889939941,0.0037839889927551,0.0055518499432468,15.790683548448,-0.00011127453161241,-0.00011127453161241,-0.00011127453161241,4352737.682681,0.013207950742559
19019200,0.98333599040852,0.014139620257913,0.0042476510646192,0.0042476510642372,0.0056443181290562,-0.00091024266337034,0.00091024268490397,-2.5261840059303e-10,2.8651145871278e-10,-2.5848620083576e-10,2.7871062837574e-10,-0.0011286990100803,0.0011286983714388,-0.0011286986689435,0.0011286987637751,-0.0011286985441098,0.0011286988098597,-0.0011286985688958,0.0011286988420761,-0.0010107364288274,0.0010107367239853,-0.0010107363551777,0.0010107367846724,-1.2538674755753e-09,1.3686545774668e-09,-5.5025655313606e-10,6.5260003757765e-10,-0.00091024262732287,0.0009102427203324,-0.0011286994095274,0.0011286979540399,-0.0011286988656961,0.0011286985500557,-0.0011286982727514,0.0011286990996289,-0.0011286980973692,0.0011286993380602,-0.0010107363804596,0.0010107367384949,-0.0010107356518371,0.0010107374784329,-0.00091110823128753,0.00091110649030722,-0.0009111059679311,0.00091110870309969,1.1393329541603e-10,-2.7862520742646e-10,-0.0013379885302646,0.0013379883633499,9.0532659886443e-10,-1.093740561506e-09,-0.0015805572212539,0.0015805577389502,-0.0015805577489938,0.0015805571886173,-0.0015805572068354,0.0015805577454492,-0.0015805580597115,0.0015805568832573,-0.0012461317079257,0.0012461298738449,-0.0012461307645711,0.0012461309582331,0.6871939988926,131329,3014,0.0037881007902103,0.0037881007888751,0.0055566279703668,16.172877507083,-0.00010821697994334,-0.00010821697994334,-0.00010821697994334,4358643.0764027,0.013221128863539
19219200,0.98370616202939,0.014144845766059,0.0042492084565596,0.0042492084561745,0.0056464288533244,-0.00091287475667903,0.00091287466965648,4.0149945123207e-11,-1.2317978041285e-10,2.0536408790044e-09,-2.1634321184279e-09,-0.0011316406442031,0.0011316421739497,-0.0011316409574284,0.0011316418579422,-0.0011316422048576,0.0011316405842698,-0.0011316419869328,0.0011316407953371,-0.0010135221330445,0.001013520118113,-0.0010135214310697,0.0010135207924608,9.3454897969684e-10,-9.5068373642068e-10,-5.0843769157891e-10,5.0010686079733e-10,-0.00091287471941739,0.00091287470681724,-0.0011316411733154,0.0011316416331854,-0.0011316411165534,0.0011316416923936,-0.0011316419733333,0.0011316408238334,-0.0011316413842587,0.0011316414095749,-0.0010135222725048,0.0010135199082029,-0.0010135204246963,0.0010135217569038,-0.00091390057889959,0.000913901774762,-0.00091390142339522,0.00091390085593171,4.574381042858e-10,-6.4946953603384e-10,-0.0013409505113618,0.0013409503108232,1.0527007165392e-09,-1.2708933287282e-09,-0.0015837303665559,0.0015837316394905,-0.0015837314575637,0.0015837305445751,-0.0015837310348781,0.0015837309590416,-0.0015837315431931,0.0015837304216243,-0.0012491636675824,0.0012491623157675,-0.0012491633459263,0.0012491628338386,0.70678361695762,131329,3014,0.0037990372319872,0.0037990372317851,0.0055688877618292,17.488262532026,-9.7693899743792e-05,-9.7693899743792e-05,-9.7693899743792e-05,4378497.5319413,0.013255723862054
19419200,0.98408524392491,0.014150066979388,0.0042507600053857,0.0042507600049919,0.0056485469690101,-0.0009144543472835,0.00091445440072987,-4.0229016813504e-10,4.669342072746e-10,-1.1009636577278e-09,1.1631639268463e-09,-0.0011335386631822,0.0011335371752502,-0.0011335379968361,0.0011335378342023,-0.0011335374369128,0.0011335383802007,-0.0011335374956058,0.0011335383155676,-0.0010151894483852,0.0010151905113208,-0.0010151895254133,0.0010151904207434,-2.2788431031788e-09,2.452010684424e-09,-6.3040043179099e-10,7.8430612286005e-10,-0.00091445430308306,0.00091445444408696,-0.0011335391046331,0.0011335367303337,-0.0011335382791603,0.0011335375497372,-0.0011335370654402,0.001133538753033,-0.0011335369670464,0.001133538851736,-0.0010151892562554,0.0010151906638978,-0.0010151887984455,0.0010151911264923,-0.00091561945534552,0.00091561628944979,-0.00091561562113556,0.00091562006176892,-5.0935433780991e-11,-1.4121000642535e-10,-0.0013428160280833,0.0013428158357006,8.8580472336198e-10,-1.1014060467131e-09,-0.0015858069994251,0.0015858072173293,-0.0015858073567986,0.0015858068500667,-0.0015858066997732,0.0015858074868467,-0.0015858077153718,0.0015858064504568,-0.0012511131800486,0.0012511111503787,-0.001251112105014,0.0012511124152787,0.69265170745462,131329,3014,0.0038056043911288,0.003805604389379,0.0055766059311959,18.223880232886,-9.1808958136915e-05,-9.1808958136915e-05,-9.1808958136915e-05,4385260.2739542,0.013276863135726
19619200,0.98446101594318,0.014155100128815,0.0042522517172921,0.0042522517168905,0.0056505966946322,-0.00091513263884851,0.00091513264470006,-1.9932622930875e-10,2.1828010581025e-10,1.7892395326075e-10,-1.7451045470775e-10,-0.0011344638472225,0.0011344636619304,-0.0011344636401677,0.0011344638612129,-0.0011344638083488,0.0011344636785212,-0.0011344637245893,0.0011344637561166,-0.0010159122142852,0.0010159120014083,-0.0010159119310206,0.0010159122787966,-1.016937930415e-09,1.1269739488812e-09,-5.8149714752159e-10,6.8359466045513e-10,-0.00091513259734747,0.00091513268544983,-0.0011344643474941,0.0011344631533207,-0.0011344638763495,0.0011344636207679,-0.0011344634903414,0.0011344640030393,-0.0011344631414467,0.0011344643486415,-0.0010159121628659,0.001015911993397,-0.0010159110516469,0.0010159131246637,-0.00091639105532159,0.00091638948578727,-0.00091638892978406,0.00091639155059426,1.8061067040917e-10,-3.7488082029533e-10,-0.0013437048880858,0.0013437046913272,9.6465564796153e-10,-1.1832994781308e-09,-0.0015868601709287,0.0015868608754761,-0.0015868608632193,0.0015868601666426,-0.0015868603127048,0.0015868607024101,-0.0015868611063743,0.0015868599017972,-0.0012520727731545,0.0012520710378401,-0.001252072016562,0.0012520719411304,0.67639369128146,131329,3014,0.003808427040222,0.003808427038666,0.0055802807452093,18.456665210453,-8.9946678316378e-05,-8.9946678316378e-05,-8.9946678316378e-05,4384072.0653999,0.013286314057815
19819200,0.9848303445632,0.014159889891906,0.0042536673101032,0.0042536673096959,0.0056525552721069,-0.00091557455447995,0.00091557449072014,9.5355353047654e-11,-1.4549164427131e-10,1.832493563403e-09,-1.9126737344244e-09,-0.0011351038793192,0.0011351053597765,-0.0011351042969881,0.0011351049411205,-0.001135105355194,0.0011351038553395,-0.0011351050850653,0.0011351041290755,-0.0010163851266049,0.0010163831410425,-0.001016384290581,0.0010163839844855,6.4399467837592e-10,-6.2207046054392e-10,-5.0906693665553e-10,5.3915042677452e-10,-0.0009155745146422,0.0009155745296606,-0.001135104448979,0.0011351047779995,-0.0011351044577759,0.0011351047723946,-0.0011351051166017,0.0011351041041473,-0.0011351044368061,0.0011351047908812,-0.0010163852930817,0.0010163829154909,-0.0010163831974393,0.0010163850403075,-0.00091690269530449,0.00091690313961015,-0.00091690273400626,0.00091690304523,5.1723924916657e-10,-7.098410796658e-10,-0.0013443237102629,0.0013443235155533,1.0673721051031e-09,-1.2856002329424e-09,-0.0015876130179733,0.0015876144112609,-0.0015876141880044,0.0015876132361194,-0.0015876137916123,0.0015876136269339,-0.0015876142379536,0.0015876131603709,-0.001252742782136,0.0012527415784501,-0.0012527426476176,0.0012527419016631,0.65787308339543,131329,3014,0.003810266734452,0.0038102667325846,0.0055828385295603,18.558378578011,-8.913297137591e-05,-8.913297137591e-05,-8.913297137591e-05,4382271.6733161,0.013292638968934
20019200,0.98518748192732,0.014164709047074,0.0042550972946775,0.0042550972942681,0.0056545144581283,-0.000915570431666,0.00091557042424183,-1.8465546860807e-10,1.8930849931412e-10,3.152545761891e-10,-3.2704346416431e-10,-0.0011352333444373,0.0011352332262173,-0.0011352331461969,0.0011352334238557,-0.0011352333744211,0.0011352331696362,-0.0011352333104769,0.0011352332348843,-0.001016396741336,0.0010163964656556,-0.0010163965105981,0.0010163966827997,-8.3274014633803e-10,9.2631621524165e-10,-5.6383889135844e-10,6.5146316772842e-10,-0.00091557039012366,0.00091557046515581,-0.001135233826085,0.0011352327368381,-0.0011352333677093,0.0011352331976553,-0.0011352330691695,0.0011352334803365,-0.0011352327454928,0.001135233809905,-0.0010163967026366,0.0010163964555111,-0.0010163956566807,0.001016397513783,-0.00091694071670668,0.00091693954329436,-0.00091693901876692,0.00091694118710376,2.1918138374741e-10,-4.0864856377277e-10,-0.0013444444818643,0.0013444442910026,9.6485745688464e-10,-1.1789242551144e-09,-0.0015878282046955,0.0015878289148444,-0.0015878288925635,0.0015878282263421,-0.0015878283574263,0.0015878287485634,-0.0015878291387786,0.0015878279346498,-0.0012528992303727,0.0012528975612175,-0.0012528985763619,0.0012528984341552,0.68048789568383,131329,3014,0.0038102528349688,0.0038102528336646,0.0055833355253793,18.400948502574,-9.0392411979411e-05,-9.0392411979411e-05,-9.0392411979411e-05,4377570.087757,0.013293116703762
20219200,0.98553524913094,0.014169550748437,0.004256538070993,0.00425653807058,0.0056564746068637,-0.00091574540490268,0.00091574546003937,-4.1217464281818e-10,4.8952517016561e-10,-8.4414547478813e-10,9.087931659926e-10,-0.0011355766140516,0.0011355752413747,-0.001135575906487,0.0011355759678427,-0.0011355755116969,0.0011355763190335,-0.001135575634744,0.0011355762268787,-0.0010166031003399,0.0010166041873429,-0.0010166033830341,0.0010166038822943,-1.9564442616619e-09,2.1174788997746e-09,-6.0133463303128e-10,7.4741470352163e-10,-0.00091574536646834,0.00091574549784876,-0.0011355770148032,0.0011355748269784,-0.0011355761753375,0.001135575686957,-0.0011355751578787,0.0011355766825904,-0.0011355751515806,0.0011355767270331,-0.0010166029036124,0.0010166043641519,-0.0010166027449755,0.0010166045216247,-0.00091718223583076,0.00091717989350677,-0.0009171792882679,0.00091718281929633,-1.8653639849989e-11,-1.3460008729502e-10,-0.0013447667293533,0.0013447665684611,8.9563567185678e-10,-1.0736379054519e-09,-0.0015882652387588,0.001588265401753,-0.0015882655137198,0.0015882651103089,-0.0015882648763363,0.0015882657495499,-0.0015882659593718,0.0015882646575618,-0.0012532766309161,0.0012532744595158,-0.0012532753767417,0.0012532758840315,0.69909044930333,131329,3014,0.0038109838814111,0.0038109838800945,0.0055846656778044,18.352304503784,-9.0781563969727e-05,-9.0781563969727e-05,-9.0781563969727e-05,4372546.0037914,0.013295950312251
20419200,0.98588056133178,0.014174365234688,0.004257970974252,0.0042579709738431,0.0056584232865926,-0.00091645835568773,0.00091645833229545,-6.1029739730403e-11,5.4206514734066e-11,8.2608907134004e-10,-8.5663425120576e-10,-0.0011365117580265,0.0011365123007085,-0.0011365118816619,0.0011365121879621,-0.0011365123733607,0.0011365116551572,-0.0011365121835619,0.0011365118626264,-0.0010173750411967,0.0010173740026562,-0.001017374416509,0.0010173745944749,-2.6110269482915e-10,3.2196028793347e-10,-5.2501854329021e-10,5.8527976574921e-10,-0.00091645831898789,0.00091645836873731,-0.0011365122443731,0.0011365118005306,-0.0011365120528455,0.0011365120062797,-0.0011365121233392,0.0011365119148749,-0.0011365116189074,0.0011365124419717,-0.0010173751192361,0.0010173738873421,-0.0010173735168395,0.0010173754810063,-0.00091799301655657,0.00091799223987397,-0.00091799179728582,0.00091799341717078,3.7342757633799e-10,-5.3946683154095e-10,-0.0013456783149562,0.0013456781394873,9.9541902154394e-10,-1.1873397971136e-09,-0.0015893239192206,0.0015893249836986,-0.0015893248391891,0.0015893240481167,-0.0015893243999557,0.0015893244864765,-0.0015893249825721,0.0015893238882191,-0.0012542581516399,0.0012542567241577,-0.001254257706671,0.0012542573400877,0.69998785207887,131329,3014,0.0038139499822972,0.0038139499817552,0.0055884347469231,18.616506365039,-8.866794907969e-05,-8.866794907969e-05,-8.866794907969e-05,4371929.0701896,0.013305787024301
20619200,0.98621289987073,0.014178468624684,0.0042591782874147,0.0042591782870056,0.0056601120502635,-0.00091625424923573,0.0009162542754074,-3.0452397491337e-10,3.4635943313354e-10,-2.6982357881018e-10,2.993026451567e-10,-0.0011365025679346,0.0011365018316185,-0.0011365021196092,0.0011365022807779,-0.001136502041943,0.0011365023352146,-0.0011365020485206,0.0011365023341188,-0.0010171589810122,0.0010171593439499,-0.0010171589559137,0.0010171593639382,-1.2974555424771e-09,1.4238031432601e-09,-5.5162617107826e-10,6.6854793779106e-10,-0.00091625421106457,0.00091625431276793,-0.001136502965955,0.0011365014247956,-0.0011365023471421,0.0011365020474154,-0.0011365017371802,0.0011365026467317,-0.0011365015737221,0.0011365028202988,-0.0010171588558171,0.0010171594233457,-0.0010171582770663,0.0010171600206676,-0.00091784578589935,0.00091784415815368,-0.00091784360745566,0.00091784629245887,1.0640125186773e-10,-2.86227846524e-10,-0.001345605069022,0.0013456048863057,9.0119403555258e-10,-1.1049990811248e-09,-0.0015893744332854,0.0015893748685664,-0.0015893749101616,0.001589374380784,-0.0015893743464367,0.0015893749354862,-0.0015893752523591,0.0015893740145821,-0.0012542417755019,0.0012542398806653,-0.001254240827805,0.0012542410108283,0.63099510208035,131329,3014,0.0038131078265259,0.0038131078248395,0.0055881258812394,18.384911296821,-9.0520709625433e-05,-9.0520709625433e-05,-9.0520709625433e-05,4361899.3216253,0.013303772032197
20819200,0.98652398421652,0.014182640449056,0.0042604166417992,0.0042604166413876,0.0056618071658697,-0.00091530334674515,0.00091530333902572,-1.8272550468479e-10,1.8587136375742e-10,2.1341748088951e-10,-2.2508772751855e-10,-0.0011355657701446,0.0011355656842937,-0.001135565657774,0.0011355657950838,-0.001135565825555,0.0011355656025169,-0.0011355656865719,0.0011355657393501,-0.0010161767369469,0.0010161763165944,-0.0010161762871414,0.001016176746363,-7.3686344431902e-10,8.2408783245997e-10,-5.0552556572985e-10,5.8728407239818e-10,-0.0009153033081497,0.00091530337705504,-0.0011355661713852,0.0011355652772205,-0.0011355658348328,0.0011355656157201,-0.0011355655720354,0.0011355658604149,-0.001135565208381,0.0011355662252176,-0.001016176710312,0.0010161762874205,-0.001016175555988,0.0010161774486467,-0.00091687056678331,0.00091686930596947,-0.00091686881432353,0.00091687097684039,2.4757574567209e-10,-4.4014619836518e-10,-0.0013446684707215,0.0013446682782215,9.067130716557e-10,-1.1231592813137e-09,-0.0015884542557183,0.0015884550383638,-0.001588454981594,0.0015884543030148,-0.0015884545093718,0.0015884547594107,-0.0015884551811343,0.0015884540613901,-0.001253306352349,0.0012533047953652,-0.0012533057648925,0.0012533055809399,0.67643101801157,131329,3014,0.0038091591768642,0.0038091591756941,0.0055842471627659,17.703125156018,-9.5974998751856e-05,-9.5974998751856e-05,-9.5974998751856e-05,4350876.0813588,0.013291836753828
21019200,0.9868103915534,0.014186346722704,0.0042615132849492,0.0042615132845334,0.0056633201532218,-0.00091381919414614,0.00091381919286164,-1.0325188504932e-10,1.2130764884048e-10,4.5497379112769e-10,-4.5872786864908e-10,-0.0011341341296338,0.0011341343512058,-0.001134134182429,0.0011341343164099,-0.0011341344469281,0.0011341340066439,-0.0011341342563077,0.001134134226187,-0.0010146294135971,0.0010146286246702,-0.0010146287824681,0.0010146292664644,-4.2325097476288e-10,5.0627201075046e-10,-4.5790808967623e-10,5.400365855645e-10,-0.00091381916055524,0.00091381922551967,-0.0011341345116148,0.0011341339545663,-0.0011341343248322,0.0011341341612608,-0.0011341342350115,0.0011341342309804,-0.0011341338068408,0.0011341346944676,-0.0010146294500014,0.0010146285550835,-0.0010146280570135,0.0010146299757756,-0.00091537644102015,0.00091537541210562,-0.00091537497816037,0.00091537683850532,3.4178246919194e-10,-5.0462256465645e-10,-0.0013431749739443,0.0013431748076587,9.0934910262676e-10,-1.0965338799956e-09,-0.0015869954374896,0.0015869963916343,-0.0015869962643509,0.0015869955511114,-0.0015869958607882,0.0015869959612466,-0.0015869964162908,0.0015869953928377,-0.0012518472145739,0.0012518458837526,-0.001251846824988,0.0012518464559529,0.65602049255004,131329,3014,0.0038029982923734,0.0038029982904179,0.0055780604219018,16.746562707607,-0.00010362749833914,-0.00010362749833914,-0.00010362749833914,4329465.9157859,0.013273082545689
21219200,0.98706025212951,0.014189604643768,0.0042624786875592,0.0042624786871453,0.0056646472690632,-0.00091081020438209,0.00091081021077037,-1.7561093738288e-10,1.9930749141059e-10,1.5471709682242e-10,-1.4827611961927e-10,-0.0011310548195771,0.0011310546613276,-0.001131054682213,0.0011310548053785,-0.0011310548000771,0.0011310546545882,-0.0011310546857491,0.0011310547823964,-0.0010114819169253,0.0010114815835618,-0.001011481513872,0.0010114819770683,-6.2340819721063e-10,7.131733946655e-10,-4.3102813095586e-10,5.1714653169509e-10,-0.00091081017181446,0.00091081024259505,-0.0011310551374674,0.0011310543343726,-0.0011310548275469,0.0011310546526776,-0.0011310545862999,0.0011310548756481,-0.001131054300853,0.0011310551797724,-0.0010114818891597,0.0010114815743257,-0.0010114809252717,0.0010114825485599,-0.00091228730438754,0.00091228625923025,-0.00091228582840908,0.00091228768521368,2.7030128159904e-10,-4.3951283583162e-10,-0.0013400099136823,0.0013400097408679,8.461284475332e-10,-1.038978571212e-09,-0.0015837834051144,0.001583784136134,-0.0015837840608492,0.0015837834699567,-0.0015837836467809,0.001583783879086,-0.0015837842917467,0.0015837832147538,-0.0012486973440445,0.001248695809251,-0.0012486967195627,0.0012486966318594,0.65967493032706,131329,3014,0.003790502831002,0.0037905028294538,0.0055649539265577,14.931809680881,-0.00011814552255295,-0.00011814552255295,-0.00011814552255295,4293959.9274076,0.013234475735848
21419200,0.9872881887373,0.014192602927485,0.0042633688440348,0.0042633688436206,0.0056658652398298,-0.00090899816322803,0.0009089981851018,-2.4498165450803e-10,2.8362650464027e-10,-1.819702681391e-10,2.0486471622943e-10,-0.0011292092453162,0.001129208725589,-0.0011292089662825,0.0011292090319884,-0.0011292088982252,0.0011292090470929,-0.0011292088472976,0.0011292091342502,-0.001009594884479,0.0010095949573412,-0.0010095946459959,0.0010095951858147,-9.2771683777964e-10,1.0287619203733e-09,-4.2026975341792e-10,5.1532628250974e-10,-0.00090899813265446,0.00090899821511009,-0.0011292095228314,0.0011292084332522,-0.001129209125727,0.0011292088595515,-0.0011292086728656,0.001129209284908,-0.0011292085061694,0.0011292094944738,-0.0010095947963491,0.0010095950144858,-0.0010095941565742,0.0010095956658939,-0.00091043806800533,0.00091043672026585,-0.00091043629997516,0.00091043845436079,2.0878754762491e-10,-3.620089193466e-10,-0.0013381102333415,0.0013381100747226,8.1245777294332e-10,-9.8936450053481e-10,-0.0015818594806032,0.0015818600452338,-0.0015818600016562,0.0015818595106527,-0.001581859575457,0.001581859945394,-0.001581860300283,0.0015818592052526,-0.0012468180868753,0.0012468164212171,-0.0012468172731824,0.0012468174150532,0.66373850385373,131329,3014,0.0037829781724616,0.0037829781712671,0.0055570870062314,13.797655597049,-0.00012721875522361,-0.00012721875522361,-0.00012721875522361,4271775.0895183,0.013211254010832
21619200,0.98750460435748,0.014195479912807,0.0042642243626196,0.0042642243622062,0.0056670311879815,-0.00090825344150878,0.00090825344785589,-1.8376669458303e-10,2.0741269500807e-10,1.5358882334923e-10,-1.4751016272461e-10,-0.0011284856554718,0.0011284854894104,-0.0011284855102788,0.0011284856416113,-0.0011284856320786,0.0011284854859658,-0.001128485518097,0.001128485613935,-0.0010088216129444,0.0010088212912473,-0.0010088212167109,0.0010088216643073,-6.1516947253313e-10,6.9990987279265e-10,-4.0236228361716e-10,4.847110528255e-10,-0.00090825341010431,0.00090825347875237,-0.0011284859569616,0.0011284851782695,-0.0011284856638115,0.001128485480239,-0.0011284854101271,0.0011284857152743,-0.0011284851492975,0.0011284859947588,-0.001008821555841,0.0010088213126694,-0.0010088206744965,0.0010088221933919,-0.00090968970438735,0.00090968867699892,-0.00090968828286256,0.00090969005889791,2.7931363545428e-10,-4.4245842637526e-10,-0.0013373530338669,0.0013373528649994,8.1795889974061e-10,-1.0049770418765e-09,-0.001581113257177,0.0015811139653462,-0.0015811138829421,0.0015811133279158,-0.0015811134940918,0.0015811137119744,-0.0015811141276619,0.0015811130603345,-0.0012460824910974,0.001246080937076,-0.0012460818147757,0.0012460818052687,0.66921249853656,131329,3014,0.0037798862963098,0.0037798862952508,0.0055539506268141,13.268043846874,-0.00013145564922501,-0.00013145564922501,-0.00013145564922501,4261481.1987454,0.013201810357171
21819200,0.9877219114502,0.01419832333222,0.0042650689509135,0.0042650689505,0.0056681854308067,-0.00090901952195004,0.00090901953067545,-2.240755226466e-10,2.4966764882471e-10,6.6477636330313e-11,-5.7697274799625e-11,-0.0011293579862257,0.0011293576631291,-0.0011293577404262,0.0011293579164999,-0.0011293578309287,0.0011293577916664,-0.0011293577623664,0.0011293578743272,-0.0010096263952647,0.001009626267357,-0.0010096261302241,0.0010096265105884,-7.856114623911e-10,8.7905136305853e-10,-4.2138604846891e-10,5.1084590050067e-10,-0.00090901948816167,0.00090901956394892,-0.0011293583080774,0.001129357331793,-0.0011293579270517,0.001129357722108,-0.0011293575716996,0.0011293580581644,-0.0011293573692603,0.0011293582797093,-0.0010096262883212,0.0010096263385162,-0.0010096255756191,0.001009627052385,-0.00091050196468918,0.00091050082600962,-0.00091050040757154,0.00091050234110521,2.4400600831335e-10,-4.0951249832134e-10,-0.0013382247157334,0.001338224545279,8.2222405282547e-10,-1.0115261792754e-09,-0.0015820522666158,0.0015820528836536,-0.0015820528249246,0.0015820523140696,-0.0015820524092946,0.0015820527243178,-0.0015820531173728,0.0015820519971081,-0.0012469779283345,0.0012469762321478,-0.0012469771167468,0.0012469772383039,0.65989250152383,131329,3014,0.0037830694365043,0.0037830694354312,0.0055575587132003,13.594060745337,-0.0001288475140373,-0.0001288475140373,-0.0001288475140373,4267617.0729915,0.013211919017362
22019200,0.9879419114741,0.014201150367818,0.0042659072003343,0.00426590719992,0.005669335967564,-0.00091002541684416,0.00091002541353177,-1.5748711493557e-10,1.70901993532e-10,3.3087739209927e-10,-3.3776448514448e-10,-0.0011304771904551,0.0011304772457716,-0.0011304771613681,0.0011304772970822,-0.001130477374766,0.0011304770324399,-0.0011304772017678,0.0011304772352697,-0.0010106761407568,0.0010106754891547,-0.0010106755468668,0.001010676055682,-6.1288766750459e-10,6.9519656906577e-10,-4.2998584687275e-10,5.0766695624601e-10,-0.00091002538186289,0.00091002544807485,-0.0011304775653425,0.0011304768570801,-0.001130477350822,0.0011304770956594,-0.0011304771102485,0.0011304773083034,-0.0011304767537253,0.001130477700629,-0.0010106760808844,0.0010106755171057,-0.001010674888052,0.001010676706042,-0.00091154880912885,0.00091154753499314,-0.00091154712529212,0.00091154917070786,3.2852876884809e-10,-4.8501851948775e-10,-0.001339357390973,0.001339357227653,8.5985949991192e-10,-1.0406214366412e-09,-0.0015832597973079,0.0015832606550914,-0.0015832605385119,0.001583259903522,-0.0015832601578565,0.0015832602883546,-0.0015832607264026,0.0015832596975806,-0.0012481212475252,0.0012481198557986,-0.0012481207524895,0.0012481205517127,0.64982773733106,131329,3014,0.0037872480634636,0.0037872480625379,0.0055622480828154,14.053964998515,-0.00012516828001188,-0.00012516828001188,-0.00012516828001188,4277477.5273403,0.013225140440799
22219200,0.98816549185261,0.014203997621106,0.004266750610891,0.0042667506104768,0.0056704963997384,-0.00091115652223659,0.00091115651426502,-1.0843143202359e-10,1.1945942550832e-10,4.8443952899904e-10,-4.9540615406441e-10,-0.0011317158086665,0.0011317161391762,-0.0011317159572706,0.0011317160036863,-0.00113171624355,0.0011317156743383,-0.0011317159475875,0.0011317159922719,-0.0010118594868817,0.0010118583594595,-0.0010118585305744,0.0010118592927262,-5.4733004407505e-10,6.2893670622968e-10,-4.3948892631204e-10,5.186405921302e-10,-0.00091115648522064,0.00091115655075325,-0.0011317162314545,0.0011317157047007,-0.0011317161554464,0.0011317157953874,-0.0011317159651522,0.0011317159617479,-0.0011317154463947,0.0011317165082014,-0.0010118594534118,0.0010118583663347,-0.0010118577790619,0.0010118600371009,-0.00091271671356762,0.00091271512621235,-0.00091271471055936,0.00091271708921484,3.8389067540338e-10,-5.4424940008383e-10,-0.0013406254815566,0.001340625314569,8.8804449429145e-10,-1.0729849745161e-09,-0.0015846028299441,0.0015846038926919,-0.0015846037424115,0.0015846029693442,-0.0015846033763638,0.0015846033344817,-0.0015846038131264,0.0015846028763689,-0.001249389813153,0.0012493887451887,-0.0012493896797475,0.0012493890883952,0.64497828338587,131329,3014,0.003791946236964,0.0037919462358576,0.0055674986549694,14.583605021492,-0.00012093115982806,-0.00012093115982806,-0.00012093115982806,4289525.5021748,0.013239983109704
22419200,0.98838905682362,0.01420698005301,0.0042676376192041,0.0042676376187903,0.0056717048150158,-0.00091186513582142,0.0009118651404676,-2.0428821651757e-10,2.277971092488e-10,2.4911852536476e-10,-2.4515424288263e-10,-0.0011325057215598,0.0011325055944204,-0.0011325055573109,0.0011325057712086,-0.0011325057544774,0.0011325055342618,-0.0011325056353303,0.0011325056749057,-0.0010126071802045,0.0010126067517296,-0.0010126067504719,0.001012607168977,-8.3926562882725e-10,9.3989903551273e-10,-4.6557351472748e-10,5.6119683207401e-10,-0.00091186509752622,0.00091186517810204,-0.0011325061407856,0.0011325051631272,-0.0011325057970247,0.0011325055212513,-0.0011325054339032,0.0011325058644821,-0.0011325051370518,0.0011325061887852,-0.0010126070541648,0.0010126068453537,-0.0010126060424644,0.0010126078648491,-0.00091344820210169,0.00091344678762193,-0.00091344633025683,0.00091344862129913,2.880903975067e-10,-4.507864576655e-10,-0.0013414414847992,0.0013414413165826,8.836753394132e-10,-1.0707573053934e-09,-0.0015854801838632,0.0015854809374175,-0.0015854808505691,0.0015854802602259,-0.0015854804243399,0.0015854806864251,-0.0015854811043553,0.0015854799882478,-0.0012502048339258,0.0012502032465221,-0.0012502041746854,0.0012502041017161,0.67139745024541,131329,3014,0.0037948896076791,0.003794889606297,0.0055708774595562,14.871890841914,-0.00011862487326469,-0.00011862487326469,-0.00011862487326469,4296957.8480004,0.013249372408959
22619200,0.98861036204326,0.014209968640229,0.0042685271213083,0.0042685271208949,0.0056729143980258,-0.00091228292932379,0.00091228293384578,-2.0946021360484e-10,2.3318697265099e-10,2.5922174977701e-10,-2.552037623473e-10,-0.0011330370175696,0.0011330368997155,-0.0011330368535842,0.0011330370742351,-0.0011330370620793,0.0011330368279066,-0.0011330369367139,0.0011330369728255,-0.0010130561510107,0.0010130557165306,-0.0010130557205339,0.0010130561323682,-8.5947974871254e-10,9.6101649063897e-10,-4.7736262716872e-10,5.7400804954702e-10,-0.00091228289056367,0.00091228297197147,-0.0011330374494534,0.0011330364558409,-0.0011330371001805,0.0011330368177848,-0.0011330367335614,0.0011330371658029,-0.0011330364243988,0.0011330375001854,-0.0010130560217942,0.0010130558131665,-0.0010130549942842,0.0010130568467241,-0.00091390594323153,0.00091390449720917,-0.00091390403110031,0.0009139063710388,2.8997295052541e-10,-4.5299282390959e-10,-0.0013419652422462,0.001341965073279,8.9498276177332e-10,-1.0825826131678e-09,-0.0015860834212612,0.0015860841860618,-0.0015860840971668,0.0015860834986964,-0.0015860836651521,0.001586083929759,-0.0015860843520218,0.0015860832261508,-0.0012507518636567,0.0012507502390211,-0.0012507511747041,0.0012507511215722,0.67880653444848,131329,3014,0.0037966269120533,0.0037966269107281,0.0055730443463689,15.008507764796,-0.00011753193788163,-0.00011753193788163,-0.00011753193788163,4298006.1983844,0.013255091534091
22819200,0.98882862591063,0.014212906315709,0.0042694011502175,0.0042694011498045,0.0056741040156866,-0.00091259227665002,0.00091259228591558,-2.1529992235281e-10,2.4497831987461e-10,2.3296891701833e-10,-2.2321391823272e-10,-0.001133466543525,0.001133466398366,-0.0011334663691599,0.0011334665853519,-0.0011334665631421,0.0011334663521571,-0.0011334664390276,0.0011334664998425,-0.0010133929990229,0.0010133925874387,-0.0010133925738333,0.001013393009267,-8.9975046120847e-10,1.006532559851e-09,-4.8498065748264e-10,5.8733287524897e-10,-0.00091259223808803,0.00091259232371344,-0.0011334669802667,0.0011334659482961,-0.0011334666193871,0.0011334663238003,-0.001133466231675,0.001133466694306,-0.0011334659228862,0.00113346703287,-0.0010133928662079,0.0010133926893566,-0.0010133918396019,0.0010133937317638,-0.00091425864038263,0.0009142571425136,-0.00091425666861907,0.00091425908748097,2.8959252014729e-10,-4.504177602819e-10,-0.0013423779269555,0.001342377760516,9.0568309920889e-10,-1.0911940046839e-09,-0.0015865784641929,0.0015865792300465,-0.0015865791400126,0.0015865785418061,-0.0015865787017365,0.0015865789825731,-0.0015865794021631,0.0015865782690538,-0.0012511945359642,0.001251192892592,-0.0012511938320624,0.0012511937806832,0.67692184163557,131329,3014,0.0037979143099153,0.0037979143083176,0.0055747507744804,15.090414053097,-0.00011687668757522,-0.00011687668757522,-0.00011687668757522,4297164.8447894,0.013259432699937
23019200,0.98904298570158,0.014215572165137,0.004270188545086,0.0042701885446739,0.0056751950753773,-0.00091277320233747,0.00091277316336231,-2.6988151465792e-10,2.3383035914304e-10,9.5490499801367e-11,-1.39602333921e-10,-0.0011337607985883,0.0011337605161983,-0.0011337605547984,0.0011337606945147,-0.0011337607296542,0.0011337605536549,-0.0011337605633614,0.0011337606356396,-0.0010135866688169,0.0010135863185703,-0.0010135862113387,0.0010135866834734,-1.0237064053826e-09,1.0981390247904e-09,-5.1064176571057e-10,5.7791705915692e-10,-0.0009127731529576,0.00091277321284051,-0.0011337612369412,0.0011337600978716,-0.0011337608157429,0.0011337604574864,-0.0011337603685005,0.0011337608931265,-0.0011337600213817,0.0011337611546415,-0.001013586501877,0.0010135864289497,-0.0010135854866879,0.0010135873852414,-0.00091447200638614,0.00091447034111772,-0.00091446982886994,0.00091447236917484,2.3473543840525e-10,-4.731267628904e-10,-0.0013426512773341,0.0013426510407858,8.7559319228783e-10,-1.137363623822e-09,-0.001586928407426,0.0015869291037804,-0.0015869290773145,0.001586928431938,-0.0015869285888201,0.0015869288443772,-0.0015869292957428,0.0015869280775308,-0.001251490814547,0.001251489074542,-0.0012514901375761,0.0012514900633653,0.63260384700701,131329,3014,0.0037986681096707,0.0037986681099474,0.0055758801753662,15.108119297166,-0.00011673504562267,-0.00011673504562267,-0.00011673504562267,4295414.6431986,0.013262107342984
23219200,0.98925328117872,0.014218317314242,0.0042710034315931,0.0042710034311703,0.0056763104514787,-0.00091295928962189,0.00091295930041207,-2.7162859596226e-10,2.9857800394105e-10,-2.0897230898058e-11,3.0924731917726e-11,-0.0011339743110833,0.0011339739184988,-0.0011339740474911,0.0011339741851697,-0.0011339741157303,0.001133974086552,-0.0011339739998525,0.0011339742118456,-0.0010137918754207,0.0010137916825453,-0.0010137914912345,0.0010137920543382,-1.1352772467763e-09,1.248688104419e-09,-4.9854779090298e-10,6.0441841808134e-10,-0.00091295924937164,0.00091295934010683,-0.0011339747308277,0.0011339734900546,-0.0011339743058691,0.0011339739199756,-0.0011339737732451,0.0011339744356893,-0.0011339734971218,0.0011339747259603,-0.0010137917059582,0.0010137918166439,-0.001013790801462,0.0010137927319378,-0.00091465296800092,0.0009146511624523,-0.00091465066433476,0.00091465341755776,2.4033645482746e-10,-4.1836725063826e-10,-0.0013428971553955,0.0013428969758937,9.105969265066e-10,-1.1127819623925e-09,-0.0015872029701408,0.0015872036595728,-0.001587203605458,0.0015872030131058,-0.0015872031264832,0.0015872034818935,-0.0015872038832787,0.0015872027050544,-0.0012517217157359,0.0012517199801182,-0.0012517209438123,0.0012517209406274,0.65900392225185,131329,3014,0.003799440601354,0.0037994406001984,0.0055768990832383,15.109156066123,-0.00011672675147102,-0.00011672675147102,-0.00011672675147102,4298355.2134616,0.01326470410476
23419200,0.98945886256846,0.014220969699029,0.004271789809706,0.0042717898092832,0.0056773900800399,-0.00091302593365564,0.00091302593755044,-2.3076066730237e-10,2.5238576643514e-10,2.1008194846421e-10,-2.0724292369447e-10,-0.0011341082411547,0.0011341080671754,-0.0011341080519521,0.0011341082620985,-0.0011341082430427,0.0011341080375245,-0.0011341081126392,0.0011341081813518,-0.0010138714589689,0.0010138710554214,-0.0010138710276653,0.001013871473351,-8.8114680346429e-10,9.8121420213481e-10,-5.0694977277507e-10,6.0171790267562e-10,-0.00091302589528237,0.00091302597534728,-0.0011341086680221,0.001134107630433,-0.001134108287322,0.0011341080190502,-0.0011341079260575,0.0011341083619564,-0.0011341076053663,0.0011341087012524,-0.0010138713473057,0.0010138711336263,-0.0010138703024673,0.001013872187198,-0.00091473210248954,0.00091473067101689,-0.00091473018368721,0.00091473254470452,2.9455292555149e-10,-4.6573564621335e-10,-0.0013430321205107,0.001343031945295,9.185322947042e-10,-1.1142613996085e-09,-0.001587390126018,0.0015873908988949,-0.0015873908084867,0.0015873902043279,-0.0015873903619314,0.0015873906453765,-0.0015873910776095,0.0015873899112623,-0.0012518621901772,0.0012518604896124,-0.001251861451092,0.0012518614197704,0.65256754016201,131329,3014,0.0037997185637046,0.0037997185625005,0.0055774570525694,15.05506360052,-0.00011715949119584,-0.00011715949119584,-0.00011715949119584,4296913.4748827,0.013265833840401
23619200,0.98967315243903,0.014223805172821,0.0042726325843354,0.0042726325839129,0.0056785400045731,-0.00091488643304415,0.00091488643519727,-2.3920594030507e-10,2.6150318055146e-10,2.6848853962412e-10,-2.6369521111584e-10,-0.0011361071162104,0.0011361069295104,-0.0011361068589801,0.0011361071405379,-0.0011361071171217,0.0011361069011688,-0.0011361069881876,0.0011361069892689,-0.0010158371537999,0.0010158367918069,-0.0010158367720387,0.0010158371009024,-8.4780987042523e-10,9.4111802320548e-10,-5.2658189059123e-10,6.1858034692699e-10,-0.00091488639519258,0.00091488647305366,-0.0011361075562988,0.0011361064907152,-0.0011361071015461,0.0011361069010944,-0.0011361067879212,0.0011361072246669,-0.0011361064605031,0.0011361075128232,-0.0010158370392022,0.0010158368644654,-0.0010158360394348,0.0010158378196302,-0.00091666043177842,0.00091665917574617,-0.00091665869413759,0.00091666088182956,2.8660932875233e-10,-4.7012230290988e-10,-0.0013450929827381,0.0013450927882157,9.363015291604e-10,-1.1461186315096e-09,-0.0015895534975672,0.0015895542244788,-0.0015895541615861,0.0015895535497068,-0.0015895536824711,0.001589553991835,-0.0015895544507855,0.001589553207473,-0.0012539262842986,0.0012539244576891,-0.0012539254506803,0.0012539254798314,0.66669417276792,131329,3014,0.0038074462243802,0.0038074462244333,0.0055859897051738,16.008092884058,-0.00010953525692754,-0.00010953525692754,-0.00010953525692754,4315921.5369287,0.013290143905451
23819200,0.98990010594804,0.01422698419392,0.004273581606332,0.0042735816059097,0.0056798209816785,-0.00091724478776979,0.0009172447984579,-2.2378223910621e-10,2.559626831922e-10,2.3296933877015e-10,-2.2205503172415e-10,-0.001138670034614,0.0011386699090896,-0.0011386698838121,0.0011386700728598,-0.0011386700799012,0.0011386698364246,-0.0011386699199675,0.0011386700220493,-0.0010183285070778,0.0010183279916956,-0.0010183279759624,0.0010183285115124,-9.0488790537048e-10,1.009628796401e-09,-5.5214794299097e-10,6.5311560167624e-10,-0.00091724475041768,0.00091724483527423,-0.0011386704909844,0.0011386694382162,-0.0011386701157778,0.0011386698279794,-0.0011386697670228,0.0011386701606263,-0.0011386693848629,0.0011386705749979,-0.0010183284334727,0.0010183280379499,-0.0010183271893672,0.0010183292912938,-0.00091912109332319,0.00091911953463518,-0.00091911902805157,0.00091912158290853,3.1861755074665e-10,-4.7590416180747e-10,-0.0013477138348719,0.0013477136693833,9.6544571838425e-10,-1.1483894449319e-09,-0.00159232089797,0.0015923217461507,-0.001592321640212,0.0015923209898288,-0.0015923211811935,0.001592321453241,-0.0015923218923381,0.0015923207314268,-0.0012565671440077,0.0012565655006225,-0.0012565664725895,0.0012565663471116,0.70079572719737,131329,3014,0.0038172428613308,0.0038172428602109,0.0055968396438452,17.241650235579,-9.9666798115372e-05,-9.9666798115372e-05,-9.9666798115372e-05,4338516.1494688,0.013320998162736
24019200,0.99012352875987,0.014230149576151,0.0042745266062012,0.004274526605782,0.0056810963641682,-0.00091756280683644,0.00091756280248977,-2.0385235800922e-10,2.2155817028528e-10,4.1843625700075e-10,-4.2298176890319e-10,-0.0011391711035983,0.001139171155995,-0.0011391710168056,0.0011391712520566,-0.0011391713239168,0.0011391709050324,-0.0011391711322233,0.0011391711175375,-0.0010186819125945,0.0010186811642727,-0.0010186812947433,0.0010186817698291,-6.6804878403484e-10,7.6008944946737e-10,-5.5823824370163e-10,6.4749753026417e-10,-0.00091756276825825,0.00091756284032593,-0.0011391715535123,0.0011391706955561,-0.0011391712240829,0.0011391710357381,-0.0011391710338323,0.001139171202737,-0.0011391706016977,0.0011391716622349,-0.0010186818796972,0.0010186811749629,-0.0010186804954577,0.0010186825649162,-0.000919509853117,0.00091950862686119,-0.00091950811427467,0.00091951032950756,3.5161605101806e-10,-5.1240203070498e-10,-0.0013481762503793,0.0013481760828576,9.5878106054379e-10,-1.144688282794e-09,-0.0015929078732818,0.0015929087884545,-0.0015929086577136,0.0015929079880942,-0.0015929082213033,0.0015929084221337,-0.0015929088801183,0.0015929077472139,-0.0012570815419061,0.0012570799727354,-0.0012570809695764,0.0012570807516289,0.70866619153537,131329,3014,0.0038185683324997,0.0038185683309507,0.0055987496973878,17.34320101948,-9.8854391844157e-05,-9.8854391844157e-05,-9.8854391844157e-05,4334628.38778,0.013325625441357
24219200,0.99034307610937,0.014233115451999,0.0042754084553997,0.0042754084549822,0.0056822985416169,-0.00091781367523128,0.00091781366241545,-2.1025573030235e-10,2.1417696895238e-10,4.1248556349624e-10,-4.2907329139959e-10,-0.0011396025993151,0.0011396026423386,-0.0011396025040679,0.0011396027440739,-0.0011396028126469,0.001139602398567,-0.0011396026273472,0.0011396025969126,-0.0010189668063977,0.0010189660849874,-0.0010189662172099,0.0010189666599531,-6.200137962415e-10,7.0144032070763e-10,-5.5875741199718e-10,6.3758214216908e-10,-0.00091781363625752,0.00091781370085873,-0.0011396030321394,0.0011396022015409,-0.0011396026974427,0.0011396025458525,-0.0011396025382828,0.0011396026780626,-0.0011396021141697,0.0011396031202625,-0.0010189667855911,0.0010189660770446,-0.0010189654415363,0.0010189674286496,-0.00091983639472516,0.00091983529314751,-0.00091983478748869,0.00091983684735824,3.562510947736e-10,-5.2357237816442e-10,-0.0013485657064383,0.0013485655332439,9.5046341711268e-10,-1.1423664740766e-09,-0.0015934157751537,0.0015934166801348,-0.0015934165490825,0.0015934158936147,-0.0015934161177112,0.0015934163150783,-0.0015934167793561,0.0015934156293174,-0.001257528640414,0.0012575270441597,-0.0012575280402408,0.001257527867085,0.68010475501417,131329,3014,0.0038196151927395,0.0038196151916348,0.0056003571465525,17.418271034709,-9.8253831722331e-05,-9.8253831722331e-05,-9.8253831722331e-05,4329629.9081684,0.013329381445507
24419200,0.99055877022352,0.01423602679661,0.0042762743415713,0.0042762743411535,0.0056834781138851,-0.00091807944058738,0.0009180794383547,-2.0946716436309e-10,2.2671699439262e-10,3.7311181866064e-10,-3.7711054303177e-10,-0.0011399928288479,0.0011399928294195,-0.0011399927142451,0.001139992949867,-0.0011399929964363,0.0011399926331451,-0.0011399928215641,0.0011399928226973,-0.0010192649285007,0.0010192642801816,-0.0010192643691321,0.0010192648223984,-6.1218501752356e-10,6.9872953095606e-10,-5.4885106070984e-10,6.3359237167558e-10,-0.00091807940459362,0.00091807947377364,-0.0011399932412305,0.0011399924068022,-0.0011399928958722,0.0011399927605335,-0.0011399927378722,0.0011399928991572,-0.0011399923332342,0.00113999332366,-0.0010192649141722,0.0010192642634161,-0.0010192636259567,0.0010192655564555,-0.00092015031929233,0.00092014927416589,-0.00092014877785423,0.00092015077703683,3.5839757784707e-10,-5.2511394171777e-10,-0.0013489508121902,0.0013489506393033,9.4451878615825e-10,-1.1362638402138e-09,-0.0015938847644601,0.0015938856485491,-0.0015938855200329,0.0015938848817334,-0.0015938850952104,0.001593885301349,-0.0015938857694331,0.0015938846077883,-0.0012579444197961,0.0012579427858529,-0.0012579437677754,0.0012579436408369,0.67934995796128,131329,3014,0.0038207219177834,0.0038207219165849,0.0056019486105487,17.491877143813,-9.7664982849492e-05,-9.7664982849492e-05,-9.7664982849492e-05,4328231.9708664,0.013333239842292
24619200,0.99076975908357,0.01423902135334,0.0042771689311365,0.0042771689307191,0.0056846834914843,-0.00091823269265243,0.00091823267062147,-1.9600559872233e-10,1.8758508690436e-10,4.7113287294942e-10,-4.9873132621797e-10,-0.0011402541414497,0.0011402542454031,-0.001140254062863,0.0011402543161956,-0.0011402544085795,0.0011402539477864,-0.0011402542179541,0.0011402541310147,-0.001019449056558,0.0010194483034332,-0.0010194484734783,0.0010194488594263,-4.6301266905224e-10,5.3110131854097e-10,-5.5120480606924e-10,6.1806450851371e-10,-0.00091823265452532,0.00091823270829032,-0.0011402545467592,0.001140253836807,-0.0011402542244906,0.0011402541545145,-0.0011402541684912,0.0011402541890005,-0.0011402537339965,0.001140254619784,-0.0010194490715441,0.001019448250035,-0.0010194477230717,0.0010194495959204,-0.00092034582447905,0.00092034500672483,-0.00092034451179345,0.00092034624605723,3.813669885591e-10,-5.6907154825483e-10,-0.0013492097873783,0.0013492095976177,9.2279605789034e-10,-1.1347882905261e-09,-0.0015942186588549,0.0015942195736917,-0.0015942194341328,0.001594218791536,-0.0015942190326754,0.001594219172469,-0.0015942196685425,0.0015942185012748,-0.0012582336845876,0.0012582320460472,-0.0012582330542825,0.0012582329214241,0.70944814931997,131329,3014,0.0038213609724198,0.0038213609714784,0.0056030182090922,17.497817827374,-9.761745738101e-05,-9.761745738101e-05,-9.761745738101e-05,4325737.6356228,0.013335621186181
24819200,0.99097601385738,0.014241717791865,0.0042779685406996,0.0042779685402794,0.0056857807108857,-0.00091833342131139,0.0009183333891261,-3.1733627941802e-11,2.2108611567681e-11,1.1849625707363e-09,-1.2248979640609e-09,-0.0011405133373375,0.0011405141841204,-0.0011405135454086,0.0011405139809128,-0.0011405142528274,0.0011405132367285,-0.0011405140105683,0.0011405134957725,-0.0010195673524484,0.001019565923056,-0.0010195666050593,0.0010195666651114,2.8672178028114e-10,-2.4253400917346e-10,-5.6590260770671e-10,6.1792775419999e-10,-0.00091833338817666,0.00091833342160622,-0.0011405137855112,0.0011405137235427,-0.001140513634581,0.0011405138822681,-0.0011405140923136,0.0011405134068612,-0.0011405134915543,0.0011405140290729,-0.0010195675540456,0.0010195656864931,-0.0010195657072189,0.0010195675496504,-0.00092050539463366,0.00092050554155749,-0.00092050508180069,0.00092050581533462,5.6573680559952e-10,-7.2979720031413e-10,-0.0013494308513533,0.0013494306816402,9.0715859251593e-10,-1.0960292254125e-09,-0.0015945410826863,0.0015945422735536,-0.0015945420084341,0.0015945413388379,-0.0015945417481022,0.0015945415976149,-0.0015945421997488,0.0015945411259364,-0.0012585050127378,0.0012585035789698,-0.0012585045310875,0.0012585042550136,0.66112597348624,131329,3014,0.00382178364842,0.0038217836470561,0.0056039291506921,17.493834477794,-9.7649324177647e-05,-9.7649324177647e-05,-9.7649324177647e-05,4320026.0078766,0.013337405480928
25019200,0.9911893334529,0.014244471684706,0.0042787847145769,0.0042787847141582,0.0056869022559709,-0.00092006718699199,0.00092006715646705,-4.5023035194827e-11,3.3328916324484e-11,9.5053323021523e-10,-9.8907453833414e-10,-0.0011423978583763,0.0011423985519121,-0.0011423980718428,0.0011423983312801,-0.0011423986273062,0.0011423977506342,-0.0011423983429024,0.0011423980327926,-0.0010213957803744,0.0010213944071925,-0.0010213948970063,0.0010213952329026,3.3485029937343e-11,1.2625175587126e-11,-5.7254488941135e-10,6.2286317326069e-10,-0.00092006715255182,0.00092006719076683,-0.0011423983091448,0.0011423980943387,-0.001142398172087,0.001142398228162,-0.0011423984506974,0.0011423979307882,-0.0011423978145724,0.0011423985671162,-0.0010213959721359,0.0010213941771509,-0.0010213940101241,0.0010213961092596,-0.00092231322881146,0.00092231281461699,-0.00092231234886906,0.00092231363485749,5.5612490670702e-10,-7.3128046376616e-10,-0.0013513926869509,0.0013513925036588,9.0878886671218e-10,-1.1090899756214e-09,-0.0015965992247833,0.0015966004211047,-0.0015966001816365,0.0015965994631003,-0.0015965998995009,0.0015965997283171,-0.0015966003293437,0.0015965992635689,-0.0012604776004029,0.0012604762834531,-0.0012604772576623,0.0012604768587828,0.65362910194299,131329,3014,0.0038289853552144,0.0038289853549348,0.0056120506683879,18.393917964149,-9.0448656286812e-05,-9.0448656286812e-05,-9.0448656286812e-05,4337783.3345293,0.013360234214501
25219200,0.99142082459452,0.014247570666249,0.0042797059393153,0.0042797059388954,0.005688158788038,-0.00092325056943676,0.00092325056130118,-3.393707113989e-10,3.40221440645e-10,2.8732344787766e-10,-3.023601986623e-10,-0.0011458001449676,0.0011457997470372,-0.0011457996800558,0.0011458002198991,-0.0011457999908346,0.001145799872667,-0.001145800005225,0.0011457998693883,-0.0010247457393468,0.0010247457189374,-0.0010247457431635,0.0010247456818265,-6.9560324350206e-10,7.7041703899418e-10,-5.5625739807356e-10,6.2450824945993e-10,-0.0009232505341178,0.00092325059654344,-0.0011458005157528,0.0011457993634624,-0.0011457999032333,0.001145799988632,-0.0011457996944163,0.0011458001776822,-0.0011457995606947,0.0011458003267574,-0.0010247455989121,0.001024745809813,-0.0010247451261873,0.0010247462800424,-0.00092561307394215,0.0009256126905097,-0.0009256122114477,0.00092561351786065,2.6512952947487e-10,-4.3771918315589e-10,-0.0013549569095982,0.0013549567301364,9.6761268756718e-10,-1.1661258743315e-09,-0.0016003026308472,0.0016003031898733,-0.001600303138255,0.0016003026827285,-0.001600302629681,0.0016003031874076,-0.0016003035878456,0.0016003021931443,-0.001264049818512,0.0012640476087284,-0.0012640485951108,0.0012640490453148,0.67455043160195,131329,3014,0.0038422071316063,0.003842207131448,0.005626806902711,20.104762720949,-7.6761898232412e-05,-7.6761898232412e-05,-7.6761898232412e-05,4372325.15217,0.013401990719194
25419200,0.99165933972895,0.014251051903631,0.0042807471827437,0.0042807471823236,0.0056895575385637,-0.00092503566377812,0.00092503565239339,2.1492526271017e-11,-9.7117798412041e-12,6.4771720650748e-10,-6.6169268368389e-10,-0.0011477901923866,0.0011477910224204,-0.0011477907305646,0.001147790482477,-0.0011477910454269,0.0011477901392486,-0.0011477905226813,0.0011477906695136,-0.0010266467924551,0.0010266449354233,-0.0010266452232766,0.0010266465011673,-3.502464460535e-10,4.3332166178024e-10,-5.9206161962705e-10,6.7827993671697e-10,-0.00092503562522018,0.00092503568998511,-0.001147790702226,0.0011477905053869,-0.0011477908242288,0.0011477903845186,-0.0011477908710684,0.0011477903191534,-0.001147789932276,0.0011477912694893,-0.0010266470395091,0.0010266446585764,-0.0010266441960274,0.0010266475163139,-0.00092749303045291,0.00092749104947286,-0.00092749051256362,0.0009274935095152,6.2252870370484e-10,-8.0434527292169e-10,-0.0013570482234054,0.0013570480394376,9.2658099720421e-10,-1.1325267041454e-09,-0.0016025313542134,0.0016025329067198,-0.001602532608893,0.0016025316466862,-0.001602532369173,0.0016025318746612,-0.0016025325276023,0.0016025316892668,-0.0012661677515042,0.0012661670319017,-0.0012661680439041,0.0012661669663467,0.72789749758464,131329,3014,0.0038496236766168,0.0038496236746031,0.0056354625989288,21.028674575968,-6.9370603392257e-05,-6.9370603392257e-05,-6.9370603392257e-05,4388378.1107072,0.013425799897244
25619200,0.99189006978472,0.014254438959151,0.0042817597148498,0.0042817597144287,0.0056909195298722,-0.00092499061673039,0.00092499062989301,-4.196394323034e-10,4.4781509390922e-10,7.813225143688e-11,-6.312572672885e-11,-0.0011479569643604,0.0011479562445778,-0.0011479563049533,0.0011479568925326,-0.0011479565410029,0.0011479566443044,-0.0011479565998879,0.0011479565776123,-0.0010266310605519,0.0010266313517225,-0.0010266312229262,0.0010266311977567,-8.7888672668844e-10,9.9166093681776e-10,-5.0743303207387e-10,6.1443253641635e-10,-0.00092499057863958,0.00092499066708748,-0.0011479572883026,0.0011479559154396,-0.0011479565658587,0.0011479566307117,-0.001147956205899,0.0011479569838705,-0.0011479562000522,0.0011479569837712,-0.001026630794423,0.0010266315682978,-0.0010266307198824,0.0010266316753237,-0.00092753429764931,0.00092753388976603,-0.00092753336962973,0.00092753475679778,1.7486727886584e-10,-3.7164344078328e-10,-0.0013571663485255,0.0013571661519348,9.5013138372666e-10,-1.1706266302188e-09,-0.001602783947708,0.0016027843092995,-0.0016027843288081,0.0016027839291821,-0.0016027837608631,0.0016027844785048,-0.0016027848402166,0.001602783370682,-0.0012663617954734,0.001266359436786,-0.0012663604579132,0.0012663609797994,0.73244078010214,131329,3014,0.0038494431864274,0.0038494431845769,0.0056359448887984,20.94373943773,-7.0050084498161e-05,-7.0050084498161e-05,-7.0050084498161e-05,4377733.6797231,0.01342592933424
25819200,0.99210330820657,0.014257478394966,0.0042826662777405,0.0042826662773164,0.0056921458399086,-0.00092359628219774,0.0009235962954186,-4.2602985637444e-10,4.6040823957961e-10,1.0564438460716e-10,-9.0869074159218e-11,-0.0011466996752992,0.0011466990166153,-0.0011466990696245,0.0011466996294088,-0.00114669932003,0.001146699345059,-0.0011466993396871,0.0011466993427449,-0.0010252020929412,0.0010252022072403,-0.0010252021097462,0.0010252022060475,-7.81067538668e-10,8.8787517434458e-10,-4.7809764465194e-10,5.8215863983055e-10,-0.00092359624660142,0.00092359633000554,-0.0011466999622198,0.0011466987196567,-0.0011466993151177,0.0011466993760899,-0.0011466990015919,0.0011466996721568,-0.0011466989809495,0.0011466997152899,-0.0010252018292655,0.0010252024396193,-0.0010252016679495,0.0010252026336799,-0.0009261839985255,0.00092618361641245,-0.00092618313094008,0.00092618444128131,1.830996794893e-10,-3.5887490597091e-10,-0.0013558204170044,0.0013558202402616,9.2087675149442e-10,-1.1207375202087e-09,-0.0016015188260912,0.0016015192440758,-0.0016015192304809,0.0016015188323407,-0.0016015187075762,0.0016015193512564,-0.0016015197050351,0.0016015183320312,-0.0012650902781929,0.0012650879435091,-0.0012650889351191,0.0012650894967365,0.71386866773992,131329,3014,0.0038436589201274,0.0038436589180253,0.005630365556303,20.108536401401,-7.6731708788791e-05,-7.6731708788791e-05,-7.6731708788791e-05,4352529.0267501,0.013408555111858
26019200,0.99230603090004,0.014260245019211,0.0042834890283694,0.004283489027946,0.0056932669628952,-0.00092299346135948,0.00092299347179944,-4.7151252349842e-10,5.0069281026657e-10,3.22837584004e-11,-2.0817373102365e-11,-0.0011462145172896,0.0011462137771179,-0.0011462138720982,0.001146214415028,-0.0011462141095703,0.0011462141567283,-0.0011462140964688,0.0011462141679142,-0.0010245983023708,0.0010245983910983,-0.0010245982168313,0.0010245984336792,-8.2279052095905e-10,9.1770346554642e-10,-4.5902729040912e-10,5.5050569772377e-10,-0.00092299342756337,0.00092299350529981,-0.0011462147715757,0.0011462135178661,-0.0011462141298476,0.0011462141542126,-0.0011462137767592,0.0011462144921615,-0.0011462137674107,0.0011462145030386,-0.0010245979921262,0.0010245986655436,-0.0010245978702124,0.0010245987714849,-0.00092562521677264,0.00092562472990043,-0.00092562428419936,0.00092562561889668,1.4594054567533e-10,-3.2425335634136e-10,-0.0013552938482988,0.0013552936634982,8.948149776049e-10,-1.0977418242114e-09,-0.0016010624937778,0.0016010628599345,-0.0016010628789939,0.0016010624677675,-0.0016010623449542,0.0016010629833582,-0.0016010633272002,0.0016010619748312,-0.0012646161375233,0.0012646138656316,-0.0012646148273718,0.0012646153862811,0.68688841138332,131329,3014,0.0038411598282645,0.0038411598276625,0.0056281805354541,19.715907735014,-7.9872738119886e-05,-7.9872738119886e-05,-7.9872738119886e-05,4339033.3928484,0.013401278357974
26219200,0.99250252687268,0.014263102951295,0.0042843440971459,0.0042843440967218,0.0056944147574274,-0.0009229638768325,0.0009229638891992,-1.0286434147674e-10,1.4108979059786e-10,4.1555242398222e-10,-4.0405667458124e-10,-0.0011462710135662,0.0011462712467687,-0.0011462711090678,0.0011462711864978,-0.001146271336717,0.0011462708958746,-0.0011462711156825,0.0011462711711717,-0.0010245962358862,0.0010245953774652,-0.0010245954998388,0.0010245961250229,-4.3657786155442e-10,5.2441984345876e-10,-4.718486218586e-10,5.6043676712444e-10,-0.00092296384724574,0.00092296391794994,-0.0011462713876644,0.0011462708506816,-0.0011462712353687,0.001146271039521,-0.0011462711448987,0.0011462711062558,-0.0011462706795727,0.00114627163438,-0.0010245963052352,0.0010245952883642,-0.0010245947835681,0.0010245968369909,-0.00092563036695049,0.00092562923787909,-0.00092562881290158,0.00092563079346638,5.3969441223558e-10,-6.7465919615407e-10,-0.0013553562337696,0.0013553560890025,8.705881963929e-10,-1.0305146490731e-09,-0.0016011807894051,0.0016011818815021,-0.0016011816165676,0.0016011810426002,-0.0016011813809031,0.0016011813014748,-0.0016011818629211,0.0016011808100342,-0.0012647059113171,0.0012647043585846,-0.0012647052399202,0.0012647052018399,0.72525111768435,131329,3014,0.0038410392986449,0.0038410392968789,0.0056284363192392,19.629097260083,-8.0567221919336e-05,-8.0567221919336e-05,-8.0567221919336e-05,4335099.9823246,0.01340129443817
26419200,0.99269747004998,0.014266026453402,0.0042852208092343,0.0042852208088142,0.0056955848353531,-0.0009235801761217,0.00092358020827804,-3.8390082997552e-10,4.4624741856533e-10,1.3181329457668e-10,-9.6317294337479e-11,-0.0011470679296365,0.0011470674402639,-0.0011470675005017,0.0011470679304147,-0.0011470677132566,0.0011470676289256,-0.0011470676458898,0.0011470677837954,-0.0010252690088126,0.0010252687583669,-0.0010252686772005,0.0010252691071016,-7.4487275012427e-10,8.5266984467595e-10,-4.3570716413318e-10,5.41910936834e-10,-0.00092358014782394,0.00092358023558445,-0.0011470681989176,0.0011470671405353,-0.0011470677390893,0.0011470676616191,-0.0011470674093169,0.0011470679581172,-0.0011470673175851,0.001147068150044,-0.0010252687587289,0.0010252690025629,-0.001025268272724,0.0010252695178579,-0.0009263336419619,0.0009263328630181,-0.00092633245660967,0.00092633408625843,2.6982709002644e-10,-3.7731988701881e-10,-0.0013561364655782,0.001356136343558,8.9530812236319e-10,-1.0287274185541e-09,-0.001602073522992,0.0016020740984703,-0.0016020740116298,0.0016020735919097,-0.0016020735771611,0.0016020740713962,-0.0016020744146295,0.0016020732343774,-0.0012655492571123,0.0012655473810758,-0.001265548250395,0.0012655485485031,0.74503107543168,131329,3014,0.0038436033555773,0.0038436033534622,0.0056316620518787,19.919013321384,-7.8247893428926e-05,-7.8247893428926e-05,-7.8247893428926e-05,4334746.5519432,0.013409765664574
26619200,0.99289736995818,0.014268993235898,0.0042861096229698,0.0042861096225561,0.0056967739903722,-0.000925149393998,0.0009251493852615,-7.0346947793151e-10,7.0282032096869e-10,-2.0975222136068e-10,2.0301652010231e-10,-0.0011489050815868,0.0011489039252571,-0.0011489041589657,0.0011489047835602,-0.0011489044161838,0.0011489045613339,-0.0011489043237196,0.0011489045754749,-0.0010269379699203,0.0010269380805443,-0.001026937717418,0.0010269382133496,-1.1293398905177e-09,1.2183086977409e-09,-4.2736464446845e-10,5.0722066937331e-10,-0.00092514935255676,0.00092514942706631,-0.0011489052773479,0.001148903748055,-0.0011489045315277,0.0011489044328109,-0.0011489039538072,0.0011489050028385,-0.0011489040343741,0.0011489048414365,-0.0010269373773529,0.0010269386196534,-0.0010269375937049,0.0010269383200556,-0.00092804101036561,0.0009280402039124,-0.00092803975898706,0.0009280413424036,-6.703827385028e-11,-1.5086852407015e-10,-0.0013579708583619,0.0013579706326477,8.7804797697231e-10,-1.1200433127103e-09,-0.0016040684306788,0.0016040685310246,-0.0016040687195259,0.0016040682429033,-0.001604068026241,0.0016040688635591,-0.0016040691045997,0.0016040677317783,-0.0012674665444371,0.0012674643671778,-0.0012674653849193,0.0012674658103904,0.73848803988178,131329,3014,0.0038501261366383,0.00385012613746,0.0056392504476213,20.75899241976,-7.1528060641921e-05,-7.1528060641921e-05,-7.1528060641921e-05,4343617.0804083,0.013430685015187
26819200,0.9931007311921,0.014271928662665,0.004286986812395,0.0042869868119719,0.0056979550382984,-0.00092653029063229,0.00092653029646162,-6.731574714425e-10,6.8780144254982e-10,-1.1623905324142e-10,1.1808816069363e-10,-0.0011505445437385,0.0011505435830516,-0.001150543761894,0.0011505443517797,-0.0011505440415464,0.0011505440602052,-0.0011505439032671,0.0011505441840732,-0.0010284086973185,0.0010284085413509,-0.001028408284144,0.001028408940815,-1.0818639920941e-09,1.182908683823e-09,-4.2965556584726e-10,5.2307776987828e-10,-0.00092653025253324,0.00092653033419665,-0.0011505447634774,0.0011505433604019,-0.0011505441315013,0.0011505439807515,-0.0011505435941424,0.0011505445092911,-0.0011505436069105,0.0011505444866921,-0.0010284081270987,0.0010284090715389,-0.0010284080922407,0.0010284091140995,-0.00092954818661952,0.00092954721212582,-0.00092954677000337,0.00092954857617913,-2.7119443166686e-11,-1.7139977879559e-10,-0.0013596346717275,0.0013596344764709,8.9034012651441e-10,-1.11275789851e-09,-0.001605884068686,0.0016058843298154,-0.0016058844553357,0.0016058839409007,-0.0016058838160204,0.0016058845595814,-0.0016058848035979,0.0016058835376218,-0.0012692054671748,0.0012692034499473,-0.0012692044320032,0.0012692047106252,0.72122277369723,131329,3014,0.0038558667923975,0.0038558667916599,0.0056461327997886,21.496973418747,-6.5624212650022e-05,-6.5624212650022e-05,-6.5624212650022e-05,4351716.8136672,0.013449302958593
27019200,0.99330092199697,0.014274729688659,0.0042878214053935,0.0042878214049673,0.0056990868782982,-0.00092699717535564,0.00092699717139064,9.4154847634035e-11,-7.4740848394856e-11,3.2947918296065e-10,-3.3436976429205e-10,-0.0011511965956562,0.0011511968614962,-0.0011511967799827,0.0011511966852694,-0.0011511968265879,0.0011511965979258,-0.0011511967731172,0.0011511966705672,-0.0010289169562348,0.0010289166752124,-0.0010289167488726,0.0010289168761961,-6.5004734221422e-10,7.4058108938843e-10,-4.7118724780072e-10,5.6147045123607e-10,-0.00092699713748665,0.0009269972085015,-0.0011511970855968,0.0011511963646785,-0.0011511968780802,0.0011511965799936,-0.0011511966452881,0.0011511967847584,-0.0011511962030849,0.0011511972527349,-0.0010289171753126,0.0010289164402542,-0.0010289157771466,0.0010289178506471,-0.00093009239369489,0.00093009096751627,-0.00093009050942562,0.00093009280716733,7.601342765961e-10,-9.2612528468474e-10,-0.0013602845764087,0.0013602844077597,8.5710532355012e-10,-1.0467186897861e-09,-0.0016066420463899,0.0016066432529361,-0.0016066428323624,0.0016066424525314,-0.0016066427510033,0.0016066425252228,-0.0016066432677782,0.0016066419861009,-0.001269909555104,0.0012699073658088,-0.0012699083105543,0.0012699088305453,0.70228870349129,131329,3014,0.0038578103497912,0.003857810348211,0.0056488183815798,21.71528246069,-6.3877740314481e-05,-6.3877740314481e-05,-6.3877740314481e-05,4351130.3894815,0.01345596830636
27219200,0.99349562099036,0.01427736240594,0.0042886035784564,0.0042886035780315,0.0057001552494525,-0.00092713246886314,0.000927132471641,-2.102488761588e-11,4.626310984081e-11,3.2472192782094e-10,-3.2226744324494e-10,-0.0011514563493714,0.0011514564792592,-0.0011514563967149,0.0011514564438252,-0.0011514565235625,0.0011514562764869,-0.0011514564340359,0.0011514563896571,-0.0010290771013058,0.0010290767277704,-0.0010290767894681,0.0010290770405039,-6.539053187082e-10,7.4710555560539e-10,-4.6114988195006e-10,5.5356307193608e-10,-0.00092713243281643,0.00092713250695393,-0.0011514567912916,0.0011514560257723,-0.0011514565425282,0.0011514562875408,-0.0011514563007152,0.0011514565090811,-0.0011514559173141,0.0011514569222791,-0.0010290771837053,0.0010290766196241,-0.0010290759506641,0.0010290778717118,-0.0009302710421302,0.00093026975914908,-0.00093026931982072,0.00093027146331897,6.5638516753075e-10,-8.1484231400899e-10,-0.0013605474309074,0.0013605472668404,8.5351532383979e-10,-1.0358970261746e-09,-0.0016069799969077,0.0016069810463209,-0.0016069807253351,0.0016069803067641,-0.0016069805519508,0.0016069804805505,-0.0016069811235556,0.0016069798908584,-0.0012702027777767,0.0012702007821307,-0.0012702016985992,0.0012702020631448,0.68192144870733,131329,3014,0.0038583752314544,0.0038583752299236,0.005649903200515,21.739952379995,-6.3680380960038e-05,-6.3680380960038e-05,-6.3680380960038e-05,4348745.5051554,0.013458214493076
27419200,0.99368642934366,0.014280032653994,0.0042893995842889,0.0042893995838656,0.0057012334858391,-0.000927514443435,0.00092751445859839,-1.1558905853949e-10,1.5740396394636e-10,2.9730337414482e-10,-2.7937736306627e-10,-0.0011519251876032,0.0011519252203307,-0.0011519251589347,0.0011519252688754,-0.0011519253245159,0.0011519250550081,-0.0011519251825689,0.0011519252345751,-0.0010295020137622,0.0010295015048334,-0.0010295015307788,0.0010295019767752,-6.8774772230821e-10,7.8769021207714e-10,-4.533008648213e-10,5.5131223768939e-10,-0.00092751441037658,0.00092751449111045,-0.0011519255925918,0.0011519247983362,-0.0011519253403702,0.0011519250725985,-0.0011519250682836,0.0011519253251815,-0.0011519247040736,0.0011519257323128,-0.0010295020028597,0.001029501498836,-0.0010295008067018,0.0010295027020877,-0.0009306827338296,0.00093068141056024,-0.00093068099040399,0.00093068316670487,5.7226443824364e-10,-7.1187090712655e-10,-0.0013610608142765,0.0013610606629703,8.6037374567265e-10,-1.0247168103107e-09,-0.0016075514341084,0.0016075524111807,-0.0016075521481838,0.0016075516838975,-0.0016075519160725,0.001607551924967,-0.0016075525018016,0.0016075513317189,-0.0012707257243461,0.0012707239099141,-0.0012707247932182,0.0012707250138738,0.70215250783059,131329,3014,0.0038599629427063,0.0038599629415572,0.005652027121928,21.892059019951,-6.246352784039e-05,-6.246352784039e-05,-6.246352784039e-05,4351257.3506692,0.013463585596212
27619200,0.9938760648989,0.014282731310557,0.0042902051015019,0.0042902051010824,0.0057023211079724,-0.00092830588652378,0.00092830592881901,-1.3902054937059e-10,2.2055224942723e-10,2.1785283142201e-10,-1.655598020264e-10,-0.0011528547889173,0.0011528548537628,-0.0011528548598118,0.0011528548329408,-0.0011528549697728,0.0011528546441445,-0.001152854704672,0.0011528549922867,-0.0010303583376491,0.0010303574900989,-0.0010303574474396,0.0010303583847823,-7.8671969568481e-10,9.0855948865886e-10,-4.4456806899514e-10,5.6556137323631e-10,-0.00092830585781954,0.00092830595675528,-0.0011528551811158,0.001152854432392,-0.0011528550539447,0.0011528546101746,-0.0011528547040196,0.0011528549354248,-0.0011528542443867,0.0011528554859837,-0.0010303582987589,0.0010303575346649,-0.0010303567677267,0.0010303590828926,-0.00093153431368757,0.00093153244429502,-0.00093153203511341,0.00093153479456958,5.5795764577692e-10,-6.5715408292327e-10,-0.0013620394951556,0.0013620393764368,8.8338717515759e-10,-1.0086115624032e-09,-0.0016086195138199,0.0016086206053761,-0.0016086203372117,0.0016086197589333,-0.0016086200942856,0.0016086200393102,-0.0016086205775129,0.0016086195725776,-0.0012717317061472,0.0012717303195701,-0.0012717311587361,0.0012717309869373,0.7125317179736,131329,3014,0.0038632523628106,0.0038632523611735,0.0056560764547013,22.282230082718,-5.9342159338258e-05,-5.9342159338258e-05,-5.9342159338258e-05,4356401.5115961,0.013474359927004
27819200,0.9940618223418,0.014285422343232,0.0042910093287206,0.0042910093283088,0.0057034036862021,-0.00092868479959337,0.0009286848042303,-1.5432949942796e-10,1.7495183701794e-10,9.898148853641e-11,-9.3259909179673e-11,-0.0011533746043408,0.0011533749630235,-0.0011533750031275,0.0011533745530209,-0.0011533750830536,0.0011533744615203,-0.0011533744465433,0.0011533750878461,-0.0010307819884364,0.0010307802499727,-0.001030780132111,0.0010307820924166,-8.8777937502673e-10,9.8957049818658e-10,-4.6593121520668e-10,5.6435428792754e-10,-0.00092868476075091,0.00092868484226528,-0.0011533750132952,0.0011533745488436,-0.0011533751974887,0.0011533743581516,-0.0011533748132429,0.0011533747350943,-0.0011533739603402,0.001153375579791,-0.0010307819302002,0.0010307802528689,-0.0010307793989244,0.001030782795964,-0.00093197136385532,0.00093196835099767,-0.00093196788058702,0.00093197178492065,5.3806439367859e-10,-7.1971781993817e-10,-0.0013625717475497,0.0013625715614626,8.3150130714701e-10,-1.0364153176058e-09,-0.0016092413707005,0.0016092427736802,-0.00160924254019,0.0016092415995777,-0.0016092422993502,0.0016092418249629,-0.0016092424181749,0.0016092416803257,-0.0012723008250077,0.0012723003526255,-0.0012723012733514,0.0012723001183725,0.7238370064084,131329,3014,0.0038648292140024,0.0038648292123374,0.005658276451275,22.443864303778,-5.8049085569777e-05,-5.8049085569777e-05,-5.8049085569777e-05,4355738.753648,0.013479789002674
28019200,0.99424443501403,0.014288119292824,0.0042918165389894,0.0042918165385736,0.0057044862152615,-0.00092917008510897,0.00092917011662924,-2.4319513384971e-10,3.0428069611007e-10,1.9262677738418e-10,-1.5573114549099e-10,-0.0011540204313486,0.0011540203194133,-0.001154020317473,0.0011540204554223,-0.0011540204995049,0.001154020226669,-0.0011540202655512,0.001154020504352,-0.0010313204319472,0.0010313197544524,-0.001031319688496,0.0010313204990949,-8.0037122657366e-10,9.1753792672484e-10,-4.4235299984919e-10,5.5771246195384e-10,-0.00092917005353319,0.0009291701475012,-0.0011540207933839,0.0011540199365773,-0.0011540205477454,0.0011540202072596,-0.0011540201995509,0.001154020544846,-0.0011540198342701,0.0011540209582591,-0.0010313202756416,0.0010313198800723,-0.0010313190971881,0.001031321080317,-0.00093252843427056,0.00093252689367604,-0.0009325264632933,0.00093252888517911,4.6056222355198e-10,-5.9711063409177e-10,-0.0013632260112215,0.0013632258630453,8.7054736587554e-10,-1.0321324237688e-09,-0.0016099959730747,0.0016099968810288,-0.0016099966897617,0.0016099961506845,-0.00160999638274,0.0016099964735794,-0.0016099969821502,0.0016099958783534,-0.0012730043686628,0.0012730028690335,-0.0012730037340015,0.0012730036334916,0.73612816273643,131329,3014,0.0038668485904438,0.0038668485889675,0.0056609811212269,22.670830972442,-5.6233352220467e-05,-5.6233352220467e-05,-5.6233352220467e-05,4355301.3587018,0.013486627576896
28219200,0.99442674998012,0.014290867674197,0.0042926403897151,0.0042926403893031,0.0057055868951783,-0.00093011622627883,0.00093011622737367,-1.6695015002281e-10,1.8135911851518e-10,1.6098595113676e-10,-1.6146737078266e-10,-0.0011551674420243,0.0011551678021814,-0.0011551678067862,0.0011551674335399,-0.0011551679300086,0.0011551672882483,-0.001155167324581,0.0011551678923983,-0.0010323465554147,0.0010323448585337,-0.0010323447806133,0.0010323465871077,-8.3803081139077e-10,9.2692077198609e-10,-4.9229661502468e-10,5.7347808975781e-10,-0.00093011619024789,0.00093011626334863,-0.0011551678554856,0.0011551673803969,-0.0011551679989128,0.001155167237188,-0.0011551676613454,0.001155167561884,-0.0011551668336283,0.0011551683912636,-0.0010323465214363,0.0010323448495166,-0.0010323440531372,0.0010323473019789,-0.00093357624736991,0.00093357344168991,-0.00093357299034393,0.00093357666870212,5.5076620435287e-10,-7.1932611166929e-10,-0.0013643981196813,0.0013643979420655,8.3977350070188e-10,-1.0325865156025e-09,-0.0016112909785851,0.0016112923596865,-0.001611292116164,0.0016112912165657,-0.0016112918824704,0.001611291438328,-0.0016112920351954,0.0016112912600416,-0.00127423828998,0.0012742377221955,-0.0012742386177118,0.0012742376013649,0.74949209545795,131329,3014,0.0038707824793596,0.0038707824792565,0.0056658287741154,23.164333434234,-5.2285332526129e-05,-5.2285332526129e-05,-5.2285332526129e-05,4359183.1592647,0.013499520490383
28419200,0.99460343958529,0.014293589113867,0.0042934572277006,0.0042934572272871,0.0057066746588791,-0.00093020069369888,0.00093020071305067,-2.0211529760463e-10,2.4841134329221e-10,1.9407493767328e-10,-1.7176792472545e-10,-0.0011554380665838,0.001155438168422,-0.0011554381787984,0.0011554380888811,-0.0011554383263216,0.0011554378789703,-0.0011554379427363,0.0011554383137574,-0.0010324643467867,0.0010324631946016,-0.0010324631648661,0.0010324643977699,-7.8646998933532e-10,8.9716385075652e-10,-4.6897881912056e-10,5.7871159018728e-10,-0.00093020065906041,0.00093020074659965,-0.0011554384491858,0.0011554377674773,-0.0011554383805973,0.0011554378704353,-0.0011554380503047,0.0011554381708668,-0.0011554374887106,0.0011554387912269,-0.0010324642636854,0.0010324632663737,-0.0010324624965033,0.0010324650687594,-0.00093374457820775,0.00093374253297104,-0.00093374207236263,0.00093374503822474,5.2229147770681e-10,-6.6393814832179e-10,-0.001364630275918,0.0013646301284983,8.5725498618391e-10,-1.0231395587888e-09,-0.0016116328323543,0.0016116339739557,-0.0016116337279459,0.0016116330621098,-0.0016116334709579,0.0016116333359539,-0.0016116338711549,0.001611632926651,-0.0012745434975051,0.0012745424095019,-0.0012745433123577,0.0012745427811683,0.76402648439333,131329,3014,0.0038711388246696,0.0038711388223756,0.0056667840583621,23.176439012813,-5.2188487897497e-05,-5.2188487897497e-05,-5.2188487897497e-05,4352095.6490882,0.013501216219735
28619200,0.99477502185711,0.014296251267577,0.0042942567302579,0.0042942567298465,0.0057077378074726,-0.0009303313257142,0.00093033133585774,-2.4884526868315e-10,2.8213669503528e-10,2.2964784609241e-10,-2.1727633838642e-10,-0.0011557695148406,0.0011557693864149,-0.0011557693627387,0.0011557695530834,-0.0011557695759428,0.0011557692971928,-0.0011557693831503,0.0011557695172644,-0.0010326326421217,0.0010326320469938,-0.0010326320264774,0.0010326326464171,-7.3530175219053e-10,8.3285101499708e-10,-4.7433611050494e-10,5.6924628072908e-10,-0.00093033129129653,0.00093033136967274,-0.0011557698796844,0.0011557690077854,-0.001155769575601,0.0011557693295817,-0.0011557692884143,0.0011557695954236,-0.0011557689441589,0.001155769971748,-0.0010326325220683,0.0010326321399897,-0.0010326314107893,0.0010326332569021,-0.0009339723019987,0.00093397103411507,-0.00093397058843012,0.00093397273765623,4.8555324832862e-10,-6.3557063410634e-10,-0.0013649157890324,0.0013649156293418,8.5328482802834e-10,-1.0276631695662e-09,-0.0016120335891467,0.0016120344707551,-0.0016120342611693,0.0016120337854225,-0.0016120339773116,0.0016120340724039,-0.0016120346018322,0.0016120334346287,-0.0012749145390859,0.0012749128343662,-0.0012749137301079,0.0012749138310785,0.7689622419468,131329,3014,0.0038716873677398,0.0038716873664795,0.005667959519011,23.22284517298,-5.1817238616163e-05,-5.1817238616163e-05,-5.1817238616163e-05,4344687.3838518,0.01350352543095
28819200,0.99494810588003,0.014298860412342,0.0042950386160018,0.0042950386155909,0.0057087831807493,-0.00093158559170785,0.00093158560868828,-2.8396410585619e-10,3.2388633120079e-10,1.578494926887e-10,-1.3868805905735e-10,-0.0011572806908601,0.0011572807386434,-0.0011572807661501,0.0011572806892303,-0.001157280947357,0.0011572804545128,-0.0011572804877841,0.0011572809555274,-0.0010339796868101,0.0010339783685502,-0.0010339782949743,0.0010339797435159,-8.2959291984935e-10,9.3032119200633e-10,-4.8453633515933e-10,5.8107176634606e-10,-0.00093158555878444,0.0009315856410716,-0.0011572810515881,0.0011572803588758,-0.0011572809933428,0.0011572804459496,-0.0011572806470702,0.0011572807697818,-0.0011572800553958,0.0011572814091415,-0.001033979540292,0.001033978495082,-0.0010339777015726,0.0010339803369839,-0.00093536211193501,0.00093535993502679,-0.00093535949377764,0.00093536256478117,4.6136682056033e-10,-5.9972260747424e-10,-0.001366444855893,0.0013664447053636,8.7771482182645e-10,-1.0415204027372e-09,-0.001613710820792,0.0016137119521459,-0.001613711755255,0.0016137110032055,-0.0016137114436369,0.0016137113286931,-0.0016137118327427,0.0016137109313115,-0.0012765316914632,0.0012765307070591,-0.0012765315988841,0.0012765309758908,0.74978590345603,131329,3014,0.0038769023989139,0.003876902397775,0.0056742832525046,23.911686864391,-4.6306505084872e-05,-4.6306505084872e-05,-4.6306505084872e-05,4350442.3477382,0.013520513556825
29019200,0.99511209162326,0.014301185402059,0.0042957315586661,0.0042957315582571,0.0057097222851355,-0.0009310172541817,0.00093101725360577,-2.4739758067373e-10,2.6289302868078e-10,1.2944684960525e-10,-1.2997643063279e-10,-0.0011568599021779,0.0011568594748925,-0.0011568595082707,0.0011568598641677,-0.0011568596626217,0.001156859687767,-0.0011568597064005,0.001156859641019,-0.001033399285771,0.0010333994677573,-0.0010333993815541,0.0010333993513172,-8.1049881160929e-10,9.0605564677083e-10,-4.4728214107705e-10,5.3777689927048e-10,-0.00093101721596218,0.0009310172911586,-0.0011568602571643,0.0011568591154732,-0.001156859723649,0.0011568596485972,-0.0011568593693044,0.0011568599838256,-0.0011568592722583,0.0011568600804504,-0.0010333991450933,0.0010333995709139,-0.0010333987818205,0.0010333999376429,-0.00093484378621264,0.00093484306221686,-0.00093484260852275,0.00093484418168702,4.9437963833552e-10,-6.7869565478421e-10,-0.0013659662951791,0.0013659661079415,8.8997365173937e-10,-1.0978200156168e-09,-0.0016133119294522,0.0016133126116104,-0.0016133124025418,0.0016133121304128,-0.0016133120939243,0.0016133124222498,-0.0016133129876587,0.0016133115003955,-0.0012761142672608,0.0012761117491085,-0.0012761127251381,0.0012761135185907,0.71130447242086,131329,3014,0.0038745470747915,0.003874547073414,0.0056722962851316,23.567150322709,-4.9062797418326e-05,-4.9062797418326e-05,-4.9062797418326e-05,4337656.0910606,0.013513728247598
29219200,0.99527465568474,0.01430343142583,0.0042963999030053,0.0042963999025925,0.005710631620232,-0.00093180953719921,0.00093180955934744,-3.173013833076e-10,3.6913698176565e-10,2.2401354915749e-10,-1.9787905610714e-10,-0.0011577732577528,0.0011577733370847,-0.0011577733242375,0.001157773303974,-0.0011577735667265,0.0011577729973899,-0.0011577730715034,0.0011577735502485,-0.0010342548215325,0.0010342533233109,-0.0010342533014223,0.0010342548447527,-7.3608197567202e-10,8.3412030727622e-10,-5.1169097354586e-10,6.0819760287832e-10,-0.00093180950845191,0.0009318095874139,-0.0011577736035061,0.0011577729662745,-0.0011577735445004,0.0011577730611905,-0.0011577732787827,0.0011577733057475,-0.0011577726599986,0.0011577739889928,-0.0010342546828795,0.0010342534502183,-0.0010342527365829,0.0010342554152496,-0.00093569222322474,0.00093569019757511,-0.00093568975835967,0.00093569270573211,4.4733264041254e-10,-5.6883867313371e-10,-0.0013669185347319,0.0013669183983084,8.8513793590835e-10,-1.0325474912064e-09,-0.0016143370080978,0.0016143381450792,-0.0016143379511956,0.0016143371747615,-0.0016143376309495,0.0016143375205615,-0.001614338000961,0.0016143371477854,-0.001277087717357,0.001277086810329,-0.0012770876824204,0.001277087000413,0.69517199135126,131329,3014,0.0038778393221357,0.003877839320695,0.0056762363199719,23.975103074649,-4.5799175402809e-05,-4.5799175402809e-05,-4.5799175402809e-05,4344123.8490381,0.013524396678775
29419200,0.9954363776492,0.014305499479181,0.0042970108264206,0.0042970108260125,0.0057114778267483,-0.00093273942865471,0.00093273945951088,-3.1405121406863e-10,3.7768930611566e-10,2.0629739775611e-10,-1.6715268348261e-10,-0.0011588087247709,0.0011588087392855,-0.0011588087351699,0.0011588087528607,-0.0011588089681885,0.0011588084688538,-0.0011588085163473,0.0011588089653002,-0.0010352457742264,0.0010352444383999,-0.0010352443793802,0.0010352458152838,-7.6541204916054e-10,8.7794401063003e-10,-5.1380201896342e-10,6.2435915469057e-10,-0.00093273939841498,0.00093273948901678,-0.0011588090774548,0.0011588083651448,-0.0011588089577529,0.001158808511164,-0.0011588086755574,0.0011588087795696,-0.0011588080949842,0.0011588094104475,-0.0010352456318098,0.0010352445619491,-0.0010352438019135,0.0010352463945565,-0.00093665794136944,0.00093665599223256,-0.00093665552228944,0.00093665842933047,4.461311789399e-10,-5.8082693195945e-10,-0.0013680312666731,0.0013680311157795,9.0326160806613e-10,-1.0637653222584e-09,-0.0016155188260824,0.0016155199193045,-0.0016155197364577,0.0016155189903925,-0.0016155194019031,0.0016155193445485,-0.0016155198481887,0.001615518901045,-0.0012781974636434,0.0012781964440351,-0.0012781973429126,0.0012781967130176,0.65090117999215,131329,3014,0.0038817019616845,0.0038817019601419,0.0056808419527328,24.458121009903,-4.1935031920777e-05,-4.1935031920777e-05,-4.1935031920777e-05,4354089.1810385,0.013536895194941
29619200,0.99559762766678,0.014307528259252,0.0042976092159195,0.0042976092155139,0.0057123098278183,-0.00093380288820337,0.00093380291402159,-3.1265170955783e-10,3.6676864902836e-10,1.7444755174704e-10,-1.4235281474864e-10,-0.0011599046231087,0.0011599045448615,-0.0011599045573436,0.0011599046317403,-0.0011599047709726,0.0011599043708442,-0.0011599044009212,0.0011599047798623,-0.001036381315023,0.0010363802468594,-0.0010363801724288,0.0010363813780538,-8.0992252972846e-10,9.2005321736789e-10,-5.1994056972075e-10,6.2697213062287e-10,-0.00093380285645537,0.00093380294508758,-0.0011599049848503,0.0011599041635842,-0.0011599047820771,0.0011599043908612,-0.0011599044752944,0.0011599046823313,-0.0011599039689705,0.0011599052330487,-0.0010363811757103,0.0010363803641606,-0.0010363795764998,0.001036381972675,-0.00093771885356857,0.00093771707009454,-0.00093771659401601,0.00093771934389413,4.5662308836044e-10,-5.9873254989629e-10,-0.0013692632650325,0.0013692631088512,9.2845841532097e-10,-1.0962711224638e-09,-0.0016167858176534,0.0016167868581008,-0.0016167866692817,0.0016167859898879,-0.0016167863232222,0.0016167863505913,-0.0016167868669187,0.0016167858060937,-0.0012793799459812,0.0012793786519208,-0.00127937957544,0.0012793791799668,0.64191651711634,131329,3014,0.0038861164122959,0.0038861164108643,0.005685944400965,24.999003040365,-3.7607975677084e-05,-3.7607975677084e-05,-3.7607975677084e-05,4369766.1477808,0.013551012685558
29819200,0.9957591008284,0.014309695504978,0.0042982521977484,0.0042982521973446,0.0057131911098846,-0.00093505047627941,0.00093505051366317,-3.0185195783577e-10,3.7100254795036e-10,1.5013919073314e-10,-1.0404594190907e-10,-0.0011611747356612,0.0011611745716052,-0.001161174598688,0.0011611747331396,-0.0011611747880011,0.0011611744948596,-0.0011611744971392,0.0011611748326502,-0.001037720153683,0.0010377193466381,-0.0010377192465081,0.001037720248033,-8.5518679793488e-10,9.7451726671239e-10,-5.2197468565665e-10,6.3821407462986e-10,-0.00093505044632691,0.00093505054286981,-0.0011611751061645,0.0011611741780786,-0.0011611748255275,0.0011611744865839,-0.0011611744921754,0.0011611748097092,-0.0011611740585222,0.0011611752959192,-0.0010377200231879,0.0010377194604652,-0.0010377186380394,0.0010377208591106,-0.00093896474348191,0.00093896308373093,-0.00093896260820508,0.00093896525659008,4.7226576954609e-10,-6.0662568923689e-10,-0.0013706952624213,0.0013706951115077,9.5924686875485e-10,-1.1198826685885e-09,-0.0016182545617131,0.0016182555526309,-0.0016182553554367,0.0016182547406172,-0.0016182550020424,0.0016182551153341,-0.0016182556418844,0.0016182544847872,-0.0012807543588318,0.0012807528036866,-0.0012807537280899,0.0012807535667131,0.67837953860988,131329,3014,0.0038912950398798,0.0038912950383097,0.005691875584439,25.63604512564,-3.2511638994878e-05,-3.2511638994878e-05,-3.2511638994878e-05,4387866.9762633,0.013567519532214
30019200,0.99591721593809,0.014311853600484,0.004298892944534,0.0042988929441331,0.0057140677118174,-0.00093563779631774,0.00093563781599271,-3.2554949139239e-10,3.7333881134382e-10,1.7001919032456e-10,-1.4432637498714e-10,-0.0011618296981282,0.001161829538257,-0.0011618295554595,0.0011618296953463,-0.001161829777882,0.0011618294319029,-0.0011618294641558,0.001161829774986,-0.0010383671922382,0.0010383663059648,-0.0010383662348369,0.001038367254573,-8.2241907610094e-10,9.3265305306737e-10,-5.4257840556447e-10,6.5084189300456e-10,-0.00093563776189559,0.00093563784958205,-0.0011618300682886,0.00116182915324,-0.0011618297795496,0.0011618294598343,-0.0011618294786484,0.0011618297429903,-0.0011618290193073,0.0011618302366965,-0.0010383670574113,0.0010383664193112,-0.0010383656168342,0.001038367870528,-0.00093956823457783,0.00093956663104961,-0.00093956612386354,0.00093956873339864,4.5702085438543e-10,-6.1188884580401e-10,-0.0013714290266703,0.0013714288609353,9.4167421958722e-10,-1.1217250175119e-09,-0.0016190489870735,0.0016190499728638,-0.0016190497847208,0.0016190491586814,-0.0016190494265065,0.0016190495229951,-0.0016190500474761,0.0016190488962852,-0.0012814677842194,0.0012814662382637,-0.0012814672044777,0.0012814670005565,0.68873330436864,131329,3014,0.0038937343773469,0.0038937343756066,0.0056949133223179,25.91502001614,-3.0279839870879e-05,-3.0279839870879e-05,-3.0279839870879e-05,4393694.3640371,0.01357554369377
30219200,0.99607012571221,0.014313839181884,0.0042994796136864,0.0042994796132855,0.0057148799549117,-0.0009358500980077,0.00093585008059387,-3.6768405088699e-10,3.6194480665814e-10,2.4720219376031e-10,-2.6871450313285e-10,-0.0011621121665299,0.001162112163551,-0.0011621121190232,0.0011621122028204,-0.001162112435201,0.0011621118675234,-0.0011621119816784,0.0011621123102999,-0.0010386203840381,0.0010386186773469,-0.001038618685114,0.0010386203561313,-7.1559782374457e-10,7.9666920788711e-10,-5.775094166331e-10,6.5537879217582e-10,-0.00093585005726193,0.00093585012072168,-0.0011621125351211,0.0011621117927635,-0.0011621123390044,0.0011621119855788,-0.0011621121356577,0.0011621121670772,-0.0011621115321786,0.0011621127628777,-0.0010386202381251,0.0010386187721174,-0.0010386180548316,0.0010386209623747,-0.00093979564198409,0.00093979406397026,-0.00093979352936206,0.00093979609819331,4.2974707769824e-10,-6.2346078805383e-10,-0.0013717545331145,0.0013717543383185,8.9690804698659e-10,-1.1143192126365e-09,-0.0016194339134136,0.0016194349363706,-0.0016194347714304,0.0016194340723299,-0.0016194344135262,0.0016194344087238,-0.0016194349356333,0.0016194338504372,-0.0012817824171897,0.0012817806123216,-0.0012817816115471,0.0012817816693817,0.66008545607334,131329,3014,0.0038946170329178,0.0038946170316519,0.0056962600453565,25.990998435952,-2.9672012512386e-05,-2.9672012512386e-05,-2.9672012512386e-05,4393875.6917849,0.013578698757537
30419200,0.99621558273423,0.014315612031827,0.0043000002959782,0.0043000002955731,0.005715611440276,-0.00093558180227473,0.00093558180853726,-3.3774063304961e-10,3.6287352181594e-10,9.2877837763457e-11,-8.6341065692651e-11,-0.0011618352279824,0.0011618349429381,-0.0011618350054518,0.0011618351711965,-0.0011618351892779,0.0011618349542847,-0.0011618349453711,0.001161835210747,-0.0010383630940458,0.0010383624690123,-0.0010383623524524,0.0010383631939602,-8.4100329531008e-10,9.3960344276715e-10,-5.2066734488959e-10,6.1465680017798e-10,-0.00093558176612908,0.00093558184410932,-0.0011618355722182,0.0011618345889635,-0.001161835223388,0.0011618349472947,-0.0011618348958191,0.0011618352550829,-0.001161834525288,0.0011618356420076,-0.0010383629404437,0.0010383625869631,-0.0010383617794786,0.0010383637559389,-0.00093949477214031,0.00093949334506025,-0.00093949285159618,0.00093949522706852,4.607655343998e-10,-6.3870805208391e-10,-0.0013715289655372,0.00137152878341,9.3232411746171e-10,-1.134876741471e-09,-0.0016192223376263,0.001619223252163,-0.0016192230643148,0.0016192225143791,-0.0016192227089862,0.0016192228620212,-0.0016192234020545,0.0016192221476462,-0.0012815148363799,0.0012815130141614,-0.0012815140057617,0.001281514055549,0.62526767875375,131329,3014,0.0038935019541184,0.0038935019529306,0.0056953275080642,25.786498997831,-3.1308008017351e-05,-3.1308008017351e-05,-3.1308008017351e-05,4391812.7072187,0.013575490492905
30619200,0.99635297309755,0.014317407863381,0.0043005316041211,0.0043005316037146,0.0057163446555454,-0.00093511988534226,0.00093511987192988,-3.3966747962695e-10,3.3659947579354e-10,1.9699230466737e-11,-3.6854224128751e-11,-0.0011612775645043,0.0011612771258315,-0.0011612772359091,0.001161277456356,-0.0011612773769692,0.0011612772837267,-0.0011612772491541,0.0011612774124197,-0.0010379105968152,0.0010379103522899,-0.0010379102011521,0.0010379107242768,-8.7285340941738e-10,9.5784112373432e-10,-4.9308073091285e-10,5.7205126824251e-10,-0.00093511984518207,0.00093511991158267,-0.0011612778905426,0.0011612767971094,-0.0011612774507844,0.0011612772426645,-0.0011612770827694,0.0011612775791667,-0.001161276843037,0.001161277822857,-0.001037910421438,0.0010379104797939,-0.0010379096550396,0.0010379112501962,-0.00093896090619746,0.00093895974579113,-0.00093895926210439,0.0009389613119708,4.7309065899335e-10,-6.6672586921765e-10,-0.0013710594596623,0.0013710592660669,9.327589892355e-10,-1.1505519684271e-09,-0.0016187204743329,0.0016187212892067,-0.0016187210901994,0.0016187206633995,-0.0016187207373683,0.001618720995085,-0.0016187215457432,0.0016187201500434,-0.0012809697638714,0.0012809675008589,-0.0012809685254577,0.001280968987105,0.66318502345178,131329,3014,0.003891580201649,0.0038915802006088,0.0056933876576365,25.453214929934,-3.3974280560526e-05,-3.3974280560526e-05,-3.3974280560526e-05,4391210.4026544,0.013569622627184
30819200,0.99649037564843,0.014319296206389,0.004301092816321,0.0043010928159112,0.0057171105741563,-0.00093634312077438,0.00093634314098948,-3.4402252558328e-10,3.9164490189944e-10,2.7809553281354e-10,-2.5446591982906e-10,-0.0011625589404002,0.0011625588787134,-0.0011625588289591,0.0011625590130995,-0.0011625591294141,0.0011625586624949,-0.0011625587690258,0.001162559065025,-0.0010392353493796,0.001039234207037,-0.0010392342085315,0.0010392353307484,-6.5841410701045e-10,7.5549310696888e-10,-5.448807171399e-10,6.3915654829074e-10,-0.00093634309125385,0.00093634316992885,-0.0011625592827574,0.0011625585152439,-0.0011625590409134,0.0011625587830485,-0.0011625588495002,0.0011625589593925,-0.0011625583596356,0.0011625594968552,-0.0010392352226352,0.0010392343123191,-0.0010392336435641,0.0010392358962175,-0.00094021409927196,0.00094021270019599,-0.0009402122349206,0.0009402145917583,4.8071413033682e-10,-6.179137166307e-10,-0.0013724424433168,0.0013724422913191,9.2584270902312e-10,-1.089322260335e-09,-0.0016201671010099,0.001620168123982,-0.0016201679190292,0.0016201672894689,-0.0016201675906221,0.0016201676338708,-0.0016201681616653,0.0016201670627413,-0.0012823229798859,0.0012823215266857,-0.001282322436559,0.0012823222194407,0.69236591438088,131329,3014,0.0038966596723057,0.0038966596710828,0.0056991142177553,26.088341458825,-2.8893268329399e-05,-2.8893268329399e-05,-2.8893268329399e-05,4404698.1407006,0.013585724953218
31019200,0.99663219102656,0.014321308614341,0.004301692230624,0.0043016922302171,0.0057179241534997,-0.00093855480237208,0.00093855479730779,-3.8786708651499e-10,4.0080983847574e-10,2.9496885102172e-10,-3.0157763277504e-10,-0.0011649468309912,0.0011649469378247,-0.0011649468650311,0.0011649468940049,-0.0011649472233114,0.0011649465173195,-0.0011649466478402,0.0011649470876297,-0.0010415963761373,0.0010415946339173,-0.0010415946459138,0.0010415963034635,-6.96360894018e-10,7.7996898804163e-10,-6.0128353691576e-10,6.8020680322812e-10,-0.00093855476580482,0.00093855483373662,-0.0011649472034921,0.0011649465594037,-0.0011649470923142,0.0011649466653482,-0.0011649469159652,0.0011649468267906,-0.0011649461934273,0.001164947546073,-0.0010415962342879,0.0010415947331424,-0.0010415940367148,0.0010415969038071,-0.00094252034419093,0.00094251839301068,-0.00094251787217014,0.00094252082524632,4.4093888626676e-10,-6.190442276826e-10,-0.0013749754880796,0.0013749753001105,9.0837061184252e-10,-1.1117501066503e-09,-0.0016228312292462,0.0016228323954406,-0.0016228322311954,0.0016228313845024,-0.0016228318733629,0.0016228317223964,-0.0016228322603408,0.0016228313131134,-0.0012848617558007,0.0012848608407481,-0.001284861803948,0.0012848609966111,0.71216093888609,131329,3014,0.0039058462413903,0.0039058462411214,0.0057095993966074,27.299252559037,-1.9205979527703e-05,-1.9205979527703e-05,-1.9205979527703e-05,4426499.8170656,0.013614981839143
31219200,0.99677882588506,0.014323499759727,0.0043023470037442,0.0043023470033359,0.0057188057526471,-0.00094091672407112,0.00094091676035786,-3.9977969474004e-10,4.7182973057267e-10,3.404559987147e-10,-2.9692038419784e-10,-0.0011675425530116,0.00116754295918,-0.0011675428717773,0.0011675426756318,-0.0011675432450225,0.0011675422405698,-0.0011675423772939,0.0011675431706642,-0.0010441193726972,0.0010441167138062,-0.0010441167431683,0.0010441193387846,-7.2184411770635e-10,8.3885998581685e-10,-6.4162416917362e-10,7.5699675684355e-10,-0.000940916694903,0.000940916788675,-0.0011675429461005,0.0011675425366655,-0.0011675431082289,0.0011675424124948,-0.0011675429404463,0.001167542570947,-0.0011675419176313,0.0011675436625023,-0.0010441192400932,0.0010441168245359,-0.0010441160985939,0.0010441199831139,-0.00094500941705106,0.00094500659142705,-0.00094500604456905,0.00094501001058423,4.325755591136e-10,-5.6326155080509e-10,-0.0013777082086567,0.0013777080623562,9.2207261343224e-10,-1.0793340505856e-09,-0.0016257267892047,0.0016257282395696,-0.0016257280650889,0.0016257269435138,-0.0016257277150515,0.0016257273268856,-0.0016257278219142,0.001625727233652,-0.0012876255209488,0.0012876255465143,-0.0012876264327066,0.0012876247409055,0.74546455740975,131329,3014,0.0039156585051253,0.0039156585033279,0.0057209093636651,28.605543919283,-8.755648645738e-06,-8.755648645738e-06,-8.755648645738e-06,4447636.7615856,0.01364634635266
31419200,0.99692407948955,0.014325557520364,0.0043029584750281,0.0043029584746243,0.0057196405707121,-0.00094202059748343,0.0009420206049826,-4.2043116441064e-10,4.5397397561255e-10,3.2473319115333e-10,-3.1364615544289e-10,-0.0011688969220108,0.0011688971382514,-0.0011688970567142,0.0011688970182085,-0.0011688974450097,0.0011688965875213,-0.0011688967375434,0.001168897323432,-0.0010453099612283,0.0010453078159944,-0.0010453078670197,0.0010453099134907,-7.3523527523767e-10,8.387335043407e-10,-6.3856642460354e-10,7.4089726220935e-10,-0.00094202056019265,0.00094202064126453,-0.0011688973164153,0.0011688967292135,-0.0011688973020481,0.001168896762122,-0.001168897122269,0.0011688969221082,-0.0011688962660836,0.0011688978119808,-0.0010453097978825,0.0010453079502674,-0.0010453072109772,0.0010453105599666,-0.00094623341494771,0.00094623109151364,-0.0009462305195236,0.00094623397019623,4.2361541036941e-10,-5.8469685703002e-10,-0.0013790905947983,0.0013790904257961,9.2285941710181e-10,-1.1086682707101e-09,-0.0016272702343081,0.00162727151658,-0.0016272713470984,0.0016272703881271,-0.0016272709789161,0.0016272707621442,-0.0016272712653533,0.0016272704653159,-0.001289072455015,0.0012890719584474,-0.0012890729258762,0.0012890716809446,0.71243069369779,131329,3014,0.0039202487334261,0.0039202487313175,0.0057266260482834,29.223329089756,-3.8133672819547e-06,-3.8133672819547e-06,-3.8133672819547e-06,4450707.2756546,0.013661455854884
31619200,0.99706114445717,0.014327399101821,0.0043035030732574,0.0043035030728539,0.0057203929557093,-0.00094167367519016,0.00094167370202923,-2.9117881109896e-10,3.52038858131e-10,-2.4862346587084e-10,2.8563111281263e-10,-0.0011686636282228,0.0011686629763803,-0.0011686632895196,0.001168663334471,-0.0011686631973683,0.0011686633733481,-0.00116866312372,0.0011686634840303,-0.001044975303771,0.0010449753545774,-0.0010449750058387,0.001044975644671,-1.2560252096006e-09,1.388786452632e-09,-4.7426301021145e-10,6.0251148271975e-10,-0.00094167363628256,0.00094167373980717,-0.0011686639912023,0.0011686626032223,-0.0011686635257714,0.0011686630895147,-0.0011686628732228,0.001168663705666,-0.0011686626746416,0.0011686639470481,-0.0010449751391174,0.0010449755285494,-0.0010449744112006,0.0010449762611232,-0.00094592571068079,0.00094592386628014,-0.00094592336500242,0.00094592618652236,5.4634604991497e-10,-7.0864920190038e-10,-0.0013788464296053,0.001378846260859,1.041936697255e-09,-1.2297900503464e-09,-0.0016271022410045,0.0016271031387313,-0.0016271028810899,0.001627102477298,-0.0016271025118453,0.0016271028463294,-0.0016271034261544,0.0016271019172004,-0.0012888577236577,0.0012888552849719,-0.0012888563817832,0.0012888568644679,0.6805819691161,131329,3014,0.0039188117599251,0.0039188117575608,0.0057256114472084,29.011242239538,-5.5100620836921e-06,-5.5100620836921e-06,-5.5100620836921e-06,4441071.8099452,0.01365751692023
31819200,0.9971893076723,0.014329055930973,0.0043039915305018,0.0043039915300996,0.005721072870372,-0.00094105154869063,0.00094105158571618,-2.1270076257888e-10,2.6509444557607e-10,-5.293263985301e-10,5.7258777589531e-10,-0.0011680584711016,0.001168057310739,-0.0011680577508013,0.0011680580337003,-0.0011680574519756,0.0011680583115886,-0.0011680578483335,0.0011680579235808,-0.0010443523710489,0.0010443541252498,-0.0010443535454323,0.0010443529533147,-1.477771058952e-09,1.6152078896217e-09,-3.7175430786834e-10,4.987577754542e-10,-0.00094105151175007,0.00094105162187592,-0.0011680588153213,0.0011680569568208,-0.0011680579827935,0.0011680577966944,-0.0011680571481107,0.0011680586235051,-0.001168057430913,0.0011680583518369,-0.0010443521781402,0.0010443542614566,-0.001044352977172,0.0010443534900245,-0.0009452934265797,0.00094529238426138,-0.00094529194328021,0.00094529384550214,6.2096093518732e-10,-8.147389412846e-10,-0.0013782666028393,0.001378266406756,1.0899269313922e-09,-1.3095055785035e-09,-0.0016265437888871,0.0016265443373099,-0.001626544052398,0.0016265440624565,-0.001626543699962,0.0016265444084043,-0.0016265450781261,0.0016265430223368,-0.0012882688121915,0.0012882648025715,-0.001288265884958,0.0012882678840873,0.65806103616926,131329,3014,0.003916229078574,0.0039162290769603,0.0057232101769849,28.62891548631,-8.5686761095182e-06,-8.5686761095182e-06,-8.5686761095182e-06,4432324.1067422,0.01364984580722
32019200,0.99731140714286,0.014330803274116,0.0043045117840317,0.0043045117836277,0.0057217797064562,-0.00094101558027666,0.00094101557598197,-3.4493751604272e-10,3.6325045444796e-10,-4.8802988043391e-11,4.0188122427505e-11,-0.0011680061106976,0.0011680055937275,-0.0011680057418492,0.0011680059587958,-0.0011680058573231,0.0011680058181284,-0.0011680057319585,0.0011680059394398,-0.0010443502553895,0.001044350145772,-0.0010443499275421,0.0010443504585785,-9.6205835842281e-10,1.0516594250356e-09,-4.9504076274157e-10,5.8394675000326e-10,-0.00094101554242306,0.00094101561438346,-0.0011680064354602,0.0011680052633044,-0.0011680059658711,0.0011680057364953,-0.0011680055503316,0.0011680061245377,-0.001168005321523,0.001168006352747,-0.0010443501073674,0.0010443502884243,-0.0010443493965786,0.0010443509799918,-0.00094524055473838,0.00094523929776379,-0.00094523881967901,0.0009452409725893,5.0641148559438e-10,-7.0495773978966e-10,-0.0013782869004203,0.0013782867020489,9.5545028132622e-10,-1.1778366700747e-09,-0.0016265718877056,0.0016265727128235,-0.0016265725031051,0.0016265720865481,-0.00162657215632,0.001626572407782,-0.0016265729917288,0.0016265715419612,-0.0012882565231166,0.0012882540619091,-0.001288255120621,0.0012882557257816,0.71766732826424,131329,3014,0.0039160785214431,0.0039160785226338,0.005723295502404,28.55918997847,-9.1264801722399e-06,-9.1264801722399e-06,-9.1264801722399e-06,4432664.8868355,0.013649624777081
32219200,0.99742911023169,0.014332529461907,0.0043050266323661,0.0043050266319616,0.0057224761975796,-0.00094129668520406,0.00094129667595368,-5.4873153245188e-10,5.8927946526978e-10,7.3585164982544e-10,-7.4803052694558e-10,-0.0011684020037235,0.0011684025359492,-0.0011684022258917,0.0011684023662036,-0.0011684029638903,0.0011684015316343,-0.001168402021611,0.0011684025539355,-0.0010446766719766,0.0010446734772542,-0.0010446738545769,0.0010446763097753,-1.7412549995685e-10,2.4098358919397e-10,-6.9484115502039e-10,7.7328885751755e-10,-0.00094129665508259,0.00094129670584099,-0.0011684023077819,0.0011684022019994,-0.0011684024430174,0.0011684021251281,-0.0011684026679221,0.0011684018475822,-0.0011684016404677,0.0011684029655635,-0.0010446765464548,0.0010446736613425,-0.0010446733640471,0.0010446768360307,-0.00094557483131436,0.00094557312125426,-0.00094557257314265,0.00094557538517406,3.4478908757711e-10,-4.5592493451209e-10,-0.001378688275851,0.001378688153444,7.8395365825387e-10,-9.1917527497336e-10,-0.0016270533036433,0.0016270546119997,-0.0016270544721157,0.0016270534133826,-0.0016270541547761,0.001627053760051,-0.0016270541437902,0.0016270537616389,-0.0012886873674722,0.0012886876080771,-0.0012886884746194,0.0012886867464574,0.7334116644507,131329,3014,0.0039172489249042,0.0039172489243936,0.0057249544318076,28.694343714339,-8.0452502852893e-06,-8.0452502852893e-06,-8.0452502852893e-06,4429928.7448277,0.013653683130041
32419200,0.99754345394129,0.01433425273151,0.0043055417268532,0.004305541726455,0.0057231692782016,-0.00094181306327845,0.00094181306441206,-5.2902451095845e-10,5.6754992609228e-10,5.4193754820932e-10,-5.3653916339097e-10,-0.0011690757417761,0.0011690760044856,-0.0011690758078352,0.0011690759673734,-0.0011690763979238,0.0011690753122402,-0.0011690756265254,0.0011690761335795,-0.0010452466853835,0.001045244095126,-0.0010452443073737,0.0010452464428653,-3.6999361189937e-10,4.5174475943784e-10,-6.4476142217461e-10,7.3103419686673e-10,-0.0009418130313629,0.00094181309542559,-0.0011690760447819,0.001169075681005,-0.0011690760371889,0.0011690757218681,-0.001169076091989,0.0011690756323476,-0.0011690752475952,0.0011690765333104,-0.001045246487507,0.0010452442866944,-0.0010452438351356,0.0010452469274546,-0.0009461696182403,0.00094616796438526,-0.00094616742679094,0.00094617014407658,3.6958638950714e-10,-4.9757282607995e-10,-0.0013793595474713,0.0013793594037234,8.0812029206803e-10,-9.6137714361759e-10,-0.0016278246158006,0.0016278257834293,-0.0016278256365063,0.0016278247367675,-0.0016278253127394,0.001627825074874,-0.001627825514088,0.0016278248689801,-0.0012894090407467,0.0012894087722251,-0.001289409625219,0.0012894083682485,0.75109668561425,131329,3014,0.0039193973916632,0.0039193973897541,0.005727729383373,28.972280372938,-5.8217570164984e-06,-5.8217570164984e-06,-5.8217570164984e-06,4428728.8265831,0.013660857197529
32619200,0.99765743974612,0.01433582709223,0.0043060087493388,0.0043060087489425,0.0057238095939488,-0.00094312993328272,0.0009431299323299,-5.3862743383104e-10,5.6474198331418e-10,3.0920200444395e-10,-3.0895243845037e-10,-0.0011706258254018,0.0011706258634798,-0.0011706258017261,0.0011706258984377,-0.0011706262544603,0.0011706254017163,-0.0011706255483553,0.0011706261301101,-0.0010466530509791,0.0010466508835065,-0.0010466509157224,0.0010466529723296,-6.3217394534156e-10,7.1760464800147e-10,-6.1909881658985e-10,7.0275764779467e-10,-0.00094312989842573,0.00094312996678054,-0.001170626131488,0.0011706255448155,-0.0011706260550624,0.0011706256373587,-0.0011706259212954,0.0011706257418703,-0.0011706251617911,0.0011706265280775,-0.0010466528069304,0.0010466511081479,-0.0010466504601013,0.0010466534323667,-0.0009476103611515,0.0009476084359332,-0.00094760790635299,0.00094761086116376,3.6046583495735e-10,-5.1342639776421e-10,-0.0013809434627403,0.0013809432976372,8.31810096449e-10,-1.0095795868013e-09,-0.0016295485914265,0.0016295496943738,-0.0016295495642375,0.0016295487050518,-0.0016295492110617,0.0016295490537717,-0.001629549511703,0.0016295487359867,-0.001291063554791,0.0012910630206219,-0.0012910639157705,0.0012910628654361,0.69654116997966,131329,3014,0.0039248713315895,0.003924871330741,0.0057342809866522,29.722791844048,1.8233475238651e-07,1.8233475238651e-07,1.8233475238651e-07,4435679.7135775,0.013678604280184
32819200,0.99776101160912,0.014337133379246,0.0043063928636369,0.0043063928632401,0.0057243476523693,-0.00094163703470242,0.00094163707195213,-2.9124613936566e-10,3.673046490951e-10,-1.4055682179146e-10,1.8933438111168e-10,-0.0011691408521553,0.0011691402873763,-0.0011691405179878,0.0011691406280044,-0.0011691405060109,0.0011691406050173,-0.0011691404065164,0.001169140730041,-0.0010450985468829,0.0010450984908808,-0.0010450981991659,0.0010450988420324,-1.0185551955934e-09,1.1532035897142e-09,-4.2328123184579e-10,5.5753594732051e-10,-0.000941637000263,0.00094163710512984,-0.0011691411562899,0.0011691399723775,-0.0011691407321787,0.0011691404061936,-0.0011691402127949,0.0011691409069287,-0.0011691400228887,0.0011691411257756,-0.0010450983749753,0.0010450986633064,-0.0010450977074374,0.0010450993450909,-0.00094608977692757,0.00094608832013683,-0.00094608785091239,0.00094609022873215,5.8366926912801e-10,-7.5037658933381e-10,-0.0013794288734673,0.0013794287013383,9.4728120273891e-10,-1.1381655930577e-09,-0.0016280370058764,0.0016280378827813,-0.0016280376021954,0.001628037267078,-0.0016280373232423,0.0016280375423291,-0.0016280381656668,0.0016280366974741,-0.0012895558605311,0.0012895534308144,-0.0012895544489231,0.0012895550382864,0.64446386811144,131329,3014,0.0039186734696714,0.0039186734670387,0.005728009035217,28.864759617875,-6.6819230570019e-06,-6.6819230570019e-06,-6.6819230570019e-06,4416775.253407,0.013659679512911
33019200,0.99785830264508,0.014338476352808,0.0043067916167436,0.0043067916163472,0.0057248931197174,-0.00094117725798703,0.00094117726817158,-4.8981499337053e-10,5.2959468618704e-10,3.091849804052e-10,-2.9664288285179e-10,-0.0011685972524712,0.0011685972431277,-0.0011685971777451,0.0011685973376946,-0.0011685975963754,0.0011685968681854,-0.0011685970083811,0.0011685974935668,-0.001044644476106,0.0010446426584478,-0.0010446426859625,0.0010446444294223,-5.5526680587436e-10,6.4478968797058e-10,-5.4699845954267e-10,6.3682327529269e-10,-0.00094117722711265,0.00094117729847513,-0.0011685975247472,0.0011685969531322,-0.0011685974142563,0.0011685970872427,-0.0011685972891374,0.001168597188343,-0.0011685966658754,0.001168597854522,-0.0010446442348306,0.0010446428827142,-0.0010446422816648,0.0010446448349331,-0.00094557922806199,0.00094557769148304,-0.00094557721648879,0.0009455796987751,4.2583404223879e-10,-5.6465428478743e-10,-0.0013789620774168,0.001378961925694,8.3760605185713e-10,-1.0013665216166e-09,-0.0016275309291573,0.0016275319948116,-0.0016275318183211,0.001627531088156,-0.0016275315110046,0.0016275314047587,-0.0016275318911336,0.0016275310166389,-0.001289040155928,0.0012890392607223,-0.001289040134628,0.0012890394653855,0.69524392838981,131329,3014,0.0039167613477241,0.0039167613465279,0.0057260793813838,28.557797981306,-9.1376161495497e-06,-9.1376161495497e-06,-9.1376161495497e-06,4415185.3379377,0.013653841734495
33219200,0.99795226665944,0.014339846651223,0.0043072003588483,0.004307200358453,0.005725445933922,-0.00094152601399968,0.00094152604589814,-3.0203077719649e-10,3.6479719140209e-10,-5.9770552815346e-11,9.8073011348588e-11,-0.001169001374997,0.0011690008086021,-0.0011690009777729,0.0011690012326096,-0.0011690010258889,0.0011690011288325,-0.0011690010019203,0.0011690011994819,-0.0010450340878788,0.0010450341986133,-0.0010450339575931,0.0010450343126404,-9.4508945107289e-10,1.0577135806736e-09,-4.26313557004e-10,5.3598370276909e-10,-0.00094152598417572,0.00094152607508801,-0.0011690016746517,0.0011690004879152,-0.0011690011976149,0.0011690009950777,-0.0011690007363172,0.0011690014345273,-0.0011690006336819,0.0011690015901122,-0.001045033907536,0.0010450343663971,-0.0010450334832146,0.0010450347911832,-0.00094595465288758,0.00094595356827393,-0.00094595315499441,0.00094595507903026,6.0985476276738e-10,-7.4802788355574e-10,-0.0013793969975513,0.0013793968455312,9.4497587554742e-10,-1.1093406770214e-09,-0.0016280082163614,0.0016280090332866,-0.0016280087358908,0.0016280084936204,-0.0016280084824191,0.0016280087643161,-0.0016280093760772,0.0016280078696491,-0.001289480889282,0.001289478256951,-0.0012894791967117,0.0012894801191794,0.72923015429385,131329,3014,0.0039182105890384,0.0039182105877028,0.0057278791115184,28.726578216454,-7.7873742683696e-06,-7.7873742683696e-06,-7.7873742683696e-06,4416828.6237517,0.013658605415649
33419200,0.99804443348067,0.014341218994968,0.0043076103126876,0.0043076103122938,0.0057259983699867,-0.00094234500024705,0.00094234502287667,-3.0693661979696e-10,3.5372736519533e-10,-6.9843816936982e-11,9.7254110130164e-11,-0.0011699673182861,0.0011699667431343,-0.001169966905664,0.0011699671571887,-0.001169966964102,0.0011699670714809,-0.0011699669318632,0.0011699671151881,-0.0010459115121261,0.0010459116526656,-0.0010459113879449,0.0010459117347074,-9.9113241744119e-10,1.100542536339e-09,-4.2921056527215e-10,5.3381560310119e-10,-0.0009423449670281,0.00094234505577027,-0.0011699676346668,0.0011699664159056,-0.0011699671403438,0.0011699669161931,-0.0011699666547168,0.0011699673876464,-0.0011699665394492,0.0011699675172752,-0.0010459113096424,0.0010459118219389,-0.0010459108962648,0.0010459122180186,-0.00094684911080399,0.00094684796186449,-0.00094684753379823,0.00094684951806309,6.0648910670351e-10,-7.7301936043622e-10,-0.0013803645965763,0.0013803644188364,9.4074044687804e-10,-1.1327988379201e-09,-0.001629069024937,0.0016290698288568,-0.0016290695483855,0.0016290692924431,-0.0016290692852058,0.0016290695477633,-0.0016290701886907,0.0016290686339238,-0.0012904907897515,0.0012904880935251,-0.0012904890599882,0.0012904900066072,0.74278859011505,131329,3014,0.0039216148072762,0.0039216148066099,0.0057318816567316,29.177411947007,-4.180704423946e-06,-4.180704423946e-06,-4.180704423946e-06,4420278.9730981,0.013669569392638
33619200,0.9981337283255,0.014342548569164,0.0043080074067146,0.0043080074063202,0.0057265337561295,-0.00094279748196349,0.00094279749924743,-6.3447992566203e-10,6.8979254319365e-10,5.1565809732262e-10,-4.9289033833262e-10,-0.0011705793451804,0.0011705795537942,-0.0011705793614289,0.0011705795754113,-0.001170580013098,0.0011705788547705,-0.0011705791446418,0.0011705797894095,-0.0010464047891415,0.0010464020288759,-0.0010464022136021,0.0010464046276412,-4.3474590752245e-10,5.3651130581553e-10,-6.0227221018122e-10,7.0929623139858e-10,-0.00094279745043388,0.00094279752937224,-0.0011705796121423,0.0011705792614045,-0.0011705796526049,0.0011705792622466,-0.001170579650827,0.0011705792385293,-0.0011705788081191,0.001170580154501,-0.0010464044288127,0.0010464023801585,-0.0010464018596926,0.0010464049823777,-0.00094737952964526,0.00094737769854765,-0.00094737717325898,0.00094738007977666,3.0775198950562e-10,-4.2844670607076e-10,-0.0013809524036126,0.0013809522715285,7.9160669098838e-10,-9.3681030911752e-10,-0.001629752411963,0.001629753555667,-0.0016297534488198,0.0016297524929499,-0.0016297531000965,0.0016297528701225,-0.0016297532540185,0.0016297527271283,-0.0012911335084647,0.0012911333951274,-0.0012911342145603,0.0012911328324477,0.74303228063262,131329,3014,0.0039234979477162,0.0039234979447593,0.005734311079076,29.431795561588,-2.145635507299e-06,-2.145635507299e-06,-2.145635507299e-06,4418708.4030505,0.013675855425358
33819200,0.9982206139779,0.014343846570935,0.0043083951877993,0.0043083951874073,0.0057270561957288,-0.00094339731408908,0.00094339732810322,-5.7061094208034e-10,6.1927942920323e-10,3.7541865230611e-10,-3.5523611889806e-10,-0.0011713452634646,0.001171345220422,-0.0011713451195711,0.0011713453890694,-0.0011713456297288,0.0011713448233624,-0.0011713450042553,0.0011713454929392,-0.0010470517011626,0.0010470497100633,-0.0010470497825762,0.0010470516056788,-6.044853197028e-10,7.0428478527443e-10,-5.6538705515042e-10,6.6582939789209e-10,-0.0009433972811981,0.00094339736026116,-0.0011713455509034,0.0011713449132637,-0.001171345411598,0.0011713450815119,-0.001171345261675,0.0011713452062435,-0.0011713446408719,0.001171345876295,-0.0010470513600674,0.0010470500358554,-0.0010470493970036,0.0010470519938501,-0.00094806619913063,0.00094806458151723,-0.00094806407840836,0.00094806669637787,3.7659823112372e-10,-5.0847704337536e-10,-0.0013817124288876,0.0013817122817901,8.3162570602318e-10,-9.8844376319212e-10,-0.00163060745132,0.0016306084692124,-0.0016306083184736,0.0016306075810971,-0.0016306079873328,0.0016306079258155,-0.0016306083820155,0.0016306075299623,-0.0012919549549335,0.0012919541507776,-0.0012919550112932,0.0012919542628482,0.74517941093938,131329,3014,0.0039259929986217,0.0039259929970827,0.0057374531250273,29.77571241313,6.0569930503717e-07,6.0569930503717e-07,6.0569930503717e-07,4419292.7761382,0.013684104409527
34019200,0.99830547329078,0.014345073262268,0.0043087606209117,0.0043087606205207,0.0057275520208353,-0.0009441379142609,0.00094413792741477,-5.5805819047005e-10,6.0202583681805e-10,2.1746437625964e-10,-1.991254533835e-10,-0.0011722608038815,0.0011722604952521,-0.0011722604975333,0.0011722608269653,-0.0011722608938387,0.0011722603734505,-0.0011722604504472,0.0011722608593265,-0.0010478457923407,0.0010478444437739,-0.0010478444105556,0.0010478458001773,-7.9018847613206e-10,8.9320468492507e-10,-5.3538503376741e-10,6.3647949889678e-10,-0.00094413787943966,0.00094413796158317,-0.0011722610955853,0.0011722601858075,-0.0011722608035364,0.0011722605065199,-0.0011722605081805,0.0011722607721943,-0.0011722600800723,0.0011722612487458,-0.0010478454275815,0.0010478447986015,-0.0010478440270148,0.001047846191017,-0.00094889939459221,0.00094889790844652,-0.00094889742138513,0.00094889987433701,3.9592241560668e-10,-5.3392883648761e-10,-0.0013826347595936,0.0013826346082393,8.6780135799949e-10,-1.0310447462907e-09,-0.0016316293153293,0.0016316302015201,-0.001631630037157,0.0016316294591476,-0.0016316296931665,0.0016316298141482,-0.0016316302835936,0.0016316292163872,-0.0012929392753033,0.0012929378846697,-0.0012929387860195,0.0012929385616438,0.72426719307844,131329,3014,0.0039290726938586,0.0039290726924868,0.0057412669093455,30.204643807932,4.0371504634589e-06,4.0371504634589e-06,4.0371504634589e-06,4421699.07343,0.013694219843475
34219200,0.9983868601255,0.014346215371804,0.0043090999670037,0.0043090999666133,0.0057280154381873,-0.0009443571512143,0.00094435716383568,-6.0633283368343e-10,6.4155577508792e-10,5.2860256567211e-11,-3.7772901063801e-11,-0.0011725911241127,0.0011725904353538,-0.0011725905318536,0.0011725910513291,-0.0011725908568661,0.0011725906749118,-0.0011725906397397,0.0011725909264642,-0.0010480895193152,0.0010480889655422,-0.0010480888292164,0.0010480896620787,-9.5458658952149e-10,1.0638377218242e-09,-5.0034406714654e-10,6.0578934685497e-10,-0.00094435711387329,0.00094435720026593,-0.00117259139377,0.0011725901497046,-0.001172590866828,0.0011725907043447,-0.0011725904448054,0.0011725910996122,-0.001172590293864,0.0011725912911605,-0.0010480890645571,0.0010480893957323,-0.0010480885024712,0.0010480899799671,-0.00094917034359856,0.00094916929215261,-0.00094916880401328,0.00094917080385164,3.5026145363537e-10,-5.0752972255065e-10,-0.0013829650677178,0.0013829649044382,8.8523097800715e-10,-1.0667559095745e-09,-0.0016320222675065,0.0016320228901186,-0.001632022756379,0.0016320223860118,-0.0016320223711137,0.0016320227808824,-0.0016320232297817,0.001632021906964,-0.0012933069959735,0.0012933048692656,-0.0012933058059336,0.0012933062637588,0.70594540979161,131329,3014,0.0039299858297282,0.0039299858278193,0.005742631321419,30.33050364696,5.0440291756821e-06,5.0440291756821e-06,5.0440291756821e-06,4420452.5294505,0.013697456887526
34419200,0.99846579172928,0.014347328306514,0.0043094308571881,0.0043094308567972,0.0057284665925284,-0.00094495683874076,0.00094495682850808,-3.8233142653736e-10,3.9144556843011e-10,4.1179763310027e-10,-4.2448844858104e-10,-0.0011732742707316,0.001173274513124,-0.0011732743743194,0.0011732744199427,-0.0011732747952872,0.0011732739570353,-0.001173274186952,0.0011732745833009,-0.0010487378290748,0.0010487358959709,-0.0010487360072737,0.0010487376755745,-6.0926232590344e-10,6.880929098718e-10,-5.4493296849494e-10,6.2026926149412e-10,-0.00094495680188688,0.00094495686513812,-0.0011732746346022,0.0011732741373222,-0.0011732746241194,0.001173274162271,-0.0011732744645721,0.0011732742948451,-0.0011732737422852,0.0011732750401043,-0.0010487376362732,0.001048736058911,-0.0010487354283977,0.0010487382511415,-0.00094981313930398,0.00094981119159855,-0.00094981071242751,0.00094981358011668,5.9300262023583e-10,-7.5285902432065e-10,-0.0013836963807583,0.0013836962112881,8.5927404617948e-10,-1.0439604698125e-09,-0.0016328043765647,0.001632805685143,-0.0016328053951471,0.0016328046526608,-0.0016328051866977,0.0016328048574168,-0.0016328054789452,0.0016328045437387,-0.0012940533315395,0.0012940522917844,-0.0012940532065547,0.0012940526272218,0.70868169284401,131329,3014,0.0039324773458673,0.0039324773454053,0.0057456573443225,30.663136061022,7.7050884881737e-06,7.7050884881737e-06,7.7050884881737e-06,4425660.7929404,0.013705577209086
34619200,0.99854701991523,0.014348525082206,0.0043097879911736,0.0043097879907821,0.0057289491002498,-0.00094747967943933,0.00094747972053026,-5.8516910657371e-10,6.6199683598049e-10,1.7183409041002e-10,-1.2292795766469e-10,-0.0011759757644702,0.0011759750644688,-0.0011759751028777,0.001175975783562,-0.0011759754707485,0.0011759753274498,-0.0011759753566841,0.0011759755300467,-0.0010514116738347,0.0010514112773381,-0.0010514112003964,0.0010514117452982,-9.33929669395e-10,1.0519243162945e-09,-5.2409143750328e-10,6.3730460272067e-10,-0.00094747965128266,0.00094747974796908,-0.0011759760653818,0.001175974728792,-0.0011759754516262,0.001175975402298,-0.0011759750509383,0.001175975776043,-0.0011759749880869,0.0011759759365771,-0.0010514112482089,0.0010514117088008,-0.0010514108488476,0.0010514121169973,-0.00095244583707734,0.00095244504105941,-0.00095244459325628,0.00095244635706247,3.957772346301e-10,-4.968113465191e-10,-0.0013865598310623,0.0013865597089289,9.494984929728e-10,-1.078269243203e-09,-0.0016357810454633,0.0016357816328882,-0.0016357814683309,0.0016357811838193,-0.0016357810797361,0.0016357816187711,-0.0016357820577204,0.001635780656073,-0.0012969392541745,0.0012969369186824,-0.0012969377903302,0.0012969384959176,0.73613947234059,131329,3014,0.0039429555603665,0.0039429555588225,0.0057575096286275,32.088806963698,1.9110455709588e-05,1.9110455709588e-05,1.9110455709588e-05,4452795.1879487,0.013738841646572
34819200,0.99863045428424,0.014349764808808,0.0043101577700274,0.0043101577696393,0.0057294492691418,-0.0009500796880848,0.00095007965847688,-4.5846007647701e-10,4.4482454203323e-10,2.9764220732311e-10,-3.3098783151953e-10,-0.0011788336787302,0.0011788335536508,-0.0011788335069834,0.0011788337433277,-0.0011788338944731,0.0011788332995437,-0.0011788334831225,0.0011788337312096,-0.0010541643420132,0.0010541630211939,-0.0010541630885136,0.0010541642308484,-8.4679727974329e-10,9.250304463574e-10,-5.8647841674659e-10,6.582417041977e-10,-0.00095007964213186,0.00095007970403635,-0.0011788340743473,0.0011788331530704,-0.0011788338048936,0.0011788334453778,-0.0011788334993556,0.0011788336938946,-0.0011788329905276,0.0011788342289827,-0.0010541640801003,0.0010541632739869,-0.0010541624827888,0.0010541648514438,-0.0009551928164117,0.00095519110507416,-0.0009551905791376,0.00095519326673096,5.4492811782006e-10,-7.0355070595005e-10,-0.0013895524569642,0.0013895522877088,9.397179901428e-10,-1.1230693294147e-09,-0.0016389295313787,0.0016389306329339,-0.0016389303667749,0.0016389297792914,-0.0016389300664629,0.0016389300640201,-0.0016389306393245,0.0016389294532633,-0.0012999849267485,0.0012999832315722,-0.0012999842444282,0.0012999842015073,0.74236298656091,131329,3014,0.0039537563791123,0.0039537563782856,0.0057698936872883,33.577608379092,3.1020867032733e-05,3.1020867032733e-05,3.1020867032733e-05,4477486.744948,0.013773303539604
35019200,0.99871348896498,0.014350957099027,0.0043105119936156,0.0043105119932257,0.0057299331121854,-0.00095181217575416,0.00095181221648712,-3.1180093466606e-10,3.9319227292243e-10,4.6355205347943e-10,-4.1538484568986e-10,-0.0011808086615057,0.0011808089111937,-0.0011808087619385,0.0011808088847304,-0.0011808091380413,0.0011808084053979,-0.001180808644046,0.0011808090100225,-0.0010560057076441,0.0010560040009349,-0.0010560041519841,0.0010560056253288,-7.0763418834628e-10,8.3347659629225e-10,-5.8592492986388e-10,7.142535311548e-10,-0.00095181214599166,0.00095181224436579,-0.0011808090985652,0.0011808084320646,-0.0011808090182927,0.0011808085891601,-0.0011808088160565,0.0011808087659355,-0.0011808081452972,0.001180809557812,-0.0010560055731916,0.0010560041336528,-0.0010560034213379,0.0010560063603281,-0.00095705477113435,0.00095705280937757,-0.00095705228981631,0.00095705535980512,6.8078362440994e-10,-7.8491586088865e-10,-0.0013916061440768,0.001391606026679,9.6409639554631e-10,-1.0946621681163e-09,-0.0016411256995727,0.0016411270722627,-0.0016411267032094,0.0016411260380767,-0.0016411265082113,0.0016411262999061,-0.0016411269251787,0.0016411259072821,-0.0013020996628065,0.0013020983675179,-0.0013020992588149,0.0013020988624967,0.72136735358753,131329,3014,0.0039609557152793,0.0039609557112816,0.0057783899742908,34.585844616938,3.9086756935508e-05,3.9086756935508e-05,3.9086756935508e-05,4491147.5908814,0.013796521850496
35219200,0.99879472546378,0.014352087158926,0.0043108466370434,0.0043108466366572,0.0057303938852253,-0.00095311719531057,0.00095311722591076,-7.2180029940808e-10,7.7796094635652e-10,-4.0099468576996e-11,7.9246050175799e-11,-0.0011822939652117,0.0011822928746227,-0.001182293026355,0.0011822938354019,-0.00118229336896,0.0011822934463719,-0.0011822933212746,0.0011822935305604,-0.0010574020731561,0.0010574020893296,-0.0010574018607624,0.0010574023018835,-1.1822294616123e-09,1.3107348229729e-09,-5.2718003681643e-10,6.5005212899016e-10,-0.00095311715829078,0.00095311726185902,-0.0011822942454924,0.0011822925755262,-0.0011822934359306,0.001182293411334,-0.001182292881497,0.0011822939480423,-0.0011822929636122,0.001182293908433,-0.001057401479767,0.0010574026542647,-0.001057401582601,0.001057402567948,-0.00095845501172846,0.00095845428742383,-0.00095845377540049,0.0009584555342635,2.6737738245156e-10,-4.1973602464668e-10,-0.0013931730708205,0.0013931729072127,1.0062520105741e-09,-1.1845926647719e-09,-0.0016428001315106,0.0016428005033672,-0.0016428004408523,0.0016428001765793,-0.0016427999121623,0.0016428007200034,-0.0016428011121145,0.0016427995178142,-0.0013037057675381,0.0013037030282825,-0.0013037040223843,0.0013037049407451,0.70214464451958,131329,3014,0.0039663783062111,0.0039663783039647,0.0057848723721425,35.346638936736,4.5173111493887e-05,4.5173111493887e-05,4.5173111493887e-05,4502007.9357795,0.013814093496647
35419200,0.99887323185865,0.014353141851759,0.0043111578634444,0.0043111578630578,0.0057308261252573,-0.00095412706678148,0.00095412707474615,-3.9511699579994e-10,4.2929272322551e-10,3.3114105333871e-10,-3.2033080864309e-10,-0.0011834254882003,0.0011834255083684,-0.0011834254240277,0.0011834255944577,-0.0011834257949895,0.001183425172048,-0.0011834253339717,0.0011834256693369,-0.0010584913003273,0.0010584898686498,-0.0010584899200948,0.001058491239523,-7.6493977633594e-10,8.6717407395303e-10,-5.851290290361e-10,6.8564984211298e-10,-0.00095412702982128,0.00095412711081534,-0.0011834258845416,0.0011834250947299,-0.0011834256871359,0.0011834253184897,-0.0011834254522849,0.0011834255274823,-0.001183424858476,0.0011834261635102,-0.0010584911093807,0.0010584900365191,-0.0010584892809222,0.0010584918773612,-0.00095952730581639,0.00095952554035458,-0.00095952500993372,0.00095952781811182,6.1133291408146e-10,-7.6405507870064e-10,-0.001394397546402,0.0013943973838957,9.476859031403e-10,-1.1259506226284e-09,-0.0016441011920835,0.0016441024202375,-0.001644102110818,0.0016441014824985,-0.0016441018659609,0.0016441017375418,-0.0016441023701095,0.001644101225556,-0.0013049419301942,0.0013049403084196,-0.0013049412758312,0.0013049411499058,0.68162531815563,131329,3014,0.0039705737205634,0.0039705737186969,0.0057899388350615,35.931367035769,4.9850936286152e-05,4.9850936286152e-05,4.9850936286152e-05,4511488.7948254,0.013827739202548
35619200,0.9989498191061,0.014354127729249,0.0043114475285195,0.0043114475281328,0.0057312326725963,-0.00095554681829141,0.00095554683343594,-6.3773877442997e-10,6.7669891648908e-10,8.5100933283727e-11,-6.6374090699443e-11,-0.0011849422197417,0.0011849414201994,-0.0011849414959313,0.0011849421658295,-0.0011849418646609,0.0011849417464346,-0.0011849417302476,0.001184941915246,-0.0010600127901933,0.0010600124579582,-0.0010600123280689,0.0010600128916236,-9.7904549990055e-10,1.0860045129675e-09,-5.4812118937685e-10,6.492384739257e-10,-0.0009555467824964,0.00095554686866008,-0.0011849425102036,0.0011849411132527,-0.0011849418437788,0.0011849418047532,-0.0011849414374446,0.0011849421851379,-0.0011849413618938,0.0011849423018966,-0.0010600123323588,0.0010600128916357,-0.0010600119886322,0.0010600132315552,-0.00096099822854408,0.0009609974363032,-0.00096099693295999,0.00096099871838903,3.7475156930268e-10,-5.271596413407e-10,-0.0013960592022387,0.0013960590375617,9.8093889051965e-10,-1.159671196341e-09,-0.0016458307792249,0.0016458313627449,-0.0016458312253053,0.0016458308993713,-0.001645830788043,0.0016458313451582,-0.0016458318126652,0.0016458303102701,-0.0013065914432309,0.0013065889116556,-0.0013065898918876,0.0013065906458812,0.6573012072332,131329,3014,0.0039764697131697,0.0039764697119736,0.0057968166302949,36.740007975124,5.6320063800988e-05,5.6320063800988e-05,5.6320063800988e-05,4527852.0645021,0.013846668680602
35819200,0.99902497065019,0.014355162385384,0.0043117534300802,0.0043117534296934,0.0057316555256104,-0.00095729984508114,0.00095729986161203,-4.8172093972655e-10,5.2456742032539e-10,2.1478043081115e-10,-1.9416844075801e-10,-0.0011867612477282,0.0011867609721334,-0.0011867609639828,0.0011867612812271,-0.0011867613145657,0.0011867608765656,-0.0011867609499505,0.001186761282517,-0.001061892739513,0.0010618916453158,-0.0010618916083452,0.001061892763383,-8.2881012246977e-10,9.3284123086646e-10,-5.7055110730348e-10,6.7113616581028e-10,-0.00095729981119099,0.00095729989470598,-0.0011867615899735,0.0011867606110942,-0.001186761245606,0.0011867609833769,-0.0011867609568782,0.0011867612482692,-0.0011867605338745,0.0011867617202473,-0.0010618924697513,0.0010618918953482,-0.0010618910991558,0.0010618932737757,-0.00096279031274183,0.00096278884706945,-0.00096278833780593,0.00096279082274898,5.393655622229e-10,-6.8543074173781e-10,-0.0013980846559851,0.0013980844974102,9.651600589933e-10,-1.1374700926577e-09,-0.001647908691507,0.0016479097225382,-0.0016479094664987,0.0016479089281998,-0.0016479091593836,0.0016479092499299,-0.0016479098286913,0.0016479085763995,-0.0013085761420665,0.0013085742522743,-0.0013085752103192,0.0013085753526818,0.69619443592503,131329,3014,0.0039837480507856,0.0039837480491128,0.0058052019985038,37.726132556178,6.4209060449425e-05,6.4209060449425e-05,6.4209060449425e-05,4550398.3139717,0.013869928697208
36019200,0.99909572611052,0.014356199994446,0.0043120616383895,0.004312061638003,0.0057320767180535,-0.00095776018139918,0.00095776019780127,-5.1888742966873e-10,5.6171287646896e-10,1.3149372680985e-10,-1.1023925379588e-10,-0.0011873097553468,0.0011873093022487,-0.0011873093466181,0.0011873097310689,-0.001187309670272,0.0011873093599322,-0.0011873093748725,0.00118730968905,-0.0010624104057238,0.0010624095859114,-0.0010624095005928,0.0010624104989079,-8.3879729797137e-10,9.4820483432223e-10,-5.3811983615673e-10,6.4626403338645e-10,-0.00095776014607226,0.00095776023200165,-0.0011873100540383,0.0011873089884317,-0.0011873096289471,0.0011873094365038,-0.001187309312952,0.0011873097287866,-0.0011873090029855,0.0011873100795958,-0.0010624100822358,0.001062409884197,-0.0010624090722467,0.0010624109214763,-0.00096329038286254,0.00096328918476301,-0.00096328867102212,0.00096329087554411,5.0416028177887e-10,-6.6211508566216e-10,-0.0013987040868501,0.0013987039217585,9.4413116797031e-10,-1.127053985392e-09,-0.0016485909723481,0.0016485918646394,-0.0016485916331823,0.0016485911856853,-0.001648591310593,0.0016485915173896,-0.0016485920731879,0.0016485907465459,-0.0013091983670684,0.0013091962581458,-0.0013091972345323,0.0013091975794584,0.73586531173231,131329,3014,0.0039856613127948,0.0039856613104384,0.0058077643342945,37.994983991787,6.6359871934293e-05,6.6359871934293e-05,6.6359871934293e-05,4552820.4280512,0.013876408051379
36219200,0.9991609165516,0.014357122228473,0.0043123346052275,0.0043123346048407,0.0057324530184044,-0.00095748311357843,0.0009574831299101,-5.2206965436572e-10,5.6350375608235e-10,1.1810236405385e-10,-9.726507679514e-11,-0.0011871554450641,0.0011871549808292,-0.0011871550329299,0.0011871554128541,-0.0011871553497716,0.0011871550486957,-0.0011871550539265,0.0011871553778411,-0.0010621529625075,0.0010621521481915,-0.0010621520486041,0.0010621530589465,-7.7069484263762e-10,8.7359491319418e-10,-5.1443792786542e-10,6.1513095402833e-10,-0.0009574830807248,0.00095748316187765,-0.0011871557073363,0.0011871547031586,-0.0011871552988434,0.0011871551344357,-0.0011871550125301,0.0011871553975112,-0.0011871547219151,0.0011871557281253,-0.0010621526433975,0.001062152441886,-0.0010621516825693,0.0010621534195575,-0.00096306969161338,0.00096306860838202,-0.0009630681222694,0.00096307015957262,5.1199954494182e-10,-6.6570347033359e-10,-0.0013985343239244,0.0013985341615659,9.14105643553e-10,-1.0928223362337e-09,-0.0016484946567639,0.0016484955329891,-0.0016484952965266,0.001648494875301,-0.001648494999596,0.0016484951813243,-0.0016484957404094,0.0016484944326791,-0.0013090740416919,0.0013090719414972,-0.0013090728850133,0.0013090732814886,0.7136127551667,131329,3014,0.0039845150864812,0.0039845150846302,0.005807057164522,37.867080502402,6.5336644019215e-05,6.5336644019215e-05,6.5336644019215e-05,4542434.8369948,0.013873370946609
36419200,0.99921843791363,0.014357924164881,0.0043125717528981,0.0043125717525113,0.0057327806594721,-0.00095574012227589,0.00095574015438422,-4.9091730781323e-10,5.5109411860002e-10,-3.7005525036024e-11,7.712856512822e-11,-0.0011854112748558,0.0011854107747566,-0.0011854109230521,0.0011854111445977,-0.0011854111160771,0.0011854109091833,-0.0011854107888131,0.0011854112701695,-0.0010603559764972,0.0010603552018597,-0.0010603549806673,0.0010603562082297,-8.1219787595559e-10,9.2725756052648e-10,-4.5423242965859e-10,5.6744414897869e-10,-0.00095574009265669,0.00095574018287255,-0.0011854114908658,0.001185410542184,-0.0011854111632577,0.001185410890959,-0.0011854108120259,0.0011854112268461,-0.0011854105098569,0.0011854115683697,-0.0010603556632864,0.0010603554841619,-0.00106035468584,0.0010603564917713,-0.00096130854677877,0.00096130721563666,-0.00096130675293542,0.0009613089962269,5.4190205038199e-10,-6.95746371073e-10,-0.0013967590031978,0.0013967588417485,8.8069800845685e-10,-1.058955747717e-09,-0.0016467158282708,0.001646716747492,-0.0016467164910286,0.0016467160669254,-0.0016467162383231,0.0016467163317886,-0.001646716913712,0.0016467156554582,-0.0013073177657845,0.0013073157554002,-0.0013073166690805,0.0013073170123284,0.70434248451888,131329,3014,0.0039772797387907,0.0039772797364299,0.0057997057125623,36.899586404427,5.7596691235419e-05,5.7596691235419e-05,5.7596691235419e-05,4518781.0762555,0.013851245128342
36619200,0.9992706166169,0.014358607320511,0.0043127727167601,0.0043127727163736,0.0057330618873776,-0.00095483167602059,0.00095483169870129,-5.0009775938614e-10,5.474360763507e-10,-3.5987125970945e-11,6.4169323671209e-11,-0.0011844977739099,0.0011844972680016,-0.0011844974177481,0.0011844976432458,-0.0011844976177373,0.0011844973972622,-0.0011844972910266,0.0011844977560897,-0.0010594345859086,0.0010594337931423,-0.0010594335742018,0.0010594347872067,-7.5887356630082e-10,8.5791051251281e-10,-4.3445107369568e-10,5.3172767760208e-10,-0.00095483164723371,0.00095483172681766,-0.0011844979619966,0.001184497065021,-0.0011844976504574,0.0011844973983797,-0.0011844973199649,0.0011844977060784,-0.0011844970391604,0.0011844980249464,-0.0010594342685039,0.001059434084254,-0.0010594333349568,0.0010594350226749,-0.00096039205046778,0.0009603908029296,-0.0009603903813123,0.00096039245713337,5.4989290338456e-10,-6.9830542348394e-10,-0.0013958528862464,0.0013958527274483,8.5033972455805e-10,-1.0234746801981e-09,-0.0016458068756523,0.0016458077751145,-0.0016458075137069,0.0016458071191072,-0.0016458072840601,0.0016458073570235,-0.0016458079372084,0.0016458066963452,-0.0013064179598353,0.0013064159730743,-0.0013064168604969,0.0013064172511852,0.66675555496254,131329,3014,0.0039735084703257,0.0039735084689262,0.0057959536399401,36.394570704274,5.3556565634193e-05,5.3556565634193e-05,5.3556565634193e-05,4506105.5491227,0.013839793128582
36819200,0.99931940291314,0.014359227413399,0.0043129547192685,0.004312954718882,0.005733317975249,-0.00095491573738665,0.00095491576154448,-5.1007028220301e-10,5.5978891674461e-10,-7.3322212144985e-11,1.0343823450353e-10,-0.001184549481592,0.0011845489345351,-0.0011845491095891,0.0011845493250075,-0.001184549291707,0.0011845490973666,-0.00118454896531,0.0011845494555012,-0.0010595481414455,0.0010595473717569,-0.0010595471269565,0.0010595483630861,-8.0715681058497e-10,9.0804565175879e-10,-4.1732548550207e-10,5.1629323987769e-10,-0.00095491570833008,0.00095491578995631,-0.0011845496636324,0.0011845487382721,-0.0011845493542921,0.0011845490685944,-0.0011845489800326,0.0011845494195439,-0.0011845487175853,0.0011845497194639,-0.0010595477965793,0.0010595476957328,-0.0010595469136186,0.0010595485780274,-0.00096045701518659,0.00096045567727907,-0.00096045526673927,0.00096045741121232,5.4712674753578e-10,-6.9480645537502e-10,-0.0013959764630909,0.0013959763045945,8.3716573522027e-10,-1.0093998149991e-09,-0.0016459206208537,0.0016459215007181,-0.0016459212413152,0.0016459208617591,-0.0016459210180761,0.0016459210918773,-0.0016459216701708,0.0016459204327235,-0.001306507204089,0.0013065052082954,-0.0013065060898466,0.0013065065055492,0.64958128033745,131329,3014,0.0039738558875157,0.0039738558861693,0.0057964668906343,36.429647205723,5.3837177645787e-05,5.3837177645787e-05,5.3837177645787e-05,4509001.5065064,0.013841015149937
37019200,0.99936561913249,0.014359857616261,0.0043131409985341,0.0043131409981476,0.0057335756195797,-0.00095546502933789,0.00095546507424491,-5.0371303585369e-10,5.792749814293e-10,-2.2061225927044e-11,7.6236208653803e-11,-0.0011850605163986,0.0011850600039699,-0.0011850601313717,0.0011850604040295,-0.0011850603481606,0.0011850601510559,-0.0011850600237853,0.0011850605095091,-0.0010601476427689,0.0010601468836544,-0.001060146640679,0.0010601478660815,-8.064438814856e-10,9.2250276302676e-10,-4.0439994048165e-10,5.1916362362917e-10,-0.00095546500416206,0.00095546509866683,-0.0011850607107107,0.0011850597888071,-0.0011850603959448,0.0011850601217419,-0.0011850600245885,0.0011850604916465,-0.0011850597708171,0.0011850607841114,-0.0010601472658187,0.0010601472227519,-0.0010601464255101,0.0010601480684481,-0.00096098480274058,0.00096098348936616,-0.00096098308738748,0.00096098522616691,5.5234721352472e-10,-6.9274682406005e-10,-0.001396584343557,0.001396584189226,8.3344546907773e-10,-9.9901301504402e-10,-0.0016465218961507,0.0016465227609208,-0.0016465225046618,0.0016465221342538,-0.0016465222929425,0.0016465223639928,-0.0016465229544832,0.0016465217140512,-0.0013070633184532,0.0013070613108599,-0.0013070621423985,0.0013070625963125,0.68962110507178,131329,3014,0.0039761341772422,0.0039761341756674,0.0057989861259705,36.716967863445,5.6135742907558e-05,5.6135742907558e-05,5.6135742907558e-05,4518797.1258837,0.013848185766898
37219200,0.99941049139841,0.014360514520377,0.0043133363270619,0.004313336326676,0.0057338418666387,-0.00095685105430659,0.00095685107526636,-5.1778449356856e-10,5.6365720912976e-10,3.9461543535756e-11,-1.3466170058925e-11,-0.0011865381942333,0.0011865377092388,-0.0011865378089648,0.0011865381118713,-0.0011865380722221,0.0011865378047726,-0.0011865377502873,0.0011865381572028,-0.001061625511477,0.0010616246831645,-0.001061624514388,0.0010616256588342,-8.2618653932931e-10,9.2898780320735e-10,-4.1990497529648e-10,5.2031362312966e-10,-0.00095685102293195,0.00095685110602114,-0.0011865384179943,0.0011865374702864,-0.0011865380971787,0.0011865378111621,-0.0011865377133895,0.0011865381750059,-0.0011865374570575,0.0011865384674858,-0.0010616251135218,0.0010616250534017,-0.0010616242544026,0.0010616259145437,-0.00096242626551929,0.00096242492326479,-0.00096242450915487,0.00096242666672616,5.572381894617e-10,-7.0502771547548e-10,-0.0013981247713923,0.0013981246126806,8.3661661561314e-10,-1.0091126526541e-09,-0.0016481302878856,0.001648131164855,-0.0016481308997887,0.0016481305350038,-0.0016481306841517,0.0016481307585777,-0.0016481313450478,0.0016481300919574,-0.0013086030105634,0.0013086009690866,-0.0013086018420398,0.0013086023104338,0.73362851504132,131329,3014,0.0039818901431039,0.0039818901418107,0.005805362322594,37.498125861897,6.2385006895176e-05,6.2385006895176e-05,6.2385006895176e-05,4532791.6943905,0.013866324678658
37419200,0.99945316609154,0.014361092559203,0.0043135068951932,0.0043135068948073,0.0057340787692026,-0.00095759528349054,0.00095759530412923,-5.1991405824711e-10,5.6574698820021e-10,1.433947793291e-10,-1.1806805751365e-10,-0.0011874418918893,0.0011874414758982,-0.0011874415030973,0.0011874418799652,-0.0011874418405664,0.0011874415036066,-0.0011874415173919,0.0011874418554357,-0.00106242483928,0.0010624239474581,-0.0010624238623077,0.0010624249416513,-7.8302838871191e-10,8.9322469156388e-10,-4.1972415806664e-10,5.298018244709e-10,-0.00095759524975999,0.00095759533671782,-0.0011874421381029,0.0011874412142007,-0.001187441812202,0.0011874415583719,-0.0011874414619852,0.0011874418954289,-0.0011874412025875,0.0011874421889153,-0.0010624244084656,0.0010624243409322,-0.001062423563479,0.0010624252227785,-0.00096325150242549,0.00096325026559799,-0.00096324983098173,0.00096325192152279,5.601555305154e-10,-7.1400596119623e-10,-0.0013990257481552,0.0013990255885589,8.3068136998964e-10,-1.0083038850084e-09,-0.0016491277760879,0.0016491286561452,-0.0016491283856956,0.0016491280300312,-0.001649128177227,0.0016491282484138,-0.0016491288380202,0.001649127584832,-0.0013095504958343,0.001309548428761,-0.001309549307653,0.0013095497847361,0.68665854548188,131329,3014,0.0039849843618337,0.0039849843594532,0.0058090881710136,37.943759960778,6.5950079686228e-05,6.5950079686228e-05,6.5950079686228e-05,4534781.1772424,0.013876382616517
37619200,0.9994926971356,0.014361607751136,0.0043136583918019,0.004313658391416,0.005734290967918,-0.00095753753220256,0.0009575375439173,-5.2304935205427e-10,5.6026989758039e-10,2.3961125424654e-10,-2.2422309299136e-10,-0.0011874107951903,0.0011874104368929,-0.0011874104088383,0.0011874108391133,-0.0011874108092753,0.001187410396397,-0.0011874104856963,0.0011874107484161,-0.0010623841849729,0.0010623832107656,-0.0010623831998778,0.0010623842009386,-7.1280739520513e-10,8.1613826189294e-10,-4.1812343330546e-10,5.2090581866344e-10,-0.00095753749729161,0.00095753757785599,-0.0011874110479437,0.0011874101697583,-0.0011874107271355,0.0011874105091246,-0.0011874104176962,0.0011874107998095,-0.0011874101608332,0.0011874110908059,-0.0010623837428783,0.0010623836200263,-0.0010623828977737,0.0010623844902292,-0.00096320245697266,0.00096320134471151,-0.00096320091311736,0.00096320285751903,5.7036024000383e-10,-7.2218461634393e-10,-0.0013990190597362,0.0013990189013608,8.1756178904854e-10,-9.9306638026846e-10,-0.0016491424804159,0.0016491433602345,-0.0016491430819968,0.0016491427417897,-0.0016491428874484,0.001649142943616,-0.0016491435356275,0.0016491422881177,-0.0013095385947462,0.0013095365228858,-0.0013095374000785,0.0013095379012158,0.66415582129447,131329,3014,0.0039847449875277,0.0039847449855027,0.0058090600881956,37.916696138208,6.5733569105663e-05,6.5733569105663e-05,6.5733569105663e-05,4533312.2839057,0.013875868569726
37819200,0.99952827939531,0.014362052054646,0.0043137885189814,0.0043137885185956,0.0057344750170693,-0.00095652367230743,0.00095652368768173,-5.2332687466438e-10,5.6396677240811e-10,1.6713440359987e-10,-1.4743048333523e-10,-0.0011863204311162,0.001186320023997,-0.0011863200436975,0.0011863204276367,-0.0011863203948592,0.0011863200338335,-0.0011863200698172,0.0011863203883217,-0.0010613415983628,0.0010613406695606,-0.0010613406055051,0.0010613416628702,-7.7350747094842e-10,8.7875838907486e-10,-3.9718459074892e-10,5.0048686104031e-10,-0.00095652363817589,0.00095652372093606,-0.0011863206719106,0.0011863197686896,-0.0011863203652281,0.0011863200940565,-0.0011863200000582,0.0011863204404174,-0.0011863197570019,0.0011863207185375,-0.0010613411431274,0.001061341096748,-0.0010613403338981,0.0010613419263091,-0.00096213509879906,0.00096213385089599,-0.00096213343795144,0.00096213549313722,5.7817640410773e-10,-7.2650133129479e-10,-0.0013979562637573,0.0013979561079515,8.0830417212709e-10,-9.804135643033e-10,-0.0016480415859139,0.0016480424640515,-0.0016480421806697,0.0016480418524222,-0.0016480419972317,0.0016480420434505,-0.0016480426378902,0.0016480413961124,-0.0013084410220614,0.0013084389517408,-0.0013084398146915,0.0013084403385696,0.64016455061561,131329,3014,0.0039805334676718,0.0039805334658443,0.0058046623477706,37.334665579366,6.107732463493e-05,6.107732463493e-05,6.107732463493e-05,4523739.7117251,0.013862865747735
38019200,0.99955963016846,0.014362462284632,0.0043139093011465,0.0043139093007607,0.0057346436827251,-0.00095474889137642,0.00095474890745425,-5.2580336436226e-10,5.6619231886037e-10,1.2982815310375e-10,-1.0962847501358e-10,-0.0011843712240342,0.0011843707923149,-0.0011843708345667,0.001184371197538,-0.0011843711633212,0.0011843708270025,-0.0011843708365715,0.0011843711821512,-0.0010595036391868,0.0010595027344143,-0.001059502640912,0.0010595037293471,-7.7176854518077e-10,8.7546189287614e-10,-3.7675274153129e-10,4.7836131055456e-10,-0.00095474885811252,0.00095474893991598,-0.001184371444707,0.0011843705573977,-0.0011843711516736,0.0011843708686273,-0.0011843707748049,0.0011843712270566,-0.0011843705456491,0.001184371490027,-0.0010595031739344,0.0010595031684357,-0.0010595024069726,0.0010595039530502,-0.00096025286814764,0.00096025161205884,-0.00096025121485818,0.00096025324558052,5.8401382230802e-10,-7.3179601919276e-10,-0.0013960439389115,0.0013960437834793,7.9096988658938e-10,-9.624305116438e-10,-0.0016460352317024,0.0016460361019524,-0.0016460358147919,0.0016460355025692,-0.0016460356466261,0.0016460356777683,-0.0016460362754196,0.0016460350416774,-0.0013064645663003,0.0013064624981196,-0.0013064633445099,0.0013064638958808,0.66570163064485,131329,3014,0.0039731602478823,0.0039731602462123,0.0057967500020785,36.305234100138,5.2841872801104e-05,5.2841872801104e-05,5.2841872801104e-05,4508350.2754525,0.013839885212014
38219200,0.99958822871985,0.014362840095096,0.0043140206826095,0.0043140206822238,0.0057347987302628,-0.00095399853938542,0.00095399860386562,-5.1124195293868e-10,6.1135563826961e-10,-3.2150018515474e-11,1.0876961892751e-10,-0.001183545335253,0.0011835448059614,-0.0011835449294598,0.0011835452225954,-0.0011835451476831,0.0011835449777349,-0.0011835448144894,0.0011835453450521,-0.0010587423402444,0.0010587415986408,-0.0010587413219775,0.0010587426069698,-9.4973617453857e-10,1.0872459245432e-09,-3.511151307928e-10,4.8849505328111e-10,-0.00095399851490894,0.00095399862749531,-0.0011835455522015,0.0011835445641853,-0.0011835452575295,0.0011835448733586,-0.0011835447626183,0.0011835453845686,-0.0011835445397196,0.0011835456445455,-0.001058741850285,0.0010587420354784,-0.0010587411243752,0.0010587427799187,-0.00095946339854116,0.0009594617915851,-0.00095946140861704,0.0009594638225871,5.8381000300515e-10,-7.1760030403859e-10,-0.0013952452785962,0.0013952451300163,7.9982306939543e-10,-9.5846473538378e-10,-0.0016451992494903,0.0016452001036731,-0.0016451998291017,0.0016451995077096,-0.0016451996638981,0.0016451996968157,-0.0016452003107303,0.001645199075807,-0.0013056384708083,0.0013056364182555,-0.0013056371895592,0.0013056377506457,0.6707655007786,131329,3014,0.0039700430457223,0.0039700430439569,0.0057934456754228,35.866957811069,4.9335662488555e-05,4.9335662488555e-05,4.9335662488555e-05,4501104.4954901,0.013830211477908
38419200,0.99962079617131,0.01436330200151,0.0043141577998669,0.0043141577994819,0.0057349864021614,-0.00096071049991561,0.0009607105063459,-5.3081562159419e-10,5.6210561900036e-10,3.5757190307087e-10,-3.4975709410203e-10,-0.0011905582585365,0.0011905579704201,-0.0011905578693363,0.0011905583756057,-0.0011905583508941,0.0011905578491506,-0.0011905580233677,0.0011905582059623,-0.0010658269700983,0.0010658258908743,-0.0010658259539031,0.0010658268759294,-8.2072128527935e-10,9.1750660038956e-10,-5.083657821199e-10,6.0342358226041e-10,-0.00096071046305111,0.00096071054285105,-0.0011905586079589,0.0011905576050539,-0.0011905582305348,0.0011905580014041,-0.001190557906156,0.0011905583053664,-0.0011905575915056,0.0011905586551059,-0.0010658265424945,0.0010658262944787,-0.0010658255089545,0.0010658273220175,-0.00096640486427789,0.00096640357753588,-0.00096640312429303,0.00096640531751217,5.9918097478546e-10,-7.4906089546853e-10,-0.0014025870760766,0.0014025869138374,9.1349460269047e-10,-1.0892368391505e-09,-0.0016527456597789,0.0016527466140253,-0.0016527463264195,0.0016527459304995,-0.0016527460851487,0.0016527461779055,-0.0016527467964613,0.0016527454597029,-0.001312980986606,0.0013129788080642,-0.0013129797330234,0.0013129802339074,0.71254272386926,131329,3014,0.0039979140850023,0.003997914084255,0.0058238369445238,39.66816119887,7.974528959096e-05,7.974528959096e-05,7.974528959096e-05,4577890.8906803,0.01391755172188
38619200,0.99965091824185,0.014363730194654,0.0043142845669546,0.0043142845665697,0.0057351610611301,-0.00096082659644812,0.00096082662041905,-5.3469540477536e-10,5.8516345101119e-10,1.2772463015905e-11,1.7630027591229e-11,-0.001190812463615,0.0011908119438148,-0.0011908120612476,0.001190812360096,-0.0011908123186717,0.0011908120643818,-0.0011908119846621,0.0011908124253394,-0.0010659452018059,0.0010659443682567,-0.0010659441927701,0.0010659453921181,-1.1215460736804e-09,1.2520209539943e-09,-4.9529411802196e-10,6.2110978759483e-10,-0.00096082655709688,0.00096082665861151,-0.0011908127986193,0.0011908115949214,-0.0011908124153677,0.0011908119952698,-0.0011908118837318,0.0011908125107984,-0.0011908115699052,0.0011908128575717,-0.0010659447600778,0.0010659447785489,-0.0010659437530482,0.0010659458193136,-0.00096655813743061,0.00096655628874699,-0.00096655576727565,0.00096655862641651,5.8700497851849e-10,-7.5199575798696e-10,-0.0014028173981995,0.0014028172285757,9.2772017828537e-10,-1.1169313631312e-09,-0.0016530633310822,0.0016530642917961,-0.0016530640089032,0.0016530635981116,-0.0016530637506739,0.0016530638622421,-0.0016530644797934,0.0016530631275013,-0.0013132343850888,0.0013132321639454,-0.0013132331337008,0.0013132335949557,0.71626668386081,131329,3014,0.0039983997089462,0.0039983997065313,0.0058247871508815,39.752941393699,8.042353114959e-05,8.042353114959e-05,8.042353114959e-05,4574298.0226165,0.013919504422764
38819200,0.99967865217204,0.014364125912441,0.004314401776305,0.00431440177592,0.0057353223602162,-0.00096078150399457,0.0009607814855796,-5.0138198865382e-10,5.2610099997558e-10,2.008156616782e-09,-2.028724546093e-09,-0.0011908627230883,0.0011908635389376,-0.0011908623815256,0.0011908639344769,-0.0011908639281539,0.0011908622942992,-0.0011908636359914,0.0011908626727543,-0.0010659244031699,0.0010659222048805,-0.0010659234603603,0.0010659231893266,9.0479708511752e-10,-8.7419741727706e-10,-5.7149820359368e-10,6.2090667465486e-10,-0.00096078148426048,0.0009607815040967,-0.0011908630653335,0.0011908631459937,-0.0011908626852853,0.0011908635773812,-0.0011908635743524,0.0011908626972402,-0.0011908632514635,0.0011908631195309,-0.0010659240903801,0.0010659225160622,-0.0010659229747296,0.0010659236818869,-0.000966564763878,0.00096656687755466,-0.00096656648627919,0.00096656524263554,6.5825442413213e-10,-7.9323123609494e-10,-0.0014028529758549,0.0014028528327069,9.1863216788843e-10,-1.0816055165763e-09,-0.0016531565758951,0.0016531575834113,-0.0016531572414869,0.0016531568848414,-0.0016531570727047,0.0016531571430894,-0.0016531577798087,0.0016531564512537,-0.0013133072158557,0.0013133049722846,-0.001313305858535,0.0013133064142857,0.71845448400686,131329,3014,0.0039982156153785,0.0039982156128195,0.0058249311270403,39.755889020569,8.0447112164556e-05,8.0447112164556e-05,8.0447112164556e-05,4568160.5124828,0.013919280957392
38880000,0.9996868678225,0.014364243311749,0.004314436565308,0.0043144365649233,0.0057353701815176,-0.00096075712044791,0.00096075718904497,-5.4271984151667e-10,6.3935180853524e-10,-8.2704586784586e-10,9.1324078417974e-10,-0.0011908766515252,0.0011908755564252,-0.0011908762217937,0.0011908760049162,-0.0011908759102423,0.0011908762771336,-0.0011908755644717,0.0011908766556157,-0.0010659077958291,0.0010659075318409,-0.0010659067340355,0.0010659085833225,-1.8917316131337e-09,2.06038060057e-09,-4.7982046253114e-10,6.3656582974711e-10,-0.00096075708590236,0.00096075722285199,-0.0011908769508857,0.0011908752392861,-0.0011908765621885,0.0011908756494771,-0.001190875495192,0.0011908767066935,-0.0011908751917143,0.0011908770487908,-0.0010659073584857,0.0010659079408369,-0.0010659063624923,0.0010659089472117,-0.00096656795748063,0.0009665645815046,-0.00096656405277988,0.00096656848889143,5.7324763532529e-10,-7.2710290615238e-10,-0.0014028580139655,0.0014028578500602,9.4998456400602e-10,-1.1294564927912e-09,-0.0016531809144443,0.0016531818666032,-0.0016531815946748,0.0016531811661401,-0.0016531813133858,0.0016531814626865,-0.0016531820664745,0.0016531807129583,-0.001313329072709,0.001313326875913,-0.0013133278283519,0.0013133282764424,0.71910521759411,131329,3014,0.0039981157841904,0.003998115782649,0.0058249505181507,39.755989916852,8.0447919334819e-05,8.0447919334819e-05,8.0447919334819e-05,4566048.7367962,0.013919099481134
