time,ASR_ext,ASR_strain,ASR_strain_xx,ASR_strain_yy,ASR_strain_zz,disp_x_101,disp_x_102,disp_x_103,disp_x_104,disp_x_105,disp_x_106,disp_x_p1_neg,disp_x_p1_pos,disp_x_p2_neg,disp_x_p2_pos,disp_x_p3_neg,disp_x_p3_pos,disp_x_p4_neg,disp_x_p4_pos,disp_x_p5_neg,disp_x_p5_pos,disp_x_p6_neg,disp_x_p6_pos,disp_y_101,disp_y_102,disp_y_103,disp_y_104,disp_y_105,disp_y_106,disp_y_p1_neg,disp_y_p1_pos,disp_y_p2_neg,disp_y_p2_pos,disp_y_p3_neg,disp_y_p3_pos,disp_y_p4_neg,disp_y_p4_pos,disp_y_p5_neg,disp_y_p5_pos,disp_y_p6_neg,disp_y_p6_pos,disp_y_p7_neg,disp_y_p7_pos,disp_y_p8_neg,disp_y_p8_pos,disp_z_101,disp_z_102,disp_z_103,disp_z_104,disp_z_105,disp_z_106,disp_z_p1_neg,disp_z_p1_pos,disp_z_p2_neg,disp_z_p2_pos,disp_z_p3_neg,disp_z_p3_pos,disp_z_p4_neg,disp_z_p4_pos,disp_z_p5_neg,disp_z_p5_pos,disp_z_p6_neg,disp_z_p6_pos,humidity,ndof,nelem,strain_xx,strain_yy,strain_zz,temp,thermal_strain_xx,thermal_strain_yy,thermal_strain_zz,vonmises,vstrain
2419200,0,0,0,0,0,0,0,0,0,0,0,0,0,0,0,0,0,0,0,0,0,0,0,0,0,0,0,0,0,0,0,0,0,0,0,0,0,0,0,0,0,0,0,0,0,0,0,0,0,0,0,0,0,0,0,0,0,0,0,0,0,0,0,0,0,0,0,0,0,0,0,0,0,0,0
2619200,0.021287701516952,0.00043640902244361,0.00014546967414787,0.00014546967414787,0.00014546967414787,-4.1159098871221e-05,4.1159762770989e-05,3.3070404396295e-10,3.300278473758e-10,-6.5647794441339e-10,1.3461275466613e-09,-4.0930438852915e-05,4.0930443256521e-05,-4.0930434043747e-05,4.093043618939e-05,-4.0929797810887e-05,4.0931108567917e-05,-4.0929798544348e-05,4.0931111090358e-05,-4.0995742465594e-05,4.0997070848487e-05,-4.0995741462999e-05,4.0997067692356e-05,6.0150359538981e-10,-1.2348164805989e-09,-1.6271459653552e-09,1.023954131221e-09,-4.1159734827843e-05,4.115912681438e-05,-4.0930876795272e-05,4.0930008131574e-05,-4.0930033090463e-05,4.0930897630794e-05,-4.0931464989905e-05,4.0929394797629e-05,-4.0930617705746e-05,4.0930284764507e-05,-4.0998284404326e-05,4.0994470878408e-05,-4.099572154578e-05,4.0997113724135e-05,-4.1565182036155e-05,4.1567242628628e-05,-4.156696986649e-05,4.1565410952181e-05,-2.7628197670224e-10,-2.7572158224235e-10,-3.8355963137298e-05,3.8355405341003e-05,9.7443386164271e-10,-1.5749916692638e-09,-3.849379314248e-05,3.8494093831475e-05,-3.8494638976073e-05,3.8493247051242e-05,-3.8493794169213e-05,3.8494093766003e-05,-3.849463999831e-05,3.8493250260339e-05,-3.9483645824735e-05,3.9482246445342e-05,-3.9483641742757e-05,3.9482241461918e-05,0.81993057354487,125803,2834,0.00017148288808783,0.00017148288808787,0.00015980261625683,32.688379374502,2.390703499602e-05,2.390703499602e-05,2.390703499602e-05,462971.99011547,0.00050289487620617
2819200,0.043239235146776,0.00088241514314562,0.00029641173566652,0.00029641173412892,0.00028959167335018,-7.8333362989115e-05,7.8333871141649e-05,2.5043738730237e-10,2.5478799889785e-10,-8.9993244411172e-10,1.4341871734046e-09,-7.8073215473204e-05,7.8072958173953e-05,-7.8073209971455e-05,7.8072954490313e-05,-7.8072470212954e-05,7.8073728774165e-05,-7.8072470448229e-05,7.807373232761e-05,-7.7690880607433e-05,7.7692158611541e-05,-7.7690878366905e-05,7.769216224453e-05,9.2977498684326e-10,-1.5393305645168e-09,-1.7130772990425e-09,1.135810590739e-09,-7.8333906908781e-05,7.8333326490048e-05,-7.8073440987526e-05,7.8072742722294e-05,-7.807252571885e-05,7.8073695522215e-05,-7.8074233114199e-05,7.8071916259662e-05,-7.8073315650656e-05,7.807286836598e-05,-7.7693594986906e-05,7.7689398514678e-05,-7.7690831736429e-05,7.7692229066831e-05,-7.9085778439376e-05,7.9088559787178e-05,-7.9088190390008e-05,7.9086091849151e-05,-2.029215657842e-10,-1.917822089609e-10,-7.1350249266185e-05,7.134985080491e-05,1.1624709202105e-09,-1.6042902182379e-09,-7.1990632367004e-05,7.1991162595614e-05,-7.1991551535969e-05,7.1990241012753e-05,-7.1990631106429e-05,7.1991166197388e-05,-7.1991549252444e-05,7.1990247860396e-05,-7.3921109362983e-05,7.3919802522444e-05,-7.3921118746846e-05,7.3919791864114e-05,0.8213859335189,125803,2834,0.00032633666151733,0.00032633665999299,0.00029724798731934,32.940316613128,2.5922532905025e-05,2.5922532905025e-05,2.5922532905025e-05,764200.46761125,0.00095037291931238
3019200,0.065309432092743,0.0013270866201065,0.00044915417188425,0.00044915417111385,0.00042877827710836,-0.00011529857250783,0.00011529902429036,2.2681822527435e-10,2.243010295259e-10,-9.9078264696877e-10,1.4662285045014e-09,-0.00011509408912004,0.00011509373209174,-0.00011509408748872,0.00011509372793973,-0.00011509329810074,0.00011509454812249,-0.00011509330146513,0.00011509455074402,-0.00011384009174042,0.00011384136799145,-0.00011384009822576,0.00011384136735129,9.939207203344e-10,-1.4703889871172e-09,-1.5899946836551e-09,1.1376700265402e-09,-0.00011529902494669,0.00011529857148929,-0.00011509418780972,0.00011509364656779,-0.00011509330738887,0.00011509455688874,-0.00011509497494574,0.000115092828702,-0.00011509409254556,0.00011509373880688,-0.00011384269014792,0.00011383873700841,-0.00011384003858651,0.00011384144333267,-0.00011643428416378,0.00011643714782668,-0.00011643668888302,0.00011643469314474,-1.5421542005227e-10,-1.4417463519989e-10,-0.00010253500719926,0.0001025347069884,1.1581103245972e-09,-1.4993375965564e-09,-0.00010382212539767,0.00010382271807939,-0.00010382300887146,0.0001038218323151,-0.00010382212424523,0.00010382272122443,-0.00010382300628467,0.00010382183771772,-0.00010694756306013,0.00010694638739826,-0.00010694757177931,0.00010694637817387,0.82013448919795,125803,2834,0.000480295880827,0.00048029588007279,0.00042713834727894,32.856924712273,2.5255397698182e-05,2.5255397698182e-05,2.5255397698182e-05,1037165.0534035,0.0013886941731481
3219200,0.086721893701955,0.0017489480377601,0.00059602068969324,0.00059602068931933,0.00055690665874754,-0.00014991125532615,0.00014991162009607,1.8843827067842e-10,1.768565331249e-10,-9.9199746557013e-10,1.3776540764445e-09,-0.00015000747280222,0.00015000706115697,-0.00015000747567026,0.00015000705546526,-0.00015000670961405,0.00015000784726268,-0.00015000671621717,0.00015000784733804,-0.00014719472921664,0.00014719590054869,-0.0001471947462747,0.00014719589285606,9.6747284550838e-10,-1.330714436279e-09,-1.3402822870304e-09,9.9491845420335e-10,-0.0001499116099358,0.00014991126532343,-0.00015000745277517,0.0001500070945057,-0.00015000669642922,0.00015000787221761,-0.00015000818856336,0.00015000633222369,-0.00015000743052172,0.00015000711026258,-0.00014719700829298,0.00014719359980735,-0.00014719473466076,0.00014719591426587,-0.00015126181206769,0.00015126449418005,-0.00015126405572694,0.00015126220634023,-9.234993596289e-11,-8.5173664587571e-11,-0.00013025140693726,0.00013025122912544,1.032296119621e-09,-1.245162768019e-09,-0.00013243805913322,0.0001324386476339,-0.00013243881720739,0.00013243788833612,-0.00013243805846772,0.00013243864970081,-0.00013243881570693,0.00013243789308509,-0.00013653997886373,0.00013653904757191,-0.00013653998519394,0.00013653904114241,0.80676032305991,125803,2834,0.00062443517624771,0.00062443517590837,0.00054256900367726,32.291876572302,2.073501257842e-05,2.073501257842e-05,2.073501257842e-05,1243741.139692,0.001793046149374
3419200,0.1055745517001,0.0021088422204342,0.00072295231806669,0.00072295231868655,0.00066293758368096,-0.00017710242133545,0.00017710260292431,8.7506300242594e-11,9.5289104417093e-11,-8.5473562467073e-10,1.0506227184912e-09,-0.00017778558560363,0.0001777851406466,-0.00017778558707944,0.00017778514454437,-0.00017778497376271,0.00017778577156674,-0.00017778497405985,0.00017778577503725,-0.00017276073900286,0.00017276155197972,-0.00017276073731653,0.00017276156358308,9.637845604256e-10,-1.2829903272413e-09,-8.4412168512378e-10,5.4042800839917e-10,-0.00017710266315528,0.00017710236141425,-0.00017778538092852,0.00017778536277997,-0.00017778493139873,0.00017778582411271,-0.00017778610524569,0.00017778461790423,-0.00017778564935077,0.00017778507361494,-0.000172762352401,0.0001727599323342,-0.00017276099764021,0.00017276129968081,-0.00017844996346769,0.00017845232639745,-0.00017845215791876,0.0001784500871909,4.7909470581479e-12,3.9927553990633e-11,-0.00015045191818058,0.00015045196408903,6.6706948290707e-10,-6.402549346749e-10,-0.00015365574390776,0.00015365622123052,-0.00015365618201367,0.00015365578542102,-0.00015365573554162,0.00015365623312535,-0.00015365616864935,0.00015365579512501,-0.0001583138334948,0.00015831347346675,-0.00015831387364925,0.00015831344688364,0.78590062454042,125803,2834,0.00073765371847446,0.00073765371911927,0.00062669103047094,30.393846998468,5.5507759877474e-06,5.5507759877474e-06,5.5507759877474e-06,1392595.5300582,0.0021042107771066
3619200,0.12361570366246,0.0024441119895315,0.0008421102625343,0.00084211026295112,0.0007598914640461,-0.00020471868659398,0.0002047189412662,1.4288520320512e-10,1.1362648675941e-10,-9.6437152087672e-10,1.2364153999759e-09,-0.00020624099780071,0.00020624054565734,-0.00020624100575522,0.00020624053798103,-0.00020624029756142,0.00020624126662283,-0.00020624030960404,0.00020624126159285,-0.00019830927982203,0.00019831030458163,-0.00019830931565837,0.00019831027494569,8.4443006372649e-10,-1.0474670325423e-09,-7.7635181815288e-10,5.8475223164397e-10,-0.00020471890908579,0.00020471871899515,-0.00020624078610035,0.00020624077648164,-0.0002062403396679,0.00020624122861813,-0.00020624140151297,0.00020624013992795,-0.0002062409571885,0.00020624059272204,-0.00019831086944286,0.00019830870526585,-0.0001983095431343,0.00019831005008467,-0.00020606543930605,0.00020606756181321,-0.00020606729496695,0.00020606567730423,1.069196533708e-11,1.6720752479254e-11,-0.00017070584391209,0.00017070587116148,6.6083991647432e-10,-6.5307077842128e-10,-0.00017483548392034,0.00017483595100607,-0.00017483592083228,0.0001748355137886,-0.000174835481358,0.00017483595411699,-0.00017483592026545,0.00017483551854872,-0.00018017827861143,0.00018017787019599,-0.00018017828491621,0.00018017787080203,0.77012034619495,125803,2834,0.00085262953655422,0.00085262953701378,0.00071102866391479,29.684181157541,-1.2655073967398e-07,-1.2655073967398e-07,-1.2655073967398e-07,1574673.783823,0.0024192112393429
3819200,0.14118421147789,0.0027682297999255,0.000957890178393,0.00095789017943255,0.00085244944209994,-0.00023201684247504,0.00023201708120753,1.3262968473947e-10,1.0773217378251e-10,-9.2213730395599e-10,1.178134139899e-09,-0.00023448640282636,0.00023448595693945,-0.00023448641493329,0.00023448594966535,-0.00023448572534657,0.00023448665790146,-0.00023448573682905,0.00023448665051973,-0.00022342678413496,0.00022342775300868,-0.00022342681120364,0.00022342773092894,9.0782258831955e-10,-1.1222838685605e-09,-8.8128697792137e-10,6.7950494229541e-10,-0.00023201706231784,0.00023201686190159,-0.00023448621370911,0.0002344861630688,-0.0002344857093304,0.00023448668395402,-0.000234486864767,0.00023448549509433,-0.00023448635495067,0.00023448601105051,-0.00022342847125555,0.00022342605409981,-0.00022342694777523,0.00022342760100899,-0.00023342202027839,0.00023342433191815,-0.00023342400449148,0.00023342231340385,-1.6580119829411e-11,1.5312501110661e-12,-0.00019041394824637,0.00019041393200978,7.2962577492744e-10,-7.6726056814474e-10,-0.00019536761216731,0.0001953680957285,-0.00019536811309486,0.0001953675986764,-0.00019536761037897,0.00019536810275301,-0.00019536810674858,0.00019536760356989,-0.00020167986139222,0.00020167936282016,-0.000201679882391,0.00020167935032835,0.77140879342332,125803,2834,0.00096626746467823,0.00096626746579542,0.0007930876693536,29.234607589685,-3.7231392825234e-06,-3.7231392825234e-06,-3.7231392825234e-06,1743782.3680346,0.0027293429299573
4019200,0.16055860043938,0.0031243247055958,0.0010857152035805,0.0010857152041385,0.00095289429787682,-0.00026564042565864,0.00026564053127177,-2.2693675716432e-11,1.3063313048283e-10,-7.7291427694057e-10,8.899707337844e-10,-0.00026920190276821,0.00026920143102527,-0.00026920188117508,0.0002692014703825,-0.00026920138514182,0.0002692019737919,-0.00026920132638076,0.00026920202608598,-0.00025452266604597,0.00025452313202867,-0.00025452247177859,0.00025452332615414,1.176793044045e-09,-1.6486005805509e-09,-1.5871605638117e-09,1.1394313945579e-09,-0.00026564070218478,0.00026564025523804,-0.00026920186758767,0.00026920147062573,-0.00026920102188812,0.00026920238123879,-0.00026920279902809,0.00026920053154885,-0.00026920189733271,0.00026920143626249,-0.00025452494937498,0.00025452083005713,-0.00025452225480516,0.00025452357878789,-0.00026718725945819,0.00026719044854289,-0.00026718997388878,0.00026718767698822,-2.1392120365166e-10,-9.6194711611709e-12,-0.00021507603474602,0.00021507580597549,1.1029220833698e-09,-1.3691918432154e-09,-0.00022090056895639,0.00022090112642706,-0.00022090141817791,0.00022090030015353,-0.00022090053433372,0.00022090118633978,-0.00022090132721884,0.0002209003560491,-0.00022858502485243,0.00022858421410996,-0.00022858529679729,0.0002285840065672,0.77300335235969,125803,2834,0.0011062188413671,0.0011062188423897,0.0008957647926174,30.534717334935,6.6777386794829e-06,6.6777386794829e-06,6.6777386794829e-06,1942674.7835126,0.0031130412097409
4219200,0.1817549014071,0.0035130401447189,0.0012262479048733,0.0012262479020516,0.001060544337794,-0.0003022564269045,0.00030225659232419,5.0014521105418e-11,1.160424678352e-10,-9.1925639681867e-10,1.0996123959638e-09,-0.00030707827679861,0.00030707780430539,-0.00030707825891681,0.00030707782200736,-0.00030707767775147,0.00030707842146774,-0.00030707764028581,0.00030707845745707,-0.00028825496512425,0.00028825570267403,-0.00028825487970775,0.00028825579118163,1.0678790674687e-09,-1.5788796162037e-09,-1.9686795288885e-09,1.4821921817678e-09,-0.00030225675163199,0.00030225626645906,-0.00030707838337477,0.0003070776872912,-0.00030707728974783,0.00030707884349562,-0.00030707929019717,0.00030707676329916,-0.00030707815996526,0.00030707792076305,-0.00028825771459092,0.00028825291524639,-0.00028825434534375,0.0002882563680329,-0.00030400503118597,0.00030400827959213,-0.0003040076119243,0.00030400563639955,-2.6267789846686e-10,-1.3639084126519e-10,-0.00024123949361638,0.00024123908923987,1.4055076667832e-09,-1.8640158491815e-09,-0.00024809133741105,0.00024809199989352,-0.00024809243714556,0.00024809091464858,-0.0002480913127953,0.00024809204207296,-0.00024809237840967,0.00024809094961615,-0.00025737664326486,0.0002573753007424,-0.0002573768243019,0.00025737518361024,0.77489564985258,125803,2834,0.0012586031256826,0.0012586031233137,0.0010046835118252,31.777801589742,1.6622412717935e-05,1.6622412717935e-05,1.6622412717935e-05,2137784.6393781,0.0035281033581346
4419200,0.20328948023495,0.0039072252937937,0.0013698644148269,0.0013698644117858,0.001167496467181,-0.00033762087691206,0.00033762107660952,1.1980870695565e-10,7.9961556464632e-11,-9.4329142547681e-10,1.1595168435122e-09,-0.00034377293577935,0.00034377249564941,-0.0003437729405649,0.00034377248421088,-0.00034377230175135,0.00034377314613678,-0.00034377230287002,0.00034377314436552,-0.00032057800261396,0.00032057892452318,-0.00032057804116442,0.00032057889344872,9.5137335324123e-10,-1.4025925422125e-09,-1.831536878838e-09,1.4012906386625e-09,-0.00033762119045517,0.00033762076163837,-0.00034377304599828,0.00034377237310412,-0.00034377201115277,0.00034377346133745,-0.0003437738509289,0.00034377155135114,-0.00034377279677322,0.00034377263360157,-0.00032058064853083,0.00032057623652651,-0.00032057751153677,0.00032057945615505,-0.0003396150390224,0.00033961800321039,-0.00033961735475826,0.00033961563040443,-1.9381114228832e-10,-1.6410308399872e-10,-0.00026530357646149,0.00026530321528642,1.3676512109457e-09,-1.7847949857606e-09,-0.0002733545533062,0.00027335524566222,-0.00027335560489866,0.00027335420429927,-0.00027335455107213,0.00027335526090403,-0.0002733555872565,0.00027335420683668,-0.000284244689508,0.00028424331440915,-0.00028424475445572,0.00028424330424422,0.77613009896248,125803,2834,0.0014057559643161,0.0014057559613443,0.0011048557988908,31.98036789627,1.8242943170157e-05,1.8242943170157e-05,1.8242943170157e-05,2298357.0562461,0.0039240526794136
4619200,0.22636798645085,0.0043291786044003,0.0015246404931855,0.0015246404898659,0.0012798976213489,-0.00037732086884323,0.00037732104450306,6.8039965264001e-11,1.0891771959431e-10,-9.139504997043e-10,1.1033233156124e-09,-0.0003848814622605,0.00038488099469134,-0.00038488144624138,0.00038488100316792,-0.00038488084733105,0.00038488162418539,-0.00038488082174186,0.00038488164880734,-0.0003568862710117,0.00035688705449876,-0.00035688621398227,0.00035688711710197,1.0089170107632e-09,-1.483357398504e-09,-1.994342816361e-09,1.5422692642115e-09,-0.00037732118163659,0.00037732073044298,-0.00038488160064169,0.00038488084425448,-0.00038488047468815,0.00038488203148764,-0.00038488244304423,0.0003848799847536,-0.00038488128965998,0.00038488117026456,-0.00035688903470241,0.00035688424771595,-0.00035688559267868,0.00035688778856717,-0.00037967389398372,0.00037967705202927,-0.00037967632593521,0.00037967456409978,-2.5215976633208e-10,-1.3363991621582e-10,-0.0002920631049067,0.00029206271486647,1.4556758430774e-09,-1.9092206622951e-09,-0.00030150654962102,0.00030150726281757,-0.00030150767677702,0.00030150614676347,-0.00030150652403181,0.0003015073021071,-0.00030150762551043,0.00030150618004733,-0.00031423291368262,0.00031423153821605,-0.00031423308194614,0.00031423143631309,0.77694609245847,125803,2834,0.0015709225001935,0.0015709224975568,0.0012162394030536,33.010348960422,2.6482791683377e-05,2.6482791683377e-05,2.6482791683377e-05,2468043.1286615,0.0043676026114664
4819200,0.25174410283929,0.0047927569669284,0.0016959960168406,0.0016959960150614,0.0014007649350263,-0.00042194529014347,0.00042194535748349,-1.3642762347975e-10,2.04833765822e-10,-8.2171142267714e-10,8.9649149780012e-10,-0.00043107436406298,0.00043107378779536,-0.00043107422747054,0.00043107386908416,-0.00043107384056415,0.00043107428215697,-0.00043107369570116,0.00043107445816486,-0.0003975860712401,0.00039758632286585,-0.00039758569306765,0.0003975867341182,1.1438820726291e-09,-1.7697491279385e-09,-2.3548579548181e-09,1.7571909089596e-09,-0.00042194562185681,0.00042194502434258,-0.00043107454824979,0.00043107360339341,-0.000431073212914,0.00043107493592715,-0.00043107550875182,0.00043107255529638,-0.00043107417489297,0.00043107399228583,-0.00039758899874544,0.00039758332621426,-0.00039758497918447,0.00039758750487228,-0.00042480144144309,0.00042480502360593,-0.00042480426275941,0.00042480215759099,-4.2814114741285e-10,-2.4858881754697e-13,-0.00032152910490189,0.0003215286750224,1.5524421429701e-09,-2.0572991226637e-09,-0.00033263066979706,0.00033263132624649,-0.00033263186497319,0.00033263009342392,-0.00033263051995699,0.00033263144005952,-0.00033263169989891,0.00033263028203862,-0.00034745348131027,0.00034745234965905,-0.00034745398889797,0.0003474518841356,0.77793123112113,125803,2834,0.0017565426098507,0.001756542606886,0.0013388784138184,34.497270242687,3.8378161941496e-05,3.8378161941496e-05,3.8378161941496e-05,2644677.2810294,0.0048637640458341
5019200,0.27918084122233,0.0052918575949505,0.0018819981192747,0.0018819981262278,0.001527861349448,-0.00046978725181711,0.000469787324831,-1.4751424721748e-10,2.2090032617608e-10,-8.5063736233307e-10,9.3425277227793e-10,-0.00048065699518258,0.0004806564433093,-0.00048065686276858,0.00048065653724354,-0.00048065650601118,0.00048065692024758,-0.00048065634286697,0.00048065709621111,-0.00044099603670771,0.0004409962521693,-0.00044099562046028,0.00044099670894683,1.1161927555628e-09,-1.7459398255089e-09,-2.4368793890123e-09,1.8333704221119e-09,-0.00046978759102467,0.00046978698816331,-0.00048065720445246,0.00048065623512695,-0.00048065583454448,0.00048065762905242,-0.00048065820643423,0.00048065516698887,-0.00048065680759391,0.0004806566447331,-0.00044099902966164,0.0004409931831378,-0.00044099485455287,0.00044099753929612,-0.00047322959005292,0.00047323318805279,-0.00047323238702647,0.0004732303928444,-4.4490176338002e-10,2.3690051594009e-11,-0.0003520669662879,0.00035206654520811,1.6318993982967e-09,-2.1312763890858e-09,-0.0003651392474105,0.00036513994923915,-0.00036514048997002,0.00036513865869255,-0.00036513907886454,0.00036514007124727,-0.00036514030936417,0.00036513887274899,-0.00038215345156396,0.00038215232691676,-0.00038215401152781,0.00038215181278195,0.7767822940133,125803,2834,0.0019555066069317,0.0019555066122173,0.0014659695708196,35.807337892373,4.8858703138987e-05,4.8858703138987e-05,4.8858703138987e-05,2815582.2977698,0.0053914786838938
5219200,0.30804377269655,0.0058164477588872,0.0020788999787462,0.002078899984764,0.001658647795377,-0.000519575879529,0.00051957601910795,1.0073653227397e-11,1.2966609040759e-10,-9.3347910429531e-10,1.0882796692443e-09,-0.00053229024139404,0.00053228975900529,-0.00053229018626966,0.00053228978942132,-0.00053228968558571,0.00053229032133471,-0.00053228960436709,0.00053229039939197,-0.00048595903677306,0.00048595966093926,-0.00048595888204005,0.00048595984407809,9.942078795435e-10,-1.5312901123202e-09,-2.25224040558e-09,1.7369156410123e-09,-0.00051957620772445,0.00051957569335697,-0.00053229044824865,0.00053228954936409,-0.00053228916974913,0.00053229087134369,-0.00053229135511838,0.00053228860364143,-0.0005322900429659,0.00053228996569355,-0.00048596198693861,0.00048595664021046,-0.00048595810172866,0.00048596068199915,-0.00052373112955321,0.0005237344258803,-0.00052373362698112,0.00052373194355826,-3.1236313130551e-10,-7.8518933712237e-11,-0.00038275741516978,0.00038275702510134,1.6422569816793e-09,-2.1099802203029e-09,-0.0003980477789668,0.00039804858187798,-0.0003980490159035,0.00039804730637677,-0.00039804768835495,0.00039804863556102,-0.00039804892299614,0.00039804742935347,-0.00041741699416104,0.00041741564529294,-0.00041741730474299,0.00041741538324807,0.77856400299748,125803,2834,0.0021625218730492,0.0021625218781336,0.0015936886311155,36.76071185995,5.6485694879604e-05,5.6485694879604e-05,5.6485694879604e-05,2968615.0096334,0.0059363009676029
5419200,0.33800763760318,0.0063530392606741,0.0022817449630489,0.0022817449655232,0.001789549332102,-0.00057058970732513,0.00057058981371707,-4.9410825797895e-11,1.5603354942923e-10,-8.7789981388095e-10,9.9766065676941e-10,-0.0005853257345294,0.00058532521138817,-0.00058532565056389,0.0005853252675683,-0.00058532519753824,0.00058532574886327,-0.00058532508745925,0.00058532586161001,-0.0005318457529444,0.0005318462195531,-0.00053184550842982,0.00053184649483618,1.0149137744632e-09,-1.5502989897302e-09,-2.1614782683179e-09,1.6484497012036e-09,-0.00057059001692276,0.00057058950478322,-0.00058532589649446,0.00058532504506725,-0.00058532467474274,0.00058532630190176,-0.00058532678773448,0.00058532410954442,-0.00058532553417318,0.00058532541723997,-0.00053184854027847,0.00053184336579718,-0.00053184481775028,0.00053184723294921,-0.00057531543526351,0.00057531868919391,-0.00057531793763379,0.00057531617763655,-3.2646330184826e-10,1.9234688128775e-12,-0.00041320286672567,0.00041320254392065,1.5445086082891e-09,-1.9411632101659e-09,-0.00043111247277917,0.00043111323082286,-0.00043111362934389,0.00043111204143513,-0.00043111236027504,0.0004311133122902,-0.00043111350190625,0.00043111219302811,-0.00045240891865436,0.00045240782302927,-0.00045240932878217,0.00045240745667334,0.76958753944394,125803,2834,0.0023745835328129,0.0023745835341957,0.0017203825643993,37.572300320599,6.2978402564795e-05,6.2978402564795e-05,6.2978402564795e-05,3115241.3719046,0.0064905459115695
5619200,0.3678095226711,0.0068606962936426,0.0024750978626794,0.0024750978647648,0.0019105005661984,-0.00061840044267246,0.00061840052830356,-3.4591000621616e-12,8.8952549795957e-11,-8.6717238844937e-10,9.6611364877355e-10,-0.00063563343689059,0.00063563294382911,-0.00063563338508113,0.00063563296912895,-0.00063563291426604,0.00063563346594293,-0.00063563284454254,0.00063563353981737,-0.00057448509183909,0.00057448564656749,-0.00057448497229517,0.00057448579837455,9.6462613815716e-10,-1.4471015659477e-09,-1.8419375815026e-09,1.3791717790071e-09,-0.00061840071635223,0.00061840025483827,-0.00063563351927332,0.00063563286151081,-0.00063563247970797,0.00063563392369613,-0.00063563436105697,0.00063563197462183,-0.0006356333005473,0.00063563308234276,-0.00057448758027051,0.00057448309752386,-0.00057448443906581,0.0005744863625993,-0.00062292005515378,0.0006229230285189,-0.00062292242468869,0.00062292065644192,-2.2675738629264e-10,-5.7335866075707e-13,-0.00044013487673449,0.00044013465281602,1.3573426848636e-09,-1.6462988074166e-09,-0.0004614578492327,0.00046145856955636,-0.00046145884125965,0.00046145754704487,-0.00046145776466591,0.00046145862547237,-0.00046145874918683,0.00046145766231784,-0.00048277245989825,0.00048277151326856,-0.0004827727634527,0.00048277125925874,0.73637638068034,125803,2834,0.0025732850263343,0.0025732850267852,0.0018324564173822,37.741100204644,6.4328801637155e-05,6.4328801637155e-05,6.4328801637155e-05,3265791.1926091,0.0070034664518965
5819200,0.39506840475487,0.0073047605732552,0.0026449391213815,0.0026449391227737,0.0020148823291,-0.00065856748892581,0.00065856751581875,-1.2540190796956e-10,1.4983519022603e-10,-7.835917291635e-10,8.2576056905203e-10,-0.00067840295115545,0.00067840242358322,-0.00067840285669271,0.00067840250018893,-0.00067840251036457,0.00067840286390979,-0.00067840237401888,0.00067840300662657,-0.00060985228433782,0.00060985248683573,-0.00060985195849537,0.00060985285900616,9.0938345810664e-10,-1.3354249211393e-09,-1.3123797554227e-09,9.0299413281728e-10,-0.00065856770585907,0.00065856729837741,-0.00067840284649272,0.00067840252823983,-0.00067840214330377,0.00067840324184897,-0.00067840364397237,0.00067840168917857,-0.00067840289730307,0.0006784024672928,-0.00060985406218673,0.00060985064047233,-0.00060985185989211,0.0006098529374237,-0.00066247938844593,0.00066248188458618,-0.00066248154850254,0.00066247970417372,-2.3257654759786e-10,1.849760897692e-10,-0.00046061498631505,0.00046061494558309,8.726665259271e-10,-9.5927908749761e-10,-0.00048590657492422,0.00048590703785237,-0.0004859071925343,0.00048590639125036,-0.00048590644243053,0.00048590714423463,-0.00048590702811284,0.0004859065780431,-0.00050581845547755,0.00050581830150907,-0.00050581897695714,0.00050581781518071,0.71318193334745,125803,2834,0.0027401836950907,0.0027401836940483,0.0019176910887345,36.557446934569,5.4859575476555e-05,5.4859575476555e-05,5.4859575476555e-05,3339615.930741,0.0074255294454933
6019200,0.4207681169046,0.0077139188441534,0.0028018107106612,0.0028018107072839,0.0021102974262083,-0.00069710435891967,0.00069710436538517,-1.2557953960185e-10,1.3162600144542e-10,-7.5614738662814e-10,7.7461882860298e-10,-0.00071947284776179,0.00071947232929953,-0.00071947275626492,0.00071947240543038,-0.00071947243546021,0.00071947274108536,-0.0007194722991724,0.00071947288412594,-0.0006436050499037,0.00064360522550596,-0.00064360473472718,0.00064360557851358,8.701059931827e-10,-1.2778885309322e-09,-1.0492299550263e-09,6.5832256158183e-10,-0.00069710455665891,0.00069710416719456,-0.00071947267495799,0.00071947250943293,-0.00071947213077646,0.00071947305313837,-0.00071947344421388,0.00071947169930333,-0.00071947285590646,0.00071947231057478,-0.00064360655453004,0.00064360368002005,-0.00064360484472865,0.00064360547437956,-0.00070043530615496,0.00070043755682411,-0.00070043738391139,0.00070043548373697,-1.9959243605301e-10,2.1168939050502e-10,-0.00047997944612389,0.00047997946400932,6.6310125402988e-10,-6.8127487356989e-10,-0.00050942380617686,0.00050942415755761,-0.000509424261197,0.00050942367422359,-0.00050942367108429,0.00050942426663042,-0.0005094240928154,0.00050942386373417,-0.00052768623319484,0.00052768629965473,-0.00052768675920558,0.00052768582533812,0.70262235197685,125803,2834,0.0029002791934325,0.0029002791924983,0.0019982853897361,35.892395746591,4.9539165972729e-05,4.9539165972729e-05,4.9539165972729e-05,3367876.1522403,0.0078293814566387
6219200,0.44577505655675,0.0081144829911852,0.0029555402131992,0.0029555402111566,0.0022034025668295,-0.00073584831956632,0.00073584832194489,-1.4163155254741e-10,1.4651909882446e-10,-7.5219868119956e-10,7.6051159721627e-10,-0.0007606175360991,0.00076061701188997,-0.00076061743435229,0.00076061709745893,-0.00076061713298332,0.00076061741380504,-0.00076061698092685,0.00076061757282624,-0.00067767033304166,0.00067767046938581,-0.00067766997382632,0.00067767085810307,8.5235205964142e-10,-1.2607806520722e-09,-1.0285886124191e-09,6.3824648957955e-10,-0.00073584851434896,0.0007358481246857,-0.00076061736543282,0.00076061720316519,-0.00076061683237351,0.00076061772980062,-0.00076061812637086,0.00076061639963924,-0.0007606175451652,0.00076061700188001,-0.00067767180665007,0.00067766898031772,-0.00067767012952011,0.00067767074215084,-0.00073892392169588,0.00073892612052666,-0.00073892597450994,0.00073892410179213,-2.1980078439968e-10,2.340545682936e-10,-0.00049971016723126,0.00049971018548991,6.26530562653e-10,-6.4092037156846e-10,-0.00053320518330669,0.00053320549680891,-0.00053320561711797,0.00053320503442094,-0.00053320503636822,0.00053320561630739,-0.00053320542922102,0.00053320524309735,-0.00055013192107806,0.00055013207453699,-0.0005501325063904,0.0005501315498937,0.7074629652089,125803,2834,0.0030612064703133,0.0030612064651662,0.0020804039099613,35.771401866001,4.8571214928011e-05,4.8571214928011e-05,4.8571214928011e-05,3389294.5337878,0.0082366105332174
6419200,0.47050987290665,0.0085079731601932,0.0031069256521657,0.0031069256558157,0.0022941218522118,-0.00077450397709261,0.00077450398247421,-1.6548063620957e-10,1.7350816923865e-10,-7.4878067544082e-10,7.5971911245555e-10,-0.00080168967895597,0.00080168914686743,-0.00080168957170389,0.00080168925420768,-0.00080168928522601,0.00080168954897593,-0.00080168911285613,0.00080168972335366,-0.00071169333107998,0.00071169339782904,-0.00071169290454734,0.00071169385362381,8.469894987875e-10,-1.2586176972541e-09,-1.1342877536017e-09,7.4113764854769e-10,-0.00077450417576099,0.00077450378327926,-0.00080168954008621,0.00080168930643818,-0.00080168895219139,0.00080168991335692,-0.00080169031128496,0.00080168851116467,-0.00080168965082136,0.00080168917766048,-0.00071169488635058,0.00071169183769017,-0.00071169298904403,0.0007116938174651,-0.00077735341812618,0.00077735566030321,-0.00077735544757308,0.00077735367592379,-2.5628487166537e-10,2.6049268227443e-10,-0.0005194902456909,0.00051949025138002,6.9820321607138e-10,-7.2230089942162e-10,-0.00055704621337973,0.00055704654794088,-0.00055704670779572,0.00055704603571844,-0.00055704605643625,0.00055704668884542,-0.00055704649109051,0.00055704626187143,-0.00057248517249334,0.00057248534030504,-0.00057248584360984,0.00057248474323177,0.70211760744487,125803,2834,0.0032217376645481,0.0032217376634482,0.0021627292623382,35.957165117836,5.0057320942691e-05,5.0057320942691e-05,5.0057320942691e-05,3433923.2120532,0.0086434152428339
6619200,0.49576221537911,0.0089333236389347,0.0032698095941726,0.0032698095992701,0.002393704445492,-0.00081622522229471,0.00081622523050103,-1.2068981147969e-10,1.3292725360482e-10,-7.6481399598682e-10,7.7554541220825e-10,-0.00084548356666283,0.00084548304067549,-0.00084548346967228,0.00084548312714025,-0.00084548315205343,0.00084548345780283,-0.00084548300630148,0.00084548360834583,-0.00074913589674304,0.00074913608776473,-0.00074913557319578,0.00074913643000321,8.5807681040127e-10,-1.2774011365847e-09,-1.349137792775e-09,9.4921329855846e-10,-0.00081622542577204,0.00081622502620239,-0.00084548350716759,0.00084548312499132,-0.00084548276514379,0.00084548387541298,-0.00084548427574753,0.0008454823222067,-0.00084548348185012,0.00084548313358472,-0.00074913772316343,0.00074913426515483,-0.00074913543397608,0.00074913663569013,-0.00081973828804979,0.00081974071325727,-0.00081974037250982,0.000819738674268,-2.4354054010713e-10,2.0018619039047e-10,-0.0005416710270541,0.00054167098395102,9.2228475709662e-10,-9.9828709643725e-10,-0.00058291838194294,0.00058291884758754,-0.00058291903350212,0.00058291817210683,-0.00058291823692988,0.0005829189700365,-0.00058291884235397,0.00058291837881415,-0.00059815010332311,0.00059814997395515,-0.00059815069079197,0.00059814946122619,0.74071517853697,125803,2834,0.0033949698602935,0.0033949698585777,0.0022550395873803,36.728343331602,5.6226746652815e-05,5.6226746652815e-05,5.6226746652815e-05,3460675.4925513,0.0090860911392676
6819200,0.52242165024638,0.0094170258423038,0.0034544066879797,0.0034544066968105,0.0025082124575136,-0.00086327919687911,0.00086327921108804,-2.243740844375e-10,2.4534554274443e-10,-7.8780152402774e-10,7.9838471604202e-10,-0.00089407635321608,0.00089407575869563,-0.00089407619284204,0.00089407590532495,-0.0008940759329319,0.00089407617993599,-0.00089407570694181,0.00089407641171962,-0.00079223614037468,0.00079223611944045,-0.00079223557175236,0.00079223670802057,8.9066587109255e-10,-1.325930711842e-09,-1.7681792716799e-09,1.3535493783614e-09,-0.00086327941091026,0.00086327899605472,-0.00089407638843309,0.00089407575673905,-0.00089407538808673,0.00089407677172162,-0.00089407719218975,0.00089407491566557,-0.0008940761228554,0.00089407601241955,-0.00079223830792834,0.00079223397344892,-0.0007922351923531,0.00079223719675424,-0.00086859487155158,0.00086859760608855,-0.00086859701636815,0.00086859552427008,-3.806759454825e-10,2.8927061768708e-10,-0.00056770960929514,0.00056770951646246,1.1916304695457e-09,-1.323207020551e-09,-0.00061213337248778,0.00061213392244203,-0.00061213423211262,0.00061213303901993,-0.00061213316196326,0.00061213410938935,-0.00061213395516056,0.00061213333072012,-0.00062909276053622,0.00062909265168468,-0.00062909361336227,0.0006290918804231,0.79222278923542,125803,2834,0.0035903070954405,0.0035903070933409,0.0023633952302977,38.158877630645,6.767102104516e-05,6.767102104516e-05,6.767102104516e-05,3508893.8704339,0.0095897906090769
7019200,0.55083023410077,0.0098937943511791,0.0036384961894577,0.0036384962025013,0.0026168019592201,-0.00091224855757064,0.00091224858816682,-1.2337984224228e-10,1.5974634324122e-10,-8.1423922378592e-10,8.4378184969075e-10,-0.00094519465650783,0.00094519410239405,-0.00094519454141819,0.00094519420099455,-0.00094519420876151,0.00094519455128288,-0.00094519404078657,0.00094519472384985,-0.00083607072872119,0.00083607094691085,-0.00083607036103827,0.00083607132774604,8.9525717097855e-10,-1.3465869893809e-09,-2.0925727062668e-09,1.6624886968431e-09,-0.00091224878877891,0.00091224835844631,-0.00094519482103954,0.00094519396523906,-0.00094519360531858,0.00094519520272855,-0.00094519562873934,0.00094519311992654,-0.00094519435592421,0.00094519442716223,-0.00083607332241418,0.00083606836370942,-0.00083606960854082,0.0008360721843107,-0.00091805663852376,0.00091805961840342,-0.00091805883061108,0.00091805748927017,-3.3222210759352e-10,1.6858622610063e-10,-0.00059392516836371,0.00059392500254761,1.5537858635592e-09,-1.7651641274738e-09,-0.0006425212898099,0.00064252207665968,-0.00064252240796,0.00064252093493607,-0.00064252112407811,0.00064252221946817,-0.00064252218714552,0.00064252117105599,-0.00065930771672131,0.00065930708677456,-0.00065930838514767,0.00065930649808454,0.73336567989882,125803,2834,0.0037935504079355,0.0037935504110076,0.0024724910190687,39.885497921592,8.148398337274e-05,8.148398337274e-05,8.148398337274e-05,3587020.0472608,0.010110466531787
7219200,0.57942842022818,0.010354583618573,0.00381738836672,0.0038173883804963,0.0027198068713564,-0.00095872454275908,0.0009587245752349,-2.3878169341258e-10,2.6913903822242e-10,-7.5905009580531e-10,8.0606486177178e-10,-0.00099431316707922,0.00099431257879969,-0.00099431299081993,0.00099431273850138,-0.00099431275807777,0.00099431298932386,-0.00099431250849274,0.00099431324163267,-0.00087693233931403,0.00087693225526991,-0.00087693173128062,0.0008769328984864,8.8559348860917e-10,-1.3514365063153e-09,-2.2592729634243e-09,1.8143274114327e-09,-0.00095872478434228,0.00095872434002866,-0.00099431335512649,0.0009943123906316,-0.00099431205171137,0.00099431372435099,-0.00099431417127929,0.00099431154117051,-0.00099431278700585,0.00099431295995367,-0.00087693492472876,0.00087692960777169,-0.00087693087257697,0.00087693377614769,-0.00096448695292194,0.00096448998793129,-0.00096448907691933,0.00096448787234984,-4.5862806058697e-10,2.7694058250825e-10,-0.00061772991156959,0.00061772973000696,1.591196427705e-09,-1.8185429688373e-09,-0.00067066845912369,0.00067066920154862,-0.00067066962142977,0.00067066801508151,-0.0006706682325438,0.00067066940674329,-0.0006706693162624,0.00067066833722037,-0.00068662100256441,0.00068662059211001,-0.00068662192337713,0.00068661971388539,0.70719547677575,125803,2834,0.0039864012215614,0.0039864012348095,0.0025715650987891,40.739129781619,8.8313038252954e-05,8.8313038252954e-05,8.8313038252954e-05,3671243.5460373,0.010600280357037
7419200,0.60755612703626,0.010790873336398,0.0039873816015435,0.0039873816004374,0.0028161101344172,-0.0010027149762737,0.0010027150010779,-1.9483305242516e-10,2.1886508705712e-10,-7.3077341249152e-10,7.6870009435742e-10,-0.0010413294648812,0.0010413289127172,-0.0010413293055055,0.0010413290536251,-0.0010413290763777,0.0010413293007958,-0.0010413288523317,0.0010413295282828,-0.00091519514349745,0.00091519513484516,-0.00091519463577069,0.00091519567130781,8.364784046001e-10,-1.3047510860576e-09,-2.2317285713523e-09,1.784232557887e-09,-0.0010027152105675,0.0010027147637227,-0.0010413296756131,0.0010413286920436,-0.0010413283831756,0.0010413300140989,-0.001041330460086,0.0010413278739596,-0.0010413290964536,0.0010413292760572,-0.00091519771869655,0.0009151924996331,-0.00091519373348492,0.0009151965943816,-0.0010079715057101,0.0010079744418264,-0.0010079735614038,0.0010079724076968,-4.2468217859976e-10,2.3473746601978e-10,-0.00063972011700402,0.00063971992714404,1.6004022202703e-09,-1.8374947389611e-09,-0.0006970679012258,0.00069706865478068,-0.00069706906657242,0.0006970674668478,-0.00069706768936919,0.00069706884670757,-0.00069706878006001,0.00069706776946266,-0.00071159586813043,0.00071159535268313,-0.00071159670631384,0.00071159456809639,0.68502083957413,125803,2834,0.0041688991681336,0.0041688991617926,0.0026630959157788,41.271319955899,9.2570559647196e-05,9.2570559647196e-05,9.2570559647196e-05,3742204.9734206,0.011061773964215
7619200,0.63402954806643,0.011191499003884,0.0041436744034796,0.0041436743958953,0.0029041502045091,-0.0010420942829191,0.0010420942904691,-1.8834887239477e-10,1.9558696259961e-10,-6.8586939757247e-10,7.0513291158534e-10,-0.0010837274663798,0.0010837269383434,-0.0010837273122976,0.0010837270745212,-0.0010837271104407,0.0010837272931977,-0.0010837268966677,0.0010837275095844,-0.00094954259014646,0.00094954256400417,-0.00094954211653203,0.00094954306672231,7.8790693074881e-10,-1.2381102364667e-09,-2.0305484054625e-09,1.6000832237507e-09,-0.0010420944981727,0.0010420940683991,-0.0010837276365063,0.0010837267557467,-0.0010837264667279,0.0010837279536198,-0.0010837283820513,0.0010837259791729,-0.0010837271456453,0.0010837272503066,-0.00094954493611468,0.00094954015658249,-0.00094954133477821,0.00094954386701901,-0.0010465393818239,0.001046542102198,-0.00104654133717,0.0010465401777688,-4.0743202726869e-10,2.3426439588351e-10,-0.00065849366418906,0.00065849349131131,1.4280956772971e-09,-1.6475000876549e-09,-0.00072048773778707,0.0007204883895485,-0.0007204887782085,0.00072048732418111,-0.00072048752701438,0.00072048857787946,-0.00072048850056958,0.00072048762042609,-0.00073284210041656,0.00073284170715632,-0.00073284292560247,0.00073284093937803,0.67223853783623,125803,2834,0.0043322347739817,0.0043322347598526,0.0027412514109169,41.071126370122,9.0969010960974e-05,9.0969010960974e-05,9.0969010960974e-05,3787934.9151755,0.011471187557122
7819200,0.65902954296289,0.011565203436489,0.0042894221142657,0.0042894221045438,0.0029863592176797,-0.001079384067435,0.0010793840631139,-1.8221373852478e-10,1.799860751666e-10,-6.504096497846e-10,6.5295222487538e-10,-0.0011238816028946,0.0011238810985222,-0.0011238814551752,0.0011238812293586,-0.0011238812741086,0.001123881426392,-0.0011238810690293,0.0011238816332781,-0.00098197874615958,0.00098197872011945,-0.00098197830210617,0.00098197918721827,7.5113469835057e-10,-1.1903668856037e-09,-1.8663748244338e-09,1.4467072039152e-09,-0.0010793842707987,0.0010793838515203,-0.0011238817448768,0.0011238809497741,-0.0011238806779673,0.0011238820435241,-0.0011238824617841,0.0011238802038068,-0.0011238813304202,0.001123881366501,-0.00098198092192794,0.00098197650447776,-0.00098197763971617,0.00098197989249689,-0.0010830258209172,0.0010830283675689,-0.0010830277087807,0.0010830265340351,-3.8895977809411e-10,2.414409531152e-10,-0.0006758639716378,0.00067586382382987,1.2927245220209e-09,-1.4855325638027e-09,-0.00074257964050572,0.00074258021936736,-0.0007425805800142,0.0007425792543646,-0.00074257943102432,0.00074258040522267,-0.00074258030740902,0.00074257954575893,-0.00075264160418258,0.00075264131927785,-0.00075264242191789,0.00075264057527951,0.66655684288199,125803,2834,0.0044868768207248,0.0044868768036549,0.0028135702768995,40.972190874732,9.0177526997855e-05,9.0177526997855e-05,9.0177526997855e-05,3797030.5942606,0.011857269635958
8019200,0.68271717243663,0.011915971343896,0.0044263350042547,0.0044263349973153,0.0030633013423261,-0.0011147351539588,0.0011147351448749,-2.0091458437383e-10,1.9427013441604e-10,-6.2543371754689e-10,6.214842818465e-10,-0.0011619870631116,0.001161986567067,-0.0011619869074127,0.0011619867047737,-0.0011619867568467,0.001161986871352,-0.0011619865381496,0.0011619870923802,-0.0010124335616563,0.0010124334692777,-0.0010124330727132,0.0010124339861821,7.1346202128381e-10,-1.1465734469812e-09,-1.7593886229146e-09,1.3456561546116e-09,-0.0011147353520068,0.0011147349386277,-0.0011619871852208,0.001161986442798,-0.0011619861882757,0.001161987461871,-0.0011619878789582,0.0011619857184542,-0.0011619868131408,0.001161986814964,-0.0010124355932549,0.001012431403026,-0.0010124325048057,0.0010124346020057,-0.0011176132389792,0.0011176156329832,-0.0011176150400286,0.0011176138892211,-4.0190224925433e-10,2.721943865601e-10,-0.00069214935000374,0.00069214922090028,1.1779857107826e-09,-1.3506855405648e-09,-0.0007635609796755,0.00076356148372918,-0.00076356184031011,0.0007635605983993,-0.00076356075943776,0.00076356168085613,-0.00076356154954673,0.00076356090737593,-0.0007712058334771,0.00077120571246019,-0.0007712067057711,0.00077120490583294,0.66097842644485,125803,2834,0.0046334551233179,0.0046334551063147,0.0028813745209106,40.977142070002,9.0217136560017e-05,9.0217136560017e-05,9.0217136560017e-05,3799628.2052923,0.012222605881444
8219200,0.70521261610618,0.01224619106861,0.0045553214569787,0.0045553214520241,0.003135548159607,-0.001148232874797,0.0011482328665597,-1.4417786293584e-10,1.4123891518927e-10,-5.8419099118975e-10,5.798666137671e-10,-0.0011981863488483,0.0011981858992892,-0.0011981862314664,0.0011981860276493,-0.0011981860596957,0.0011981862028966,-0.0011981858868087,0.0011981863703919,-0.0010408025070147,0.0010408025096525,-0.0010408021500926,0.0010408028797267,6.9486615378657e-10,-1.1249461745716e-09,-1.6472572416585e-09,1.2366021351683e-09,-0.0011482330731714,0.0011482326623166,-0.0011981864738353,0.0011981857722911,-0.001198185555859,0.0011981867537683,-0.0011981871523239,0.0011981850963494,-0.0011981861574497,0.0011981860955588,-0.0010408044831033,0.0010408005365139,-0.0010408016240241,0.0010408034750744,-0.001150388539714,0.0011503908317597,-0.0011503903212003,0.0011503891503389,-3.3743890916511e-10,2.4021433264644e-10,-0.00070749536798117,0.00070749526517746,1.1400808005843e-09,-1.2809715429739e-09,-0.00078330744794832,0.0007833079559097,-0.00078330826299725,0.00078330712130808,-0.00078330725163416,0.00078330813508316,-0.00078330801096994,0.00078330738525568,-0.00078899944227657,0.00078899923639101,-0.0007890002016277,0.00078899858411253,0.65549730979784,125803,2834,0.0047723266826162,0.0047723266704207,0.0029452690862445,41.071054542347,9.0968436338773e-05,9.0968436338773e-05,9.0968436338773e-05,3802981.7658189,0.01256850816368
8419200,0.72659680189807,0.012559309239718,0.0046776207610075,0.0046776207582958,0.0032040677204151,-0.0011800664723766,0.0011800664635456,-1.6292083352743e-10,1.5797541760649e-10,-5.5954766826165e-10,5.5456304006803e-10,-0.0012326545610908,0.0012326541217603,-0.0012326544306512,0.0012326542531389,-0.0012326542928429,0.001232654399373,-0.001232654103279,0.0012326545846462,-0.0010675601118441,0.0010675600513604,-0.0010675596952737,0.0010675604734675,6.5746659319982e-10,-1.0897150964396e-09,-1.6067903690429e-09,1.1940668195085e-09,-0.0011800666711016,0.0011800662585894,-0.0012326546861638,0.001232653994529,-0.0012326537933008,0.0012326549356359,-0.0012326553426611,0.0012326533310247,-0.0012326543741931,0.0012326543095355,-0.0010675620060678,0.0010675581550004,-0.0010675592035812,0.0010675610214912,-0.00118161423743,0.0011816164201597,-0.0011816159229624,0.0011816147728583,-3.5957110087146e-10,2.6105543772969e-10,-0.00072208476621819,0.00072208466329055,1.0780478594606e-09,-1.2179534163026e-09,-0.00080182160490886,0.00080182205574022,-0.00080182237746766,0.00080182125827512,-0.0008018213919788,0.00080182224736596,-0.00080182210879055,0.00080182154714855,-0.00080605148004526,0.00080605138382164,-0.00080605228899726,0.00080605065651403,0.65381527997733,125803,2834,0.0049042794413555,0.0049042794284198,0.0030060145263285,41.233708723283,9.2269669786265e-05,9.2269669786265e-05,9.2269669786265e-05,3806776.5387356,0.012897322582583
8619200,0.74735848373149,0.012862816014788,0.004796143239443,0.0047961432376193,0.0032705295377261,-0.0012117290209357,0.0012117290146298,-1.4798489892762e-10,1.4868086196055e-10,-5.3541431310732e-10,5.2652829286325e-10,-0.0012669202281504,0.0012669198172022,-0.0012669201042067,0.0012669199442162,-0.0012669199756815,0.0012669200795908,-0.0012669197994094,0.001266920252229,-0.0010944017195871,0.001094401689346,-0.0010944013346877,0.0010944020786243,6.2980715088268e-10,-1.0658081251133e-09,-1.624806678133e-09,1.2092900768951e-09,-0.001211729221931,0.0012117288059963,-0.0012669203881383,0.0012669196631833,-0.0012669194828112,0.0012669206206358,-0.0012669210261601,0.0012669190193958,-0.0012669200507495,0.0012669200047065,-0.0010944036429596,0.0010943997868462,-0.0010944008225938,0.0010944026825772,-0.0012127641686946,0.0012127663164511,-0.0012127658232168,0.0012127647117361,-3.5178696563394e-10,2.5473603860653e-10,-0.00073701941785368,0.00073701931566381,1.1039375368612e-09,-1.2445982741886e-09,-0.00082051854907422,0.0008205190212755,-0.00082051933945657,0.00082051821224486,-0.00082051834116872,0.00082051921293771,-0.00082051907525561,0.00082051848886838,-0.00082337317924781,0.00082337304589863,-0.00082337397363943,0.0008233723479812,0.65261451529961,125803,2834,0.0050355052396716,0.0050355052238112,0.0030681917921656,41.854683098316,9.7237464786526e-05,9.7237464786526e-05,9.7237464786526e-05,3816025.8658743,0.013226221853103
8819200,0.76692998373843,0.013137993047398,0.0049040524053881,0.0049040524076559,0.0033298882343537,-0.0012401402435506,0.001240140242247,-1.5835706682972e-10,1.5969097049164e-10,-4.8940863484333e-10,4.9395989674658e-10,-0.0012979837933579,0.0012979834075676,-0.0012979836662764,0.0012979835368959,-0.001297983569676,0.0012979836413439,-0.0012979833816899,0.0012979838251183,-0.0011181708751354,0.0011181707729551,-0.001118170463228,0.0011181712010493,5.8344775048348e-10,-1.0228510999398e-09,-1.6082116671648e-09,1.1888159985461e-09,-0.0012401404498506,0.0012401400305933,-0.0012979839702949,0.0012979832273493,-0.0012979830805935,0.0012979841670848,-0.0012979845810238,0.0012979826110396,-0.0012979836127887,0.0012979835875822,-0.0011181727221671,0.0011181689100983,-0.0011181699256937,0.0011181717823343,-0.0012403770282599,0.0012403790599245,-0.0012403785706564,0.0012403775518284,-3.6659243174646e-10,2.7199875247776e-10,-0.00074971343713664,0.00074971333851744,1.0746423723709e-09,-1.2092157904581e-09,-0.00083688747370722,0.0008368879222473,-0.00083688824681494,0.00083688712854271,-0.00083688725981065,0.00083688811860747,-0.00083688796920816,0.00083688742034021,-0.00083794750809441,0.00083794744048384,-0.00083794833733376,0.00083794669037141,0.62942561396683,125803,2834,0.0051532384427757,0.0051532384316783,0.0031210512115821,41.996619280579,9.8372954244634e-05,9.8372954244634e-05,9.8372954244634e-05,3832340.3731151,0.013518436149644
9019200,0.78524391688912,0.013395540372125,0.0050049553318666,0.0050049553316432,0.0033856297086154,-0.0012664935330163,0.0012664935004942,-1.6362335353651e-10,1.3334290834803e-10,-4.8998279353847e-10,4.6189529082769e-10,-0.0013268356122931,0.0013268352097228,-0.0013268354888466,0.0013268353338431,-0.0013268353956902,0.0013268354341035,-0.0013268352159031,0.0013268356104368,-0.0011401125641601,0.0011401124511557,-0.0011401121789328,0.001140112848939,5.8658915175112e-10,-9.8853179186101e-10,-1.5597608232453e-09,1.175383359858e-09,-0.0012664937068553,0.0012664933230375,-0.0013268357582441,0.001326835058897,-0.0013268348852181,0.0013268359787343,-0.0013268363570957,0.0013268344533514,-0.0013268354111083,0.0013268354087715,-0.0011401143479269,0.0011401106498467,-0.0011401116170525,0.0011401134516994,-0.0012660922466718,0.001266094269227,-0.0012660937633289,0.0012660927816629,-3.6093436077944e-10,2.6775530922969e-10,-0.00076125283265764,0.0007612527356111,1.0532758965782e-09,-1.185863526811e-09,-0.00085179393637091,0.00085179437143795,-0.00085179469235158,0.00085179359470509,-0.00085179372309042,0.00085179456736075,-0.00085179441871315,0.00085179388348888,-0.00085137732393141,0.0008513772547834,-0.00085137813551989,0.00085137652149617,0.62978086412881,125803,2834,0.0052624307569886,0.0052624307494909,0.0031691049997622,42.04663918157,9.8773113452562e-05,9.8773113452562e-05,9.8773113452562e-05,3837905.6014786,0.013788543766315
9219200,0.80217004439284,0.013630839262183,0.0050972117269588,0.0050972117255989,0.0034364158096254,-0.0012902601242897,0.001290260079638,-1.6224452483525e-10,1.1624364595406e-10,-4.98501997165e-10,4.6234252963544e-10,-0.001352994720211,0.0013529943125805,-0.0013529946137297,0.0013529944419669,-0.0013529945071202,0.0013529945446997,-0.0013529943426592,0.0013529947023358,-0.0011597511177765,0.0011597510234786,-0.0011597507588958,0.0011597513832976,6.0059615508208e-10,-9.848460528115e-10,-1.5099978147944e-09,1.1418822260061e-09,-0.0012902602850737,0.0012902599186966,-0.0013529948301566,0.0013529941840134,-0.0013529939978179,0.0013529950943738,-0.0013529954453041,0.0013529935843059,-0.0013529945284697,0.0013529944963892,-0.0011597528489625,0.0011597492597468,-0.0011597501989472,0.0011597519514291,-0.0012892403074312,0.0012892423405798,-0.0012892418197312,0.0012892407811892,-3.5511289927332e-10,2.6623711405068e-10,-0.00077137403794441,0.00077137394709228,1.0224601503568e-09,-1.1473546052156e-09,-0.00086501829238704,0.0008650187196942,-0.00086501903538712,0.0008650179787753,-0.0008650180953786,0.00086501892367608,-0.00086501876483239,0.00086501824330121,-0.00086326216924327,0.00086326210354914,-0.00086326296749466,0.0008632613949845,0.62301125448917,125803,2834,0.0053608934755124,0.0053608934752055,0.0032112589406538,41.897010313384,9.757608250707e-05,9.757608250707e-05,9.757608250707e-05,3840952.7300889,0.014030979271869
9419200,0.81753015205344,0.01384190238352,0.0051800110649648,0.0051800110596272,0.0034818802589284,-0.0013109311528488,0.0013109310996706,-1.6536140320499e-10,1.1052699847607e-10,-5.2810746273834e-10,4.8322251564855e-10,-0.0013759464561395,0.0013759460178232,-0.0013759463396642,0.0013759461390581,-0.0013759462170955,0.0013759462636584,-0.0013759460496419,0.001375946429951,-0.0011767141083039,0.0011767140177067,-0.0011767137550992,0.001176714387601,6.2620241194616e-10,-9.9992626637012e-10,-1.4485288801159e-09,1.0904068543154e-09,-0.001310931304082,0.0013109309475382,-0.0013759465241496,0.0013759459340211,-0.0013759457154183,0.0013759467934831,-0.0013759471417379,0.0013759453140501,-0.001375946263752,0.0013759462002825,-0.0011767157881438,0.0011767122998384,-0.0011767132578384,0.001176714898277,-0.0013093259943971,0.0013093280394057,-0.0013093275551191,0.0013093264641156,-3.5747261772058e-10,2.721480850334e-10,-0.00077974680874095,0.000779746721422,9.6639807586759e-10,-1.0874059871617e-09,-0.00087619103077442,0.00087619141697858,-0.00087619172953531,0.00087619070774139,-0.00087619082239294,0.00087619161753877,-0.00087619145447518,0.00087619098564548,-0.00087319286881968,0.0008731928636397,-0.00087319367160166,0.00087319213156299,0.61621359749327,125803,2834,0.0054465217663435,0.005446521764493,0.0032461391732817,41.41506592349,9.3720527387921e-05,9.3720527387921e-05,9.3720527387921e-05,3841767.4574483,0.014240059058733
9619200,0.83112698454322,0.014026543629293,0.0052524668762505,0.0052524668693942,0.0035216098836484,-0.0013279839267858,0.0013279838656683,-1.7641440166113e-10,1.1025560553164e-10,-5.5102025388595e-10,5.0172265007038e-10,-0.0013951039309922,0.0013951034950207,-0.0013951038243485,0.0013951035892975,-0.0013951036918909,0.0013951037293129,-0.0013951035190226,0.0013951039092105,-0.0011905226091288,0.0011905224838205,-0.0011905222244784,0.0011905229394799,6.7128663271298e-10,-1.0430074756895e-09,-1.3653709311026e-09,1.0095428573168e-09,-0.0013279840720677,0.0013279837179924,-0.0013951039439332,0.0013951034656862,-0.0013951031954905,0.0013951042386536,-0.0013951045993075,0.0013951027859543,-0.001395103774274,0.001395103634162,-0.0011905241868185,0.0011905208137794,-0.0011905218176558,0.0011905233349725,-0.0013258362981514,0.0013258383953808,-0.0013258379612571,0.001325836785304,-3.6991227901847e-10,2.7974667846041e-10,-0.00078602721255093,0.0007860271251215,8.7637826678964e-10,-9.9750075676913e-10,-0.00088491991451106,0.00088492026390392,-0.00088492057475603,0.00088491959902037,-0.00088491972393866,0.00088492045092577,-0.0008849202857307,0.00088491988487276,-0.00088080309225961,0.00088080325307658,-0.00088080395477288,0.00088080242755748,0.60938555872206,125803,2834,0.0055171540226744,0.0055171540177908,0.0032723154723317,40.448688195552,8.5989505564418e-05,8.5989505564418e-05,8.5989505564418e-05,3837168.4343289,0.014409925257034
9819200,0.8434367716425,0.014194588866434,0.0053182756363177,0.005318275626612,0.0035580376035047,-0.0013439593054727,0.0013439592463691,-1.6065498145354e-10,1.0172155235875e-10,-6.0645083581384e-10,5.5085000085177e-10,-0.0014129809946515,0.0014129805227726,-0.0014129808928281,0.001412980622335,-0.0014129807144745,0.001412980806632,-0.0014129805496619,0.0014129809706556,-0.0012036333995072,0.0012036333618211,-0.0012036330599193,0.0012036337416175,7.1088331941433e-10,-1.0801822880856e-09,-1.3307832730995e-09,9.778120755417e-10,-0.0013439594500957,0.001343959097861,-0.0014129809762815,0.0014129805345558,-0.0014129802492341,0.0014129812994947,-0.0014129816536556,0.0014129798465198,-0.0014129808494304,0.0014129806617183,-0.001203635026344,0.001203631702667,-0.0012036327293815,0.00120363411186,-0.0013413953011875,0.0013413974352701,-0.0013413970474552,0.0013413957530717,-3.5554447024428e-10,2.8080846328832e-10,-0.00079227899800255,0.00079227892264204,8.6037108451866e-10,-9.7016699702835e-10,-0.00089333437567683,0.00089333471534367,-0.00089333501498083,0.00089333407063022,-0.00089333418113858,0.00089333490642625,-0.00089333473364826,0.00089333435118703,-0.00088835256724591,0.00088835266948233,-0.00088835339602234,0.00088835193067707,0.61214217220219,125803,2834,0.0055833193971494,0.0055833193891143,0.0032983658971794,39.874290134968,8.1394321079741e-05,8.1394321079741e-05,8.1394321079741e-05,3832981.4562355,0.01457062545264
10019200,0.85446592198781,0.014346211165476,0.0053775448885031,0.0053775448805779,0.003591121396395,-0.0013577328011698,0.001357732743309,-1.5040631248451e-10,9.0766861193519e-11,-6.3139244557066e-10,5.8195683255941e-10,-0.0014284136113488,0.0014284131322327,-0.0014284135224233,0.001428413224473,-0.0014284133201721,0.0014284134299765,-0.0014284131550151,0.0014284135951538,-0.0012149509141959,0.001214950880599,-0.0012149505600719,0.0012149512868839,7.702826472174e-10,-1.1452417680881e-09,-1.3008501931535e-09,9.4235650487439e-10,-0.0013577329491149,0.0013577325918778,-0.0014284135542655,0.001428413174648,-0.0014284128543716,0.0014284139174086,-0.0014284142811296,0.0014284124417514,-0.0014284134887217,0.0014284132411532,-0.0012149525353701,0.0012149492091199,-0.0012149502763764,0.0012149515875772,-0.0013548461121887,0.001354848319413,-0.0013548479348366,0.001354846515481,-3.4968347051123e-10,2.7884057967052e-10,-0.00079743695170169,0.00079743688075897,8.415517885492e-10,-9.4452663951301e-10,-0.00090038787385345,0.00090038820715615,-0.0009003885026004,0.00090038757533696,-0.00090038768636054,0.00090038839427515,-0.00090038821615224,0.00090038785833619,-0.00089468854999812,0.00089468871187257,-0.00089468939622504,0.00089468792662507,0.61575181246422,125803,2834,0.0056403601790207,0.0056403601718248,0.0033198653499416,39.084510693695,7.507608554956e-05,7.507608554956e-05,7.507608554956e-05,3823470.8054347,0.014708212628421
10219200,0.86423424250599,0.014481635270178,0.0054303760966601,0.0054303760874945,0.0036208830860239,-0.001369274523031,0.0013692744686732,-1.4264002932737e-10,8.4842259127222e-11,-6.6930822415201e-10,6.2530567451734e-10,-0.0014413778396352,0.0014413773374224,-0.0014413777469416,0.0014413774284368,-0.0014413775181762,0.0014413776637266,-0.0014413773607302,0.0014413778213046,-0.0012244207625767,0.0012244207883901,-0.0012244204379987,0.0012244211660566,8.0746919672325e-10,-1.1873038904911e-09,-1.2716201055872e-09,9.0846666921134e-10,-0.001369274675562,0.0013692743138807,-0.001441377750788,0.0014413774113892,-0.0014413770632155,0.0014413781338663,-0.0014413784987571,0.0014413766521382,-0.0014413777326757,0.0014413774274092,-0.001224422382675,0.0012244191067608,-0.0012244202030137,0.0012244214069187,-0.0013661531693259,0.0013661554499459,-0.0013661550834538,0.0013661535323312,-3.4886108859054e-10,2.7651190333939e-10,-0.00080144005887057,0.0008014399878116,8.1445802661452e-10,-9.1746869388949e-10,-0.00090604136130177,0.00090604167632404,-0.0009060419690205,0.00090604106599969,-0.0009060411717618,0.00090604186607238,-0.00090604168959644,0.00090604134200462,-0.00089971686826842,0.00089971702852921,-0.00089971768865991,0.00089971625693476,0.62007541729901,125803,2834,0.0056881543031495,0.0056881542984968,0.003336560091467,38.0452592415,6.6762073932003e-05,6.6762073932003e-05,6.6762073932003e-05,3808519.8249698,0.014822172033058
10419200,0.87324164859546,0.01460770649715,0.0054794500730263,0.0054794500626605,0.0036488063614636,-0.001381147170652,0.0013811471248357,-1.6554979444977e-10,1.2121971140926e-10,-7.4089184238043e-10,6.9773440975155e-10,-0.0014545515688463,0.0014545510112195,-0.0014545514573439,0.0014545511245253,-0.0014545511997787,0.0014545513863384,-0.0014545510302659,0.0014545515574116,-0.0012344356975455,0.0012344357518602,-0.0012344353270704,0.001234436147769,8.1100108570882e-10,-1.1915334233404e-09,-1.3422384178795e-09,9.7971422677788e-10,-0.0013811473258698,0.0013811469640191,-0.0014545514790005,0.0014545510951408,-0.001454550744721,0.0014545518701164,-0.0014545522297298,0.0014545503346765,-0.0014545514222513,0.00145455115222,-0.0012344374142561,0.0012344340107957,-0.0012344351007688,0.0012344364175364,-0.0013778847326856,0.0013778870707408,-0.0013778866717294,0.0013778851350875,-3.8192906425429e-10,3.1208114054714e-10,-0.00080634145548921,0.00080634138509908,8.4413914569839e-10,-9.4810205173423e-10,-0.00091247460095091,0.00091247491481851,-0.00091247522861552,0.00091247428884902,-0.00091247438975412,0.00091247512990558,-0.00091247493042795,0.00091247457827455,-0.00090566126603345,0.00090566143789045,-0.00090566214438287,0.00090566064173362,0.62506671000862,125803,2834,0.0057373172830434,0.0057373172714506,0.003356984351927,37.717909915989,6.4143279327912e-05,6.4143279327912e-05,6.4143279327912e-05,3799933.0519129,0.014942706487446
10619200,0.88166433293142,0.014723395837257,0.0055245468000392,0.0055245467907469,0.003674302246471,-0.0013925905488298,0.0013925905027684,-1.3034824359769e-10,8.5575939772605e-11,-7.338879467564e-10,6.9089692522024e-10,-0.0014672481036432,0.0014672475737849,-0.0014672480163696,0.0014672476593395,-0.0014672477392482,0.0014672479425446,-0.0014672475884984,0.0014672480953854,-0.0012440388718156,0.0012440389679679,-0.0012440385546384,0.0012440393323585,8.7236746359633e-10,-1.2622376879428e-09,-1.4068987807712e-09,1.0353456235159e-09,-0.0013925907075457,0.0013925903366993,-0.0014672480288256,0.0014672476403098,-0.0014672472559243,0.0014672484504925,-0.0014672488229447,0.0014672468340083,-0.001467247972101,0.0014672476969981,-0.0012440406992494,0.0012440371086641,-0.0012440382638753,0.0012440396714001,-0.0013891363323614,0.0013891388301542,-0.0013891384029085,0.0013891367997903,-3.5700800083032e-10,2.7814865001438e-10,-0.00081128257596366,0.00081128249694453,9.416647506173e-10,-1.0553968074889e-09,-0.0009188898987836,0.00091889029397626,-0.00091889059624008,0.00091888959516839,-0.00091888970798302,0.00091889048503968,-0.00091889031378885,0.00091888987096333,-0.00091156142275748,0.00091156150316641,-0.0009115622619383,0.00091156072959173,0.61395642728152,125803,2834,0.0057846997347865,0.0057846997195661,0.0033775717158877,37.647374226345,6.3578993810757e-05,6.3578993810757e-05,6.3578993810757e-05,3796401.6415533,0.015059806403031
10819200,0.88956693303507,0.014830059318555,0.0055661757188855,0.0055661757100916,0.0036977078895781,-0.0014033317777108,0.0014033317374335,-1.261525323032e-10,8.6573979636114e-11,-7.5681275141935e-10,7.2197970436856e-10,-0.0014791954394559,0.001479194897619,-0.0014791953552901,0.0014791949837599,-0.0014791950581851,0.0014791952867578,-0.0014791949078136,0.0014791954366165,-0.0012530062572392,0.0012530063862382,-0.001253005955533,0.0012530067289351,8.8184035691183e-10,-1.2742824444186e-09,-1.4985475399532e-09,1.1245608669632e-09,-0.0014033319412695,0.00140333156801,-0.0014791953852282,0.0014791949407482,-0.0014791945556171,0.001479195814246,-0.0014791961882301,0.0014791941307322,-0.0014791952759095,0.0014791950514313,-0.0012530081929174,0.0012530044184114,-0.0012530055827817,0.0012530071426455,-0.0013996544843679,0.0013996570617592,-0.0013996565748766,0.0013996550070127,-3.631225790322e-10,2.7989481240561e-10,-0.0008159621975346,0.00081596211318114,1.0260139911607e-09,-1.1450303137928e-09,-0.00092495125798253,0.00092495170432702,-0.0009249520149682,0.00092495094750889,-0.00092495106699696,0.00092495189773132,-0.0009249517308383,0.00092495122390898,-0.00091711148787333,0.00091711148942389,-0.00091711232823374,0.00091711073028908,0.60387279257434,125803,2834,0.0058291726323235,0.0058291726201863,0.0033970687863188,37.64966590763,6.3597327261043e-05,6.3597327261043e-05,6.3597327261043e-05,3796460.4610251,0.015169905390616
11019200,0.89704485856832,0.014929083420471,0.0056048738926568,0.0056048738838618,0.0037193356439522,-0.0014137026225138,0.0014137025714021,-8.7440455048238e-11,3.5753493108269e-11,-7.416941212243e-10,6.9166050683453e-10,-0.0014907347633027,0.001490734269866,-0.0014907346888767,0.0014907342976987,-0.0014907343983918,0.0014907346149979,-0.0014907342731176,0.0014907347511948,-0.0012616749496509,0.0012616751558217,-0.0012616747269703,0.0012616754465861,9.1965279929708e-10,-1.3229954758047e-09,-1.5753978277002e-09,1.191148428428e-09,-0.0014137027820422,0.0014137023985546,-0.0014907347466091,0.0014907342898722,-0.0014907338418175,0.001490735167309,-0.0014907355660698,0.0014907334089051,-0.0014907346191341,0.0014907344033996,-0.0012616769804569,0.0012616730442981,-0.001261674251232,0.00126167596037,-0.0014097765927134,0.001409779322507,-0.0014097788078352,0.0014097771774771,-3.4717254003317e-10,2.174791132212e-10,-0.00082061555312282,0.00082061543124908,1.1249117059273e-09,-1.291306649517e-09,-0.00093091146655289,0.00093091200189279,-0.00093091231106642,0.0009309111518471,-0.00093091130407873,0.00093091215827563,-0.00093091205062658,0.00093091141080412,-0.00092256448196778,0.00092256435580512,-0.00092256525005356,0.00092256360250421,0.59321240663876,125803,2834,0.0058721102905287,0.0058721102629966,0.0034164531228938,37.82594410117,6.5007552809364e-05,6.5007552809364e-05,6.5007552809364e-05,3800769.0396471,0.015276784413405
11219200,0.90408708080756,0.0150222648065,0.005641262416802,0.0056412624090472,0.0037397399806508,-0.0014233121364031,0.0014233120968965,-7.2991692095087e-11,3.276580102727e-11,-7.4298604093352e-10,7.1258607745506e-10,-0.0015014483374277,0.0015014478520118,-0.0015014483053201,0.0015014478898681,-0.0015014479698602,0.0015014482309623,-0.0015014478563312,0.0015014483403459,-0.0012696981450326,0.0012696983557207,-0.0012696979520555,0.0012696986023389,9.1440968835287e-10,-1.3146193710304e-09,-1.6559559314141e-09,1.2744221041269e-09,-0.0014233123053877,0.0014233119244367,-0.0015014483503007,0.0015014478288856,-0.0015014474319774,0.0015014487965594,-0.0015014491825634,0.0015014469916042,-0.0015014481659936,0.0015014480139695,-0.0012697002866882,0.0012696961633824,-0.0012696973773288,0.0012696992085602,-0.0014191705113773,0.0014191732539681,-0.0014191726886666,0.0014191711858869,-3.2537727554633e-10,2.3055079889017e-10,-0.000824887233184,0.00082488713712124,1.2248727307767e-09,-1.3577677105715e-09,-0.00093637154381864,0.0009363721592323,-0.00093637245257663,0.00093637125985161,-0.00093637139899443,0.00093637231518442,-0.00093637219164643,0.00093637150158964,-0.00092759535164415,0.0009275951066118,-0.000927596117793,0.00092759445295056,0.59263757066279,125803,2834,0.0059118943344523,0.0059118943272834,0.0034342479637723,37.936036683494,6.5888293467955e-05,6.5888293467955e-05,6.5888293467955e-05,3805135.9105328,0.015375655500461
11419200,0.91064901204148,0.015109697569784,0.0056753546159236,0.0056753546076063,0.0037589883462541,-0.0014319291918075,0.0014319291453749,-7.4922142885846e-11,2.5896489056506e-11,-7.2967620977501e-10,6.9046625802389e-10,-0.0015110812154603,0.0015110807319127,-0.0015110811595716,0.0015110807701495,-0.001511080854457,0.0015110810906203,-0.0015110807441371,0.0015110812033731,-0.0012768714705083,0.0012768716954834,-0.0012768712934208,0.0012768719412788,9.1782028457327e-10,-1.3225342384496e-09,-1.7062333737891e-09,1.3200881409598e-09,-0.0014319293581652,0.0014319289731781,-0.0015110812462538,0.0015110806924498,-0.0015110802715849,0.0015110816854504,-0.0015110820722205,0.0015110798381466,-0.0015110810358952,0.0015110808984272,-0.0012768736405205,0.0012768694501981,-0.0012768706678011,0.0012768725934213,-0.0014276224559505,0.0014276252779671,-0.0014276246589332,0.001427623123821,-3.450941944685e-10,2.2032583096181e-10,-0.00082857440343645,0.00082857428183493,1.265794270683e-09,-1.4285459670116e-09,-0.00094113325253915,0.00094113387242966,-0.00094113418674329,0.00094113293970599,-0.00094113309055302,0.00094113403770033,-0.00094113393144603,0.00094113318673924,-0.00093200611087982,0.00093200585510472,-0.00093200686830085,0.0009320051376964,0.59626754100216,125803,2834,0.0059475677057047,0.0059475676936584,0.0034496110569714,37.863923056982,6.5311384455857e-05,6.5311384455857e-05,6.5311384455857e-05,3805685.6926774,0.015463716850592
11619200,0.9166951247239,0.015190655943025,0.0057068842129222,0.005706884204234,0.0037768875258685,-0.0014394609799992,0.0014394609341063,-1.2927488827031e-10,7.9180602086958e-11,-7.6400219084574e-10,7.2881144284011e-10,-0.00151953454364,0.0015195339965457,-0.0015195344298467,0.0015195340536846,-0.001519534150597,0.0015195343716055,-0.0015195339989876,0.001519534523623,-0.0012831003938736,0.0012831005733509,-0.001283100138527,0.001283100856026,8.6184574649816e-10,-1.2599663828382e-09,-1.7610017544178e-09,1.379738665247e-09,-0.0014394611427938,0.0014394607627877,-0.0015195345819023,0.0015195339567168,-0.0015195335415538,0.0015195349550212,-0.001519535349648,0.0015195331230309,-0.001519534287753,0.0015195342324632,-0.0012831025545316,0.0012830983193187,-0.0012830994769054,0.0012831015159136,-0.0014350247427557,0.0014350274854447,-0.0014350268400496,0.0014350254003401,-4.1283030955099e-10,2.6656400524085e-10,-0.00083160348084672,0.00083160334341705,1.2430546098658e-09,-1.4271392235041e-09,-0.00094513639718874,0.00094513695694596,-0.00094513731530837,0.0009451360204989,-0.00094513618400523,0.00094513715269318,-0.00094513703144681,0.0009451363182637,-0.00093570718315999,0.00093570695681593,-0.00093570799506503,0.0009357061735936,0.59873866588096,125803,2834,0.0059787464753962,0.0059787464577715,0.0034622370606475,37.584273260489,6.3074186083912e-05,6.3074186083912e-05,6.3074186083912e-05,3802024.5147545,0.015539875812795
11819200,0.92218936312064,0.01526472822338,0.0057356918793292,0.0057356918707723,0.0037933444732789,-0.0014457407164635,0.0014457406692699,-1.7376724341235e-10,1.214359359214e-10,-7.8250742940576e-10,7.4811042126957e-10,-0.0015266369916953,0.0015266364066768,-0.0015266368383383,0.001526636474303,-0.0015266365824076,0.0015266367830053,-0.0015266364027736,0.0015266369678962,-0.0012882259146209,0.0012882260275197,-0.0012882255692299,0.0012882263770529,8.1710359639895e-10,-1.2093022687162e-09,-1.7749607399497e-09,1.3994819284899e-09,-0.0014457408752186,0.0014457405002349,-0.0015266370330203,0.0015266363748739,-0.0015266359611044,0.0015266373550688,-0.0015266377551662,0.0015266355512932,-0.0015266366935531,0.0015266366853183,-0.001288228021009,0.0012882237964443,-0.0012882249033076,0.0012882270113378,-0.0014412088601362,0.00144121151418,-0.0014412108703995,0.0014412095220256,-4.6627580252117e-10,3.0710429940975e-10,-0.00083385071418644,0.00083385056912364,1.1991461086522e-09,-1.395046075709e-09,-0.00094824464123172,0.00094824513934266,-0.00094824552940109,0.00094824421717068,-0.00094824438846315,0.00094824535768433,-0.00094824521720162,0.00094824456043691,-0.00093856155346826,0.00093856142903919,-0.00093856243583618,0.00093856054745068,0.60218599140663,125803,2834,0.0060047405269277,0.0060047405056798,0.0034716115041246,37.033716667015,5.8669733336118e-05,5.8669733336118e-05,5.8669733336118e-05,3793763.8096256,0.015602205317305
12019200,0.92722864832489,0.015334814998924,0.0057628394158501,0.0057628394076123,0.0038091361754613,-0.0014517889581593,0.001451788909817,-1.1539403614435e-10,6.5942863373142e-11,-7.3191562200957e-10,6.9008322984279e-10,-0.0015333962944901,0.0015333957916303,-0.0015333962170602,0.0015333958420437,-0.0015333959294489,0.0015333961490639,-0.0015333958051651,0.0015333962771834,-0.0012932689215425,0.0012932690704831,-0.0012932686566662,0.001293269363019,8.4443358007495e-10,-1.238223604037e-09,-1.7326307941216e-09,1.3578416242638e-09,-0.0014517891184953,0.0014517887433314,-0.0015333963547441,0.0015333957405383,-0.001533395351458,0.0015333967379446,-0.001533397117431,0.001533394929183,-0.0015333960740133,0.0015333960110044,-0.0012932710454014,0.001293266855538,-0.0012932679940252,0.0012932700318779,-0.0014472499120361,0.0014472525850354,-0.0014472519723515,0.0014472506121124,-3.9529033339396e-10,2.7589119700743e-10,-0.00083620004067056,0.00083619992619289,1.2394114630769e-09,-1.3985230925556e-09,-0.00095135840228197,0.00095135897651121,-0.00095135931734405,0.00095135805845588,-0.00095135820394265,0.0009513591725579,-0.0009513590294993,0.00095135834051196,-0.00094153953429289,0.00094153935419887,-0.00094154037093826,0.00094153858415638,0.61930375714595,125803,2834,0.006029775925438,0.0060297759127539,0.0034814081781131,36.631381801604,5.545105441283e-05,5.545105441283e-05,5.545105441283e-05,3783837.0711123,0.015663018111471
12219200,0.93194502594966,0.015402595679606,0.0057889949016231,0.0057889948938003,0.0038246058841828,-0.0014582291707492,0.0014582291196763,-8.3644891411866e-11,3.3316866192607e-11,-7.044733711162e-10,6.5679600556817e-10,-0.0015404487307445,0.001540448263807,-0.0015404486805334,0.0015404483033508,-0.001540448387378,0.0015404486077344,-0.0015404482844811,0.001540448712063,-0.0012988226008036,0.0012988227881241,-0.0012988224025088,0.00129882302412,8.5571160777424e-10,-1.2497741461127e-09,-1.7237685148453e-09,1.3487668253567e-09,-0.0014582293308324,0.0014582289556771,-0.001540448803484,0.0015404481990926,-0.0015404478158708,0.0015404492060659,-0.0015404495798475,0.0015404473913699,-0.0015404485373258,0.0015404484608939,-0.0012988247550718,0.0012988205695646,-0.0012988217249654,0.0012988237355533,-0.0014537603359086,0.001453763027534,-0.0014537624169096,0.0014537610490838,-3.6904752564364e-10,2.5302566321026e-10,-0.00083910921081579,0.00083910909613724,1.2654203781731e-09,-1.4228653712953e-09,-0.0009550120371401,0.0009550126440298,-0.00095501296876254,0.00095501171209848,-0.00095501185646545,0.00095501282527551,-0.00095501269805348,0.00095501197394534,-0.00094512221503663,0.00094512197793125,-0.0009451230163798,0.00094512125957337,0.63790519564195,125803,2834,0.0060564332381341,0.0060564332300521,0.0034935317712978,36.591020263574,5.5128162108594e-05,5.5128162108594e-05,5.5128162108594e-05,3772480.0471142,0.015729491653161
12419200,0.93639729096999,0.015464490062098,0.005812961636653,0.0058129616292923,0.0038385667961528,-0.0014645769965601,0.0014645769341667,-1.8978843856407e-11,-4.350670354713e-11,-6.4991317659857e-10,5.8952888076795e-10,-0.0015473792600183,0.0015473788728223,-0.0015473792523428,0.0015473788642341,-0.001547378957458,0.0015473791705395,-0.0015473789059323,0.0015473792275104,-0.0013043012962864,0.0013043015804545,-0.0013043012365969,0.0013043016884,9.0028999711151e-10,-1.3021980846922e-09,-1.6990473541026e-09,1.3169200784772e-09,-0.0014645771545412,0.0014645767723713,-0.0015473793499871,0.0015473787930474,-0.0015473783751484,0.0015473797791196,-0.0015473801571063,0.001547377945475,-0.0015473791388156,0.0015473789974916,-0.0013043034767892,0.0013042993218819,-0.0013043005138533,0.0013043024449572,-0.0014601035229784,0.0014601063029383,-0.001460105712279,0.001460104220433,-3.1107220332559e-10,1.8149364487608e-10,-0.0008420552472533,0.00084205512128187,1.3117964063824e-09,-1.4828031779506e-09,-0.00095875442175954,0.00095875510197464,-0.0009587553914817,0.00095875413919373,-0.00095875428790847,0.00095875524296011,-0.00095875516441521,0.00095875434903659,-0.00094866210964285,0.00094866171422761,-0.00094866278425576,0.00094866111051003,0.61827140167273,125803,2834,0.0060827063350665,0.0060827063272159,0.0035058098082238,36.717227665685,5.613782132548e-05,5.613782132548e-05,5.613782132548e-05,3761493.3711821,0.015795347049317
12619200,0.94054376108497,0.015519043256809,0.0058342053934731,0.0058342053864332,0.0038506324769028,-0.0014698663474964,0.0014698662922897,-8.7579972962532e-11,3.0295812954298e-11,-7.0039776168209e-10,6.52368230716e-10,-0.0015532694858224,0.0015532690179802,-0.0015532694310107,0.0015532690563577,-0.0015532691469552,0.0015532693545984,-0.001553269042229,0.0015532694615717,-0.0013087051994531,0.0013087053811002,-0.0013087050053417,0.0013087056180327,8.4048786002575e-10,-1.2329255390843e-09,-1.7257502249555e-09,1.3517566459554e-09,-0.0014698665063274,0.0014698661326351,-0.0015532695607766,0.0015532689484074,-0.0015532685668015,0.0015532699527118,-0.0015532703266059,0.0015532681451172,-0.0015532692839135,0.0015532692192021,-0.0013087073359287,0.0013087031636173,-0.0013087043044963,0.0013087063344571,-0.0014652833849089,0.0014652860527425,-0.0014652854274996,0.0014652840853951,-3.8447504498069e-10,2.6148429474605e-10,-0.00084425529843091,0.00084425517874882,1.2583989523879e-09,-1.4210269821986e-09,-0.00096169019857525,0.0009616907952469,-0.0009616911304872,0.00096168986651711,-0.00096169001366407,0.00096169098440884,-0.00096169085240287,0.00096169013280084,-0.00095132654109622,0.00095132632080227,-0.00095132736205942,0.00095132557800816,0.58731726940504,125803,2834,0.0061045973318689,0.0061045973302025,0.0035149841205955,36.603684521887,5.5229476175095e-05,5.5229476175095e-05,5.5229476175095e-05,3756315.1518768,0.015849151151013
12819200,0.94440049332927,0.015570192886824,0.0058540907980519,0.0058540907909391,0.0038620112978335,-0.0014746700106431,0.0014746699546217,-8.3527693286306e-11,2.6113550366608e-11,-6.9920476130391e-10,6.4929567528634e-10,-0.0015586478597803,0.0015586473984126,-0.0015586478099545,0.0015586474321673,-0.0015586475228864,0.0015586477331714,-0.0015586474238008,0.0015586478346395,-0.0013126782512622,0.00131267844031,-0.0013126780648946,0.0013126786646581,8.4104516382403e-10,-1.2327532028986e-09,-1.7041159726657e-09,1.3311432641745e-09,-0.0014746701685173,0.0014746697956324,-0.0015586479303588,0.0015586473347958,-0.0015586469513962,0.0015586483240329,-0.001558648696816,0.0015586465308571,-0.0015586476699383,0.0015586475891403,-0.0013126803720386,0.0013126762417782,-0.0013126773805018,0.0013126793661976,-0.00147000823915,0.0014700108925945,-0.0014700102831117,0.0014700089232201,-3.840822029397e-10,2.6273292574829e-10,-0.00084627718742938,0.00084627706905392,1.239070623232e-09,-1.4002688886694e-09,-0.00096429920266896,0.000964299788014,-0.00096430012037765,0.00096429887153676,-0.00096429901678895,0.00096429997610847,-0.00096429984387445,0.00096429913802535,-0.00095379867693961,0.00095379846962182,-0.00095379949276296,0.00095379772759796,0.5913507333383,125803,2834,0.0061244790775394,0.0061244790752668,0.0035234119866531,36.464787926471,5.4118303411765e-05,5.4118303411765e-05,5.4118303411765e-05,3757368.1429385,0.015898115674564
13019200,0.94790909407058,0.015616885312563,0.0058722263136125,0.0058722263065552,0.0038724326923955,-0.0014782026999476,0.0014782026431193,-3.3246789215764e-11,-2.8668964947506e-11,-6.5808137277167e-10,6.1424201509278e-10,-0.0015626967940344,0.0015626963939096,-0.0015626967961718,0.0015626964049331,-0.0015626964854715,0.0015626967111483,-0.0015626964327325,0.0015626967683698,-0.0013154884084423,0.0013154886490487,-0.0013154883235561,0.0013154888104582,8.761828662737e-10,-1.2725821759823e-09,-1.6233366144982e-09,1.2456331959705e-09,-0.0014782028636758,0.0014782024871673,-0.0015626968499882,0.0015626963302712,-0.0015626959447274,0.0015626972886664,-0.0015626976518292,0.0015626955165831,-0.0015626966766504,0.0015626965061155,-0.0013154904875149,0.0013154864834251,-0.0013154876633796,0.0013154894738064,-0.0014734773201713,0.0014734800044218,-0.0014734794294327,0.0014734779787462,-3.2885979248233e-10,2.2542147555807e-10,-0.00084735801554036,0.00084735791267798,1.2270935606138e-09,-1.3664139456463e-09,-0.00096588449263988,0.00096588510943362,-0.00096588540224267,0.00096588421962784,-0.00096588434987218,0.00096588527391395,-0.00096588515316479,0.00096588443645827,-0.00095525514153437,0.00095525489845814,-0.00095525588585524,0.00095525423294158,0.59303210076037,125803,2834,0.0061390989155406,0.0061390989317035,0.0035279275287889,35.906047125652,4.9648377005216e-05,4.9648377005216e-05,4.9648377005216e-05,3752259.5255049,0.015932415381666
13219200,0.95107807043599,0.015659239591453,0.0058886575404708,0.0058886575324268,0.0038819245185557,-0.0014809703325811,0.0014809702753062,-6.3659629065559e-11,2.9128498379663e-12,-6.875065252064e-10,6.3898468704466e-10,-0.0015659190666738,0.0015659186241213,-0.001565919035115,0.0015659186509089,-0.0015659187398824,0.0015659189537796,-0.0015659186542031,0.0015659190412712,-0.0013176276521233,0.0013176278653409,-0.0013176275106896,0.0013176280633892,8.547232884373e-10,-1.2468580744881e-09,-1.580361850293e-09,1.2061048827576e-09,-0.0014809704917874,0.001480970118492,-0.0015659190976852,0.0015659185932112,-0.0015659182080898,0.0015659195097365,-0.0015659198797138,0.0015659177857411,-0.001565918929866,0.0015659187568262,-0.0013176296710588,0.0013176257703174,-0.0013176269258811,0.001317628662632,-0.0014761995666471,0.0014762021681857,-0.0014762016239322,0.001476200166909,-3.6997378344481e-10,2.5847032670306e-10,-0.00084796136624914,0.00084796125695427,1.1411528400824e-09,-1.2898524601492e-09,-0.0009669231042743,0.0009669236358196,-0.00096692395558307,0.00096692279168555,-0.00096692292884678,0.00096692382006275,-0.00096692368382677,0.00096692304761161,-0.0009561909561797,0.00095619082225547,-0.00095619176290854,0.0009561900857803,0.59512912581857,125803,2834,0.0061505517069882,0.0061505517119773,0.0035304568562354,35.184191289716,4.387353031773e-05,4.387353031773e-05,4.387353031773e-05,3743456.0588143,0.01595826212168
13419200,0.95394462325942,0.015696939167962,0.0059032972086068,0.0059032972003989,0.0038903447589563,-0.0014832901089551,0.0014832900519213,-6.6985091474965e-11,7.9421974301438e-12,-6.9956488147895e-10,6.4972463218201e-10,-0.0015686507436989,0.0015686502918018,-0.0015686507076642,0.0015686503184015,-0.0015686504081965,0.0015686506283852,-0.0015686503206606,0.0015686507177041,-0.0013193783397728,0.0013193785625578,-0.0013193781933871,0.0013193787521412,8.5079736113639e-10,-1.2419757650647e-09,-1.5291308763056e-09,1.1562661600279e-09,-0.0014832902667065,0.0014832898943154,-0.0015686507554694,0.0015686502827071,-0.0015686498959199,0.0015686511612383,-0.0015686515322037,0.0015686494763101,-0.0015686506179761,0.0015686504143705,-0.0013193803116036,0.0013193765186791,-0.001319377664256,0.0013193792966164,-0.0014784623074875,0.0014784648673047,-0.0014784643628242,0.0014784628707867,-3.7639176822767e-10,2.6959296238476e-10,-0.00084835174447231,0.00084835164031161,1.0830725977965e-09,-1.2269449008345e-09,-0.0009677106867578,0.00096771117666954,-0.0009677114964761,0.00096771037171571,-0.00096771050368116,0.00096771136583782,-0.00096771122021505,0.00096771063459148,-0.00095686233128611,0.00095686224774358,-0.00095686314815255,0.00095686150691671,0.58608787107578,125803,2834,0.0061601505997861,0.0061601506001196,0.0035320994232998,34.453633488449,3.8029067907593e-05,3.8029067907593e-05,3.8029067907593e-05,3734055.0337601,0.015979441209894
13619200,0.95656903697665,0.015731012383086,0.0059165355095241,0.0059165355013203,0.0038979413722414,-0.0014856122095741,0.0014856121614841,-1.353257638908e-10,8.7427720672558e-11,-7.5252086153364e-10,7.0977225359192e-10,-0.0015713576407658,0.0015713571102007,-0.0015713575634492,0.0015713571902498,-0.0015713572714626,0.0015713574892618,-0.001571357128834,0.0015713576289889,-0.0013211677673929,0.0013211678773277,-0.0013211674644406,0.0013211681961839,8.0957159096714e-10,-1.1930051310281e-09,-1.5374211131633e-09,1.1722832138705e-09,-0.0014856123677994,0.0014856120028514,-0.0015713576282996,0.0015713571233862,-0.0015713567723085,0.0015713580177658,-0.0015713583829046,0.0015713563560667,-0.0015713574514604,0.0015713572999703,-0.0013211697010062,0.0013211659003605,-0.0013211670031468,0.0013211686812822,-0.0014807238697832,0.0014807263189797,-0.0014807258007591,0.0014807244149055,-4.4549502311661e-10,3.5807720707535e-10,-0.00084891942712474,0.00084891933870198,1.0152964457931e-09,-1.1407188964797e-09,-0.0009686300764578,0.00096863047378493,-0.00096863083491144,0.0009686297176519,-0.00096862984097332,0.00096863071379728,-0.000968630503366,0.00096863003909803,-0.00095768787896468,0.00095768799667269,-0.00095768886144283,0.0009576871214615,0.57890325321639,125803,2834,0.0061697598240088,0.0061697598231698,0.0035344759124601,33.908629191715,3.3669033533722e-05,3.3669033533722e-05,3.3669033533722e-05,3728999.3199033,0.016001386944245
13819200,0.95899425370285,0.015762484570031,0.0059287541495009,0.0059287541414477,0.0039049762790825,-0.0014879407091258,0.0014879406520594,-7.3094483896044e-11,1.7153477796557e-11,-7.1728361053689e-10,6.6170485901783e-10,-0.0015740436151087,0.0015740431471117,-0.0015740435717319,0.0015740431804737,-0.0015740432714623,0.0015740434924045,-0.0015740431722133,0.0015740435924609,-0.0013230043394438,0.0013230045508045,-0.0013230041531831,0.0013230047593469,8.6061610341585e-10,-1.2517720857132e-09,-1.487607276297e-09,1.1154380313618e-09,-0.0014879408641918,0.0014879404919167,-0.0015740436038126,0.0015740431641463,-0.0015740427719613,0.0015740440160346,-0.0015740443898434,0.0015740423512679,-0.0015740434978421,0.00157404326556,-0.0013230062834128,0.0013230025556269,-0.0013230036941119,0.0013230052503907,-0.0014830021458624,0.0014830046754455,-0.0014830041967236,0.0014830026485862,-3.9182575805943e-10,2.9136032293625e-10,-0.00084963649340783,0.00084963639425096,1.0334055815861e-09,-1.1726635934037e-09,-0.00096965793564502,0.00096965837816661,-0.00096965870613578,0.00096965760509007,-0.00096965773381819,0.0009696585787658,-0.00096965841535361,0.00096965789102797,-0.00095865162961362,0.00095865164617337,-0.00095865249459127,0.00095865084219226,0.57842617834191,125803,2834,0.0061793960473085,0.0061793960368177,0.0035374708119487,33.50812831439,3.0465026515119e-05,3.0465026515119e-05,3.0465026515119e-05,3726871.5316722,0.016024015812379
14019200,0.96127271808276,0.015792049660881,0.0059402248617082,0.0059402248539527,0.0039115999452204,-0.0014906304494716,0.001490630383009,-1.179825010097e-11,-5.1805974010114e-11,-6.9544956661076e-10,6.2501151391551e-10,-0.0015770635474387,0.0015770631401365,-0.0015770635343776,0.0015770631147664,-0.0015770632197943,0.001577063452878,-0.0015770631699411,0.0015770635102403,-0.0013252340915799,0.0013252344480821,-0.0013252340559454,0.0013252345243842,9.014459683268e-10,-1.2990072712878e-09,-1.4677782163791e-09,1.0899480920509e-09,-0.0014906305984821,0.0014906302196893,-0.0015770635505576,0.0015770631554579,-0.0015770627146783,0.001577063969913,-0.0015770643547543,0.0015770622926526,-0.0015770634920889,0.0015770631998363,-0.0013252360698444,0.001325232389335,-0.0013252335674567,0.0013252350569833,-0.0014856514819121,0.0014856541318996,-0.0014856536996447,0.0014856520289829,-3.4494890195052e-10,2.1866160509688e-10,-0.00085077256632207,0.00085077244699815,1.0682605771521e-09,-1.2351724392094e-09,-0.00097110168302919,0.00097110219273657,-0.00097110249065731,0.00097110138636257,-0.00097110152591695,0.00097110235031875,-0.0009711022452219,0.00097110162275407,-0.0009600385179009,0.00096003837723815,-0.00096003924827222,0.00096003768629885,0.57821463403183,125803,2834,0.006190527850756,0.0061905278211912,0.0035422058536817,33.391201551564,2.9529612412514e-05,2.9529612412514e-05,2.9529612412514e-05,3727673.2411411,0.016051452227841
14219200,0.96340905397753,0.015818753151021,0.0059506226845514,0.0059506226774665,0.0039175077890027,-0.0014930122645378,0.0014930122095403,-4.6156631417182e-11,-9.7522761334819e-12,-7.2288087519135e-10,6.7523447793255e-10,-0.0015797691030859,0.0015797686460041,-0.0015797690798917,0.0015797686618824,-0.0015797687498498,0.0015797690026844,-0.0015797686735807,0.0015797690784861,-0.0013271719097399,0.0013271721885968,-0.0013271718031526,0.0013271723432917,8.7741226824572e-10,-1.2706682434157e-09,-1.5075196860629e-09,1.1327549320151e-09,-0.0014930124230538,0.0014930120487093,-0.0015797690951554,0.0015797686508223,-0.0015797682527897,0.0015797695177697,-0.0015797698906005,0.0015797678319724,-0.0015797689890919,0.0015797687527616,-0.00132717390236,0.0013271701332469,-0.0013271713037573,0.0013271728704289,-0.0014879616698036,0.0014879642686915,-0.0014879637896803,0.0014879622261807,-3.7433116323225e-10,2.7608522981515e-10,-0.00085171168725329,0.00085171159187521,1.0737757510993e-09,-1.2085581313419e-09,-0.00097234547594379,0.00097234596303331,-0.00097234627947509,0.00097234517075788,-0.00097234529462534,0.00097234615639211,-0.00097234599919924,0.00097234542922892,-0.00096118294705839,0.00096118287575589,-0.00096118377310976,0.00096118214464853,0.55856766891575,125803,2834,0.0062003848523143,0.0062003848475521,0.0035461218976968,33.234119148529,2.8272953188229e-05,2.8272953188229e-05,2.8272953188229e-05,3728392.3846979,0.01607546698188
14419200,0.96539958185976,0.015843900136535,0.00596039612838,0.005960396121069,0.0039231078870859,-0.0014949475697449,0.0014949475222798,-1.1568923618501e-10,6.6171542504799e-11,-7.7079918826096e-10,7.3375714345823e-10,-0.0015820133852926,0.0015820128575249,-0.0015820133135281,0.0015820129119654,-0.0015820129995576,0.0015820132420206,-0.0015820128725265,0.0015820133707536,-0.0013286930704291,0.0013286932484829,-0.001328692832026,0.0013286935286837,8.3660765579862e-10,-1.2233513597947e-09,-1.5607371992894e-09,1.1914887603951e-09,-0.0014949477299873,0.0014949473614149,-0.0015820133694179,0.0015820128708985,-0.001582012488095,0.0015820137626766,-0.0015820141362651,0.0015820120715912,-0.0015820131980195,0.0015820130359873,-0.0013286950501346,0.001328691199357,-0.0013286923397786,0.001328694035384,-0.0014898442188066,0.0014898467720217,-0.0014898462504744,0.0014898448329001,-4.5475410734468e-10,3.5187999677823e-10,-0.00085237441409502,0.00085237431441666,1.038743611695e-09,-1.1770335803457e-09,-0.00097322745780187,0.0009732278736375,-0.00097322823799496,0.0009732270917981,-0.00097322722361927,0.00097322810744551,-0.00097322791143555,0.00097322741261578,-0.00096204000203307,0.00096204010070633,-0.00096204097355868,0.00096203920863724,0.56383593536068,125803,2834,0.0062083944886099,0.0062083944873453,0.0035488859770042,32.956149228053,2.6049193824428e-05,2.6049193824428e-05,2.6049193824428e-05,3731050.89213,0.016094556537102
14619200,0.96717021749397,0.015866391025673,0.0059691274771508,0.0059691274696396,0.0039281360788823,-0.0014949509003215,0.0014949508504956,-1.1624667056754e-10,6.1460512423534e-11,-7.6518999655909e-10,7.2866840079818e-10,-0.0015822866285098,0.0015822861090639,-0.0015822865538373,0.0015822861554776,-0.0015822862486714,0.0015822864798288,-0.0015822861250631,0.0015822866105068,-0.0013283660116605,0.0013283661847201,-0.001328365757657,0.001328366472907,8.415192538115e-10,-1.2297583937894e-09,-1.521169081676e-09,1.1505995650209e-09,-0.0014949510603044,0.0014949506904451,-0.0015822865991134,0.001582286136572,-0.0015822857366359,0.0015822869906878,-0.0015822873681721,0.001582285319385,-0.0015822864621557,0.0015822862631488,-0.0013283679355641,0.0013283641656468,-0.0013283652899619,0.001328366925726,-0.0014897995361044,0.0014898020636442,-0.0014898015550376,0.0014898000648585,-4.6155990291289e-10,3.499075467411e-10,-0.00085142313096085,0.000851423026845,9.9921411502188e-10,-1.1433742772531e-09,-0.00097241212991521,0.00097241251898591,-0.00097241288586903,0.00097241176001675,-0.00097241189355321,0.00097241275418254,-0.00097241255660842,0.00097241208594117,-0.0009611945345524,0.00096119467899239,-0.00096119549959208,0.00096119373714567,0.56645706286183,125803,2834,0.0062084063484482,0.006208406348363,0.0035449425308715,31.82425910744,1.6994072859519e-05,1.6994072859519e-05,1.6994072859519e-05,3720769.2408395,0.016090576978355
14819200,0.96876532137495,0.015886785930545,0.0059770315174768,0.005977031509681,0.0039327229033874,-0.0014950844699024,0.0014950844169399,-6.1634322643163e-11,7.4133987610507e-12,-7.3934424901129e-10,6.9240106803442e-10,-0.0015826463111213,0.0015826458397711,-0.0015826462779702,0.0015826458604598,-0.0015826459483545,0.0015826462024117,-0.0015826458627266,0.0015826462903404,-0.0013282170019012,0.0013282172617174,-0.0013282168563256,0.0013282174402672,8.7065710702302e-10,-1.2618847145176e-09,-1.4756142525582e-09,1.1030425260929e-09,-0.0014950846286531,0.0014950842562236,-0.0015826462890542,0.0015826458663921,-0.0015826454657263,0.0015826467056242,-0.0015826470788176,0.0015826450453482,-0.0015826461999456,0.0015826459487413,-0.0013282189497968,0.001328215246598,-0.0013282164007605,0.0013282179138646,-0.0014899045800881,0.001489907138292,-0.0014899066783205,0.0014899051038033,-4.0564901576329e-10,3.0838192246748e-10,-0.00085069957516329,0.00085069948094958,1.0176906879411e-09,-1.1513884474955e-09,-0.00097180555547457,0.00097180598722527,-0.00097180631881746,0.00097180522673282,-0.00097180535042018,0.00097180619638363,-0.00097180601998438,0.00097180551354122,-0.00096057525883716,0.00096057530096838,-0.00096057614000222,0.00096057448805,0.56962155693307,125803,2834,0.0062089576770366,0.0062089576730023,0.003541944207375,30.871958490406,9.3756679232472e-06,9.3756679232472e-06,9.3756679232472e-06,3710751.4254159,0.016088653479757
15019200,0.97017385470483,0.015904729405721,0.0059839828178059,0.0059839828100659,0.003936763777849,-0.0014942158329101,0.0014942157797144,-5.5307630272213e-11,2.261601497862e-13,-7.3505003531422e-10,6.8984507829462e-10,-0.0015819777421149,0.0015819772725366,-0.001581977710156,0.0015819772926119,-0.0015819773809071,0.0015819776341868,-0.0015819772966192,0.0015819777201639,-0.0013271156437487,0.0013271159156679,-0.0013271155153723,0.0013271160802432,8.7006945644593e-10,-1.260844089663e-09,-1.4436645913412e-09,1.0710432487867e-09,-0.0014942159912973,0.0014942156191766,-0.0015819777089214,0.0015819773046808,-0.0015819769053006,0.0015819781254787,-0.0015819784983687,0.0015819764863612,-0.0015819776383395,0.001581977368969,-0.0013271175647134,0.0013271139271258,-0.0013271150792985,0.0013271165293763,-0.0014890024856526,0.0014890050242188,-0.0014890045759215,0.0014890029825023,-4.0524094377085e-10,3.0826538570407e-10,-0.00084919098152103,0.00084919088793926,9.9009704514137e-10,-1.1220659781527e-09,-0.00097037013487407,0.00097037054637204,-0.00097037087809211,0.00097036980593816,-0.00097036992845048,0.0009703707570243,-0.00097037057902367,0.00097037009368018,-0.00095911359715503,0.00095911365893716,-0.00095911447819666,0.00095911284293804,0.56738227594169,125803,2834,0.0062053602695057,0.0062053602650876,0.003535682881417,29.526996868233,-1.3840250541322e-06,-1.3840250541322e-06,-1.3840250541322e-06,3695226.7754628,0.016074983167999
15219200,0.97133128476902,0.015918825575455,0.0059894649317277,0.0059894649239324,0.0039398957197949,-0.0014904601704876,0.0014904601208238,-9.7229579056042e-11,4.2533339576848e-11,-7.5263055706487e-10,7.1768401877528e-10,-0.0015783992327397,0.0015783987219696,-0.0015783991684104,0.0015783987620441,-0.0015783988545961,0.0015783990943701,-0.0015783987371103,0.0015783992168335,-0.0013231975464145,0.00132319773066,-0.0013231973331763,0.0013231979959355,8.3957624869838e-10,-1.2251228886222e-09,-1.3720009350923e-09,1.0034554143134e-09,-0.0014904603299909,0.0014904599624009,-0.0015783991627872,0.0015783987877434,-0.0015783983980411,0.0015783995489947,-0.001578399925444,0.0015783979840318,-0.0015783991099112,0.0015783988300281,-0.0013231993400189,0.0013231958498652,-0.0013231969869584,0.0013231983317334,-0.001485183884789,0.0014851863061094,-0.0014851858973882,0.0014851843559857,-4.4885763070163e-10,3.5952236163276e-10,-0.00084524562167422,0.00084524553660705,8.7508434067849e-10,-9.9510465049886e-10,-0.00096637099129387,0.0009663712982983,-0.00096637165230691,0.0009663706304334,-0.00096637074995933,0.00096637153367663,-0.00096637132042677,0.00096637096150019,-0.000955066823558,0.00095506707509464,-0.00095506779671646,0.0009550661456795,0.543914454929,125803,2834,0.0061898117672573,0.0061898117695336,0.0035192934297728,26.886311067001,-2.2509511463993e-05,-2.2509511463993e-05,-2.2509511463993e-05,3664715.0869294,0.016026735811505
15419200,0.97238455067856,0.015933489226228,0.0059950780781263,0.0059950780701321,0.00394333307797,-0.0014898953326361,0.0014898952775454,-4.4420456985531e-11,-8.5028956541391e-12,-7.3275973934001e-10,6.7880913184698e-10,-0.0015779610229004,0.0015779605633167,-0.0015779609967354,0.0015779605778028,-0.0015779606659208,0.0015779609202714,-0.0015779605886385,0.0015779609999204,-0.0013224755205093,0.0013224758160935,-0.001322475407552,0.0013224759570674,8.6616560847052e-10,-1.256101020447e-09,-1.377559209861e-09,1.0069611876262e-09,-0.0014898954888249,0.0014898951178622,-0.0015779609790713,0.0015779606154425,-0.0015779602172076,0.0015779613937864,-0.0015779617651602,0.001577959799463,-0.001577960948304,0.0015779606390803,-0.0013224773949489,0.0013224738926337,-0.0013224750383443,0.0013224763668422,-0.0014846539351206,0.0014846564234407,-0.0014846560283974,0.0014846543984573,-4.0315198510664e-10,3.1298159598002e-10,-0.00084431368784918,0.0008443135998082,9.3173501722487e-10,-1.0590188140671e-09,-0.0009653796675341,0.00096538004152596,-0.00096538036825548,0.00096537934174958,-0.00096537945799378,0.00096538025307827,-0.00096538006952052,0.00096537963095306,-0.00095421734126064,0.00095421745316832,-0.00095421822953775,0.00095421664245555,0.61488003619669,125803,2834,0.0061874740730214,0.0061874740658026,0.0035154220258454,25.932454099385,-3.014036720492e-05,-3.014036720492e-05,-3.014036720492e-05,3657158.4828709,0.016018051901986
15619200,0.97337761873763,0.015947609755767,0.0060004721141885,0.0060004721063343,0.0039466655352445,-0.0014905386521903,0.0014905385867383,6.6183837129206e-11,-1.3078509842855e-10,-6.6031833955152e-10,5.9781745220484e-10,-0.0015786638906284,0.0015786635367935,-0.0015786639332071,0.0015786634815633,-0.0015786635745243,0.0015786638538976,-0.0015786635774347,0.0015786638502964,-0.0013230423388499,0.001323042818738,-0.0013230424817175,0.0013230427071301,9.3884279123247e-10,-1.3397652129842e-09,-1.3976403243789e-09,1.0161752660266e-09,-0.0014905388086455,0.0014905384270423,-0.001578663888383,0.0015786635450691,-0.0015786631092542,0.0015786643400658,-0.0015786647165379,0.0015786626884664,-0.0015786638938271,0.001578663531164,-0.0013230443393053,0.0013230407636595,-0.0013230419773463,0.0013230432433245,-0.001485335067261,0.001485337732984,-0.0014853373372733,0.0014853355390914,-2.9775044194763e-10,1.968991151319e-10,-0.00084434372824902,0.00084434362914881,1.0699273307468e-09,-1.2089639730053e-09,-0.00096558965328729,0.00096559017458095,-0.00096559044083262,0.00096558938465325,-0.00096558950700067,0.00096559031967736,-0.00096559022137215,0.00096558959844381,-0.00095434554603001,0.00095434530998314,-0.00095434619485435,0.00095434474455782,0.62695262029428,125803,2834,0.0061901343928235,0.0061901343861312,0.0035155572585629,25.554511489566,-3.3163908083473e-05,-3.3163908083473e-05,-3.3163908083473e-05,3640400.2706674,0.01602359721736
15819200,0.97429366728111,0.01596158904739,0.006005779092441,0.0060057790846734,0.0039500308702759,-0.0014903978403846,0.00149039781306,-1.357843322348e-10,1.044450594516e-10,-8.2380698708556e-10,8.1253374653414e-10,-0.0015785571986026,0.001578556629889,-0.0015785571523417,0.0015785567263539,-0.001578556769268,0.001578557087565,-0.0015785566451326,0.0015785572111822,-0.0013228788766259,0.0013228790367808,-0.0013228786251177,0.001322879374535,7.6272815017857e-10,-1.1385437081902e-09,-1.5870416462994e-09,1.2286281864012e-09,-0.0014903980119128,0.0014903976564569,-0.0015785571853838,0.0015785566196363,-0.0015785563330439,0.0015785575834762,-0.0015785579182421,0.0015785559208999,-0.0015785569492773,0.0015785568731322,-0.0013228808804453,0.0013228770072025,-0.0013228781250865,0.0013228798991209,-0.0014852456574323,0.001485248089502,-0.0014852475376612,0.0014852463739223,-4.9144245246533e-10,4.4910201030069e-10,-0.00084367943573653,0.00084367938285667,1.0175725598549e-09,-1.0935912147679e-09,-0.00096509311099816,0.00096509348949067,-0.00096509386368877,0.00096509275232858,-0.00096509284972478,0.00096509377120926,-0.00096509349588553,0.00096509309208404,-0.00095374746886535,0.00095374774996868,-0.00095374858943549,0.00095374679767868,0.66920157629676,125803,2834,0.0061895482514082,0.006189548282296,0.0035128082636137,24.792994580361,-3.9256043357115e-05,-3.9256043357115e-05,-3.9256043357115e-05,3617652.9698062,0.016019614692814
16019200,0.97516837772263,0.015974907245627,0.0060108373749514,0.0060108373669025,0.0039532325037731,-0.0014913621358989,0.0014913620620384,1.5017254762587e-11,-8.4404422561652e-11,-6.8117816941568e-10,6.0124656444782e-10,-0.0015795088179693,0.001579508415359,-0.0015795087950474,0.0015795083836523,-0.0015795084973472,0.0015795087182508,-0.0015795084526041,0.0015795087645176,-0.0013238585490934,0.0013238589487554,-0.0013238585362824,0.0013238589274038,9.3162637233617e-10,-1.329124836882e-09,-1.5769742248279e-09,1.1993566560767e-09,-0.0014913622803414,0.0014913618999984,-0.001579508861388,0.001579508398374,-0.0015795079292026,0.0015795092870237,-0.0015795096754807,0.0015795075137911,-0.0015795087397291,0.0015795084986568,-0.0013238606644026,0.0013238567588712,-0.001323857908805,0.0013238595836901,-0.0014862638149804,0.0014862665625593,-0.0014862660264016,0.0014862643113737,-3.8286773610189e-10,2.326932806153e-10,-0.0008439302573103,0.00084393011737828,1.1576106025903e-09,-1.350509636387e-09,-0.00096564941995489,0.00096564993656744,-0.00096565027544714,0.00096564906892506,-0.00096564921730968,0.0009656501257081,-0.00096565001166122,0.00096564934085382,-0.00095410041880397,0.00095410020778483,-0.00095410117727221,0.00095409946383127,0.66743247421814,125803,2834,0.0061935350135265,0.0061935349771523,0.0035138664946234,24.593610099323,-4.0851119205412e-05,-4.0851119205412e-05,-4.0851119205412e-05,3594079.5824842,0.016028793668081
16219200,0.97603149172744,0.015987991219535,0.0060158100387626,0.006015810031088,0.0039563711496847,-0.001493377181956,0.0014933771488052,-1.9500328460704e-10,1.6291261407264e-10,-8.7317322345151e-10,8.4432577007435e-10,-0.001581515778684,0.0015815151445946,-0.0015815156560601,0.0015815152547022,-0.0015815153334196,0.0015815155909221,-0.0015815151373751,0.0015815157897713,-0.0013258611501667,0.0013258612122923,-0.0013258606873521,0.0013258617057158,7.3303169520841e-10,-1.1003718319734e-09,-1.8077287410013e-09,1.4580091675818e-09,-0.0014933773384697,0.0014933769884339,-0.0015815158229873,0.0015815151046368,-0.0015815147827075,0.0015815161664573,-0.0015815165271404,0.001581514373007,-0.0015815154083235,0.0015815155184405,-0.0013258632951713,0.001325859006819,-0.0013258600434137,0.0013258623851575,-0.001488326543682,0.0014883290249781,-0.0014883283153083,0.0014883273263763,-5.9414089908892e-10,4.8949723243085e-10,-0.00084511582902625,0.00084511572599227,1.1615768382315e-09,-1.3063986124853e-09,-0.00096718494938701,0.00096718535586157,-0.00096718582093603,0.00096718448500635,-0.00096718462971379,0.00096718567780623,-0.00096718539019924,0.00096718490892542,-0.00095543593735997,0.00095543627040453,-0.00095543721813078,0.00095543505882991,0.66426057027307,125803,2834,0.0062018716761167,0.006201871668161,0.0035188094642351,24.944526353746,-3.8043789170031e-05,-3.8043789170031e-05,-3.8043789170031e-05,3580448.8815923,0.016050759487084
16419200,0.97682329247458,0.015998750456549,0.0060199443706994,0.0060199443630875,0.0039588617227624,-0.0014928432274254,0.0014928431546392,1.4982104571695e-10,-2.2893168147075e-10,-5.7890749371462e-10,5.2101420549131e-10,-0.0015810041120966,0.0015810038563756,-0.0015810042191329,0.0015810037490393,-0.0015810038380936,0.0015810041351601,-0.0015810039177111,0.0015810040554199,-0.0013253148409703,0.001325315437919,-0.0013253151952165,0.0013253151285515,1.019501756627e-09,-1.434329589082e-09,-1.6455515692581e-09,1.2494676344486e-09,-0.0014928433916397,0.0014928429973531,-0.0015810042105882,0.0015810037449453,-0.0015810032765991,0.0015810047168146,-0.0015810050907372,0.0015810028484846,-0.0015810041170304,0.0015810038356378,-0.0013253171552066,0.0013253130483619,-0.0013253143411106,0.0013253159711121,-0.0014877711184478,0.001487774120822,-0.0014877735535179,0.0014877717241521,-2.3598038831268e-10,1.1904675190933e-10,-0.00084404668256496,0.00084404656627281,1.3895474221698e-09,-1.5433760928803e-09,-0.0009663823492231,0.00096638311048236,-0.00096638334858274,0.00096638211196629,-0.00096638224649619,0.00096638321692709,-0.00096638318436617,0.00096638226525128,-0.0009543764617477,0.00095437582495181,-0.00095437694831909,0.00095437541879979,0.59982143007254,125803,2834,0.0061996559784627,0.0061996559928432,0.0035143819854871,24.074204915141,-4.5006360678869e-05,-4.5006360678869e-05,-4.5006360678869e-05,3556325.7337378,0.016041761222547
16619200,0.97757547547281,0.016010868530435,0.0060245241953027,0.0060245241874954,0.0039618201476367,-0.0014933179663315,0.0014933179080819,2.2910501629313e-11,-8.068362875876e-11,-7.0649491900636e-10,6.5164663011335e-10,-0.001581512120478,0.0015815117134,-0.0015815121356724,0.0015815116934764,-0.0015815117782481,0.0015815120599616,-0.0015815117480354,0.0015815120891181,-0.0013257375262687,0.0013257379471252,-0.0013257375658214,0.0013257379341131,9.027880123871e-10,-1.2980949555648e-09,-1.7589657339126e-09,1.3828305402703e-09,-0.0014933181240409,0.0014933177479072,-0.0015815122176322,0.0015815116171609,-0.0015815112061861,0.0015815126624779,-0.0015815130298423,0.0015815107853857,-0.0015815119633759,0.0015815118701574,-0.0013257398409554,0.0013257355765619,-0.0013257367565179,0.0013257387766365,-0.0014883002173088,0.001488303045678,-0.001488302393165,0.00148830091976,-3.8438811996541e-10,2.6267508036837e-10,-0.00084406953161086,0.00084406941077536,1.3451136832775e-09,-1.5089218217949e-09,-0.00096649235168233,0.00096649299813289,-0.00096649333553278,0.00096649201750752,-0.00096649216134881,0.00096649319392157,-0.00096649306384133,0.00096649227800192,-0.00095451872679248,0.00095451843218789,-0.00095451953620849,0.00095451771102293,0.70236007446486,125803,2834,0.0062016194923589,0.0062016194872794,0.003514483667085,23.766690474013,-4.7466476207894e-05,-4.7466476207894e-05,-4.7466476207894e-05,3551582.1542427,0.016045854470378
16819200,0.97829830609606,0.016022570845374,0.0060289482999773,0.006028948292221,0.0039646742531753,-0.0014942793552119,0.001494279297428,-1.3629291693318e-11,-4.2696084487456e-11,-7.2283867971569e-10,6.6604315283887e-10,-0.001582427441692,0.0015824269877445,-0.0015824274201075,0.001582427003658,-0.0015824270936783,0.0015824273453684,-0.0015824270147294,0.0015824274158832,-0.001326754371205,0.0013267546916912,-0.001326754269929,0.0013267547673965,8.9049703269162e-10,-1.2830057189389e-09,-1.8175776471762e-09,1.4443309375269e-09,-0.0014942795100207,0.0014942791360049,-0.001582427543334,0.001582426888915,-0.0015824264877821,0.0015824279785118,-0.0015824283512659,0.0015824260674846,-0.0015824272291846,0.001582427202504,-0.0013267567071147,0.0013267523079782,-0.0013267534362941,0.001326755615943,-0.0014893157366869,0.0014893185217093,-0.0014893177871347,0.0014893163484913,-4.2930628272373e-10,3.0640109492158e-10,-0.00084433915115137,0.00084433902953101,1.3647102960703e-09,-1.5308748522837e-09,-0.00096709637387074,0.00096709698331822,-0.00096709736272304,0.00096709598982448,-0.00096709613799666,0.00096709721714208,-0.00096709704675148,0.00096709630583382,-0.00095488072244913,0.00095488051192266,-0.00095488164037818,0.00095487966661976,0.70571910325317,125803,2834,0.0062055933317194,0.0062055933180552,0.0035156219785166,23.643732567653,-4.8450139458775e-05,-4.8450139458775e-05,-4.8450139458775e-05,3529587.7923217,0.016055088666905
17019200,0.97898877027269,0.016033530377486,0.0060331002632177,0.0060331002555708,0.0039673298586977,-0.001494977413703,0.0014949773619338,-4.2930721025353e-11,-1.0124588112548e-11,-7.4548383768636e-10,7.0107263224173e-10,-0.0015830838166569,0.0015830833483277,-0.0015830837919349,0.0015830833631913,-0.0015830834497601,0.0015830837177544,-0.0015830833703839,0.001583083797128,-0.0013275009783152,0.0013275012761557,-0.0013275008650398,0.0013275014146872,8.6368394263665e-10,-1.2526111351539e-09,-1.8545980648753e-09,1.4840284958893e-09,-0.0014949775725916,0.0014949772022407,-0.0015830839220554,0.0015830832408507,-0.0015830828490929,0.0015830843407189,-0.0015830847096806,0.0015830824294313,-0.0015830835750066,0.0015830835867402,-0.0013275033164438,0.0013274988719475,-0.0013275000169859,0.0013275022797579,-0.0014900499482359,0.0014900527416621,-0.0014900520112071,0.00149005070869,-4.6386472267565e-10,3.4047824229988e-10,-0.00084437246178371,0.00084437233993878,1.3663665415026e-09,-1.530625283599e-09,-0.00096746390740586,0.00096746452002664,-0.00096746490939812,0.00096746351628064,-0.00096746366799297,0.00096746475984657,-0.00096746458129043,0.00096746383929778,-0.00095499422921325,0.00095499409026286,-0.00095499520450708,0.00095499318880028,0.69246304788912,125803,2834,0.0062084767580691,0.0062084767564371,0.0035157788205187,23.416618107871,-5.0267055137034e-05,-5.0267055137034e-05,-5.0267055137034e-05,3508429.1275919,0.01606110985523
17219200,0.9796408918849,0.016043603754621,0.0060369260509175,0.0060369260432558,0.0039697516604482,-0.0014951942321451,0.0014951941941896,-1.0495951502945e-10,6.4071122553539e-11,-8.0785537374934e-10,7.8155701679315e-10,-0.0015832758501123,0.0015832753135126,-0.0015832757995374,0.0015832753673718,-0.0015832754395589,0.0015832757306362,-0.0015832753230822,0.001583275850301,-0.0013277474086232,0.0013277476226136,-0.001327747180791,0.0013277479071181,7.9637133393181e-10,-1.1751406170658e-09,-1.8856884499176e-09,1.5243780600908e-09,-0.0014951943956768,0.0014951940356641,-0.0015832759447038,0.0015832752091862,-0.0015832748655163,0.0015832763348317,-0.0015832766917822,0.0015832744498176,-0.0015832755322077,0.0015832756267766,-0.001327749720148,0.001327745249588,-0.0013277463613354,0.0013277487464873,-0.0014902848749738,0.0014902875593935,-0.0014902868073925,0.0014902857210517,-5.290114114618e-10,4.2215442279569e-10,-0.00084402316860676,0.00084402306019833,1.3293381913899e-09,-1.4752140836249e-09,-0.00096739353670809,0.00096739409405855,-0.00096739451731585,0.00096739311624073,-0.00096739326234265,0.000967394374149,-0.00096739414114779,0.0009673934813819,-0.0009547038865296,0.0009547039385391,-0.00095470501437732,0.00095470290119155,0.67476320437706,125803,2834,0.006209368728456,0.0062093687388404,0.0035143435775001,22.993734503995,-5.365012396804e-05,-5.365012396804e-05,-5.365012396804e-05,3489796.4353905,0.016061466062532
17419200,0.98026340411444,0.016052808048289,0.0060404351540711,0.00604043514632,0.0039719377478975,-0.0014956369034908,0.0014956368542294,5.8946523283e-11,-1.0475289998846e-10,-6.8006981009883e-10,6.2867608290662e-10,-0.0015837130783758,0.0015837127199775,-0.0015837131835824,0.0015837127254894,-0.0015837127514047,0.0015837131002603,-0.0015837127760083,0.0015837130678991,-0.0013281868553831,0.0013281872865114,-0.0013281869841692,0.0013281872255246,9.2270872305836e-10,-1.3277559740026e-09,-1.8071651421188e-09,1.424512980768e-09,-0.0014956370734458,0.0014956366933627,-0.0015837132048724,0.0015837125715735,-0.0015837122454422,0.0015837137423541,-0.00158371406581,0.0015837118069441,-0.001583712950743,0.0015837128648088,-0.0013281892979589,0.0013281848799632,-0.001328186124444,0.0013281881583828,-0.0014907323067928,0.0014907351817742,-0.0014907344997995,0.0014907330711641,-3.3006075227815e-10,3.0127738882964e-10,-0.00084394233857425,0.00084394228505395,1.4416489105106e-09,-1.5180984567822e-09,-0.00096754568782107,0.00096754642039266,-0.00096754671109198,0.00096754543063867,-0.00096754552196617,0.00096754662775963,-0.00096754644330727,0.00096754564489706,-0.00095468389972733,0.00095468357897468,-0.00095468474515719,0.00095468298137441,0.64748127308301,125803,2834,0.0062111966260488,0.0062111966448451,0.0035140210168959,22.737029076962,-5.5703767384305e-05,-5.5703767384305e-05,-5.5703767384305e-05,3478379.3128547,0.016064854429277
17619200,0.98077122852838,0.016060027017045,0.0060431973135824,0.0060431973058473,0.0039736323976153,-0.0014907937546134,0.0014907936883506,1.3087996217758e-10,-2.0596415975983e-10,-6.1667421855534e-10,5.6756030518697e-10,-0.0015789027036705,0.00157890241597,-0.0015789028011088,0.0015789023249951,-0.0015789024156034,0.0015789027161246,-0.0015789024644745,0.0015789026607649,-0.0013233798162275,0.001323380384591,-0.001323380102395,0.0013233801332963,9.7811659015075e-10,-1.3857741016072e-09,-1.5866364871979e-09,1.1965714124783e-09,-0.0014907939187857,0.0014907935310493,-0.0015789027727882,0.0015789023289882,-0.0015789018859885,0.0015789032634238,-0.0015789036391474,0.0015789014578264,-0.0015789026887676,0.0015789024128649,-0.0013233820510936,0.0013233780705857,-0.0013233793120586,0.0013233808927719,-0.0014858478242341,0.0014858506806955,-0.0014858501266251,0.0014858483486215,-2.9362638635278e-10,1.7956138899341e-10,-0.00083925580723752,0.00083925569439389,1.2944223469347e-09,-1.442911685884e-09,-0.00096282138335449,0.00096282205305268,-0.00096282232315962,0.00096282111036473,-0.00096282124706393,0.0009628221916215,-0.00096282211604353,0.00096282131518321,-0.00094982498985865,0.00094982455076427,-0.00094982560244754,0.00094982400247354,0.62390559041493,125803,2834,0.0061911444591996,0.006191144473461,0.0034945535213986,19.887876618942,-7.8496987048466e-05,-7.8496987048466e-05,-7.8496987048466e-05,3442397.2991462,0.016004327104741
17819200,0.98124595691474,0.016066542443228,0.0060456937417763,0.00604569373392,0.0039751549675322,-0.0014900738038631,0.0014900737361631,1.3866353210075e-10,-2.0333953711672e-10,-6.4245051187198e-10,5.7302439820386e-10,-0.0015781990137908,0.0015781987195361,-0.0015781991116579,0.0015781986260493,-0.0015781987146033,0.0015781990293792,-0.0015781987656583,0.0015781989727512,-0.0013226307962837,0.0013226314023038,-0.0013226310816221,0.0013226311427917,9.6283391167315e-10,-1.367773368959e-09,-1.5582330674653e-09,1.1733598954069e-09,-0.0014900739610513,0.0014900735762685,-0.0015781990863237,0.0015781986498661,-0.0015781982149737,0.0015781995676701,-0.0015781999404455,0.0015781977887923,-0.0015781990076379,0.0015781987288035,-0.0013226330419493,0.0013226291282445,-0.0013226303655928,0.0013226319135892,-0.0014851247736331,0.0014851275871036,-0.0014851270909478,0.0014851253419426,-2.9361488568556e-10,1.8821817259344e-10,-0.00083838048834635,0.00083838037944494,1.2617052206833e-09,-1.4105309819646e-09,-0.00096195593700027,0.00096195658292165,-0.00096195685266635,0.00096195566270535,-0.00096195579414775,0.0009619567236463,-0.00096195664186769,0.00096195587091995,-0.00094895831900859,0.00094895792316794,-0.00094895896131586,0.00094895738994234,0.60341923849776,125803,2834,0.0061881630118303,0.0061881630062148,0.0034909192629662,19.211686568786,-8.3906507449714e-05,-8.3906507449714e-05,-8.3906507449714e-05,3436224.7695954,0.01599457592061
18019200,0.9817079174196,0.01607287526885,0.0060481184920068,0.006048118484238,0.0039766382926053,-0.0014905626968796,0.001490562643773,-2.0643283714794e-11,-3.2234334204393e-11,-7.3931228363487e-10,6.8908515056872e-10,-0.0015787330853815,0.0015787326408814,-0.0015787330856822,0.001578732647182,-0.001578732726568,0.001578733008098,-0.0015787326680935,0.0015787330670544,-0.0013230513539195,0.0013230516842609,-0.0013230512889856,0.0013230517867395,8.6274770576745e-10,-1.2531684527955e-09,-1.6578433423941e-09,1.2859941454932e-09,-0.0014905628560184,0.001490562485082,-0.0015787331377077,0.0015787325876701,-0.0015787322065041,0.0015787335690642,-0.0015787339321034,0.0015787317850213,-0.0015787329257499,0.0015787328026891,-0.0013230535313797,0.0013230494667454,-0.0013230506248096,0.0013230524941128,-0.0014856034164199,0.0014856060790599,-0.0014856054884313,0.0014856040702406,-4.6101299883424e-10,3.6387408869048e-10,-0.00083863746534971,0.00083863736502104,1.188656659309e-09,-1.3264235239035e-09,-0.00096223974622537,0.00096224024827355,-0.00096224062124446,0.00096223937385278,-0.00096223950371919,0.00096224049400055,-0.00096224029043776,0.00096223969574615,-0.00094926032682374,0.0009492603548102,-0.00094926132987989,0.00094925944874821,0.60266014179392,125803,2834,0.0061901867357761,0.0061901867367135,0.0034919881221688,19.169555669115,-8.424355464708e-05,-8.424355464708e-05,-8.424355464708e-05,3442671.4476531,0.015999774054927
18219200,0.98211891581778,0.016078617830778,0.0060503125923928,0.0060503125846505,0.003977992653735,-0.0014881783021182,0.0014881782647474,-1.7124530692636e-10,1.2629987056683e-10,-8.2261009641445e-10,8.010761128511e-10,-0.0015764034363785,0.0015764028542629,-0.0015764033487918,0.0015764029581201,-0.0015764030261761,0.0015764032741675,-0.0015764028675985,0.00157640343706,-0.0013206402479499,0.0013206403308738,-0.0013206398609906,0.0013206407428291,7.6954473287782e-10,-1.1470129284923e-09,-1.6708620363537e-09,1.3100014340797e-09,-0.0014881784670334,0.0014881781087239,-0.0015764034369245,0.001576402837001,-0.0015764025071826,0.0015764038288235,-0.001576404180318,0.0015764020900481,-0.0015764031594076,0.0015764031207255,-0.0013206422738508,0.0013206382398629,-0.0013206392948908,0.0013206412938708,-0.0014831925878647,0.0014831950505933,-0.0014831943946925,0.0014831931869315,-6.1777012658282e-10,5.2828711401483e-10,-0.0008363520672698,0.00083635197887417,1.0397688882834e-09,-1.1612074318577e-09,-0.00095987490201215,0.00095987522235554,-0.00095987568695412,0.0009598744498838,-0.00095987457180629,0.00095987557060318,-0.00095987524471979,0.00095987487122721,-0.00094689451810195,0.00094689497668246,-0.00094689583827217,0.00094689372465475,0.61339063030952,125803,2834,0.0061803158458707,0.0061803158643293,0.0034824911645636,17.686195774593,-9.6110433803255e-05,-9.6110433803255e-05,-9.6110433803255e-05,3431571.685074,0.015970067353445
18419200,0.98249019367376,0.016083843186737,0.0060523056716359,0.0060523056637919,0.0039792318513088,-0.0014861839021768,0.0014861838482803,1.0864923731097e-11,-6.6240117762813e-11,-7.2781231495102e-10,6.7954808339016e-10,-0.0015744360853732,0.0015744356633284,-0.0015744361016556,0.0015744356485363,-0.0015744357294947,0.001574436025639,-0.0015744356926134,0.0015744360631386,-0.001318638362514,0.0013186387595946,-0.001318638370654,0.0013186387833159,8.7148411093509e-10,-1.2618573101913e-09,-1.5314591714615e-09,1.1593125457865e-09,-0.0014861840613575,0.0014861836902514,-0.0015744361052816,0.001574435641215,-0.00157443525101,0.00157443653537,-0.0015744368996453,0.0015744348330704,-0.0015744359795857,0.0015744357668873,-0.0013186404429933,0.0013186366314987,-0.0013186377861465,0.0013186393934085,-0.0014811882396633,0.0014811908393269,-0.0014811903262178,0.0014811887893917,-4.4017454810711e-10,3.4543065780111e-10,-0.00083443885025838,0.00083443875429548,1.0873400972141e-09,-1.2197099099017e-09,-0.00095789765190794,0.00095789809800408,-0.00095789845371721,0.00095789729384596,-0.00095789741703076,0.00095789833347712,-0.00095789813738237,0.00095789760565546,-0.00094492302747181,0.00094492307907715,-0.00094492397616392,0.00094492221513129,0.61738716324193,125803,2834,0.0061720591345022,0.0061720591369026,0.0034745413630938,16.427328744394,-0.00010618137004484,-0.00010618137004484,-0.00010618137004484,3419487.8408601,0.015945213063336
18619200,0.98284342403181,0.016088767554256,0.0060541840293333,0.0060541840214977,0.0039803995034253,-0.001485733035808,0.0014857329735784,1.1519827006604e-10,-1.7672177485932e-10,-6.6767869493301e-10,6.0765582147294e-10,-0.0015740038528728,0.0015740035265491,-0.0015740039370093,0.0015740034503975,-0.0015740035335422,0.0015740038585834,-0.0015740035678319,0.0015740038189952,-0.0013181682216055,0.0013181687934478,-0.0013181684618466,0.001318168584774,9.3426954729488e-10,-1.3340397700531e-09,-1.4904029833906e-09,1.1097511580955e-09,-0.0014857331945536,0.0014857328147024,-0.0015740038938474,0.0015740034845568,-0.0015740030688157,0.0015740043598859,-0.0015740047281111,0.001574002647554,-0.0015740038368003,0.0015740035430101,-0.001318170375333,0.0013181666084827,-0.0013181678242772,0.0013181692628003,-0.0014807351430756,0.0014807378505685,-0.0014807373871907,0.0014807356702635,-3.3914864615383e-10,2.4598949163106e-10,-0.00083391934234203,0.0008339192450577,1.1566792473827e-09,-1.2902945937425e-09,-0.000957379518476,0.000957380064723,-0.00095738035861453,0.00095737921819833,-0.00095737934086359,0.00095738023899239,-0.00095738011338458,0.00095737946362191,-0.00094440306658311,0.00094440285350341,-0.00094440380886719,0.0009444022214539,0.61178946474998,125803,2834,0.0061701922483824,0.0061701922481037,0.0034723838013187,15.967747292442,-0.00010985802166046,-0.00010985802166046,-0.00010985802166046,3416009.3218467,0.015939227693311
18819200,0.98318576108947,0.016093855187755,0.0060561123880657,0.0060561123802669,0.0039816304194221,-0.001485834713286,0.0014858346594435,8.8964703954068e-12,-6.3617936280422e-11,-7.3210685552046e-10,6.82909488878e-10,-0.0015741275516713,0.001574127126828,-0.0015741275671635,0.0015741271132324,-0.0015741271953575,0.0015741274905986,-0.0015741271545417,0.0015741275307461,-0.0013182445874553,0.0013182449792267,-0.0013182445873849,0.0013182450117913,8.7112712737011e-10,-1.2614190618106e-09,-1.5818028980634e-09,1.2097714054371e-09,-0.0014858348722339,0.0014858345011314,-0.001574127586767,0.0015741270903004,-0.0015741267008004,0.0015741280178391,-0.001574128383262,0.0015741262816519,-0.0015741274278298,0.001574127249772,-0.0013182467177441,0.0013182428033593,-0.0013182439607974,0.0013182456701847,-0.0014808431329298,0.0014808457631459,-0.001480845219962,0.0014808437214124,-4.5829991174068e-10,3.5973104316944e-10,-0.00083391066857892,0.00083391056841168,1.1294865073816e-09,-1.2668744861859e-09,-0.00095738286790201,0.0009573833310609,-0.00095738370085811,0.00095738249544291,-0.00095738262385529,0.00095738357535002,-0.00095738337351056,0.00095738281892477,-0.00094441869215241,0.00094441874706309,-0.000944419677939,0.0009444178483189,0.64923264367314,125803,2834,0.0061706130482978,0.0061706130496257,0.0034723485935422,15.791283048427,-0.00011126973561259,-0.00011126973561259,-0.00011126973561259,3416999.8330471,0.01594004687385
19019200,0.98352955797636,0.016099284244572,0.0060581595612417,0.006058159553456,0.0039829651298747,-0.0014871043353777,0.0014871042752029,6.3646858338049e-11,-1.237767462936e-10,-6.8995894687484e-10,6.3253238086407e-10,-0.0015753834632193,0.0015753830986042,-0.0015753835175236,0.0015753830501255,-0.0015753831346205,0.001575383436802,-0.0015753831349003,0.0015753834341342,-0.0013195211217371,0.001319521597508,-0.0013195212439685,0.0013195215083112,9.1597552063542e-10,-1.3136103946161e-09,-1.6210332630159e-09,1.2422800793875e-09,-0.0014871044942907,0.0014871041164246,-0.001575383529411,0.001575383031147,-0.0015753826211245,0.0015753839881731,-0.0015753843564853,0.0015753821968024,-0.0015753833784673,0.0015753831839276,-0.0013195233492276,0.0013195193312009,-0.0013195205310321,0.0013195222610089,-0.0014821364246783,0.0014821391759462,-0.0014821386195225,0.0014821370387574,-4.0964681522586e-10,3.0636757135747e-10,-0.00083486845864935,0.00083486835245466,1.2259687552258e-09,-1.370271740899e-09,-0.00095848151690381,0.00095848207149097,-0.00095848241398257,0.00095848117205185,-0.00095848130470193,0.00095848228434339,-0.00095848212294427,0.00095848145840947,-0.00094544446629567,0.00094544434062654,-0.00094544534887794,0.00094544355831933,0.68719397570996,125803,2834,0.0061758672356866,0.0061758672359703,0.0034763343899579,16.171776128588,-0.00010822579097129,-0.00010822579097129,-0.00010822579097129,3416808.2851638,0.015954773152905
19219200,0.98389546454341,0.016105238319294,0.0060604004947715,0.0060604004870116,0.0039844373375105,-0.0014902952039898,0.0014902951621703,-6.8040487762745e-11,2.752346170655e-11,-8.1408919583976e-10,7.7390597899769e-10,-0.0015785316355118,0.0015785311160774,-0.0015785316002334,0.0015785311524448,-0.0015785312277347,0.0015785315315871,-0.0015785311261786,0.0015785316329446,-0.0013227312925275,0.0013227315794982,-0.0013227311110001,0.0013227317908577,7.9579977986299e-10,-1.173283796264e-09,-1.8072697375485e-09,1.4477906835381e-09,-0.0014902953618248,0.001490295002826,-0.0015785317196962,0.0015785310331504,-0.0015785306867096,0.0015785321100005,-0.0015785324679709,0.0015785302732065,-0.001578531355405,0.0015785314017361,-0.0013227335751119,0.0013227292587026,-0.0013227303517464,0.001322732599043,-0.0014853664771772,0.00148536909634,-0.0014853683947286,0.0014853672362388,-5.6033892755584e-10,4.5288279724142e-10,-0.00083744786952994,0.00083744775925861,1.2535977320123e-09,-1.4036864749419e-09,-0.00096136150306673,0.00096136198384148,-0.00096136242792845,0.00096136105583601,-0.00096136119893902,0.00096136228752967,-0.00096136203128049,0.00096136145017178,-0.00094816667262765,0.00094816683790884,-0.0009481678657595,0.00094816573553574,0.70678359272858,125803,2834,0.0061890732041475,0.0061890732010262,0.0034870640618645,17.484309381975,-9.7725524944201e-05,-9.7725524944201e-05,-9.7725524944201e-05,3421248.9534827,0.015992510314935
19419200,0.98427021020447,0.016111205028419,0.0060626528121328,0.0060626528044149,0.0039858994118715,-0.0014924004198057,0.0014924003621379,5.2852835264515e-11,-1.1368151522539e-10,-7.0042016029195e-10,6.5122216366874e-10,-0.0015805980428252,0.0015805976642293,-0.0015805980878802,0.0015805976192457,-0.0015805977039594,0.0015805980092865,-0.0015805976983274,0.0015805980144616,-0.0013248745916207,0.0013248750534698,-0.0013248746923851,0.0013248749855806,9.0606815735739e-10,-1.3021001163135e-09,-1.8092682422865e-09,1.4312197469655e-09,-0.0014924005806987,0.0014924002040501,-0.0015805981639192,0.0015805975363389,-0.0015805971278552,0.0015805986142068,-0.0015805989817051,0.0015805967046583,-0.0015805978821714,0.0015805978198963,-0.0013248769829946,0.0013248726044388,-0.001324873792422,0.0013248759022276,-0.0014874913665284,0.0014874942208934,-0.0014874935249191,0.0014874920872871,-4.4180529074274e-10,3.2074801519184e-10,-0.00083898649673048,0.00083898637479511,1.3816521864723e-09,-1.5430356280193e-09,-0.00096321574507302,0.00096321637978375,-0.00096321675144028,0.00096321536970755,-0.00096321551707031,0.00096321660743221,-0.00096321644545335,0.00096321567294044,-0.00094979491162062,0.00094979470490038,-0.00094979583130192,0.00094979386493429,0.6926516831633,125803,2834,0.0061977835593268,0.0061977835651546,0.0034934711290707,18.22149684916,-9.1828025206718e-05,-9.1828025206718e-05,-9.1828025206718e-05,3417161.030141,0.016016722073998
19619200,0.98464171473711,0.016116972599465,0.0060648359158414,0.0060648359080987,0.0039873007755249,-0.0014934777752987,0.0014934777215489,2.5633776082207e-11,-8.339324956994e-11,-7.1719993150499e-10,6.7391283836656e-10,-0.0015816527803787,0.0015816523751297,-0.0015816528114654,0.0015816523511962,-0.0015816524317262,0.0015816527323074,-0.0015816524054167,0.0015816527589071,-0.0013259746922097,0.0013259750997055,-0.0013259747299754,0.0013259751051945,8.8843253270185e-10,-1.282194899758e-09,-1.8407118157135e-09,1.4646039050766e-09,-0.0014934779381461,0.0014934775639129,-0.0015816529010241,0.0015816522437818,-0.0015816518500847,0.0015816533475476,-0.0015816537117213,0.0015816514256227,-0.00158165258632,0.0015816525628511,-0.0013259770868197,0.0013259726481887,-0.0013259738266063,0.001325976023896,-0.0014885785219234,0.0014885813582713,-0.0014885806353691,0.0014885792767115,-4.7561318179753e-10,3.5971670640154e-10,-0.00083962622777901,0.00083962611026164,1.3865879914368e-09,-1.5420489641897e-09,-0.00096409391343319,0.00096409453143577,-0.00096409492510598,0.00096409351996396,-0.00096409366622808,0.0009640947824893,-0.00096409459109767,0.00096409384601995,-0.0009504950783703,0.0009504949561231,-0.00095049608215867,0.00095049403730358,0.67639366717996,125803,2834,0.0062022393710338,0.0062022393818412,0.0034961412288955,18.455853267766,-8.995317385787e-05,-8.995317385787e-05,-8.995317385787e-05,3410729.8895907,0.016028491231308
19819200,0.98500685416687,0.016122476520122,0.006066924992547,0.0060669249847613,0.0039886265428138,-0.0014942460213891,0.0014942459760205,-3.9263108774272e-11,-9.3278233355176e-12,-7.7336094841271e-10,7.3869613910472e-10,-0.0015824126699592,0.0015824121978575,-0.001582412659582,0.001582412202478,-0.0015824122832523,0.0015824125863064,-0.00158241221395,0.0015824126599602,-0.0013267444648661,0.0013267447970209,-0.0013267443854362,0.0013267449309558,8.3338809303641e-10,-1.2170757137127e-09,-1.8715410004684e-09,1.5048642958479e-09,-0.0014942461833693,0.0014942458182706,-0.0015824127816508,0.0015824120792157,-0.0015824117062183,0.0015824131874428,-0.0015824135506647,0.0015824112881793,-0.001582412406827,0.0015824124559551,-0.0013267468285039,0.0013267423704911,-0.0013267435148801,0.0013267458261143,-0.0014893513169756,0.0014893540787446,-0.0014893533496609,0.0014893521641073,-5.529843122853e-10,4.329119184557e-10,-0.00084002635633455,0.00084002623578385,1.3453819453599e-09,-1.5048782961812e-09,-0.00096467474434578,0.00096467529773924,-0.00096467573669111,0.00096467430207257,-0.00096467445509473,0.00096467558639791,-0.00096467535570468,0.00096467467998045,-0.00095094938119141,0.00095094943132667,-0.00095095052803894,0.00095094836931531,0.65787305945333,125803,2834,0.0062054163526237,0.0062054163613934,0.0034978134159893,18.558036063948,-8.9135711488419e-05,-8.9135711488419e-05,-8.9135711488419e-05,3406453.7552469,0.016036647337196
20019200,0.98535995288366,0.016127995617436,0.0060690128619403,0.0060690128541236,0.0039899699013718,-0.0014944680508324,0.0014944680168533,-8.5654532783407e-11,4.7460127772733e-11,-8.1383870984488e-10,7.9321707664515e-10,-0.0015826398720639,0.0015826393430513,-0.001582639843887,0.0015826393962412,-0.0015826394582203,0.0015826397741368,-0.0015826393528731,0.0015826398797562,-0.0013269574562711,0.0013269577001489,-0.001326957261343,0.0013269579469218,7.8846934856734e-10,-1.1667111080748e-09,-1.8721996596694e-09,1.5107867956769e-09,-0.0014944682181213,0.0014944678593893,-0.0015826399649673,0.0015826392316829,-0.001582638909754,0.0015826403663154,-0.0015826407158582,0.0015826384924806,-0.0015826395569913,0.0015826396530562,-0.001326959784559,0.0013269553324392,-0.0013269564356967,0.0013269587894954,-0.0014895808915051,0.0014895835348471,-0.0014895827762145,0.0014895817035195,-5.9771755374691e-10,5.0594863649881e-10,-0.00083998613697921,0.00083998603946001,1.3028491652641e-09,-1.4326127837741e-09,-0.00096474118062047,0.00096474167189264,-0.0009647421365716,0.00096474071842059,-0.00096474085606509,0.00096474200392648,-0.00096474171018149,0.00096474113459362,-0.00095095044273353,0.00095095066234872,-0.00095095172394394,0.00095094949399824,0.68048787190603,125803,2834,0.0062063331622344,0.0062063331825688,0.0034976530701465,18.401397326102,-9.0388821391184e-05,-9.0388821391184e-05,-9.0388821391184e-05,3402797.234701,0.016038347982977
20219200,0.985703776322,0.0161335266126,0.006071100106106,0.0060711000982344,0.00399132640826,-0.001494922407311,0.0014949223519277,6.9369736625693e-11,-1.2583702929454e-10,-7.1580523364146e-10,6.6594680572339e-10,-0.0015830786524703,0.0015830782770655,-0.0015830787079157,0.001583078219247,-0.0015830783021626,0.00158307863279,-0.0015830783078404,0.0015830786268676,-0.0013274270022714,0.0013274275167046,-0.0013274271384968,0.0013274274089277,8.9349455676638e-10,-1.2864292982323e-09,-1.7718072466451e-09,1.3971930494798e-09,-0.0014949225666099,0.0014949221928249,-0.0015830787685978,0.0015830781580692,-0.0015830777556304,0.0015830792088413,-0.0015830795748815,0.0015830773357683,-0.0015830785009473,0.0015830784272338,-0.0013274293800197,0.0013274250887231,-0.0013274262648801,0.0013274283100136,-0.0014900525940416,0.0014900554023576,-0.0014900547386459,0.0014900533032328,-4.5301611845789e-10,3.3489231700489e-10,-0.000840124497475,0.00084012437809581,1.3400013895796e-09,-1.499540613229e-09,-0.00096503026592278,0.00096503086702034,-0.00096503124366726,0.00096502988406204,-0.00096503002879337,0.00096503110192313,-0.00096503093016745,0.00096503019689698,-0.00095113654451943,0.00095113638704929,-0.0009511374840521,0.00095113553390793,0.69909042575322,125803,2834,0.0062082109646899,0.0062082109651026,0.0034982366976019,18.352471885952,-9.0780224912384e-05,-9.0780224912384e-05,-9.0780224912384e-05,3396312.3856709,0.016042757669441
20419200,0.98604514752961,0.016139026163566,0.006073175589329,0.006073175581473,0.003992674992764,-0.0014960067609901,0.0014960067256692,-9.9995709140902e-11,6.6773604582804e-11,-8.4047843031382e-10,8.0673846757594e-10,-0.001584135088102,0.0015841345371027,-0.0015841350427671,0.0015841345945907,-0.0015841346618433,0.0015841349748442,-0.0015841345400231,0.0015841350981308,-0.0013285331418022,0.0013285333797686,-0.0013285329011328,0.0013285336651084,7.7030008097893e-10,-1.1432851470071e-09,-1.8356763690649e-09,1.4809725916587e-09,-0.0014960069194332,0.0014960065652002,-0.0015841351720263,0.0015841344533353,-0.0015841341319905,0.0015841355540981,-0.0015841359062162,0.001584133717536,-0.0015841347702643,0.0015841348646631,-0.0013285354256419,0.001328531061426,-0.0013285321455917,0.0013285344717656,-0.0014911574129449,0.0014911600002256,-0.0014911592864563,0.0014911582345753,-6.3016394776926e-10,5.35584738548e-10,-0.00084079399673033,0.00084079389614191,1.2493469854965e-09,-1.3873406072197e-09,-0.00096591026047488,0.00096591069760749,-0.00096591118396259,0.00096590977332781,-0.00096590991346206,0.00096591104721667,-0.00096591073511922,0.00096591021678356,-0.00095187571242234,0.00095187604437438,-0.00095187706568049,0.00095187480584153,0.69998782858886,125803,2834,0.0062126960933059,0.006212696089114,0.0035010296200871,18.615732264397,-8.8674141884827e-05,-8.8674141884827e-05,-8.8674141884827e-05,3390928.2076451,0.01605471100645
20619200,0.98637371779965,0.016143763713709,0.0060749821989196,0.006074982191116,0.0039937993236734,-0.0014960822260624,0.0014960821423387,2.7249430954471e-10,-3.627943808807e-10,-5.3371089432206e-10,4.6169660213279e-10,-0.0015841979879075,0.0015841978520994,-0.0015841981804372,0.0015841976645832,-0.0015841977589406,0.0015841980828968,-0.0015841979288264,0.0015841979153643,-0.0013286265446178,0.0013286273425071,-0.0013286271185177,0.0013286268012647,1.0686065321569e-09,-1.4934195358214e-09,-1.624528052499e-09,1.2184859679026e-09,-0.0014960823902191,0.0014960819865146,-0.0015841981190411,0.001584197708461,-0.0015841972038858,0.0015841986707828,-0.0015841990465669,0.0015841967638777,-0.0015841980927635,0.0015841977301714,-0.0013286289587896,0.0013286248613529,-0.0013286261819948,0.0013286277442839,-0.0014912247450245,0.0014912278311705,-0.0014912272693124,0.0014912252981947,-2.528896206138e-10,1.2309364683829e-10,-0.00084055970673828,0.00084055958055687,1.379318708525e-09,-1.545839816561e-09,-0.00096585823106727,0.00096585898525567,-0.0009658592334201,0.00096585799695895,-0.00096585813006092,0.00096585910377597,-0.00096585906072248,0.00096585814133461,-0.00095165638318578,0.00095165577648447,-0.00095165690298648,0.00095165533065289,0.63099507849081,125803,2834,0.0062130045729737,0.006213004590266,0.0035000664841729,18.385557178164,-9.0515542574687e-05,-9.0515542574687e-05,-9.0515542574687e-05,3380886.6658572,0.016054360746503
20819200,0.98668129809098,0.016148543362043,0.0060767911862748,0.0060767911784028,0.0039949609973659,-0.0014951552460106,0.0014951551967533,1.6034836617336e-11,-6.9783355695797e-11,-7.472189624442e-10,7.101955558368e-10,-0.0015833048265043,0.0015833043926563,-0.0015833048416855,0.001583304373217,-0.0015833044580535,0.0015833047658111,-0.0015833044123628,0.001583304812265,-0.0013276659855988,0.001327666390312,-0.0013276659933126,0.0013276664283857,8.5482857492676e-10,-1.2416323360273e-09,-1.6643541189733e-09,1.2945907593891e-09,-0.0014951554077282,0.0014951550395405,-0.0015833048852894,0.0015833043252642,-0.0015833039407827,0.0015833053020924,-0.0015833056700912,0.0015833035221656,-0.0015833046549438,0.0015833045551157,-0.0013276681921422,0.0013276641181567,-0.0013276652650895,0.001327667165411,-0.001490295828017,0.0014902984759934,-0.00149029786804,0.0014902964847355,-5.2518905880943e-10,4.1895692721228e-10,-0.0008395833002591,0.00083958319456995,1.1902729188323e-09,-1.3326477505876e-09,-0.00096485682548602,0.00096485728718518,-0.00096485770339896,0.00096485640365824,-0.00096485654176731,0.00096485756829504,-0.00096485733160572,0.00096485677531212,-0.00095068268616924,0.00095068282919857,-0.00095068380180074,0.00095068178541833,0.67643099450097,125803,2834,0.0062091666103748,0.0062091666197156,0.0034960109919133,17.705178207458,-9.5958574340334e-05,-9.5958574340334e-05,-9.5958574340334e-05,3377973.930605,0.016042440355468
21019200,0.98696449193838,0.016152801947437,0.0060784074137298,0.0060784074058284,0.003995987127879,-0.0014937105984848,0.0014937105564587,-5.0020826251035e-11,4.958042946956e-12,-7.9826077215195e-10,7.6588475662876e-10,-0.0015818590431065,0.0015818585433149,-0.001581859020004,0.0015818585649742,-0.0015818586444311,0.001581858946961,-0.0015818585529774,0.0015818590407732,-0.0013262453027616,0.001326245608252,-0.0013262451583361,0.0013262457894032,8.0442041356737e-10,-1.1829282897775e-09,-1.6156980233537e-09,1.2542061783144e-09,-0.001493710758856,0.0014937103986321,-0.001581859066943,0.0015818585146184,-0.0015818581587077,0.0015818594584702,-0.001581859821073,0.0015818577431625,-0.0015818588337412,0.0015818587484172,-0.0013262474017382,0.001326243451399,-0.0013262445467886,0.0013262464168404,-0.0014888473424869,0.0014888498485695,-0.00148884926184,0.001488847966649,-5.9697998672433e-10,5.0095075247485e-10,-0.00083808773963748,0.00083808764364484,1.0810560046686e-09,-1.2131538153872e-09,-0.00096340089317702,0.00096340124350846,-0.00096340170063839,0.00096340043343518,-0.00096340056509341,0.00096340157209583,-0.00096340127417671,0.00096340085644357,-0.00094914425681268,0.00094914464441658,-0.00094914553522205,0.00094914344382986,0.65602046872106,125803,2834,0.006203184197978,0.0062031842032643,0.0034898017108084,16.749502152807,-0.00010360398277754,-0.00010360398277754,-0.00010360398277754,3363168.2931756,0.016023974971773
21219200,0.98721158776737,0.016156541293578,0.0060798249135005,0.0060798249055911,0.0039968914744862,-0.0014905063749924,0.0014905063078131,1.8135893625605e-10,-2.5427735482488e-10,-6.2792676656243e-10,5.7402790566504e-10,-0.0015786698386806,0.0015786695773879,-0.0015786699613432,0.0015786694478184,-0.0015786695412033,0.001578669877841,-0.0015786696233052,0.0015786697959782,-0.0013230680955498,0.0013230687631461,-0.0013230684755725,0.0013230684363306,9.7063473553981e-10,-1.375933929397e-09,-1.3955866767985e-09,1.00801230821e-09,-0.0014905065368848,0.0014905061510926,-0.0015786698651388,0.0015786695428456,-0.0015786690920043,0.0015786703405828,-0.0015786707182287,0.001578668667878,-0.0015786698965465,0.0015786695053311,-0.0013230701964392,0.0013230665921849,-0.0013230678409924,0.0013230690693832,-0.0014856289658979,0.0014856316903016,-0.0014856312794779,0.0014856294236011,-3.599112793242e-10,2.6138724709314e-10,-0.00083508983412569,0.0008350897365577,1.0823115895908e-09,-1.2143139709186e-09,-0.00096031849233422,0.00096031898182839,-0.0009603192833203,0.00096031818218823,-0.00096031830362309,0.00096031916438882,-0.00096031902798506,0.00096031843919323,-0.00094603378536902,0.00094603367258063,-0.00094603455697458,0.000946032971464,0.65967490596005,125803,2834,0.006189918768855,0.0061899187795797,0.0034773455085392,14.937336703731,-0.00011810130637015,-0.00011810130637015,-0.00011810130637015,3342219.4252406,0.015984363023671
21419200,0.98743697267436,0.016159976146364,0.0060811248216891,0.0060811248137496,0.0039977265109258,-0.0014885885842411,0.0014885885294318,6.6624553842084e-11,-1.2251339153528e-10,-7.2372847453307e-10,6.7487771836072e-10,-0.0015767510521325,0.0015767506674713,-0.0015767511015279,0.0015767506153696,-0.0015767506997423,0.0015767510242533,-0.001576750695956,0.0015767510291894,-0.0013211716569372,0.0013211721592471,-0.0013211717721298,0.0013211720782722,8.7958305410617e-10,-1.2705315661724e-09,-1.4017022003064e-09,1.0289607488893e-09,-0.001488588743243,0.0014885883713174,-0.0015767510461005,0.0015767506730228,-0.0015767502736253,0.0015767514770968,-0.0015767518452338,0.0015767498552758,-0.0015767510095562,0.0015767507063659,-0.0013211736651676,0.0013211701021626,-0.0013211712630415,0.0013211726144948,-0.0014837124054771,0.0014837149379018,-0.0014837145154693,0.0014837128797413,-4.8564882582998e-10,3.9733307927658e-10,-0.00083327278605246,0.00083327269753776,9.6919770903373e-10,-1.0933827762771e-09,-0.00095845325326774,0.00095845359630782,-0.00095845397526903,0.00095845287094216,-0.00095845298764556,0.0009584538611285,-0.00095845362679454,0.00095845321577139,-0.00094415922395318,0.00094415946648481,-0.00094416027385905,0.00094415850269253,0.66373847926324,125803,2834,0.0061819789488364,0.0061819789506824,0.0034697962863591,13.801300467468,-0.00012718959626025,-0.00012718959626025,-0.00012718959626025,3328292.3705844,0.015960559128014
21619200,0.98765093717239,0.016163266730415,0.0060823683723006,0.0060823683643694,0.0039985299937455,-0.0014878477657985,0.0014878477084543,8.7422861350419e-11,-1.4482028442795e-10,-7.0327982299004e-10,6.502684266871e-10,-0.0015760065489285,0.0015760061905837,-0.0015760066165474,0.001576006125224,-0.0015760062101588,0.0015760065371258,-0.0015760062216977,0.0015760065248704,-0.0013204431148797,0.0013204436413148,-0.0013204432794228,0.0013204435166363,9.0110324220861e-10,-1.2954583910697e-09,-1.3950851852144e-09,1.019285057872e-09,-0.0014878479247633,0.0014878475497743,-0.0015760065484584,0.001576006191012,-0.0015760057856073,0.0015760069933081,-0.0015760073633888,0.0015760053643007,-0.0015760065314864,0.0015760062067252,-0.0013204451428085,0.0013204415732761,-0.0013204427609433,0.0013204440699582,-0.0014829759123626,0.0014829784827288,-0.0014829780763476,0.0014829763951599,-4.6851795214125e-10,3.8513138408882e-10,-0.00083251439958014,0.00083251431375836,9.8800193312355e-10,-1.1086189105819e-09,-0.0009577016591026,0.0009577020235536,-0.00095770239120581,0.00095770128617464,-0.00095770140231795,0.00095770227767853,-0.00095770205388266,0.00095770162193743,-0.00094338481343566,0.00094338501540421,-0.00094338583763124,0.0009433840931599,0.66921247396497,125803,2834,0.006178911333454,0.0061789113340405,0.0034666469063165,13.269799929915,-0.00013144160056068,-0.00013144160056068,-0.00013144160056068,3321350.0162622,0.015951126087089
21819200,0.98786574437128,0.01616652168636,0.0060835997378465,0.0060835997299316,0.0039993222185815,-0.0014887895598426,0.0014887895064744,5.6300778755738e-11,-1.0887912240578e-10,-7.389392668538e-10,6.883905376122e-10,-0.0015769415426421,0.0015769411449371,-0.0015769415861018,0.0015769410986784,-0.0015769411821033,0.0015769415100039,-0.0015769411701259,0.0015769415230393,-0.001321378955622,0.0013213794459372,-0.0013213790433656,0.0013213793904388,8.6751289454715e-10,-1.2562758451508e-09,-1.4829922064836e-09,1.1126482700797e-09,-0.0014887897175152,0.001488789347632,-0.0015769415615832,0.0015769411287397,-0.0015769407367108,0.001576941986675,-0.0015769423535091,0.001576940318654,-0.0015769414628649,0.0015769412255447,-0.0013213810384718,0.0013213773211749,-0.0013213784738651,0.0013213800008123,-0.0014839271323845,0.0014839296928084,-0.0014839292205262,0.0014839276726452,-5.1415302839783e-10,4.2157503208392e-10,-0.0008332503089519,0.00083325021515932,1.0291326779531e-09,-1.1601959022868e-09,-0.00095852509391985,0.0009585254580911,-0.00095852585932018,0.00095852468910257,-0.00095852481202431,0.00095852573862001,-0.00095852549281309,0.00095852505223085,-0.00094416897407722,0.00094416922512615,-0.00094417008234022,0.00094416821143446,0.65989247715885,125803,2834,0.0061828090564791,0.0061828090540598,0.0034697083979549,13.593185101283,-0.00012885451918974,-0.00012885451918974,-0.00012885451918974,3324050.8657872,0.015962156706805
22019200,0.98808320416927,0.016169763023714,0.0060848279128393,0.0060848279049462,0.0040001072059282,-0.0014899929279436,0.0014899928742628,5.9989481421345e-11,-1.1397627733826e-10,-7.4006750115173e-10,6.9246865449911e-10,-0.0015781535370483,0.0015781531310824,-0.0015781535653319,0.0015781530738224,-0.0015781531704069,0.0015781534962174,-0.0015781531492403,0.0015781535143386,-0.0013225580417389,0.0013225585577086,-0.0013225581473166,0.0013225584637328,8.6689845572959e-10,-1.2523956203547e-09,-1.5611871064755e-09,1.193490329675e-09,-0.0014899930830899,0.0014899927150686,-0.0015781535810962,0.0015781530920895,-0.0015781526843438,0.0015781539819662,-0.0015781543598055,0.0015781522744484,-0.0015781534191285,0.0015781532452325,-0.0013225601977299,0.0013225563388406,-0.0013225574767937,0.001322559149416,-0.0014851332076024,0.0014851358142231,-0.0014851352888842,0.0014851337686747,-5.2854289355572e-10,4.1233562075335e-10,-0.00083422627171259,0.00083422615833863,1.0991036806738e-09,-1.2534862365195e-09,-0.00095958946587365,0.00095958985963168,-0.00095959027858446,0.00095958902760305,-0.00095958916968341,0.00095959013808363,-0.00095958991376064,0.00095958941148564,-0.00094520145015056,0.00094520161431297,-0.00094520253413236,0.00094520059317307,0.64982771325349,125803,2834,0.0061877898403584,0.0061877898319755,0.0034737667856539,14.05255711894,-0.00012517954304848,-0.00012517954304848,-0.00012517954304848,3330584.4007152,0.0159764011231
22219200,0.98830419780241,0.016173030388851,0.0060860670062202,0.0060860669983472,0.0040008963842841,-0.0014913243265769,0.0014913242796645,4.7834207933077e-11,-9.4364186121241e-11,-7.5282687136172e-10,7.1067707977363e-10,-0.0015795037863811,0.0015795033674801,-0.001579503831811,0.0015795033410642,-0.0015795034108225,0.0015795037589927,-0.0015795033899891,0.0015795037786696,-0.0013238494243131,0.0013238498931323,-0.0013238495001505,0.0013238498584755,8.5100986411516e-10,-1.2383083518591e-09,-1.6570629374967e-09,1.2885017372869e-09,-0.0014913244880363,0.0014913241207559,-0.0015795038577645,0.0015795032907323,-0.0015795029319054,0.00157950428506,-0.0015795046422798,0.0015795025135912,-0.0015795036270063,0.0015795035308614,-0.001323851678876,0.0013238476142632,-0.0013238487652175,0.0013238506293961,-0.0014864665173848,0.0014864691425891,-0.0014864685486289,0.0014864671746057,-5.3297543180407e-10,4.5509300966212e-10,-0.000835327728702,0.00083532764229583,1.1852563439088e-09,-1.3039133417561e-09,-0.00096076603943597,0.00096076648037796,-0.00096076690015839,0.00096076561264405,-0.00096076573637413,0.00096076678011419,-0.00096076651521606,0.00096076599763464,-0.00094636901852147,0.00094636920778593,-0.00094637018359155,0.0009463681696592,0.64497825962629,125803,2834,0.0061933009075756,0.006193300912838,0.0034783460676819,14.581963508253,-0.00012094429193398,-0.00012094429193398,-0.00012094429193398,3339517.9268406,0.015992252430543
22419200,0.98852518422382,0.016176440443063,0.0060873554693708,0.0060873554615095,0.0040017295121823,-0.0014921882827495,0.0014921882298103,7.3178853906833e-11,-1.281805480546e-10,-7.3152829519508e-10,6.8641549724244e-10,-0.001580390584044,0.001580390197938,-0.0015803906366525,0.0015803901403719,-0.0015803902247897,0.0015803905611466,-0.0015803902233634,0.001580390563468,-0.0013246760474161,0.0013246765665268,-0.0013246761750165,0.0013246764734696,8.7305562098536e-10,-1.2624562567761e-09,-1.7015032072225e-09,1.3300063862804e-09,-0.0014921884423226,0.0014921880717979,-0.0015803906771326,0.0015803901012688,-0.0015803897068037,0.0015803911041041,-0.0015803914708936,0.0015803892883014,-0.0015803904368575,0.0015803903413478,-0.0013246783529075,0.0013246742047048,-0.0013246753619415,0.0013246773081085,-0.0014873346030917,0.0014873373181008,-0.0014873366913523,0.0014873352732957,-5.2708433992258e-10,4.1631313294897e-10,-0.00083601480078679,0.00083601468910204,1.2443400523225e-09,-1.394258750798e-09,-0.00096150045410662,0.00096150094631521,-0.00096150136743888,0.00096150002676927,-0.0009615001676443,0.00096150122936855,-0.0009615009995988,0.00096150039473177,-0.00094710942766716,0.00094710951295487,-0.0009471105353585,0.00094710848848451,0.67139742665991,125803,2834,0.0061968769769902,0.0061968769802294,0.003481202855201,14.870952288166,-0.00011863238169467,-0.00011863238169467,-0.00011863238169467,3345862.2158137,0.016002421730188
22619200,0.98874394177349,0.016179855176194,0.0060886447392249,0.0060886447313585,0.0040025657056103,-0.0014927918526906,0.0014927917983199,8.1568849421759e-11,-1.3857478663539e-10,-7.2133926599234e-10,6.7548306480898e-10,-0.0015809955928342,0.0015809952201937,-0.0015809956539439,0.001580995157949,-0.0015809952410793,0.0015809955753339,-0.0015809952490475,0.0015809955704556,-0.001325273919662,0.0013252744414109,-0.001325274063124,0.0013252743434189,8.8287020992111e-10,-1.2747183896358e-09,-1.7396301728629e-09,1.3656898644577e-09,-0.0014927920134465,0.0014927916408494,-0.0015809957009299,0.0015809951067718,-0.0015809947083886,0.0015809961382119,-0.0015809965034823,0.0015809942863922,-0.0015809954454659,0.0015809953628592,-0.0013252762681676,0.0013252720351698,-0.0013252732078264,0.0013252752234203,-0.0014879452133687,0.0014879479780232,-0.0014879473269201,0.001487945923486,-5.2573256783985e-10,4.1406279548935e-10,-0.00083641680242039,0.0008364166895967,1.2870793512913e-09,-1.4379658790863e-09,-0.00096199577557269,0.0009619962980946,-0.0009619967196087,0.00096199535230803,-0.0009619954935293,0.00096199658102815,-0.00096199635182135,0.00096199571337318,-0.00094754929584448,0.00094754935664156,-0.00094755040798912,0.00094754833068815,0.6788065110146,125803,2834,0.0061993740277123,0.006199374034529,0.0034828780195533,15.008054917779,-0.00011753556065776,-0.00011753556065776,-0.00011753556065776,3344939.1584851,0.016009198454197
22819200,0.98895969357108,0.016183213074508,0.0060899130708777,0.0060899130629983,0.0040033869406318,-0.0014932914161992,0.0014932913621362,7.9916456783573e-11,-1.3698376041662e-10,-7.3779036018741e-10,6.9216054332346e-10,-0.0015814909600469,0.0015814905747057,-0.0015814910098752,0.0015814905113468,-0.0015814906014947,0.0015814909338051,-0.0015814905994272,0.0015814909355235,-0.0013257743990402,0.0013257749345199,-0.0013257745174154,0.0013257748328827,8.687793238586e-10,-1.2566708986347e-09,-1.7675938318871e-09,1.3969970778012e-09,-0.0014932915742622,0.0014932912043175,-0.001581491075249,0.0015814904565159,-0.0015814900540766,0.0015814914980531,-0.0015814918675617,0.0015814896359836,-0.0015814907898662,0.0015814907379664,-0.0013257767672294,0.0013257724971512,-0.0013257736317738,0.0013257757331873,-0.0014884519717773,0.0014884547198961,-0.0014884540326935,0.0014884526491654,-5.4531102021904e-10,4.1335228990069e-10,-0.00083671082602859,0.00083671069834048,1.301944497379e-09,-1.472752968575e-09,-0.00096239235744503,0.00096239287859879,-0.00096239331853911,0.00096239191509271,-0.00096239206695172,0.00096239316935089,-0.00096239294218481,0.00096239228811141,-0.00094787799268701,0.0009478780467885,-0.00094787911776821,0.00094787697964993,0.67692181835283,125803,2834,0.0062014402244666,0.0062014402250013,0.003484105231881,15.090148214223,-0.00011687881428622,-0.00011687881428622,-0.00011687881428622,3342156.9796046,0.016014644638681
23019200,0.98917158697907,0.01618628077952,0.0060910794880344,0.006091079480148,0.0040041218113375,-0.0014936439542251,0.0014936439052654,7.1105128551837e-11,-1.2238919344709e-10,-7.5353289461673e-10,7.1314067127731e-10,-0.0015818450383767,0.0015818446382821,-0.0015818450906581,0.0015818445842405,-0.001581844665392,0.0015818450175333,-0.0015818446595761,0.0015818450230325,-0.0013261203177063,0.0013261208461868,-0.0013261204347458,0.0013261207610533,8.5194235780459e-10,-1.2378244143226e-09,-1.7883545257817e-09,1.4200347416946e-09,-0.0014936441143478,0.0014936437471037,-0.0015818451580659,0.001581844512664,-0.0015818441327431,0.0015818455764199,-0.0015818459400918,0.0015818437157487,-0.0015818448452456,0.0015818448276177,-0.0013261227073431,0.0013261184007668,-0.0013261195386248,0.0013261216775006,-0.0014888025367516,0.0014888052657792,-0.0014888045746436,0.0014888032627956,-5.5565099877747e-10,4.3979244402507e-10,-0.00083687650614114,0.0008368763897644,1.3150782284467e-09,-1.4707522539335e-09,-0.00096265166353968,0.00096265218483116,-0.00096265262801441,0.00096265121549212,-0.00096265136231794,0.00096265248439863,-0.0009626522417732,0.00096265160086969,-0.00094806851485573,0.00094806859764006,-0.00094806967610721,0.00094806752148506,0.63260382378826,125803,2834,0.0062028978784763,0.0062028978825458,0.0034847988100434,15.108053189343,-0.00011673557448526,-0.00011673557448526,-0.00011673557448526,3339455.5474116,0.016018312088203
23219200,0.98937946173849,0.016189425693826,0.0060922700518828,0.0060922700439905,0.0040048855979532,-0.0014938980026955,0.0014938979554901,5.7319003237914e-11,-1.0647314049511e-10,-7.6504879063754e-10,7.2600460305773e-10,-0.0015821319338151,0.0015821315214499,-0.0015821319810755,0.0015821314758171,-0.0015821315539359,0.0015821319075165,-0.0015821315413147,0.0015821319217333,-0.0013263244116998,0.0013263249149022,-0.0013263244980146,0.0013263248660324,8.407973551003e-10,-1.2255260123847e-09,-1.8018638913389e-09,1.4347369630427e-09,-0.0014938981634241,0.0014938977975301,-0.0015821320540693,0.0015821313951527,-0.0015821310235469,0.001582132469697,-0.0015821328304547,0.0015821306057033,-0.0015821317262784,0.0015821317263224,-0.0013263268031127,0.001326322471961,-0.0013263236062322,0.0013263257843224,-0.0014890579139644,0.0014890606278036,-0.0014890599276643,0.0014890586638552,-5.7494774201211e-10,4.6360425820814e-10,-0.00083704320721247,0.00083704309418334,1.3123430213473e-09,-1.4637924935182e-09,-0.00096280552630823,0.00096280603509244,-0.00096280648940632,0.0009628050690382,-0.00096280521368575,0.00096280634780339,-0.00096280608787244,0.00096280546633905,-0.00094827365783347,0.0009482737937934,-0.0009482748683668,0.00094827267456233,0.65900389914867,125803,2834,0.0062039497157089,0.0062039497214495,0.0034854915245585,15.109149661213,-0.0001167268027103,-0.0001167268027103,-0.0001167268027103,3344644.5806289,0.016021152942733
23419200,0.98958267703942,0.016192467479111,0.0060934227037537,0.0060934226958553,0.0040056220795017,-0.0014940775697031,0.0014940775233794,4.6635798484839e-11,-9.5048921850094e-11,-7.7042797965995e-10,7.3269103620355e-10,-0.001582324375756,0.0015823239511555,-0.0015823244126801,0.00158232391092,-0.0015823239917769,0.0015823243409843,-0.0015823239677864,0.0015823243648787,-0.0013264852004656,0.001326485688786,-0.0013264852633868,0.001326485655902,8.3596199834654e-10,-1.2188799625231e-09,-1.801112025901e-09,1.4356226629392e-09,-0.0014940777296927,0.0014940773652155,-0.0015823244916101,0.0015823238297661,-0.0015823234581449,0.0015823248994932,-0.0015823252627733,0.0015823230425585,-0.0015823241577951,0.0015823241658133,-0.0013264875799806,0.0013264832544059,-0.0013264843785209,0.0013264865612923,-0.0014892399307912,0.0014892426296159,-0.0014892419271967,0.0014892406658293,-5.9453476171466e-10,4.8055086229514e-10,-0.0008370969428238,0.00083709682809678,1.29659846584e-09,-1.4503668108373e-09,-0.00096290120171509,0.00096290168641719,-0.00096290215413737,0.00096290072742746,-0.00096290087455762,0.00096290201014493,-0.00096290174033109,0.00096290114262913,-0.00094835076566601,0.00094835094373547,-0.00094835200739536,0.0009483497853333,0.65256751714227,125803,2834,0.0062046921994345,0.0062046922032201,0.0034857175491989,15.055223517478,-0.00011715821186017,-0.00011715821186017,-0.00011715821186017,3343717.505154,0.016022891636518
23619200,0.98979445886181,0.016195711245148,0.0060946491356802,0.0060946491277779,0.0040064129816898,-0.0014962252153612,0.0014962251668007,5.7745952724312e-11,-1.0638457196553e-10,-7.6588180636595e-10,7.2227263977253e-10,-0.0015844820622456,0.0015844816488642,-0.0015844821041884,0.0015844815999066,-0.0015844816819219,0.001584482032083,-0.0015844816674509,0.0015844820481417,-0.0013285825667343,0.0013285830751438,-0.0013285826491998,0.0013285830235409,8.428846658638e-10,-1.2268374775728e-09,-1.8384180923015e-09,1.472386552085e-09,-0.001496225373726,0.00149622500825,-0.0015844821963372,0.0015844815138524,-0.0015844811352152,0.0015844826067764,-0.001584482970094,0.0015844807190563,-0.001584481843484,0.0015844818679191,-0.0013285849959041,0.0013285805953512,-0.0013285817280924,0.0013285839819757,-0.0014914053951385,0.0014914081381942,-0.0014914074197691,0.0014914061696522,-5.9292156202644e-10,4.7446300733375e-10,-0.00083891958767448,0.00083891946819009,1.3347897567178e-09,-1.4953372205727e-09,-0.00096482430180186,0.00096482481196889,-0.00096482528113946,0.00096482382657836,-0.0009648239761282,0.00096482513386228,-0.00096482487014365,0.00096482423738254,-0.00095028718620914,0.00095028733045695,-0.00095028842397054,0.0009502861793766,0.66669415002824,125803,2834,0.0062135819863425,0.0062135819859609,0.0034932944580386,16.005278334929,-0.00010955777332057,-0.00010955777332057,-0.00010955777332057,3355717.1840624,0.016048655334115
23819200,0.99001874085627,0.016199333368582,0.0060960131363584,0.0060960131284669,0.0040073071037571,-0.0014989834403176,0.0014989833872112,9.6895984364778e-11,-1.5055555292532e-10,-7.3459860363456e-10,6.8686189766404e-10,-0.0015872446134252,0.0015872442432124,-0.0015872446823604,0.0015872441692442,-0.0015872442536942,0.0015872446070458,-0.0015872442682666,0.0015872445926809,-0.0013312969301808,0.0013312974993047,-0.0013312971003762,0.0013312973581222,8.7329424498968e-10,-1.2621841996687e-09,-1.8615073082666e-09,1.4907708905002e-09,-0.0014989835987221,0.0014989832285712,-0.0015872447677311,0.0015872440866726,-0.0015872436929279,0.001587245196771,-0.0015872455623748,0.0015872432734067,-0.0015872444230289,0.0015872444329259,-0.0013312994190451,0.0013312949574044,-0.0013312961149342,0.0013312983763213,-0.0014941848246869,0.0014941876470715,-0.0014941869167213,0.0014941856019962,-5.6114494344904e-10,4.3772991597507e-10,-0.00084123907553087,0.00084123895128817,1.3939797348594e-09,-1.5599246370257e-09,-0.00096731311492628,0.00096731368311328,-0.00096731413410527,0.00096731265847495,-0.00096731281095651,0.00096731398431638,-0.00096731374773157,0.00096731304401055,-0.00095274433479078,0.00095274435913622,-0.00095274549903704,0.00095274328174135,0.70079570377213,125803,2834,0.0062249982759345,0.0062249982754551,0.0035029386780871,17.23785068248,-9.969719454016e-05,-9.969719454016e-05,-9.969719454016e-05,3368444.9056198,0.016081655173964
24019200,0.99023957774452,0.016202940722928,0.0060973715926713,0.0060973715847876,0.0040081975454694,-0.0014995863137723,0.0014995862870775,8.1244495095267e-12,-4.0867380882508e-11,-8.8360529675883e-10,8.7291582172672e-10,-0.0015878370871569,0.0015878365643431,-0.0015878370896578,0.0015878365542016,-0.0015878366241819,0.0015878370338896,-0.001587836558687,0.0015878370979038,-0.0013319146298954,0.0013319151213418,-0.0013319145806574,0.0013319151811791,7.1831517290572e-10,-1.0804738304525e-09,-1.8707063971468e-09,1.5238860871386e-09,-0.0014995864752533,0.0014995861298196,-0.0015878372084792,0.0015878364305555,-0.0015878361213398,0.0015878375468563,-0.0015878378982277,0.0015878357223442,-0.0015878367363153,0.0015878369060191,-0.0013319170282706,0.0013319126492047,-0.0013319136437294,0.0013319161033268,-0.0014947953035101,0.0014947977997459,-0.0014947969990196,0.0014947960373675,-6.6804280391376e-10,5.4537889266684e-10,-0.0008415498696936,0.00084154975010245,1.2996410412554e-09,-1.4583294553937e-09,-0.00096779525780082,0.0009677956973254,-0.00096779621621695,0.0009677947308917,-0.00096779488537222,0.00096779606655539,-0.00096779575175913,0.00096779520226474,-0.00095309518194524,0.00095309549072878,-0.00095309655235203,0.00095309416421704,0.70866616827103,125803,2834,0.0062274907145508,0.0062274907233208,0.0035042395234451,17.342704193931,-9.8858366448549e-05,-9.8858366448549e-05,-9.8858366448549e-05,3361605.9300518,0.016088043549153
24219200,0.990456585475,0.016206333968213,0.006098654480127,0.0060986544722096,0.0040090250158767,-0.0015001140887777,0.0015001141715332,-4.4775169284607e-10,5.2695558692736e-10,-1.5583387790553e-09,1.6569933298735e-09,-0.001588344140597,0.0015883429629477,-0.0015883438854879,0.0015883432619251,-0.0015883432325716,0.0015883438892214,-0.0015883428333171,0.0015883443114349,-0.0013324605234948,0.0013324605012758,-0.0013324594105838,0.0013324617129181,4.2790026499945e-11,-2.9697974522884e-10,-2.0460804519896e-09,1.801493322531e-09,-0.0015001142569501,0.0015001140157685,-0.0015883441764258,0.0015883429110823,-0.0015883430200954,0.0015883441802317,-0.0015883444372445,0.0015883426759541,-0.0015883430949713,0.0015883440265441,-0.0013324626774627,0.0013324583307273,-0.0013324587934194,0.0013324623926592,-0.0014953336843683,0.0014953349310427,-0.0014953339130366,0.0014953348226629,-1.1500456148076e-09,1.1028794694069e-09,-0.00084178404986261,0.00084178399214585,1.0192479882876e-09,-1.103562075949e-09,-0.00096820001079213,0.00096820000128319,-0.00096820080525605,0.00096819921876585,-0.00096819935449719,0.00096820067495409,-0.00096819996756399,0.00096820003810191,-0.00095337124893282,0.00095337296722214,-0.00095337376586332,0.00095337055242136,0.68010473196242,125803,2834,0.0062296722818221,0.0062296723075207,0.0035052225691421,17.418024032739,-9.8255807738085e-05,-9.8255807738085e-05,-9.8255807738085e-05,3353467.2376719,0.01609347711354
24419200,0.99066978283505,0.016209664596242,0.0060999136971343,0.0060999136891937,0.0040098372099141,-0.0015005873039217,0.0015005872055734,3.1950463747029e-10,-4.2030003429893e-10,-4.4347387458931e-10,3.4931014734419e-10,-0.001588817608362,0.0015888175566899,-0.0015888178384424,0.0015888173233484,-0.0015888174314409,0.0015888177340272,-0.0015888176444981,0.001588817522536,-0.0013329202640326,0.0013329211110048,-0.0013329209786092,0.0013329204230711,1.1619064187918e-09,-1.6001726427312e-09,-1.6381542644037e-09,1.2206387991682e-09,-0.0015005874642311,0.0015005870481055,-0.0015888177658949,0.0015888173947257,-0.0015888168435702,0.0015888183525474,-0.0015888187432486,0.001588816396217,-0.0015888177926245,0.0015888173646105,-0.0013329227563983,0.001332918571224,-0.0013329199863799,0.0013329214409594,-0.0014958130992574,0.0014958163716888,-0.0014958158437918,0.0014958136386029,-3.311232204271e-10,2.1038483959345e-10,-0.00084202825227674,0.00084202813008931,1.3815614903882e-09,-1.54334047888e-09,-0.0009685431475562,0.00096854384463438,-0.00096854413759313,0.00096854284502324,-0.000968542978048,0.00096854400766213,-0.00096854392325773,0.00096854305881976,-0.00095366629954463,0.0009536658248129,-0.00095366695403023,0.00095366525927951,0.67934993511515,125803,2834,0.0062316286890841,0.0062316286949688,0.00350624345282,17.491646466942,-9.7666828264464e-05,-9.7666828264464e-05,-9.7666828264464e-05,3351264.2738393,0.016098490802743
24619200,0.99087833019911,0.016213076658993,0.0061011986142528,0.0061011986063111,0.0040106794384287,-0.0015009259793544,0.0015009258291383,6.4083867370076e-10,-7.9341794762632e-10,-1.061340517364e-10,-4.2479797388996e-11,-0.0015891570997626,0.0015891574254026,-0.0015891575242591,0.0015891570104749,-0.0015891571401003,0.0015891573884755,-0.0015891575894091,0.0015891569374551,-0.0013332494442946,0.0013332507462525,-0.0013332509039745,0.0013332493187397,1.4971753153218e-09,-1.9937817051137e-09,-1.4549528545675e-09,9.8325119801444e-10,-0.0015009261416653,0.0015009256714136,-0.0015891572984378,0.0015891572187684,-0.0015891564890002,0.0015891580814676,-0.0015891584967276,0.001589156009834,-0.0015891576937026,0.0015891568180398,-0.0013332520705558,0.0013332480768454,-0.0013332497794692,0.0013332504666067,-0.0014961628065891,0.0014961666770055,-0.0014961663379715,0.001496163163939,3.9192777418137e-12,-1.2438580574608e-10,-0.00084216166980994,0.00084216154587422,1.4866838499392e-09,-1.6489070828155e-09,-0.00096876025740027,0.00096876121217412,-0.00096876129192849,0.00096876017353846,-0.0009687602852858,0.00096876118419891,-0.00096876131868369,0.00096876013533622,-0.00095384442943116,0.0009538431540745,-0.00095384437535124,0.00095384332397678,0.70944812674315,125803,2834,0.0062330286478572,0.0062330286573546,0.0035068034777291,17.497788350388,-9.7617693196898e-05,-9.7617693196898e-05,-9.7617693196898e-05,3348633.8239678,0.016101905267319
24819200,0.99108219699708,0.016216170282892,0.0061023715677555,0.0061023715598062,0.0040114271553305,-0.0015012662663135,0.0015012662264645,4.735872240001e-11,-8.9223486519027e-11,-8.1744449869051e-10,7.8607424967714e-10,-0.0015894810778998,0.0015894806172085,-0.001589481104796,0.0015894805890784,-0.0015894806657903,0.001589481034877,-0.0015894806248645,0.0015894810778108,-0.0013336059737229,0.001333606486063,-0.0013336060147794,0.0013336064893745,7.8744752043054e-10,-1.1634840622473e-09,-1.6584571211988e-09,1.2996333395348e-09,-0.0015012664264815,0.0015012660686316,-0.0015894811443586,0.0015894805459909,-0.0015894802013765,0.0015894815273672,-0.0015894818868978,0.001589479788454,-0.0015894808636904,0.0015894808284887,-0.0013336082093474,0.0013336041937504,-0.0013336052757986,0.001333607256781,-0.0014965086325236,0.0014965111432739,-0.0014965105294959,0.0014965093053931,-6.4651248766606e-10,5.4696816617445e-10,-0.0008422442990492,0.00084224419861309,1.1411395676717e-09,-1.2784678608333e-09,-0.00096898988442899,0.00096899023536214,-0.00096899073175726,0.00096898938616268,-0.00096898952148339,0.00096899059946276,-0.00096899027199103,0.00096898984179816,-0.00095395534143877,0.00095395577875554,-0.00095395671684479,0.00095395448355779,0.66112595104887,125803,2834,0.0062344344771165,0.0062344344819602,0.0035071554597672,17.493844721089,-9.7649242231289e-05,-9.7649242231289e-05,-9.7649242231289e-05,3341079.7920535,0.016105120989037
25019200,0.9912930099899,0.016219331537515,0.0061035710421712,0.0061035710342204,0.0040121894611236,-0.0015033053636865,0.001503305306471,1.4534989948387e-10,-2.0196654164902e-10,-7.1765864831503e-10,6.6369715986029e-10,-0.0015915347121914,0.0015915343827288,-0.0015915348127976,0.0015915342780916,-0.0015915343616301,0.0015915347364686,-0.001591534415366,0.0015915346849043,-0.001335585134906,0.0013355857956599,-0.0013355854150961,0.0013355855498809,8.9103526571956e-10,-1.2845793341031e-09,-1.6347154097973e-09,1.2600090166262e-09,-0.0015033055221429,0.0015033051478968,-0.0015915348095535,0.0015915342859964,-0.0015915338824799,0.0015915352473777,-0.0015915356137159,0.0015915334629749,-0.0015915346287564,0.0015915344664092,-0.0013355874541389,0.0013355834325098,-0.0013355846105849,0.0013355863969643,-0.0014985597151975,0.0014985624317899,-0.0014985618635476,0.0014985603448917,-5.4552267077119e-10,4.4228965917804e-10,-0.00084393502270843,0.00084393491761011,1.19199008074e-09,-1.3358308666038e-09,-0.00097078606173988,0.00097078650581328,-0.00097078693501201,0.00097078562649205,-0.00097078575770584,0.00097078680607585,-0.00097078655510182,0.00097078600501998,-0.00095576549348887,0.00095576565954773,-0.00095576663869029,0.00095576460344321,0.65362908009771,125803,2834,0.0062428741950746,0.0062428741948313,0.0035141851040934,18.391252575795,-9.0469979393642e-05,-9.0469979393642e-05,-9.0469979393642e-05,3353325.1104095,0.016129415920473
25219200,0.99152174428382,0.016222878299081,0.0061049130068483,0.0061049129989153,0.0040130522933172,-0.0015069597761088,0.0015069597278232,8.0537551986011e-11,-1.278811897292e-10,-7.7761959743155e-10,7.3256146375013e-10,-0.001595211734527,0.0015952113305657,-0.0015952117920209,0.0015952112670161,-0.001595211347703,0.0015952117197173,-0.0015952113491941,0.001595211721348,-0.001339150951413,0.0013391515142702,-0.0013391510763072,0.0013391514173963,8.3294400060313e-10,-1.216697204859e-09,-1.720861229877e-09,1.3555039124514e-09,-0.0015069599341469,0.0015069595690436,-0.0015952118383287,0.0015952112282264,-0.0015952108549411,0.0015952122436792,-0.0015952126064467,0.0015952104389592,-0.0015952115573588,0.0015952115098935,-0.0013391532913899,0.0013391491292923,-0.0013391502522783,0.0013391522843527,-0.0015022344400966,0.0015022370834698,-0.0015022364446296,0.0015022351302334,-6.2467730865926e-10,5.1745415439548e-10,-0.0008470673248158,0.00084706721623584,1.2159171705191e-09,-1.3643520439163e-09,-0.00097407998679684,0.00097408039988046,-0.00097408088284076,0.00097407949792239,-0.00097407963670604,0.00097408074638545,-0.00097408044716236,0.00097407993288247,-0.00095908644862789,0.00095908675827384,-0.0009590877584508,0.00095908553345527,0.67455041014177,125803,2834,0.0062580004182979,0.0062580004167669,0.0035272054517327,20.099556310687,-7.6803549514501e-05,-7.6803549514501e-05,-7.6803549514501e-05,3376406.349092,0.016173388650128
25419200,0.99175744950247,0.016226839424708,0.0061064029371875,0.0061064029292731,0.0040140335582473,-0.0015091507098586,0.0015091506526974,1.5824803568996e-10,-2.1858354954025e-10,-7.0636037552833e-10,6.5856208249808e-10,-0.0015974182128448,0.0015974178998911,-0.0015974183263313,0.0015974177845226,-0.0015974178694946,0.0015974182476923,-0.0015974179333681,0.0015974181850454,-0.0013412949800262,0.0013412956562294,-0.001341295289827,0.0013412953811151,9.0013620028049e-10,-1.2950654778546e-09,-1.6940343630097e-09,1.3172095825007e-09,-0.0015091508704591,0.0015091504947437,-0.0015974183306358,0.0015974177757841,-0.0015974173681353,0.0015974187756718,-0.0015974191434305,0.0015974169461083,-0.0015974181196143,0.001597417987015,-0.0013412973607451,0.0013412932149525,-0.0013412943966078,0.0013412962880717,-0.0015044418690697,0.0015044446392142,-0.0015044440190811,0.0015044425168828,-5.49412227987e-10,4.3816855166328e-10,-0.00084882904764162,0.00084882893626338,1.262180503388e-09,-1.4117492241314e-09,-0.0009760074591213,0.00097600794891891,-0.00097600838328914,0.00097600702018112,-0.00097600715832807,0.00097600824846964,-0.00097600800376335,0.00097600739721423,-0.00096097544026854,0.00096097554929528,-0.00096097658021176,0.00096097448601683,0.72789747451239,125803,2834,0.0062670673026962,0.0062670673081965,0.0035345332657864,21.025662729708,-6.9394698162337e-05,-6.9394698162337e-05,-6.9394698162337e-05,3385717.4523528,0.016199263612321
25619200,0.99198550285376,0.016230695294313,0.006107853847651,0.0061078538397239,0.0040149876069376,-0.0015094285068246,0.0015094284504896,9.8117165999694e-11,-1.590666292119e-10,-7.0891460167495e-10,6.6430083247733e-10,-0.0015976731410608,0.0015976727850993,-0.001597673213578,0.0015976727103689,-0.0015976727972241,0.0015976731331852,-0.0015976728158866,0.0015976731162603,-0.0013416039289062,0.0013416044765496,-0.0013416041108353,0.0013416043331842,8.9501397452568e-10,-1.2893510725017e-09,-1.6705773699518e-09,1.2939234585817e-09,-0.0015094286684057,0.0015094282932209,-0.0015976732296118,0.0015976726880175,-0.0015976722825348,0.001597673671146,-0.0015976740409732,0.0015976718593477,-0.0015976730285509,0.0015976728887854,-0.0013416062233311,0.0013416021175172,-0.001341603294275,0.0013416051544736,-0.0015047315219573,0.0015047342574943,-0.001504733646039,0.0015047321490695,-6.1413250527227e-10,5.0954180237711e-10,-0.00084877619046965,0.0008487760864958,1.1819837508824e-09,-1.3224815413706e-09,-0.00097615575912006,0.00097615615347903,-0.00097615662839086,0.00097615528018431,-0.00097615541354071,0.00097615649828287,-0.00097615619898629,0.00097615570647933,-0.00096096183211231,0.0009609621465371,-0.00096096311307053,0.00096096093703602,0.73244075754679,125803,2834,0.006268212838249,0.0062682128472,0.0035343260420022,20.943836648518,-7.0049306811854e-05,-7.0049306811854e-05,-7.0049306811854e-05,3373201.0906939,0.016201382848791
25819200,0.99219629638664,0.01623416391505,0.0061091622289056,0.0061091622209574,0.0040158394651871,-0.0015081971664927,0.0015081971104736,1.4210259327508e-10,-2.0199368658447e-10,-7.1072998656913e-10,6.6522694159709e-10,-0.0015964154007119,0.0015964150749616,-0.0015964155048499,0.0015964149701376,-0.0015964150544536,0.0015964154258582,-0.0015964151067388,0.0015964153756735,-0.0013404220656818,0.0013404227061361,-0.001340422340162,0.0013404224724161,8.9206132072722e-10,-1.2859925526522e-09,-1.5623874111701e-09,1.1863945110393e-09,-0.0015081973276686,0.0015081969530285,-0.00159641547043,0.0015964149985485,-0.0015964145954462,0.0015964159105261,-0.0015964162785209,0.0015964141742062,-0.0015964153395519,0.001596415128688,-0.0013404242996834,0.0013404204119617,-0.0013404215879893,0.0013404232335736,-0.0015035040681451,0.0015035067303986,-0.0015035061961988,0.0015035046335928,-5.7335764465639e-10,4.7653764777844e-10,-0.00084738190472474,0.00084738180771054,1.1115372565425e-09,-1.2439869048159e-09,-0.00097489536063204,0.00097489573592719,-0.00097489617953392,0.00097489491332661,-0.00097489503940951,0.0009748960566334,-0.00097489577645965,0.00097489531270891,-0.00095954667126817,0.00095954696570197,-0.00095954787714548,0.00095954583696397,0.71386864617569,125803,2834,0.0062631116812049,0.0062631116889492,0.0035285436451702,20.111016570483,-7.6711867436134e-05,-7.6711867436134e-05,-7.6711867436134e-05,3351986.924949,0.016185140207113
26019200,0.99239667817408,0.016237330409889,0.0061103603016308,0.0061103602936695,0.0040166098145882,-0.0015077618429613,0.0015077617852291,1.5057056776075e-10,-2.0857308994116e-10,-7.1188855535212e-10,6.585653139876e-10,-0.0015959618601542,0.0015959615395583,-0.0015959619672014,0.0015959614309021,-0.0015959615168969,0.0015959618878714,-0.0015959615712051,0.0015959618341246,-0.001340005091551,0.0013400057495604,-0.0013400053708457,0.0013400054994148,8.9400876529295e-10,-1.2877261824529e-09,-1.5064724875113e-09,1.1315128080567e-09,-0.0015077620011757,0.0015077616266418,-0.0015959619169341,0.0015959614828492,-0.0015959610775841,0.0015959623578714,-0.001595962727109,0.0015959606562653,-0.0015959618235129,0.0015959615746872,-0.0013400072861625,0.0013400035073191,-0.0013400046794536,0.0013400062207254,-0.0015030768237842,0.0015030794498708,-0.0015030789604746,0.0015030773507611,-5.7253125086395e-10,4.7795257858269e-10,-0.00084675979962157,0.00084675970444073,1.0608683907467e-09,-1.1934103985736e-09,-0.00097437505857775,0.00097437540036939,-0.00097437584311341,0.00097437461226867,-0.00097437473545214,0.00097437572263888,-0.00097437543837352,0.00097437501341771,-0.00095894053169123,0.00095894086657853,-0.00095894174504845,0.00095893973913564,0.68688838992709,125803,2834,0.0062613067362747,0.0062613067355162,0.0035259668751448,19.71719913932,-7.9862406885439e-05,-7.9862406885439e-05,-7.9862406885439e-05,3340426.0438064,0.016178853864805
26219200,0.99259089184916,0.016240583129643,0.0061115844208357,0.006111584412886,0.0040174142959213,-0.0015078866550776,0.0015078865935208,1.5563475058285e-10,-2.1494072629659e-10,-7.0940197172731e-10,6.4523699704088e-10,-0.0015960880601158,0.0015960877569035,-0.0015960881795752,0.0015960876437695,-0.0015960877271945,0.0015960880939697,-0.0015960877937119,0.0015960880308226,-0.0013401161205474,0.0013401167834253,-0.0013401163978033,0.0013401165359649,9.0030153393554e-10,-1.2959473206974e-09,-1.4804442485261e-09,1.1045240969367e-09,-0.001507886809434,0.0015078864332631,-0.001596088115846,0.0015960877098472,-0.0015960873018015,0.0015960885725087,-0.0015960889375286,0.0015960868741142,-0.0015960880539925,0.0015960877702141,-0.0013401182939665,0.0013401145630303,-0.0013401157422373,0.0013401172431177,-0.0015032139100524,0.0015032165418423,-0.001503216077959,0.0015032144451405,-5.7345396603823e-10,4.8081668173336e-10,-0.00084670369192965,0.00084670359811181,1.0388495687503e-09,-1.1724125141797e-09,-0.00097437617483575,0.00097437651080216,-0.00097437695277831,0.00097437574297551,-0.0009743758614881,0.00097437683679318,-0.00097437654401326,0.00097437613005912,-0.00095892839612867,0.00095892877097716,-0.0009589296328509,0.00095892763529204,0.72525109665675,125803,2834,0.0062618217244854,0.0062618217123182,0.0035257386151325,19.629420668855,-8.0564634649162e-05,-8.0564634649162e-05,-8.0564634649162e-05,3338081.4198203,0.01617966847824
26419200,0.99278355545754,0.016243903063367,0.0061128312077388,0.006112831199825,0.0040182406558032,-0.0015088021980149,0.0015088021402254,1.4458917778222e-10,-2.0234173795174e-10,-7.1214880293114e-10,6.5805665358565e-10,-0.0015969780489918,0.0015969777263791,-0.001596978153996,0.0015969776201666,-0.0015969777059946,0.0015969780737834,-0.0015969777576215,0.0015969780238678,-0.0013410483035314,0.001341048949089,-0.0013410485735673,0.0013410487145961,8.9297391614218e-10,-1.2867279711086e-09,-1.4981119167847e-09,1.1232122284904e-09,-0.0015088023561256,0.0015088019816952,-0.0015969781021914,0.0015969776741171,-0.0015969772696577,0.0015969785429668,-0.0015969789119792,0.0015969768474914,-0.001596978014149,0.0015969777607159,-0.0013410504847075,0.0013410467212924,-0.0013410478981519,0.0013410494249813,-0.0015041485499851,0.001504151170738,-0.0015041506923776,0.0015041490882122,-5.9226865125671e-10,5.0018933711792e-10,-0.00084728949049463,0.00084728939723355,1.0430322919618e-09,-1.1733232277146e-09,-0.0009751269708214,0.00097512728927946,-0.00097512774406643,0.00097512651335761,-0.00097512663557147,0.00097512762439547,-0.00097512732501435,0.00097512692747133,-0.00095957857428831,0.00095957896755149,-0.00095957983180332,0.00095957780066066,0.74503105404688,125803,2834,0.0062656083524135,0.0062656083515604,0.0035281820086885,19.918171055846,-7.8254631553236e-05,-7.8254631553236e-05,-7.8254631553236e-05,3333973.464027,0.016189848238519
26619200,0.99298109617803,0.016247275400532,0.0061140991376093,0.0061140991297046,0.0040190771332182,-0.0015108233610076,0.0015108232879962,6.4952415512997e-11,-1.3280309360371e-10,-6.9844060517776e-10,6.1894803144486e-10,-0.0015989621735124,0.0015989617857797,-0.001598962177537,0.0015989617236517,-0.0015989618507243,0.0015989620968622,-0.0015989618103512,0.0015989621305815,-0.0013430856301342,0.0013430860965798,-0.0013430856638563,0.0013430859992122,9.2049115350946e-10,-1.3120499214912e-09,-1.5899189987469e-09,1.2176662123757e-09,-0.0015108235023603,0.0015108231263024,-0.0015989622326791,0.0015989617536805,-0.0015989612916167,0.0015989626466908,-0.0015989630461284,0.0015989608742065,-0.0015989620814794,0.0015989618838714,-0.0013430878067601,0.001343083846074,-0.0013430849707178,0.0013430867114696,-0.0015061925463257,0.0015061952385072,-0.0015061946694816,0.0015061929948091,-7.0086396964616e-10,5.5984380380315e-10,-0.00084881869379928,0.00084881856396753,1.0187322865695e-09,-1.2018694909869e-09,-0.00097690878475476,0.00097690899443154,-0.00097690954139093,0.00097690820895208,-0.00097690835770972,0.00097690939138642,-0.0009769090529819,0.00097690872809473,-0.00096121798665207,0.00096121853297988,-0.00096121940196823,0.0009612171282547,0.73848801736029,125803,2834,0.0062739704620933,0.0062739704200406,0.0035345485575183,20.756456689396,-7.1548346484831e-05,-7.1548346484831e-05,-7.1548346484831e-05,3333947.3510223,0.016213314797205
26819200,0.99318205897357,0.016250620715977,0.006115360213974,0.0061153602061356,0.0040199002958675,-0.0015126422957599,0.0015126422442683,2.065182770084e-10,-2.5993487569739e-10,-7.4941818872993e-10,7.0683208623554e-10,-0.0016007582439354,0.0016007579384503,-0.0016007583838193,0.0016007577887191,-0.0016007578733833,0.0016007583107749,-0.0016007579632378,0.0016007582218348,-0.0013449064011126,0.0013449071954123,-0.0013449067735124,0.0013449068404595,8.5355636826238e-10,-1.2395996034528e-09,-1.5575300192653e-09,1.1893494029532e-09,-0.0015126424544549,0.0015126420865548,-0.0016007583347611,0.0016007578448605,-0.0016007574544951,0.0016007587483209,-0.001600759114124,0.0016007570405597,-0.0016007581770933,0.0016007579980682,-0.0013449086914622,0.0013449048441145,-0.00134490596802,0.0013449076606767,-0.0015080234272183,0.0015080260072254,-0.0015080254630921,0.0015080239750738,-5.5648910152172e-10,4.4368514954677e-10,-0.00085016465457631,0.00085016454528217,1.1540063493908e-09,-1.3037040390729e-09,-0.0009784955921571,0.00097849600478054,-0.00097849644546577,0.00097849514908541,-0.00097849528541095,0.00097849631172858,-0.00097849605458142,0.00097849553562912,-0.00096266855191889,0.00096266875945958,-0.00096266971345562,0.00096266766587007,0.72122275100862,125803,2834,0.0062814955328132,0.0062814955348827,0.0035401534999823,21.494649391279,-6.5642804869765e-05,-6.5642804869765e-05,-6.5642804869765e-05,3334862.2744907,0.016234306661623
27019200,0.99337990618333,0.016253821924854,0.006116570327478,0.0061165703196218,0.0040206812777541,-0.001513411321642,0.0015134112745508,2.6125705136465e-10,-3.1109846244964e-10,-7.7907443839892e-10,7.4179543318812e-10,-0.0016015234601338,0.0016015231644767,-0.0016015236248973,0.0016015229804904,-0.0016015230638407,0.0016015235603963,-0.0016015231828286,0.0016015234416959,-0.0013456676086975,0.0013456685423452,-0.0013456680978333,0.0013456680687315,8.2370764994377e-10,-1.2037867717664e-09,-1.5424292445385e-09,1.1796727364805e-09,-0.0015134114789607,0.0015134111164487,-0.0016015235637999,0.0016015230599079,-0.0016015226821723,0.0016015239504044,-0.0016015243146938,0.0016015222771615,-0.0016015233860689,0.0016015232317163,-0.0013456699346564,0.0013456661455471,-0.0013456672431602,0.0013456689268317,-0.0015087944873619,0.0015087970022761,-0.0015087964645988,0.0015087950257475,-5.1496753908201e-10,3.9603571226319e-10,-0.00085060446827061,0.00085060435280466,1.1867962356694e-09,-1.3429282816209e-09,-0.00097909610926584,0.0009790965668118,-0.00097909698135322,0.00097909568350468,-0.00097909582540146,0.00097909684195627,-0.00097909662458969,0.00097909604794236,-0.00096317404462106,0.00096317412155579,-0.00096317510085121,0.00096317311783949,0.70228868110225,125803,2834,0.0062846754551538,0.0062846754535638,0.0035419904758543,21.714513546758,-6.3883891625934e-05,-6.3883891625934e-05,-6.3883891625934e-05,3333029.5527974,0.016242637518963
27219200,0.99357233216107,0.016256839308776,0.0061177140808908,0.0061177140730235,0.0040214111548619,-0.0015137542473651,0.0015137541901775,1.3485809288372e-10,-1.9334164313375e-10,-7.1698527782722e-10,6.662709089399e-10,-0.0016018764399952,0.001601876102267,-0.0016018765300931,0.0016018760024235,-0.001601876093087,0.0016018764510416,-0.0016018761301305,0.0016018764148361,-0.0013459862402679,0.0013459868661017,-0.0013459864821613,0.0013459866501663,8.8652179013255e-10,-1.2780027061602e-09,-1.6110620161265e-09,1.2380366191363e-09,-0.0015137544045421,0.0015137540316908,-0.0016018765251955,0.0016018760168273,-0.0016018756103448,0.0016018769561157,-0.0016018773279953,0.0016018751898727,-0.0016018763529501,0.0016018761856566,-0.0013459885131461,0.001345984530853,-0.0013459856946899,0.0013459874559415,-0.0015091371484818,0.0015091398270421,-0.0015091392617631,0.0015091377418642,-6.3992994177273e-10,5.3318208430037e-10,-0.00085071309940748,0.00085071299422279,1.1288357882901e-09,-1.2734985207085e-09,-0.0009792950584232,0.00097929539856873,-0.00097929589260881,0.00097929455868227,-0.00097929469292862,0.00097929576076869,-0.00097929544390386,0.00097929500667678,-0.00096333407038027,0.0009633344715643,-0.00096333540395506,0.00096333320973799,0.68192142653296,125803,2834,0.0062860926729,0.006286092670219,0.0035424482788545,21.739839691671,-6.3681282466632e-05,-6.3681282466632e-05,-6.3681282466632e-05,3332245.117154,0.016245983531044
27419200,0.99376090764066,0.01625989002311,0.0061188669389933,0.0061188669311244,0.0040221561529924,-0.0015143122598482,0.0015143122087308,2.1282155321234e-10,-2.6402272528698e-10,-7.6067609692621e-10,7.1410051436652e-10,-0.0016024560022127,0.0016024556921088,-0.0016024561419239,0.0016024555400565,-0.0016024556244903,0.0016024560717555,-0.0016024557143977,0.0016024559815917,-0.0013464988883303,0.0013464997118859,-0.0013464992805762,0.0013464993331358,8.4481630914754e-10,-1.2288626399528e-09,-1.5834936145449e-09,1.2177526994101e-09,-0.0015143124156271,0.0015143120496399,-0.0016024561060465,0.001602455591065,-0.0016024552055459,0.0016024565121338,-0.0016024568774969,0.0016024547940208,-0.0016024559217235,0.0016024557715072,-0.0013465012148539,0.0013464973270464,-0.0013464984460892,0.0013465001908026,-0.0015097009256263,0.0015097035075633,-0.0015097029547608,0.0015097014985363,-5.7512910050562e-10,4.6216833313349e-10,-0.0008510661218224,0.00085106601071968,1.1651740986962e-09,-1.3176400959067e-09,-0.00097969126154047,0.00097969166808222,-0.0009796921214903,0.00097969080230203,-0.00097969094009096,0.00097969198606452,-0.00097969172038325,0.00097969120410299,-0.00096375361532542,0.00096375384064729,-0.00096375480650054,0.0009637527222116,0.70215248590702,125803,2834,0.0062884013170663,0.0062884013102382,0.0035439187787173,21.891601016518,-6.2467191867854e-05,-6.2467191867854e-05,-6.2467191867854e-05,3336290.9140183,0.016252170050539
27619200,0.99394831464525,0.016262969021168,0.006120028972046,0.0061200289641852,0.0040229110849365,-0.0015153644687919,0.0015153644227994,2.5858076229991e-11,-6.7013261261457e-11,-6.7572765933679e-10,6.2359244997282e-10,-0.0016035150061555,0.001603514651996,-0.0016035151335766,0.0016035146961733,-0.0016035147000355,0.0016035150307232,-0.0016035147122366,0.0016035150166984,-0.0013475202370353,0.0013475205647352,-0.0013475202895665,0.0013475206160632,9.2081798176038e-10,-1.3298833469788e-09,-1.6951572267339e-09,1.3094567840382e-09,-0.0015153646433633,0.0015153642618851,-0.0016035150872903,0.0016035145397888,-0.0016035142548886,0.0016035156757263,-0.0016035159838914,0.0016035137945563,-0.0016035149259195,0.0016035147619425,-0.0013475225591987,0.0013475183238661,-0.0013475195871964,0.0013475214163274,-0.0015107628409451,0.0015107656168457,-0.0015107650145094,0.0015107635832742,-6.9918473500933e-10,7.3920176527583e-10,-0.00085183044275529,0.00085183044629433,1.1788796854742e-09,-1.185440900006e-09,-0.00098055833294684,0.00098055866709966,-0.00098055917751888,0.00098055787978442,-0.00098055792976137,0.00098055913940659,-0.00098055863263776,0.00098055834015027,-0.00096459657100411,0.00096459731155976,-0.00096459826023606,0.00096459594159761,0.7125316961738,125803,2834,0.0062927547783379,0.0062927548065876,0.003547100904851,22.281044956701,-5.9351640346393e-05,-5.9351640346393e-05,-5.9351640346393e-05,3339399.9383078,0.016264252879644
27819200,0.99413189510669,0.01626603557088,0.0061211849229724,0.0061211849151359,0.004023665732772,-0.0015159853347783,0.0015159852873728,3.3655216303303e-10,-3.8690581176362e-10,-7.6509338386348e-10,7.2440801165603e-10,-0.0016041376369198,0.0016041374149135,-0.0016041378781163,0.0016041371870472,-0.0016041372555795,0.0016041378076261,-0.0016041374425131,0.0016041376201429,-0.0013481268343465,0.0013481278930692,-0.001348127473356,0.0013481272917969,8.3760548737438e-10,-1.2230571202892e-09,-1.5716242906673e-09,1.2037322151858e-09,-0.0015159854962015,0.0015159851303079,-0.0016041377762473,0.0016041372673652,-0.0016041369042685,0.0016041382006822,-0.0016041385527188,0.0016041364909028,-0.001604137605136,0.0016041374432607,-0.0013481292768722,0.0013481254098616,-0.001348126535877,0.001348128260192,-0.0015113938379966,0.0015113963976164,-0.0015113958432202,0.0015113944136961,-4.5769877853061e-10,3.6023470269476e-10,-0.00085219160396581,0.00085219150231401,1.2406126634472e-09,-1.3776839907577e-09,-0.00098102822496831,0.0009810287607591,-0.00098102913362377,0.00098102785738204,-0.00098102798599336,0.00098102900898213,-0.00098102880848168,0.00098102816926472,-0.00096501944019447,0.00096501941476816,-0.00096502042664411,0.00096501852245225,0.7238369847552,125803,2834,0.0062953223199074,0.0062953223289358,0.0035486084216706,22.443321777651,-5.8053425778794e-05,-5.8053425778794e-05,-5.8053425778794e-05,3337974.4963592,0.016271004114309
28019200,0.99431236478799,0.016269104432764,0.0061223401773729,0.0061223401695267,0.0040244240858639,-0.0015167410317258,0.0015167409875624,4.8861205770762e-10,-5.3321803549621e-10,-7.9025941570554e-10,7.5004055336418e-10,-0.0016048858199796,0.001604885676196,-0.0016048861519285,0.0016048853578559,-0.0016048854211903,0.0016048860867874,-0.0016048857018167,0.0016048858050487,-0.0013488757385332,0.0013488771153287,-0.0013488766676779,0.0013488762160598,8.1498014109259e-10,-1.1958766676074e-09,-1.5274425470577e-09,1.1646959415149e-09,-0.0015167411907222,0.0015167408289143,-0.0016048859956467,0.0016048854974293,-0.0016048851463718,0.0016048864077969,-0.0016048867544868,0.0016048847380305,-0.0016048858329102,0.0016048856640185,-0.0013488782849132,0.001348874525831,-0.0013488756309875,0.0013488772896639,-0.0015121628601381,0.0015121653582807,-0.0015121648361332,0.0015121634269044,-3.2145045862904e-10,2.1681477263399e-10,-0.00085265826446178,0.00085265815643895,1.2919415442675e-09,-1.4382017747603e-09,-0.0009816268682542,0.00098162752546675,-0.00098162781332207,0.00098162658872449,-0.00098162672111459,0.00098162768459383,-0.00098162758051056,0.00098162680480512,-0.00096555374327496,0.00096555339958651,-0.00096555445985646,0.00096555278489961,0.73612814107745,125803,2834,0.0062984475432413,0.0062984475439883,0.0035505557496174,22.670127062646,-5.6238983498833e-05,-5.6238983498833e-05,-5.6238983498833e-05,3335480.8150153,0.016279336059406
28219200,0.99449253061339,0.016272227155667,0.0061235141343927,0.0061235141265503,0.0040251988947239,-0.0015180325714014,0.0015180325217907,3.6426355376318e-10,-4.1388171313894e-10,-7.5945535386613e-10,7.1344931849541e-10,-0.0016061607413568,0.001606160527257,-0.0016061609830869,0.0016061602893011,-0.0016061603641522,0.0016061609121337,-0.0016061605528686,0.0016061607232982,-0.0013501646876638,0.0013501657911948,-0.0013501653746758,0.001350165138191,8.4699349516542e-10,-1.2326305505285e-09,-1.6044415624203e-09,1.2372306567615e-09,-0.001518032729571,0.0015180323629803,-0.001606160899287,0.0016061603680853,-0.001606159994271,0.0016061613201614,-0.0016061616777842,0.0016061595801276,-0.0016061607037577,0.0016061605653244,-0.0013501671854507,0.0013501632451978,-0.0013501643854187,0.0013501661668368,-0.0015134724643945,0.0015134750716895,-0.0015134745123901,0.0015134730892886,-4.5303723854982e-10,3.4792919747243e-10,-0.00085358262135244,0.00085358251364877,1.2571405113398e-09,-1.403733235314e-09,-0.00098272640164328,0.00098272694689256,-0.00098272732200173,0.00098272602731123,-0.00098272616239493,0.00098272718980763,-0.00098272699900051,0.00098272634216895,-0.00096656849747697,0.00096656844317916,-0.00096656947520505,0.00096656756067389,0.74949207307985,125803,2834,0.0063037901749729,0.0063037901736649,0.0035544065669814,23.162825617651,-5.2297395058792e-05,-5.2297395058792e-05,-5.2297395058792e-05,3334494.2923492,0.016294109981515
28419200,0.99466715096847,0.016275315453645,0.0061246738061805,0.0061246737983435,0.0040259678491206,-0.0015183982104504,0.0015183981681285,3.2563779369481e-10,-3.737094858435e-10,-7.292458122763e-10,7.0176617193692e-10,-0.0016065071255857,0.0016065069155314,-0.0016065073796679,0.0016065067105683,-0.0016065067597982,0.0016065073044482,-0.0016065069511484,0.0016065071170597,-0.0013505491413515,0.0013505501581095,-0.0013505498185344,0.0013505495791245,8.6424308402585e-10,-1.256299509757e-09,-1.5997347245373e-09,1.2256269957601e-09,-0.0015183983823322,0.0015183980120446,-0.0016065072650366,0.0016065067500188,-0.0016065064018926,0.0016065077269705,-0.0016065080676488,0.0016065059793952,-0.0016065071007243,0.00160650693286,-0.0013505516069124,0.0013505476603364,-0.001350548861148,0.0013505505653783,-0.0015138487246793,0.00151385138175,-0.0015138508385588,0.001513849413871,-4.7840574051762e-10,4.1308409300569e-10,-0.00085365390772856,0.00085365383090286,1.2667458548296e-09,-1.3684997807067e-09,-0.00098296525294214,0.00098296579780156,-0.00098296617562092,0.00098296489240961,-0.00098296500600154,0.00098296606850233,-0.0009829658309887,0.00098296520709685,-0.00096668796533226,0.00096668800837969,-0.00096668902901977,0.00096668709291722,0.76402646238041,125803,2834,0.0063052998044057,0.0063052998370971,0.0035547137052763,23.176324799494,-5.2189401604045e-05,-5.2189401604045e-05,-5.2189401604045e-05,3326281.6919805,0.01629749170663
28619200,0.99483672243159,0.016278335106302,0.0061258073527198,0.0061258073448458,0.0040267204087359,-0.0015188298250577,0.0015188297721616,2.7062362828098e-10,-3.2498459153204e-10,-7.3236599172167e-10,6.8494603842752e-10,-0.0016069073081037,0.0016069070505951,-0.0016069074933785,0.0016069068723017,-0.0016069069490863,0.0016069074183439,-0.0016069070808531,0.0016069072864192,-0.0013510114815182,0.001351012386467,-0.0013510119968209,0.0013510119079478,8.7179028911097e-10,-1.2621586603567e-09,-1.6013502169256e-09,1.2293128073118e-09,-0.001518829984875,0.0015188296140142,-0.0016069074335134,0.0016069069205739,-0.0016069065351124,0.0016069078704209,-0.0016069082307572,0.0016069061168698,-0.0016069072612436,0.0016069070954778,-0.0013510138852197,0.0013510099350695,-0.0013510110960245,0.0013510128404007,-0.0015142958660413,0.0015142985157086,-0.0015142979580001,0.0015142964708219,-5.5642406896775e-10,4.5683641299058e-10,-0.00085376608131346,0.00085376597849834,1.2238062015588e-09,-1.3632612840232e-09,-0.00098326366243985,0.00098326411782014,-0.00098326455813435,0.00098326322267843,-0.00098326335287125,0.00098326443124536,-0.00098326416561563,0.00098326360693218,-0.00096685371336228,0.00096685389001764,-0.00096685489310915,0.00096685280442675,0.7689622202304,125803,2834,0.0063070820696843,0.0063070820731498,0.0035551917475933,23.222701226632,-5.1818390186943e-05,-5.1818390186943e-05,-5.1818390186943e-05,3316764.2361195,0.016301601290586
28819200,0.99500775765971,0.016281300931988,0.0061269232844971,0.0061269232766246,0.0040274543708667,-0.0015205121214032,0.0015205120686219,3.3132888877694e-10,-3.8196147345682e-10,-7.4501948016628e-10,6.9259141280775e-10,-0.0016085551106794,0.0016085548857134,-0.0016085553299787,0.0016085546622093,-0.0016085547422637,0.0016085552595513,-0.0016085549123131,0.0016085550884464,-0.0013527067860781,0.0013527078302764,-0.0013527074167638,0.0013527072209536,8.6328787720676e-10,-1.2508230983299e-09,-1.6042315013024e-09,1.2358325497374e-09,-0.0015205122772582,0.0015205119086199,-0.0016085552611557,0.0016085547390333,-0.0016085543517043,0.0016085556831522,-0.001608556045849,0.0016085539379982,-0.0016085550764776,0.0016085549238438,-0.0013527092562102,0.0013527053149938,-0.0013527064609501,0.0013527082202801,-0.0015159973428453,0.0015159999804692,-0.0015159994313154,0.001515997953299,-5.0856612948604e-10,3.9928015614766e-10,-0.00085498846116747,0.00085498834935427,1.2646676819009e-09,-1.4171451517031e-09,-0.00098472497010605,0.00098472548158234,-0.00098472589355217,0.00098472455225835,-0.00098472469012588,0.00098472575837991,-0.00098472553869827,0.00098472490760159,-0.0009681828900787,0.00096818291909818,-0.00096818396007293,0.00096818194150653,0.74978588114779,125803,2834,0.0063140409215868,0.0063140409130132,0.0035602839919867,23.909622393355,-4.6323020853159e-05,-4.6323020853159e-05,-4.6323020853159e-05,3315212.4045878,0.016320922815765
29019200,0.99516983023769,0.016283958021271,0.0061279282613221,0.0061279282534704,0.0040281015064784,-0.001520139764245,0.0015201397146885,1.1863041868685e-10,-1.7223735997276e-10,-7.398240969405e-10,7.0120876549472e-10,-0.00160817851116,0.0016081781506039,-0.0016081786009438,0.001608178069996,-0.0016081781490037,0.0016081785221329,-0.00160817817395,0.0016081784982552,-0.0013523468615921,0.0013523474546814,-0.0013523470680743,0.0013523472972527,8.5979461615878e-10,-1.2479362647394e-09,-1.672957273935e-09,1.3024904937212e-09,-0.0015201399260736,0.0015201395572143,-0.0016081786076767,0.0016081780439278,-0.00160817766715,0.0016081790385207,-0.001608179401308,0.0016081772451328,-0.0016081783774685,0.0016081782779814,-0.0013523491788294,0.0013523450781791,-0.0013523462330608,0.0013523481444798,-0.0015156186046657,0.0015156212674809,-0.0015156206509269,0.001515619264641,-7.1956906226909e-10,6.3005545653241e-10,-0.00085440863091821,0.00085440853924111,1.1351153465311e-09,-1.2607691386734e-09,-0.00098427175819863,0.00098427205152387,-0.0009842725959101,0.00098427121547424,-0.00098427134202257,0.00098427247301513,-0.00098427208398273,0.00098427171786158,-0.00096761831126623,0.00096761890938387,-0.00096761983483189,0.00096761747477675,0.71130445011413,125803,2834,0.0063124961121584,0.0063124961211981,0.0035578843147244,23.568071207756,-4.9055430337953e-05,-4.9055430337953e-05,-4.9055430337953e-05,3305711.4968873,0.016315344665074
29219200,0.99533047678748,0.016286528878509,0.0061289022253997,0.0061289022175322,0.0040287244355773,-0.0015211596193722,0.0015211595646336,1.6353507329224e-10,-2.1358091254385e-10,-7.4574962615494e-10,6.8547175548487e-10,-0.0016092101887178,0.0016092098694844,-0.0016092103137042,0.0016092097494356,-0.0016092098299155,0.0016092102344174,-0.0016092098943967,0.0016092101719918,-0.0013533222900883,0.0013533229842511,-0.0013533225743129,0.0013533227348272,8.6511585253984e-10,-1.2534228986851e-09,-1.6581322503654e-09,1.2898140863849e-09,-0.0015211597727175,0.0015211594036633,-0.0016092103072546,0.0016092097612181,-0.0016092093772835,0.001609210740631,-0.0016092111031619,0.0016092089542352,-0.0016092100960651,0.0016092099746488,-0.0013533246531919,0.0013533205851357,-0.0013533217436857,0.0013533236308932,-0.0015166457339974,0.0015166484021047,-0.0015166478284509,0.0015166464162887,-6.8355328884185e-10,5.9032637490505e-10,-0.00085516429357274,0.00085516419574222,1.1602406798664e-09,-1.2982098072148e-09,-0.00098510432126222,0.00098510465788125,-0.00098510518025946,0.00098510380226836,-0.0009851039310751,0.00098510505327173,-0.00098510469518185,0.0009851042748003,-0.00096846381897634,0.00096846432594256,-0.00096846527974789,0.0009684629804352,0.69517196971213,125803,2834,0.006316715782475,0.0063167157667184,0.0035610294022111,23.9739330989,-4.5808535208803e-05,-4.5808535208803e-05,-4.5808535208803e-05,3311458.5222037,0.016327118117406
29419200,0.99549028740728,0.01628891229609,0.006129811098842,0.0061298110910154,0.0040292901062324,-0.0015223068700247,0.0015223068154301,2.0791612971672e-10,-2.6213266149771e-10,-7.3559590775583e-10,6.8373027933283e-10,-0.0016103894139654,0.0016103891204479,-0.0016103895589001,0.0016103889708306,-0.0016103890574502,0.0016103894812996,-0.0016103891446942,0.0016103893936711,-0.0013544034473926,0.0013544042212947,-0.0013544038151584,0.0013544038790581,8.7102823556766e-10,-1.259955310769e-09,-1.6492593438651e-09,1.2791412985673e-09,-0.0015223070264735,0.0015223066564071,-0.0016103895378651,0.0016103889983648,-0.0016103886044142,0.0016103899654736,-0.0016103903335173,0.0016103881843209,-0.0016103893320069,0.001610389203046,-0.0013544058336354,0.0013544017818143,-0.001354402931411,0.0013544047964903,-0.0015177896769485,0.0015177923407212,-0.0015177917509625,0.0015177902968242,-6.5151841956002e-10,5.4535736776559e-10,-0.00085606511612654,0.00085606500937978,1.1900682057295e-09,-1.3370184311435e-09,-0.00098606031394975,0.00098606068717523,-0.00098606119197355,0.00098605980660805,-0.00098605994299217,0.00098606105810011,-0.00098606073272382,0.00098606026189939,-0.00096945150138824,0.00096945189718953,-0.00096945287156909,0.00096945060596926,0.65090115953103,125803,2834,0.0063214634507112,0.0063214634454069,0.0035647757196718,24.456615848087,-4.1947073215307e-05,-4.1947073215307e-05,-4.1947073215307e-05,3320951.6820819,0.016340576085197
29619200,0.99564962938885,0.016291253292014,0.0061307048094135,0.0061307048015964,0.0040298436810042,-0.0015235083979209,0.0015235083441065,2.3692349897327e-10,-2.9060950031454e-10,-7.3691533015427e-10,6.8657147241868e-10,-0.0016116554012468,0.001611655126852,-0.0016116555678864,0.0016116549586361,-0.0016116550414424,0.0016116554908694,-0.0016116551527343,0.0016116553813552,-0.0013554924219081,0.0013554932586833,-0.0013554928606558,0.001355492856805,8.69523072667e-10,-1.2585224695787e-09,-1.6520441764859e-09,1.2818404039203e-09,-0.0015235085551611,0.0015235081852441,-0.0016116555361289,0.0016116549930556,-0.0016116546024724,0.0016116559650878,-0.0016116563297232,0.0016116541826095,-0.0016116553283169,0.0016116552009376,-0.0013554948401302,0.0013554907870122,-0.0013554919447962,0.0013554938075002,-0.0015189861400111,0.0015189888144522,-0.0015189882291201,0.0015189867900254,-6.2910872824354e-10,5.2553563107074e-10,-0.00085709955295524,0.00085709944751571,1.2166602500796e-09,-1.3611330798344e-09,-0.00098705851602962,0.00098705892189144,-0.00098705941119006,0.00098705802570505,-0.0009870581609891,0.00098705927835457,-0.00098705896832049,0.00098705846196951,-0.00097058514844399,0.00097058548090177,-0.00097058647425937,0.00097058424355852,0.64191649782484,125803,2834,0.0063264376939893,0.0063264376906585,0.0035690721622414,24.997306104196,-3.7621551166433e-05,-3.7621551166433e-05,-3.7621551166433e-05,3338066.2285203,0.016355053080276
29819200,0.99580918872072,0.016293739342074,0.0061316484715186,0.0061316484637077,0.0040304424068476,-0.0015248980708574,0.0015248980180021,2.4177506934936e-10,-2.9421749373988e-10,-7.3782348994002e-10,6.8713458386307e-10,-0.0016131127076323,0.0016131124401887,-0.001613112886996,0.001613112275595,-0.0016131123501455,0.0016131128078748,-0.0016131124702066,0.0016131126895878,-0.0013567629830873,0.0013567638261365,-0.001356763429213,0.001356763421721,8.6936068703953e-10,-1.2591640005794e-09,-1.6696225168842e-09,1.2988775066102e-09,-0.0015248982292833,0.0015248978591348,-0.0016131128499629,0.0016131122965009,-0.0016131119166041,0.0016131132936996,-0.0016131136509333,0.0016131114935198,-0.0016131126365168,0.0016131125152685,-0.0013567654275197,0.0013567613375471,-0.0013567624985926,0.0013567643954626,-0.0015203789607347,0.0015203816500165,-0.0015203810495603,0.0015203796278665,-6.290082513297e-10,5.3318931502066e-10,-0.0008583226172337,0.00085832251742247,1.2370312038363e-09,-1.3744722349987e-09,-0.00098823364886939,0.00098823407066216,-0.00098823455932729,0.00098823316908672,-0.00098823329831585,0.00098823443324835,-0.00098823411285104,0.00098823359669427,-0.00097191942452669,0.00097191976044819,-0.00097192076847373,0.00097191852391219,0.67837952002431,125803,2834,0.0063321910576827,0.0063321910568031,0.0035741515753006,25.634047943589,-3.2527616451285e-05,-3.2527616451285e-05,-3.2527616451285e-05,3356477.2840723,0.016371909785549
30019200,0.99596543903049,0.016296212225896,0.0061325860254048,0.0061325860176007,0.0040310401828904,-0.0015256466437324,0.0015256465993333,2.3086895746477e-10,-2.7971348153338e-10,-7.4797651712495e-10,7.1754415610681e-10,-0.0016139022062662,0.0016139019167176,-0.0016139023789983,0.0016139017636612,-0.0016139018313834,0.001613902306472,-0.0016139019426903,0.0016139021949992,-0.0013574419771644,0.0013574428187663,-0.0013574424313114,0.0013574424079964,8.5066192003873e-10,-1.2372745500462e-09,-1.6707462714739e-09,1.3014680487724e-09,-0.0015256468097832,0.0015256464427593,-0.0016139023379727,0.0016139017675514,-0.0016139014056214,0.0016139027696038,-0.0016139031233746,0.0016139009883822,-0.0016139021058126,0.0016139020082304,-0.0013574444142536,0.0013574403372797,-0.0013574414846657,0.0013574433643558,-0.0015211305146862,0.0015211331666653,-0.001521132551561,0.0015211311787569,-6.4500785024808e-10,5.5714267287966e-10,-0.00085890261072528,0.00085890251830195,1.2268028409565e-09,-1.3509719736894e-09,-0.0009888293385907,0.00098882973887057,-0.00098883023437186,0.00098882884557177,-0.00098882897178469,0.0009888301125989,-0.00098882977888201,0.00098882929037798,-0.00097257205028753,0.00097257240225333,-0.00097257340720751,0.0009725711564384,0.68873328602954,125803,2834,0.0063352891356351,0.0063352891552512,0.0035765633567566,25.914079914489,-3.0287360684085e-05,-3.0287360684085e-05,-3.0287360684085e-05,3362599.8009921,0.016380658715201
30219200,0.99611655062033,0.016298497357347,0.0061334560396848,0.0061334560318493,0.004031585285813,-0.0015259998418328,0.0015259997952716,2.2695916514153e-10,-2.769567271621e-10,-7.5208334719352e-10,7.16820652327e-10,-0.0016142866669133,0.0016142863734941,-0.0016142868313685,0.0016142862181805,-0.0016142862911711,0.0016142867589413,-0.0016142863981215,0.0016142866530146,-0.0013577414743892,0.0013577423093859,-0.001357741910176,0.0013577419147229,8.4923361520188e-10,-1.235390153211e-09,-1.6515296365978e-09,1.2830065411264e-09,-0.0015260000050287,0.0015259996381843,-0.0016142867927381,0.0016142862360087,-0.0016142858656013,0.0016142872169942,-0.0016142875742956,0.0016142854495257,-0.0016142865714923,0.0016142864617366,-0.0013577438847546,0.0013577398484931,-0.00135774099053,0.0013577428490177,-0.0015214845432492,0.0015214871788716,-0.0015214865782587,0.0015214851877524,-6.5916928590323e-10,5.6509351304578e-10,-0.00085911400709192,0.00085911391017493,1.199059513452e-09,-1.3300403899704e-09,-0.00098906385859226,0.00098906423205919,-0.00098906473750586,0.00098906335360578,-0.00098906348213822,0.00098906461261573,-0.00098906427380682,0.0009890638091457,-0.0009728371681667,0.0009728375700533,-0.00097283855033966,0.00097283628317661,0.66008543786119,125803,2834,0.0063367502629964,0.0063367502756477,0.0035774446200113,25.990722167468,-2.9674222660259e-05,-2.9674222660259e-05,-2.9674222660259e-05,3363770.144635,0.016384524701835
30419200,0.99626030368836,0.016300548870395,0.0061342412029313,0.0061342411950767,0.0040320664723867,-0.0015257480839148,0.0015257480339172,2.2736678527725e-10,-2.7941155781576e-10,-7.4875123716367e-10,7.0650783108249e-10,-0.0016140877590066,0.00161408746969,-0.0016140879209686,0.0016140873110306,-0.0016140873887794,0.0016140878464564,-0.0016140874950914,0.0016140877418504,-0.0013574132578051,0.0013574140888196,-0.0013574136837794,0.0013574136965192,8.5542425843492e-10,-1.2423583791076e-09,-1.6147074057923e-09,1.2459495004804e-09,-0.0015257482438742,0.0015257478761052,-0.0016140878753034,0.0016140873482043,-0.0016140869683581,0.0016140882997968,-0.0016140886602944,0.0016140865513113,-0.0016140876829193,0.0016140875421746,-0.0013574156304058,0.0013574116627037,-0.0013574128040407,0.0013574145964106,-0.0015212264585884,0.0015212290792466,-0.0015212285057501,0.0015212270690824,-6.6683311074113e-10,5.7007612253636e-10,-0.00085884771465476,0.0008588476162427,1.1595259473463e-09,-1.2941922456857e-09,-0.0009887323006392,0.00098873264418398,-0.00098873315461083,0.00098873179076647,-0.00098873191911129,0.00098873302943358,-0.00098873268508524,0.0009887322522022,-0.0009726028824255,0.0009726033304127,-0.00097260428112415,0.00097260201985209,0.62526766018324,125803,2834,0.0063357088523099,0.006335708856776,0.0035763369983436,25.787097920385,-3.1303216636918e-05,-3.1303216636918e-05,-3.1303216636918e-05,3366592.2927141,0.016381281358856
30619200,0.99639608718954,0.016302612997358,0.0061350259596781,0.0061350259518192,0.0040325610858604,-0.0015251887017357,0.0015251886521124,2.2582540371834e-10,-2.7820771112187e-10,-7.4688042896263e-10,7.0640702486794e-10,-0.0016136016356792,0.0016136013496339,-0.001613601802282,0.0016136011929433,-0.0016136012693721,0.0016136017263204,-0.001613601376812,0.0016136016183593,-0.0013567518352969,0.0013567526698585,-0.0013567522634152,0.0013567522656744,8.5629737323245e-10,-1.2434973541353e-09,-1.5759473880125e-09,1.2066650021095e-09,-0.001525188862558,0.0015251884945524,-0.0016136017373598,0.0016136012394982,-0.0016136008621051,0.0016136021685264,-0.0016136025278702,0.0016136004440918,-0.0016136015756822,0.0016136014040799,-0.0013567541710256,0.0013567502827691,-0.0013567514182555,0.0013567531245044,-0.0015206656931409,0.0015206682917672,-0.0015206677396502,0.0015206662635174,-6.7490801630245e-10,5.7994985172424e-10,-0.00085838842189991,0.00085838832637,1.1176946880162e-09,-1.2491011382699e-09,-0.00098811091587927,0.00098811123198294,-0.00098811174504564,0.00098811040901964,-0.00098811053406637,0.00098811162406639,-0.00098811126985904,0.0009881108706977,-0.00097217207043799,0.00097217255694217,-0.00097217348350004,0.00097217124037295,0.66318500465289,125803,2834,0.0063333959377912,0.0063333959445667,0.0035744226861832,25.454244700931,-3.3966042392556e-05,-3.3966042392556e-05,-3.3966042392556e-05,3373483.5330669,0.016374632523396
30819200,0.99653185930041,0.016304773628443,0.0061358437922354,0.0061358437843678,0.0040330860518397,-0.0015265815323397,0.0015265814741536,2.6670145263016e-10,-3.1929461494516e-10,-7.2492727055773e-10,6.6016577268292e-10,-0.0016150256317413,0.0016150253909464,-0.0016150258234074,0.0016150252020381,-0.001615025284232,0.0016150257436371,-0.0016150254204384,0.0016150256098145,-0.0013580656661775,0.0013580665506769,-0.0013580661644874,0.0013580660965962,8.9062540447583e-10,-1.2824491694604e-09,-1.577344825875e-09,1.2057304976359e-09,-0.0015265816855386,0.0015265813130769,-0.001615025757726,0.0016150252773245,-0.0016150248782602,0.0016150262023442,-0.0016150265670628,0.0016150244547124,-0.0016150256165608,0.0016150254192399,-0.0013580680529068,0.0013580641287794,-0.0013580653178347,0.001358067015881,-0.0015220778548054,0.0015220805305757,-0.0015220800239855,0.0015220785071997,-6.402114474995e-10,5.4852377662221e-10,-0.00085960328119802,0.00085960318415123,1.1597064982037e-09,-1.2966455258058e-09,-0.00098933048155327,0.00098933084323587,-0.00098933133671028,0.00098932998957762,-0.0009893301162735,0.00098933121105519,-0.00098933088241862,0.00098933043262431,-0.00097349253987273,0.00097349296468462,-0.00097349391431041,0.00097349171023446,0.69236589573672,125803,2834,0.0063391613310593,0.0063391613147756,0.0035794710542267,26.086489794372,-2.8908081645022e-05,-2.8908081645022e-05,-2.8908081645022e-05,3383132.8291865,0.016391483204097
31019200,0.99667197680097,0.016307070953885,0.0061367114462023,0.0061367114383733,0.0040336480693097,-0.0015291677448059,0.0015291676703967,2.9248494731504e-10,-3.6127900611553e-10,-6.8677700419865e-10,6.038878414645e-10,-0.0016176222116991,0.0016176220055755,-0.0016176223907148,0.0016176217800067,-0.0016176218962004,0.0016176223051217,-0.0016176220382651,0.0016176221649737,-0.0013605939297259,0.0013605948469962,-0.001360594451211,0.0013605943237867,9.376260304625e-10,-1.3363648962537e-09,-1.6213616598687e-09,1.2431774815092e-09,-0.0015291678896858,0.0015291675089325,-0.0016176223600745,0.001617621883553,-0.0016176214159315,0.001617622799403,-0.001617623189223,0.0016176209912747,-0.0016176222201776,0.0016176220045766,-0.0013605963617643,0.0013605923378619,-0.0013605935289025,0.0013605953015772,-0.0015246868768777,0.001524689666623,-0.0015246891251469,0.0015246874636155,-6.4154343973757e-10,4.9680468851661e-10,-0.00086181140483887,0.00086181126708159,1.2085331470372e-09,-1.3990587662877e-09,-0.00099167349855514,0.00099167389093242,-0.00099167439878018,0.00099167298150198,-0.00099167313664751,0.00099167424267739,-0.00099167395876992,0.00099167342489101,-0.00097584472712867,0.00097584503635448,-0.00097584603466355,0.00097584376891379,0.7121609195706,125803,2834,0.0063498643283316,0.0063498642940697,0.003588651566065,27.295514047643,-1.9235887618852e-05,-1.9235887618852e-05,-1.9235887618852e-05,3394017.7869536,0.016422572765489
31219200,0.9968168535934,0.016309563972479,0.0061376499541504,0.0061376499463637,0.0040342640719654,-0.0015319911233763,0.0015319910524337,3.2590396632813e-10,-3.9571190750815e-10,-6.4000175473865e-10,5.693358431808e-10,-0.0016204439735671,0.0016204438090708,-0.0016204441970734,0.0016204435868988,-0.0016204436836268,0.0016204441064316,-0.0016204438528798,0.0016204439339944,-0.0013633747756551,0.0013633757120774,-0.0013633753854838,0.0013633751175851,9.7666487949952e-10,-1.3836667411879e-09,-1.6704397059432e-09,1.2836925729223e-09,-0.0015319912793898,0.001531990892333,-0.0016204441408012,0.0016204436442837,-0.0016204431968687,0.0016204446318865,-0.0016204450110995,0.001620442762056,-0.001620443998996,0.0016204437854744,-0.0013633773015442,0.0013633731363849,-0.0013633743706995,0.001363376163851,-0.0015275319358593,0.0015275348164879,-0.0015275342247934,0.0015275325177199,-5.9949559420777e-10,4.8785620321022e-10,-0.00086417249092973,0.00086417237836714,1.300285313917e-09,-1.4548610372908e-09,-0.00099423427363342,0.00099423474324013,-0.00099423522217782,0.0009942337938505,-0.00099423393254721,0.00099423508629244,-0.00099423479824276,0.00099423421081302,-0.00097835872236045,0.00097835891945483,-0.00097835998257096,0.00097835774496552,0.74546453486183,125803,2834,0.0063615476691347,0.0063615476607106,0.0035984710041975,28.601410024662,-8.7887198027063e-06,-8.7887198027063e-06,-8.7887198027063e-06,3402701.049008,0.016456306323173
31419200,0.99696038291908,0.016311916824786,0.0061385401362316,0.0061385401284553,0.0040348365600994,-0.0015335115118743,0.0015335114593506,2.1784309439594e-10,-2.7240250723157e-10,-7.4054025500354e-10,6.9535125861401e-10,-0.001621946294591,0.0016219460013794,-0.0016219464457325,0.0016219458473444,-0.0016219459313339,0.001621946369728,-0.0016219460258241,0.0016219462753452,-0.0013648999195838,0.0013649007240023,-0.0013649003225484,0.0013649003556333,8.7153079015613e-10,-1.2604592908692e-09,-1.734218388217e-09,1.3635065039005e-09,-0.0015335116706535,0.0015335113005256,-0.0016219464450152,0.001621945847661,-0.0016219454556325,0.0016219468740663,-0.0016219472402982,0.0016219450358476,-0.0016219461826493,0.0016219461102883,-0.0013649023969847,0.0013648981831877,-0.0013648993375148,0.0013649013592149,-0.0015290617723472,0.0015290645034146,-0.0015290638534463,0.0015290624581257,-7.222088244154e-10,6.1262244001086e-10,-0.00086528698497937,0.00086528687541958,1.2490035921781e-09,-1.3978952000314e-09,-0.00099558043070686,0.00099558079427204,-0.00099558134893296,0.00099557987505006,-0.00099558001462471,0.00099558121228326,-0.00099558084427577,0.00099558037411555,-0.00097956358430625,0.00097956406160283,-0.00097956507979689,0.00097956264408775,0.71243067124911,125803,2834,0.0063678362539445,0.0063678362538835,0.0036031144967969,29.221248665248,-3.8300106780166e-06,-3.8300106780166e-06,-3.8300106780166e-06,3397926.4308298,0.016473812785448
31619200,0.9970958406034,0.016314032149091,0.0061393440686301,0.0061393440608473,0.0040353440196135,-0.001533335990106,0.0015333359310388,2.836556713963e-10,-3.4707095439705e-10,-6.8426431301847e-10,6.3656086903182e-10,-0.0016217795445165,0.001621779330127,-0.0016217797486737,0.0016217791303315,-0.0016217792168141,0.0016217796649651,-0.0016217793647829,0.0016217795180054,-0.0013647124848159,0.0013647133720137,-0.0013647130378051,0.001364712871089,9.2049265705177e-10,-1.3182565746626e-09,-1.6593005198486e-09,1.2797076883821e-09,-0.0015333361519698,0.0015333357738235,-0.0016217796918998,0.0016217791731082,-0.0016217787594692,0.0016217801519542,-0.0016217805221374,0.0016217783326504,-0.0016217795178249,0.0016217793486386,-0.001364714950806,0.0013647108431383,-0.0013647120526797,0.0013647138649429,-0.0015288836586233,0.0015288864364219,-0.0015288858435164,0.001528884297493,-6.5430972571062e-10,5.5431322887606e-10,-0.00086495382106111,0.00086495371936769,1.2412038767684e-09,-1.3782695504363e-09,-0.00099533136146102,0.0009953317638443,-0.00099533226949781,0.00099533085462469,-0.00099533098806225,0.00099533213924697,-0.00099533180932877,0.00099533130763895,-0.00097926147037367,0.00097926183611357,-0.00097926284161132,0.00097926054973353,0.68058194684285,125803,2834,0.0063671072187319,0.0063671072283783,0.0036017376335974,29.011774627289,-5.5058029816869e-06,-5.5058029816869e-06,-5.5058029816869e-06,3390046.2236705,0.016470931928934
31819200,0.9972225048621,0.01631594092203,0.0061400715944708,0.0061400715866694,0.0040357977408899,-0.0015327531035665,0.0015327530466119,2.7970327355111e-10,-3.3811860282642e-10,-7.1469013929506e-10,6.6390811288641e-10,-0.0016212240218256,0.0016212237858709,-0.0016212242151841,0.0016212235894865,-0.0016212236759849,0.0016212241358659,-0.0016212238158884,0.001621223996876,-0.0013640909337551,0.0013640918445108,-0.0013640914654657,0.0013640913456203,8.9059106740716e-10,-1.2830395916188e-09,-1.6068608870178e-09,1.2330438257141e-09,-0.0015327532617813,0.0015327528884944,-0.0016212241539231,0.0016212236520888,-0.0016212232481777,0.0016212245929486,-0.0016212249612532,0.0016212228269288,-0.0016212239907719,0.0016212238138998,-0.0013640933473377,0.0013640893727628,-0.0013640905430288,0.0013640922901397,-0.0015282985318115,0.0015283012165374,-0.0015283006573138,0.0015282991290019,-6.7070544753098e-10,5.6805159700187e-10,-0.00086433826397853,0.00086433816081957,1.1763438431262e-09,-1.317696925246e-09,-0.00099469381558512,0.00099469416563217,-0.00099469468125773,0.0009946932981824,-0.00099469343017904,0.00099469455196253,-0.00099469421053032,0.00099469376337764,-0.00097866452115755,0.00097866495551857,-0.00097866591924485,0.00097866363870428,0.65806101368501,125803,2834,0.0063646940609037,0.0063646940611318,0.0035991820682929,28.630096831038,-8.5592253516924e-06,-8.5592253516924e-06,-8.5592253516924e-06,3386141.5195311,0.016463428134587
32019200,0.99734316933047,0.01631793578346,0.006140825211438,0.0061408252036345,0.004036285368388,-0.0015327448031371,0.0015327447470299,2.7342313716967e-10,-3.295048538529e-10,-7.2339215204278e-10,6.7110942347955e-10,-0.0016212521806132,0.0016212519370359,-0.0016212523707709,0.0016212517450121,-0.0016212518307066,0.0016212522923176,-0.0016212519655063,0.0016212521573893,-0.0013640211290649,0.0013640220339904,-0.0013640216452724,0.0013640215486793,8.8193820815783e-10,-1.2726437839346e-09,-1.5784487801593e-09,1.2065311449855e-09,-0.0015327449602259,0.0015327445885366,-0.0016212523029511,0.0016212518154987,-0.0016212514171024,0.0016212527381005,-0.0016212531054554,0.0016212509969727,-0.0016212521524441,0.0016212519648626,-0.0013640235120679,0.0013640195986499,-0.0013640207620592,0.001364022463332,-0.0015282985599775,0.0015283012098212,-0.0015283006735649,0.0015282991487365,-6.8482571350283e-10,5.8523694750121e-10,-0.00086429725268925,0.00086429715223507,1.1418142973515e-09,-1.2809382405487e-09,-0.00099459000943153,0.00099459032897301,-0.00099459085225759,0.00099458948490797,-0.00099458961458387,0.00099459072516617,-0.00099459037102737,0.00099458996032444,-0.00097867030306399,0.00097867079748363,-0.00097867173596546,0.00097866945303301,0.7176673062866,125803,2834,0.0063646603828723,0.0063646603799879,0.00359901053895,28.559461774008,-9.1243058079381e-06,-9.1243058079381e-06,-9.1243058079381e-06,3389819.219466,0.016463184473093
32219200,0.99745948421776,0.016319903120508,0.0061415671563006,0.0061415671485012,0.0040367688157057,-0.0015332223410777,0.0015332222848549,2.6726691459098e-10,-3.2366591822837e-10,-7.2288667148487e-10,6.7087334710328e-10,-0.001621721101885,0.00162172085452,-0.0016217212875291,0.0016217206658154,-0.0016217207521307,0.0016217212088669,-0.0016217208827589,0.0016217210786317,-0.0013644974756517,0.0013644983670825,-0.0013644979791839,0.0013644978950429,8.8208826704423e-10,-1.2728892056354e-09,-1.5700339618425e-09,1.198005798532e-09,-0.0015332224982277,0.0015332221264343,-0.0016217212194212,0.0016217207378002,-0.0016217203382821,0.0016217216536308,-0.0016217220216046,0.0016217199180877,-0.0016217210743286,0.0016217208812649,-0.0013644998433417,0.0013644959456111,-0.0013644971092111,0.001364498794879,-0.0015287901553662,0.0015287927991399,-0.0015287922676659,0.0015287907373942,-6.9868954938904e-10,5.9973959177891e-10,-0.00086457967593614,0.00086457957635694,1.1248458014811e-09,-1.2629189790855e-09,-0.00099496617966817,0.00099496647896489,-0.00099496701071423,0.00099496564615311,-0.00099496577510279,0.00099496688428088,-0.0009949665198221,0.00099496613173738,-0.00097899974111556,0.00097900027679331,-0.00097900120185406,0.00097899890233671,0.73341164271915,125803,2834,0.0063666347560347,0.0063666347534285,0.0036001905579878,28.693949989263,-8.0484000858924e-06,-8.0484000858924e-06,-8.0484000858924e-06,3384740.3131082,0.016468398503541
32419200,0.99757247608265,0.016321863320202,0.0061423050617636,0.006142305053967,0.0040372532044714,-0.0015339970161978,0.0015339969628474,2.8934352328339e-10,-3.4250864112553e-10,-7.3816385783613e-10,6.8832109191018e-10,-0.0016224764045104,0.0016224761633774,-0.0016224766058789,0.001622475961726,-0.0016224760441924,0.0016224765304499,-0.0016224761896073,0.0016224763841988,-0.0013652817487425,0.0013652827005773,-0.0013652822962274,0.0013652821789081,8.6768876611557e-10,-1.2558311556059e-09,-1.5619916895627e-09,1.1925968231107e-09,-0.0015339971730542,0.001533996803756,-0.0016224765270888,0.0016224760417907,-0.001622475652649,0.0016224769550363,-0.001622477319882,0.0016224752351429,-0.0016224763771903,0.0016224761914892,-0.0013652841328141,0.0013652802650056,-0.0013652814125064,0.001365283092274,-0.0015295793369151,0.0015295819481177,-0.0015295814195645,0.0015295799102701,-6.8613719742245e-10,5.8719779595158e-10,-0.00086509647635715,0.0008650963764703,1.1319354190562e-09,-1.2704836139828e-09,-0.00099562269530089,0.00099562300787915,-0.00099562353146739,0.0009956221707349,-0.00099562229982211,0.00099562340531307,-0.00099562305013987,0.00099562264670118,-0.00097957487928845,0.00097957537843306,-0.00097957631170428,0.00097957403582013,0.75109666362396,125803,2834,0.0063698381926672,0.0063698381880662,0.0036023465369669,28.971420951897,-5.828632384827e-06,-5.828632384827e-06,-5.828632384827e-06,3379407.1753688,0.016477103599141
32619200,0.99768510503653,0.016323666837169,0.0061429888725811,0.00614298886479,0.0040376890997977,-0.0015357059328907,0.0015357058782629,2.4418504243222e-10,-2.9766510653532e-10,-7.2881839121608e-10,6.7574569331527e-10,-0.0016241554052283,0.0016241551453353,-0.0016241555852856,0.0016241549766092,-0.0016241550553985,0.0016241555043636,-0.0016241551752696,0.0016241553861016,-0.0013670000899686,0.0013670009306605,-0.0013670005419471,0.0013670005198091,8.7938844958062e-10,-1.2703068534708e-09,-1.6213029228414e-09,1.2496880261313e-09,-0.0015357060908573,0.0015357057194973,-0.0016241555329114,0.001624155018321,-0.0016241546295501,0.001624155979248,-0.0016241563405815,0.0016241542052207,-0.0016241553573392,0.0016241551969171,-0.001367002492164,0.001366998487393,-0.0013669996571718,0.0013670014509423,-0.0015313025722737,0.0015313052449134,-0.0015313046825393,0.001531303211142,-7.3548884594275e-10,6.4544765772299e-10,-0.00086640803058279,0.00086640793721198,1.1403871508432e-09,-1.2712621691516e-09,-0.0009971533284125,0.00099715361638102,-0.00099715417249382,0.00099715278003207,-0.00099715290383495,0.00099715405110804,-0.00099715365102127,0.00099715328385501,-0.00098098223383016,0.00098098285631115,-0.00098098379253699,0.00098098140774112,0.6965411486109,125803,2834,0.006376907291071,0.0063769072894418,0.0036078078515657,29.720478619809,1.6382895847476e-07,1.6382895847476e-07,1.6382895847476e-07,3377590.9766437,0.016497028124882
32819200,0.99778747148416,0.016325175751599,0.006143565515122,0.0061435655073369,0.0040380447291396,-0.0015341885770991,0.0015341885220933,2.7678652236174e-10,-3.3528564254789e-10,-7.2210957187179e-10,6.7633543753429e-10,-0.0016226646088025,0.0016226643686347,-0.0016226648033351,0.0016226641719288,-0.0016226642573589,0.0016226647248086,-0.0016226643968321,0.001622664586273,-0.0013654742834049,0.0013654751928769,-0.0013654748126144,0.0013654747006589,8.7934868726592e-10,-1.2698806756956e-09,-1.5402716232476e-09,1.1677457421728e-09,-0.0015341887359628,0.001534188364391,-0.0016226647179528,0.0016226642554203,-0.0016226638575389,0.0016226651506487,-0.001622665518195,0.0016226634379411,-0.0016226645914298,0.0016226643800493,-0.0013654766243053,0.0013654727866727,-0.0013654739471438,0.0013654755739035,-0.0015297664038262,0.0015297690210442,-0.0015297684986016,0.0015297669551665,-7.116336524882e-10,6.1435879620167e-10,-0.0008649364602613,0.0008649363633027,1.095196533687e-09,-1.2284334991787e-09,-0.00099566602399747,0.00099566629654941,-0.00099566683421442,0.00099566548457123,-0.00099566561147244,0.00099566671037393,-0.00099566633504072,0.00099566597871356,-0.0009794743846359,0.00097947496847322,-0.00097947586600695,0.00097947356098312,0.64446384546981,125803,2834,0.0063706258152688,0.0063706258177099,0.0036016965134447,28.867227787201,-6.662177702395e-06,-6.662177702395e-06,-6.662177702395e-06,3367320.0415263,0.016478045763427
33019200,0.99788362176994,0.016326713198692,0.0061441480170535,0.0061441480092615,0.0040384171723771,-0.0015336443687878,0.001533644313127,2.8708404672061e-10,-3.4224509605901e-10,-7.2697892652811e-10,6.7393762219766e-10,-0.0016221660546951,0.0016221658215771,-0.0016221662576228,0.0016221656202679,-0.0016221657045681,0.0016221661788832,-0.0016221658502773,0.0016221660322757,-0.0013648623214979,0.001364863259205,-0.0013648628641583,0.0013648627435519,8.7899974939632e-10,-1.2692229110522e-09,-1.5162309600075e-09,1.1448912435753e-09,-0.0015336445255139,0.0015336441543521,-0.001622166161937,0.0016221657160653,-0.0016221653203869,0.0016221665986082,-0.0016221669648642,0.0016221649001801,-0.0016221660528931,0.0016221658242209,-0.0013648646600566,0.0013648608724755,-0.0013648620301335,0.0013648636115708,-0.001529224746662,0.0015292273490486,-0.0015292268542471,0.0015292252909593,-7.100900842585e-10,6.1519888556692e-10,-0.00086446812038197,0.00086446802469937,1.0766796789322e-09,-1.2106750136083e-09,-0.0009950673823907,0.00099506764549637,-0.00099506818219797,0.00099506684746284,-0.00099506697204064,0.00099506806042455,-0.00099506768259702,0.00099506733821791,-0.00097903068074081,0.00097903127811598,-0.00097903216910003,0.00097902988298226,0.695243906021,125803,2834,0.0063683750800797,0.0063683750758633,0.0035997462378977,28.558853012813,-9.1291758974991e-06,-9.1291758974991e-06,-9.1291758974991e-06,3372224.4542671,0.0164714860974
33219200,0.99797647567308,0.016328274879996,0.0061447370741899,0.0061447370664029,0.0040388007394037,-0.0015341089457854,0.0015341088744093,2.9825390801843e-10,-3.655356309021e-10,-7.0212753072119e-10,6.2399705767116e-10,-0.001622636468921,0.001622636246789,-0.0016226366423859,0.0016226360249267,-0.0016226361429496,0.0016226365607702,-0.0016226362730862,0.0016226364269811,-0.0013653050640739,0.001365305988951,-0.0013653055670031,0.0013653054681956,9.1639821331068e-10,-1.3113471413727e-09,-1.5232602705876e-09,1.1483090163853e-09,-0.001534109090561,0.001534108713107,-0.0016226365847516,0.0016226361546992,-0.0016226356994689,0.0016226370067123,-0.0016226373997737,0.0016226352803434,-0.0016226364853429,0.001622636234603,-0.0013653074005208,0.0013653035752917,-0.0013653047257857,0.0013653063457108,-0.00152970170274,0.0015297043537244,-0.0015297038480488,0.0015297021417663,-7.2367076602994e-10,5.8639675556987e-10,-0.00086481050539079,0.00086481037703071,1.0772280401838e-09,-1.2572563267769e-09,-0.00099543789772708,0.00099543814001347,-0.00099543870077435,0.00099543731986503,-0.00099543746787493,0.00099543855294561,-0.00099543819829286,0.00099543783737991,-0.00097942238232017,0.00097942296738845,-0.00097942385863776,0.00097942150181596,0.72923013218243,125803,2834,0.0063702971668271,0.0063702971326753,0.0036011714225786,28.726123577658,-7.7910113787388e-06,-7.7910113787388e-06,-7.7910113787388e-06,3372896.9670077,0.016476842303398
33419200,0.99806754872254,0.016329836707893,0.0061453254057997,0.006145325398036,0.0040391859040574,-0.0015351755492505,0.0015351754958978,2.8858593689772e-10,-3.417720339225e-10,-7.4779060527502e-10,6.9787209448655e-10,-0.0016236865336417,0.0016236862852335,-0.0016236867297848,0.0016236860814653,-0.0016236861663331,0.0016236866552392,-0.0016236863093066,0.00162368651316,-0.0013663761566958,0.0013663771084071,-0.0013663766939458,0.0013663765994669,8.6326450886182e-10,-1.2505651129718e-09,-1.5704461763619e-09,1.2017362754582e-09,-0.0015351757054529,0.0015351753367242,-0.0016236866581255,0.0016236861645644,-0.0016236857718884,0.0016236870780995,-0.0016236874447323,0.001623685355374,-0.0016236864970889,0.0016236863223592,-0.001366378545795,0.0013663746624775,-0.001366375806031,0.001366377517932,-0.0015307813003434,0.001530783907093,-0.001530783372197,0.0015307818818105,-7.3029033026727e-10,6.2740698132386e-10,-0.00086562352484925,0.00086562342245063,1.1181074503331e-09,-1.2604679944026e-09,-0.00099638272199224,0.00099638299515512,-0.00099638354942317,0.00099638216538311,-0.00099638229622655,0.00099638342081912,-0.00099638303802683,0.00099638267265515,-0.00098029721612828,0.000980297814301,-0.00098029873465932,0.00098029637455161,0.74278856757336,125803,2834,0.0063747093564453,0.0063747093503292,0.0036045569435577,29.176026885852,-4.1917849131812e-06,-4.1917849131812e-06,-4.1917849131812e-06,3371256.2662743,0.016489254621874
33619200,0.99815578659511,0.016331350375039,0.0061458958154659,0.0061458958077045,0.0040395587518691,-0.0015358739629018,0.0015358738667126,2.322309324456e-10,-3.3386551746115e-10,-6.1822057502109e-10,5.3627191214355e-10,-0.0016243631635084,0.0016243629200875,-0.001624363211277,0.0016243626598211,-0.0016243628738835,0.0016243631265456,-0.0016243629249698,0.0016243630815492,-0.0013670952573044,0.0013670960500732,-0.0013670956895526,0.0013670955506485,1.000081547607e-09,-1.4079534596288e-09,-1.6179752478731e-09,1.2260653243474e-09,-0.0015358741022164,0.0015358737075491,-0.0016243632783831,0.0016243628402336,-0.0016243622237931,0.00162436361239,-0.0016243640897055,0.0016243618122807,-0.0016243631424055,0.0016243629036725,-0.0013670975694623,0.0013670935393325,-0.0013670947434784,0.0013670964374621,-0.0015314881584088,0.0015314910545413,-0.0015314905191939,0.0015314886182762,-8.4420711201465e-10,5.9435200257195e-10,-0.00086607625730634,0.00086607604487418,1.0617487063114e-09,-1.3431514584501e-09,-0.00099698409673798,0.000996984246079,-0.00099698489633765,0.00099698334770792,-0.00099698357535945,0.00099698466319518,-0.00099698436347218,0.00099698399213129,-0.00098079643512282,0.00098079702046679,-0.00098079792745769,0.00098079535348235,0.74303225808803,125803,2834,0.0063775968419693,0.0063775968009408,0.0036064467112486,29.430955067381,-2.1523594609487e-06,-2.1523594609487e-06,-2.1523594609487e-06,3365786.8822609,0.016497047049659
33819200,0.99824164258703,0.016332827843201,0.006146452557809,0.0061464525500382,0.0040399227353539,-0.0015367360774711,0.0015367361004402,4.6197105039564e-10,-4.3655870848995e-10,-1.1611286176707e-09,1.1904334924269e-09,-0.0016252040982948,0.0016252037110616,-0.0016252044126804,0.0016252034482008,-0.0016252034269918,0.0016252044138003,-0.0016252036879168,0.0016252041534034,-0.001367969964148,0.0013679715733445,-0.0013679707972396,0.0013679707887018,4.5005046714951e-10,-7.6412503709471e-10,-1.5480893503774e-09,1.2500043291559e-09,-0.0015367362382199,0.0015367359398671,-0.0016252042752585,0.0016252035299051,-0.001625203412611,0.0016252045081371,-0.0016252047747293,0.0016252030662155,-0.0016252038186134,0.0016252040069119,-0.0013679725167218,0.0013679689950363,-0.0013679697740669,0.0013679718529346,-0.0015323593013191,0.001532361127303,-0.0015323605140678,0.0015323599971218,-5.94478138456e-10,5.274376895524e-10,-0.0008666744392004,0.00086667436350355,1.2268270208465e-09,-1.335794609285e-09,-0.00099773518023904,0.00099773560601055,-0.00099773607307755,0.00099773474311438,-0.00099773484600422,0.00099773597460849,-0.0009977356438518,0.00099773513352743,-0.00098145272120162,0.00098145302176019,-0.00098145401761647,0.00098145187348646,0.74517938824429,125803,2834,0.0063811620969444,0.0063811620973662,0.0036089416421309,29.774629135511,5.9703308409203e-07,5.9703308409203e-07,5.9703308409203e-07,3362054.8430508,0.016506832586289
34019200,0.998325495018,0.01633422794359,0.0061469816170986,0.006146981609333,0.004040264717158,-0.0015377585049159,0.0015377581662153,-3.473528631967e-10,1.0126664931455e-11,1.0288701548407e-09,-1.386640546142e-09,-0.0016262053806169,0.0016262058559949,-0.0016262053351768,0.0016262059828563,-0.0016262063386053,0.001626204914153,-0.0016262061428873,0.0016262051117546,-0.0013690049013372,0.001369003157208,-0.0013690044007043,0.0013690037426046,2.6396202189436e-09,-3.3436667166274e-09,-1.930962093283e-09,1.2666735411252e-09,-0.0015377586702779,0.001537758007381,-0.0016262054100455,0.0016262058120468,-0.0016262044841515,0.0016262069037247,-0.0016262075492278,0.0016262037128797,-0.0016262064140636,0.0016262048163097,-0.0013690070526422,0.0013690010082861,-0.0013690038092443,0.0013690044025009,-0.0015333869279841,0.0015333930615453,-0.0015333926673013,0.0015333873964579,-1.2180718093196e-09,1.185910082761e-09,-0.00086740985531185,0.00086740980690039,1.1056048056516e-09,-1.1795502486397e-09,-0.00099863425757072,0.00099863423873736,-0.00099863510009984,0.00099863342089915,-0.00099863354151111,0.00099863498497092,-0.00099863419463136,0.00099863426191617,-0.00098225451874834,0.00098225631689311,-0.00098225722811172,0.00098225383997873,0.72426717058749,125803,2834,0.0063853897069249,0.0063853897204535,0.0036120069357269,30.203289525253,4.0263162020204e-06,4.0263162020204e-06,4.0263162020204e-06,3359699.059228,0.01651854460391
34219200,0.99840592024503,0.016335534786326,0.0061474766663481,0.006147476658586,0.0040405814613923,-0.0015381532115393,0.0015381529192753,-3.0949830762739e-10,1.3149993747306e-11,7.5807726420112e-10,-1.0545267606372e-09,-0.0016265990636647,0.0016265993823795,-0.0016265989961551,0.00162659945604,-0.0016265997968871,0.0016265986406915,-0.0016265996087674,0.0016265988288646,-0.0013693950225188,0.0013693936529218,-0.0013693945653484,0.0013693941515662,2.3651753694572e-09,-3.0139334201207e-09,-1.901658252675e-09,1.2868558810207e-09,-0.0015381533755222,0.0015381527622623,-0.0016265990962773,0.0016265993364374,-0.0016265981178115,0.0016266003644118,-0.0016266009902212,0.0016265974176541,-0.001626599875643,0.0016265985446414,-0.0013693971619113,0.0013693914683226,-0.0013693939192655,0.0013693948040379,-0.0015337822332559,0.0015337878331815,-0.0015337873734097,0.0015337826604646,-1.2288472282905e-09,1.1419041483474e-09,-0.00086762489845411,0.0008676248088627,1.1052505003945e-09,-1.2276688592006e-09,-0.00099894183050749,0.00099894179749111,-0.00099894267495463,0.00099894094879855,-0.00099894110253623,0.00099894252495066,-0.00099894178891281,0.00099894181284227,-0.00098251481504633,0.00098251649867962,-0.00098251742319974,0.00098251402243664,0.70594538766926,125803,2834,0.0063870211336475,0.006387021148067,0.0036129068563772,30.330052155413,5.0404172433054e-06,5.0404172433054e-06,5.0404172433054e-06,3357942.372056,0.016522776723325
34419200,0.99848391667634,0.016336807492479,0.0061479585264771,0.0061479585187024,0.0040408904472998,-0.001538916580927,0.0015389166128135,6.0430537247392e-10,-5.6865377913503e-10,-1.218561225144e-09,1.2551776125973e-09,-0.0016273719098965,0.0016273715746905,-0.0016273723097433,0.00162737120922,-0.0016273711780905,0.0016273723354724,-0.0016273715429364,0.0016273719680804,-0.0013701289517329,0.0013701309401562,-0.0013701301009309,0.0013701298302443,3.9466181517598e-10,-6.9801996142417e-10,-1.591753270957e-09,1.3033296753863e-09,-0.0015389167409007,0.0015389164524515,-0.0016273721544013,0.0016273713279762,-0.0016273712412262,0.0016273723319535,-0.0016273725908337,0.0016273709193579,-0.0016273716126185,0.0016273718913788,-0.0013701317077373,0.0013701281833742,-0.0013701288857969,0.0013701310864966,-0.0015345514023829,0.0015345531448613,-0.0015345524975847,0.0015345521248929,-4.7379967488079e-10,4.0911185138435e-10,-0.00086821315375012,0.00086821307454168,1.2939348211702e-09,-1.4038936233922e-09,-0.0009995870735814,0.00099958760155794,-0.00099958798849139,0.00099958669039678,-0.00099958679326363,0.00099958788978319,-0.00099958765447698,0.00099958701866209,-0.0009831693556635,0.00098316931448256,-0.00098317036150764,0.000983168454551,0.70868167111206,125803,2834,0.0063901799506484,0.0063901799498213,0.0036153551278892,30.662105377199,7.6968430175922e-06,7.6968430175922e-06,7.6968430175922e-06,3361855.0230658,0.016531687646957
34619200,0.99856416800478,0.016338170976806,0.0061484729554404,0.0061484729476781,0.0040412250736876,-0.0015418246399102,0.0015418244608034,-7.6325859473856e-11,-1.0040246230311e-10,1.8257125492643e-11,-2.0564337167733e-10,-0.0016302804417509,0.0016302804350359,-0.0016302804422001,0.001630280406882,-0.0016302806394832,0.0016302802212338,-0.0016302805530991,0.0016302803102291,-0.0013729869469635,0.0013729865791228,-0.0013729868260386,0.0013729867049386,1.6379313427336e-09,-2.1577098745878e-09,-1.8803134825203e-09,1.3879080482552e-09,-0.001541824793949,0.0015418243008134,-0.0016302805446171,0.001630280340772,-0.00163027950312,0.0016302813842184,-0.0016302818957061,0.0016302789391279,-0.0016302807686709,0.0016302801010151,-0.0013729892852653,0.0013729841808009,-0.0013729860008299,0.0013729875718673,-0.001537477290228,0.0015374815249819,-0.0015374809496426,0.001537477881814,-1.0956910255864e-09,9.7096214703761e-10,-0.00087071197242168,0.00087071184967257,1.2280830446707e-09,-1.3957958073319e-09,-0.0010022326168818,0.0010022327398948,-0.0010022335414902,0.0010022317996177,-0.0010022319676855,0.0010022333748698,-0.001002232773037,0.0010022325690651,-0.00098582747514657,0.00098582872263891,-0.00098582974352054,0.00098582652983429,0.73613944935737,125803,2834,0.0064022136909867,0.0064022136786893,0.00362574363006,32.084422664037,1.9075381312295e-05,1.9075381312295e-05,1.9075381312295e-05,3378015.9990547,0.016566714731921
34819200,0.99864659840923,0.016339583409981,0.0061490058962403,0.0061490058884856,0.0040415716252555,-0.0015449139278125,0.0015449137618881,-8.8366363115323e-11,-7.6915774275893e-11,-5.114687067468e-11,-1.1841921619776e-10,-0.0016333603932602,0.0016333603515528,-0.0016333604051448,0.0016333603277067,-0.0016333605411667,0.0016333601953232,-0.0016333604623971,0.0016333602761336,-0.001376046912282,0.0013760465857424,-0.0013760467765275,0.0013760467464267,1.5665044084244e-09,-2.0752526019667e-09,-1.9444578383015e-09,1.4621975381263e-09,-0.0015449140845865,0.0015449136020171,-0.0016333605178888,0.0016333602295175,-0.0016333594427981,0.0016333613292348,-0.0016333618236581,0.0016333588881134,-0.0016333606516387,0.0016333600862118,-0.00137604930624,0.0013760441349085,-0.001376045887916,0.0013760476625571,-0.0015405800360194,0.0015405841765899,-0.0015405835391682,0.0015405807058557,-1.1132892586904e-09,9.9697453228886e-10,-0.00087329980440016,0.00087329968780962,1.2972366393405e-09,-1.4557534818673e-09,-0.0010050562340443,0.0010050563901957,-0.0010050572060346,0.0010050554121602,-0.001005055577857,0.0010050570422814,-0.001005056421292,0.0010050561868994,-0.00098857593476099,0.00098857717887817,-0.00098857824959217,0.00098857496788569,0.74236296180639,125803,2834,0.006414996022388,0.006414996016009,0.0036365067480407,33.572842462963,3.0982739703707e-05,3.0982739703707e-05,3.0982739703707e-05,3390168.565923,0.016603646951375
35019200,0.99872864137655,0.0163409464628,0.0061495219602045,0.0061495219524523,0.0040419025501427,-0.0015470731451092,0.0015470730868389,2.9964822954051e-10,-3.6941428570597e-10,-6.4076088131256e-10,6.0807298155252e-10,-0.00163551208632,0.0016355119059985,-0.0016355123115568,0.0016355116995866,-0.0016355117882687,0.0016355122217296,-0.0016355119473123,0.0016355120560247,-0.0013781902150469,0.0013781911072288,-0.0013781907557179,0.0013781905805588,9.5892391917956e-10,-1.3623839379685e-09,-1.8782108983867e-09,1.4912066530133e-09,-0.0015470733185733,0.0015470729351621,-0.0016355122994554,0.0016355116569367,-0.0016355112296124,0.0016355127930794,-0.0016355131655631,0.0016355107964785,-0.0016355120095669,0.0016355119533732,-0.0013781929155167,0.0013781883609774,-0.001378189526675,0.0013781917791563,-0.0015427457357038,0.0015427486844477,-0.0015427478691492,0.0015427463226249,-7.8425387862635e-10,6.6212984868175e-10,-0.00087502944508669,0.00087502932923606,1.3665623351389e-09,-1.5181349572728e-09,-0.0010070089955269,0.0010070093925015,-0.0010070099956049,0.0010070084038026,-0.0010070085465845,0.0010070098585404,-0.0010070094458049,0.0010070089346963,-0.00099043277442275,0.000990433270069,-0.00099043438103765,0.00099043170594158,0.72136732909961,125803,2834,0.0064239285860352,0.0064239286311214,0.0036437050966307,34.582517184125,3.9060137473e-05,3.9060137473e-05,3.9060137473e-05,3395509.3451443,0.016629128783253
35219200,0.99880891191286,0.0163422421263,0.0061500139153859,0.0061500139075906,0.0040422143033237,-0.0015487085260905,0.0015487083459124,-2.050303406403e-10,2.127704158922e-11,3.5569223855215e-11,-2.1453629688692e-10,-0.0016371539338249,0.0016371538625051,-0.001637153864073,0.0016371539107174,-0.0016371541491069,0.0016371536341958,-0.0016371539794457,0.0016371538054886,-0.0013797931686505,0.0013797925106197,-0.0013797927807625,0.0013797929244072,1.6454076932185e-09,-2.1684115224973e-09,-1.9690504778318e-09,1.4721165559968e-09,-0.001548708684508,0.0015487081883543,-0.0016371540214254,0.0016371537721573,-0.0016371529320652,0.0016371548714412,-0.0016371553886357,0.0016371523598097,-0.0016371541980823,0.0016371535808914,-0.0013797954542741,0.0013797901501082,-0.0013797919737236,0.0013797937411605,-0.0015443837034059,0.0015443879916607,-0.0015443873344746,0.0015443843306268,-1.2471937536662e-09,1.1175018846139e-09,-0.00087632964775492,0.00087632952270416,1.3113338844386e-09,-1.4796033329675e-09,-0.0010084610460337,0.0010084611275725,-0.0010084620339678,0.0010084601294098,-0.0010084603058945,0.0010084618593107,-0.0010084611573511,0.0010084609998579,-0.00099184768383906,0.00099184919097864,-0.00099185026109154,0.00099184667000405,0.70214462090432,125803,2834,0.0064306936366235,0.0064306936384257,0.0036491162255951,35.344138707814,4.5153109662509e-05,4.5153109662509e-05,4.5153109662509e-05,3401497.1138727,0.016648386172752
35419200,0.99888648769905,0.016343455162308,0.0061504758854058,0.0061504758776068,0.0040425033992959,-0.0015499650947986,0.0015499650921063,6.5839898683348e-10,-6.6382271314237e-10,-1.0469855715448e-09,1.0565520806474e-09,-0.0016384313146165,0.0016384311274339,-0.0016384317376463,0.0016384306894114,-0.0016384307125326,0.0016384317324139,-0.0016384311196017,0.0016384313266585,-0.0013810000405269,0.0013810020069662,-0.0013810013099592,0.0013810007656594,5.592169207187e-10,-8.9334776480856e-10,-1.775409863794e-09,1.4559107806015e-09,-0.0015499652534007,0.0015499649345008,-0.001638431634917,0.0016384308050259,-0.0016384305768259,0.0016384318801829,-0.0016384321830725,0.0016384302293302,-0.0016384311061363,0.0016384313338698,-0.0013810029913394,0.0013809989919468,-0.001380999840862,0.0013810022438368,-0.001545642135767,0.0015456443362065,-0.0015456435803175,0.0015456428904619,-4.7272938769193e-10,3.4574810230928e-10,-0.0008773336271532,0.00087733350285872,1.3613574945163e-09,-1.5281179528947e-09,-0.0010095524603935,0.001009553050009,-0.0010095534435072,0.0010095520664157,-0.0010095522016434,0.0010095533105563,-0.0010095531309999,0.0010095523767827,-0.00099295421984222,0.00099295404617034,-0.00099295514844605,0.00099295317398545,0.68162529557734,125803,2834,0.0064358925824835,0.0064358925845739,0.0036532935365342,35.929446125537,4.9835569004293e-05,4.9835569004293e-05,4.9835569004293e-05,3408634.5704555,0.0166632045798
35619200,0.99896216492614,0.016344593289224,0.0061509108895478,0.0061509108817463,0.0040427715179302,-0.0015516243968897,0.0015516243905972,7.1548961222466e-10,-7.2195814726241e-10,-1.015617653519e-09,1.0158516398415e-09,-0.001640123432519,0.001640123286517,-0.001640123888059,0.0016401228500526,-0.0016401228603232,0.0016401238755348,-0.0016401232934578,0.0016401234430232,-0.0013825848603115,0.0013825868718507,-0.0013825862356411,0.0013825855412735,5.9072908827891e-10,-9.3050044744484e-10,-1.7471285504523e-09,1.4231465475962e-09,-0.001551624556198,0.0015516242327327,-0.0016401237539267,0.0016401229611587,-0.0016401227376871,0.0016401240490772,-0.0016401243407176,0.001640122380573,-0.0016401232775767,0.0016401234479561,-0.0013825878407203,0.0013825838448588,-0.0013825847674017,0.0013825870547106,-0.0015473042659164,0.0015473065157638,-0.0015473057960871,0.0015473050418392,-4.1981226778241e-10,3.1792891972503e-10,-0.00087874246538044,0.00087874235963207,1.358639729544e-09,-1.5031333605962e-09,-0.0010110143146721,0.001011014933052,-0.0010110152894228,0.001011013970179,-0.001011014085013,0.0010110151770392,-0.0010110150031699,0.001011014237895,-0.00099448470565762,0.00099448448656034,-0.00099448557962178,0.00099448371104996,0.65730118631936,125803,2834,0.0064427589320274,0.0064427589350492,0.0036591504005658,36.737427520217,5.6299420161733e-05,5.6299420161733e-05,5.6299420161733e-05,3421644.0602803,0.016683120863993
35819200,0.99903642193823,0.016345780595319,0.0061513620567783,0.0061513620489806,0.0040430564895605,-0.0015536038877367,0.0015536038278115,4.4209027615141e-10,-5.0289925818463e-10,-6.8994731870066e-10,6.3453551355209e-10,-0.0016421521835415,0.0016421520578981,-0.0016421524706375,0.0016421517673496,-0.0016421518518081,0.0016421523936924,-0.0016421520955374,0.0016421521503259,-0.0013844637164753,0.0013844649286839,-0.0013844645730271,0.0013844641095528,9.1669024756571e-10,-1.3118181026085e-09,-1.7762160255405e-09,1.3999061894592e-09,-0.0015536040457607,0.0015536036699502,-0.0016421524198612,0.0016421518186496,-0.0016421514001442,0.0016421528779731,-0.0016421532427777,0.0016421509802944,-0.0016421521657367,0.001642152072844,-0.0013844664503919,0.0013844621326608,-0.0013844633383937,0.001384465382777,-0.0015492890636843,0.0015492919220758,-0.0015492912553883,0.0015492897742679,-6.8242812910131e-10,5.6933041658187e-10,-0.00088048644041352,0.00088048632673141,1.3172715999296e-09,-1.4718262226567e-09,-0.0010127710424184,0.0010127714702227,-0.0010127719992888,0.0010127705080839,-0.001012770643941,0.0010127718656932,-0.0010127715302193,0.0010127709746859,-0.00099636920757758,0.00099636954595485,-0.00099637061123048,0.00099636821835039,0.69619441568624,125803,2834,0.0064509513701883,0.0064509513705486,0.0036663968331603,37.722966550723,6.4183732405785e-05,6.4183732405785e-05,6.4183732405785e-05,3440271.5293864,0.016707146426866
36019200,0.99910634368215,0.016346965830907,0.0061518103388752,0.0061518103310797,0.0040433451609523,-0.0015542438332123,0.001554243769783,3.7578227081546e-10,-4.4581977480602e-10,-6.7173031557054e-10,6.2192909631655e-10,-0.001642816821414,0.0016428166720016,-0.0016428170697409,0.0016428164030175,-0.0016428165028126,0.0016428169849456,-0.0016428167050898,0.0016428167866172,-0.0013850637963395,0.0013850648598649,-0.001385064522546,0.0013850641857066,9.2790435786469e-10,-1.3260174587182e-09,-1.720085751232e-09,1.3394861886605e-09,-0.0015542439932605,0.0015542436143673,-0.0016428170170291,0.0016428164686212,-0.0016428160282034,0.0016428174678578,-0.0016428178458182,0.0016428156036502,-0.0016428168074987,0.0016428166700969,-0.0013850663943934,0.0013850621727426,-0.0013850633821083,0.0013850653309874,-0.0015499307266962,0.0015499335629835,-0.001549932921588,0.0015499313888886,-7.5580096685062e-10,6.3261326621661e-10,-0.0008809618029994,0.00088096168496857,1.2429517734853e-09,-1.4013324497133e-09,-0.0010132986944785,0.0010132990376613,-0.0010132996130625,0.0010132981173124,-0.0010132982612076,0.0010132994710706,-0.0010132990924547,0.001013298631865,-0.00099691459548293,0.0009969151381482,-0.00099691614102543,0.00099691363554609,0.73586529132057,125803,2834,0.0064535982899588,0.0064535982995867,0.0036683766404785,37.993991193801,6.6351929550411e-05,6.6351929550411e-05,6.6351929550411e-05,3442051.3417312,0.016714542077189
36219200,0.99917077050508,0.016348022671213,0.0061522113013722,0.0061522112935664,0.0040436000762744,-0.0015541446741251,0.0015541446167157,3.7915159553196e-10,-4.3960710483412e-10,-6.6902307645131e-10,6.211232147592e-10,-0.0016427098857187,0.0016427097391769,-0.0016427101562206,0.0016427094866869,-0.0016427095703851,0.0016427100698984,-0.0016427097733883,0.0016427098644719,-0.001384975776173,0.0013849768435672,-0.0013849765015183,0.0013849761509926,9.2814218948145e-10,-1.323957327931e-09,-1.6107789131142e-09,1.2334435148605e-09,-0.0015541448358665,0.0015541444596333,-0.0016427100490282,0.0016427095642404,-0.0016427091581724,0.0016427105215242,-0.001642710889592,0.001642708729139,-0.0016427099089659,0.0016427097112149,-0.0013849782963787,0.0013849742787584,-0.0013849754691094,0.0013849771944099,-0.0015498345330593,0.0015498372681415,-0.0015498366926416,0.0015498350886507,-7.4584774452457e-10,6.5985861086062e-10,-0.0008807050832811,0.00088070499373189,1.1961930711651e-09,-1.3195140742269e-09,-0.0010131476709065,0.00101314798281,-0.001013148545337,0.0010131471089571,-0.0010131472335918,0.0010131484251203,-0.0010131480169857,0.0010131476294528,-0.00099668867180779,0.00099668927084469,-0.00099669024029745,0.00099668778956676,0.71361273499979,125803,2834,0.0064531846733197,0.0064531846829735,0.0036673192158946,37.867422224839,6.5339377798715e-05,6.5339377798715e-05,6.5339377798715e-05,3432074.9669222,0.016712626939182
36419200,0.99922762568375,0.016348942673545,0.0061525606993086,0.0061525606915,0.0040438212827368,-0.0015523567011782,0.0015523566341848,3.3334259937711e-10,-4.039712461322e-10,-6.3663112841485e-10,5.7854504784592e-10,-0.0016409322927494,0.0016409321403689,-0.0016409325272012,0.0016409319030087,-0.0016409320011965,0.0016409324356814,-0.0016409321795384,0.0016409322581237,-0.0013831989774216,0.0013831999373987,-0.0013831996253926,0.0013831993271508,9.573049166978e-10,-1.3595221584944e-09,-1.5165260045791e-09,1.1329977321602e-09,-0.0015523568601389,0.0015523564776413,-0.0016409324140473,0.0016409320141191,-0.0016409315718015,0.0016409328896357,-0.0016409332689174,0.0016409311409077,-0.0016409323595987,0.0016409320652634,-0.0013832013493309,0.0013831975028797,-0.00138319872494,0.0013832002368627,-0.0015480396332877,0.0015480423792159,-0.0015480418813852,0.0015480401437377,-7.9718584297915e-10,7.0572526395997e-10,-0.00087899571498318,0.00087899562425466,1.0428210600269e-09,-1.1691578325611e-09,-0.0010114187882042,0.0010114189712148,-0.0010114195606071,0.001011418194828,-0.0010114183159669,0.0010114194423499,-0.001011419002174,0.0010114187494138,-0.00099494181802836,0.00099494262198939,-0.00099494347546984,0.00099494103495339,0.70434246430265,125803,2834,0.0064457832449627,0.0064457832499921,0.0036602214694265,36.902572848245,5.7620582785959e-05,5.7620582785959e-05,5.7620582785959e-05,3416772.8948531,0.016690360336852
36619200,0.99927919604948,0.016349730093543,0.0061528611449437,0.006152861137133,0.0040440078114662,-0.001551431446908,0.0015514313775067,3.1793127677067e-10,-3.8624223774124e-10,-6.1159187175872e-10,5.4080984492458e-10,-0.0016400144752101,0.001640014349125,-0.0016400147339402,0.0016400141379085,-0.0016400142156612,0.0016400146311403,-0.0016400144055386,0.0016400144432296,-0.001382265727563,0.0013822666143187,-0.0013822663284121,0.0013822660773772,9.860152611459e-10,-1.3930652908571e-09,-1.4478233036868e-09,1.0615573596219e-09,-0.0015514316064165,0.0015514312206935,-0.0016400145756409,0.0016400142464871,-0.0016400138171457,0.0016400151140761,-0.0016400154738707,0.0016400133718087,-0.0016400146078851,0.0016400142240556,-0.0013822680331231,0.0013822642839152,-0.0013822655478051,0.0013822669179173,-0.0015471168952163,0.0015471196590429,-0.0015471192195853,0.001547117417011,-8.0419841494871e-10,7.492622387588e-10,-0.0008781021718797,0.0008781021097857,9.7404229096339e-10,-1.0676697384389e-09,-0.0010104960841782,0.0010104962293933,-0.0010104968169892,0.0010104955297596,-0.0010104956207759,0.0010104967282356,-0.0010104962351308,0.0010104960624643,-0.00099404768318913,0.00099404864862979,-0.00099404944349183,0.00099404703307673,0.66675553406855,125803,2834,0.006441953100201,0.0064419531058257,0.0036565114480289,36.396275399488,5.3570203195906e-05,5.3570203195906e-05,5.3570203195906e-05,3408878.7743774,0.016678799861548
36819200,0.99932740888733,0.016350446217372,0.0061531349204108,0.0061531349126047,0.0040441763843569,-0.0015515079583799,0.0015515078489537,3.2352627096509e-10,-4.3405453769653e-10,-5.7557312916541e-10,4.6581404775941e-10,-0.0016401242331653,0.0016401241430471,-0.0016401243860356,0.0016401237795657,-0.001640123989773,0.0016401242824838,-0.0016401241651463,0.001640124136192,-0.0013822862362967,0.0013822872031866,-0.0013822869001725,0.0013822865981143,1.0382993857841e-09,-1.4592877553062e-09,-1.410871303093e-09,1.009526168595e-09,-0.0015515080927524,0.0015515076890062,-0.0016401243324531,0.0016401240989688,-0.001640123438183,0.0016401247138139,-0.0016401251811971,0.0016401230109436,-0.0016401244085157,0.0016401239420602,-0.0013822884154026,0.0013822847924451,-0.0013822861156206,0.0013822874060732,-0.0015471973246583,0.0015472002744775,-0.001547199970279,0.0015471978922719,-8.7697321237733e-10,6.3407412288256e-10,-0.00087818448337868,0.0008781842781756,8.8160417414727e-10,-1.1586365786988e-09,-0.0010105057001683,0.0010105057772497,-0.0010105064220768,0.0010105050086472,-0.0010105052182053,0.0010105062040919,-0.0010105058764045,0.0010105055984092,-0.00099417578774508,0.00099417667269798,-0.0009941774025197,0.00099417491426131,0.64958125956505,125803,2834,0.006442270582081,0.0064422705293032,0.0036568511332268,36.429628523207,5.3837028185653e-05,5.3837028185653e-05,5.3837028185653e-05,3414481.6792011,0.016679789761037
37019200,0.99937307976421,0.01635116931785,0.0061534096155588,0.0061534096077598,0.0040443500945316,-0.001552062969073,0.0015520628928115,3.9274863403412e-10,-4.6988333768069e-10,-5.8887136832509e-10,5.1323763658956e-10,-0.0016407266441476,0.001640726575336,-0.0016407269426813,0.0016407263040355,-0.0016407263969809,0.0016407268360242,-0.0016407266307171,0.0016407266053495,-0.0013827624464495,0.0013827634705692,-0.0013827632035279,0.0013827627807424,1.0175438401459e-09,-1.4304668070968e-09,-1.3929178123593e-09,1.0001239237793e-09,-0.0015520631271559,0.0015520627350842,-0.0016407267491475,0.001640726472519,-0.0016407260132231,0.0016407272848524,-0.0016407276602039,0.0016407255645861,-0.0016407268327868,0.0016407263908455,-0.0013827647630936,0.0013827611067055,-0.001382762397971,0.0013827636334202,-0.0015477537605575,0.0015477565556213,-0.0015477561615904,0.0015477542301958,-7.5118337786677e-10,6.799346421987e-10,-0.00087872883983506,0.00087872876588725,9.961993005507e-10,-1.1049965754192e-09,-0.0010109673394829,0.0010109675355248,-0.0010109680902116,0.0010109668088243,-0.001010966912568,0.0010109679885582,-0.0010109675503216,0.001010967310978,-0.0009947823057195,0.00099478312634138,-0.00099478393175618,0.00099478161089621,0.68962108465312,125803,2834,0.0064445692324602,0.006444569233273,0.0036591094422105,36.716085287012,5.6128682296098e-05,5.6128682296098e-05,5.6128682296098e-05,3425768.6818239,0.016686758829551
37219200,0.99941741910454,0.016351918867693,0.0061536927827319,0.0061536927749353,0.0040445333100261,-0.0015536474216475,0.0015536473484644,4.0847688513508e-10,-4.8025324082845e-10,-6.1059161890399e-10,5.3370525655312e-10,-0.0016423236837539,0.0016423236241602,-0.0016423240026035,0.0016423233472128,-0.00164232342935,0.0016423238968727,-0.0016423236830346,0.0016423236475478,-0.0013843022223172,0.0013843032803552,-0.0013843029960134,0.001384302585028,1.0046905352761e-09,-1.4161356748267e-09,-1.4423671134706e-09,1.0521268404016e-09,-0.0015536475807443,0.0015536471908117,-0.0016423238100567,0.001642323500573,-0.001642323053407,0.0016423243585525,-0.0016423247224173,0.0016423226033324,-0.0016423238644325,0.0016423234527587,-0.0013843046100049,0.0013843008584156,-0.0013843021488578,0.00138430350471,-0.0015493509698651,0.0015493537796727,-0.0015493533545566,0.0015493515062969,-7.4513220986493e-10,6.7566664834769e-10,-0.00088011106181935,0.00088011098715323,1.0515930601641e-09,-1.1615111301387e-09,-0.0010124085486128,0.0010124087900122,-0.0010124093423297,0.0010124080335667,-0.0010124081339624,0.0010124092430016,-0.0010124088049482,0.0010124085162603,-0.00099626329195607,0.00099626408132991,-0.00099626492790891,0.00099626257580008,0.7336284936868,125803,2834,0.0064511259160888,0.0064511259191462,0.0036648553712292,37.49567981098,6.2365438487838e-05,6.2365438487838e-05,6.2365438487838e-05,3434382.6104999,0.01670593351175
37419200,0.99945958937564,0.016352583051263,0.006153945421746,0.0061539454139537,0.004044692215563,-0.0015546419580942,0.0015546418904889,2.8495502281965e-10,-3.5575443541679e-10,-6.5818506860383e-10,5.9762515849105e-10,-0.0016433052475137,0.0016433050589609,-0.0016433054505832,0.0016433048493425,-0.0016433049499569,0.0016433053570886,-0.0016433050970499,0.0016433052125769,-0.0013853041475625,0.0013853050140909,-0.0013853046813305,0.0013853045300275,9.562823047026e-10,-1.3602916913353e-09,-1.5454200180683e-09,1.160470809928e-09,-0.0015546421176541,0.0015546417335856,-0.0016433053577473,0.0016433049472215,-0.0016433044965241,0.0016433058370616,-0.0016433062180825,0.0016433040615868,-0.0016433052913179,0.0016433050069621,-0.0013853065007168,0.0013853025916176,-0.0013853038203742,0.0013853054141961,-0.0015503504002779,0.0015503531701353,-0.0015503526548651,0.0015503509477074,-8.9275181370253e-10,7.9361338680285e-10,-0.00088087021897665,0.00088087012331874,1.0120461218566e-09,-1.1462049097231e-09,-0.0010133139281194,0.0010133140367785,-0.0010133146904305,0.0010133132799788,-0.0010133134030185,0.001013314568682,-0.0010133140663886,0.0010133138882821,-0.00099708226603649,0.00099708329339087,-0.00099708411746419,0.00099708150004249,0.68665852469189,125803,2834,0.0064552388828505,0.0064552388883928,0.0036680182623643,37.942261179086,6.5938089432686e-05,6.5938089432686e-05,6.5938089432686e-05,3431162.853928,0.016717514238027
37619200,0.99949865633856,0.016353177006901,0.0061541720750239,0.0061541720672289,0.0040448328646483,-0.0015546375318412,0.0015546374582,4.3398593196886e-10,-5.1232263254231e-10,-6.3301790062001e-10,5.6868415561882e-10,-0.0016433231681277,0.0016433231006552,-0.0016433234678585,0.0016433227710865,-0.001643322882683,0.0016433233727202,-0.001643323141497,0.0016433231224904,-0.0013852691139411,0.0013852702775459,-0.0013852699748312,0.001385269481668,9.8052261617772e-10,-1.3893141086711e-09,-1.4890011435537e-09,1.0991163147069e-09,-0.0015546376900107,0.0015546373010902,-0.0016433233123833,0.0016433229593561,-0.0016433224761321,0.0016433237878687,-0.0016433241780682,0.0016433220414234,-0.0016433233038688,0.0016433229522424,-0.0013852715468159,0.0013852677493946,-0.0013852690139092,0.0013852704581862,-0.0015503423499458,0.0015503451602908,-0.0015503447075881,0.0015503429045282,-7.5694199776147e-10,6.3554362507851e-10,-0.00088082763165539,0.00088082751731258,1.0876437364051e-09,-1.2434983044657e-09,-0.0010132687260029,0.0010132689816297,-0.0010132695465903,0.0010132681623188,-0.0010132683005171,0.0010132694088441,-0.0010132690285421,0.0010132686690065,-0.00099707192907478,0.00099707259293548,-0.00099707347606726,0.00099707108841894,0.66415580067395,125803,2834,0.0064552199607613,0.0064552199630209,0.0036678432294186,37.916701032255,6.5733608258043e-05,6.5733608258043e-05,6.5733608258043e-05,3431395.1760632,0.016717297774397
37819200,0.99953382405842,0.016353691118824,0.0061543689329818,0.0061543689251833,0.0040449532606588,-0.0015535077517587,0.0015535076875802,3.4115347258383e-10,-4.1345630284082e-10,-6.4874888975497e-10,5.999834746814e-10,-0.0016422315222471,0.0016422313843808,-0.0016422317800191,0.0016422311416521,-0.0016422312301044,0.0016422316830568,-0.0016422314304342,0.0016422314901044,-0.001384103035863,0.0013841040000651,-0.0013841036934244,0.00138410342907,9.5491139840638e-10,-1.3595196323595e-09,-1.5136628714355e-09,1.127282172149e-09,-0.0015535079174109,0.0015535075334191,-0.0016422316388524,0.0016422312536137,-0.0016422308146176,0.0016422321371,-0.0016422325059623,0.0016422303759255,-0.0016422316032504,0.0016422312881494,-0.0013841054025327,0.0013841015548046,-0.001384102799844,0.0013841043329671,-0.0015492039450058,0.0015492067115714,-0.0015492062047626,0.0015492045018457,-8.485174452569e-10,7.5763508241535e-10,-0.00087983451991702,0.00087983443187157,1.0414482924493e-09,-1.1628074883015e-09,-0.001012169058089,0.0010121692267586,-0.00101216984726,0.0010121684633739,-0.0010121685777898,0.0010121697346725,-0.0010121692510042,0.0010121690198977,-0.0009960625219299,0.00099606347545264,-0.00099606431023322,0.00099606175612267,0.6401645291984,125803,2834,0.0064505452329562,0.0064505452568079,0.0036637145355172,37.336453557834,6.1091628462669e-05,6.1091628462669e-05,6.1091628462669e-05,3428876.6574195,0.016703593428144
38019200,0.99956481172961,0.016354163564503,0.0061545489866452,0.0061545489788378,0.0040450655990195,-0.0015514607279036,0.0015514606517258,4.695091602292e-10,-5.5141733099081e-10,-6.2559484897738e-10,5.5987869114913e-10,-0.0016402358937779,0.0016402358572444,-0.0016402362155459,0.0016402354992418,-0.0016402356143234,0.001640236117817,-0.0016402359000618,0.001640235844829,-0.0013820108829121,0.0013820121083515,-0.0013820118193325,0.0013820112691233,9.7855961373434e-10,-1.3874556585489e-09,-1.4191638043813e-09,1.0289957716429e-09,-0.0015514608848924,0.0015514604957996,-0.0016402360294913,0.001640235725505,-0.0016402352350142,0.0016402365017061,-0.0016402368923255,0.0016402348005045,-0.001640236067938,0.0016402356678393,-0.0013820132655937,0.0013820096097365,-0.0013820108899075,0.0013820122161059,-0.0015471481265115,0.0015471509147965,-0.0015471505122231,0.0015471486764215,-7.3988171183338e-10,6.1514408747626e-10,-0.00087808583999968,0.00087808572461161,1.0436046517928e-09,-1.2008423383721e-09,-0.0010102127571412,0.0010102130030326,-0.0010102135535892,0.0010102122129469,-0.0010102123498587,0.0010102134161258,-0.0010102130483361,0.0010102127002925,-0.00099426091386201,0.00099426160125736,-0.00099426243366159,0.00099426010729622,0.66570160852076,125803,2834,0.0064420759304137,0.0064420759327113,0.0036564418772382,36.308482536741,5.2867860293927e-05,5.2867860293927e-05,5.2867860293927e-05,3424856.2489059,0.016678976081725
38219200,0.99959307616304,0.016354598019828,0.0061547143298766,0.0061547143220659,0.0040451693678858,-0.0015505957105969,0.0015505956402247,4.3904604126834e-10,-5.0943011502438e-10,-6.4613575487857e-10,5.7792059192262e-10,-0.0016393923331992,0.0016393922531617,-0.0016393926382107,0.001639391941117,-0.0016393920414952,0.0016393925456246,-0.0016393922945404,0.0016393922947023,-0.0013811184089955,0.0013811195850241,-0.0013811192646457,0.0013811187799475,9.6094691320201e-10,-1.3652143338293e-09,-1.444346989089e-09,1.0599364266991e-09,-0.001550595866805,0.001550595482409,-0.0016393924680544,0.0016393921229553,-0.0016393916715317,0.0016393929462957,-0.0016393933267618,0.0016393912389,-0.0016393924695306,0.0016393921146186,-0.0013811208176278,0.0013811171148764,-0.0013811183542603,0.0013811197281744,-0.0015462876676826,0.001546290394561,-0.0015462899662619,0.00154628817672,-7.7178355720634e-10,6.7321599380174e-10,-0.00087735663309667,0.00087735653602718,1.0448091381601e-09,-1.1814865497554e-09,-0.0010093801026854,0.0010093803098821,-0.0010093808841293,0.0010093795311242,-0.0010093796548919,0.0010093807616705,-0.0010093803455462,0.0010093800573717,-0.00099352500214218,0.00099352575642273,-0.00099352661083166,0.00099352422461623,0.67076547858359,125803,2834,0.006438497069133,0.0064384970658471,0.0036534094290844,35.868469837412,4.9347758699299e-05,4.9347758699299e-05,4.9347758699299e-05,3421805.3639463,0.016668615049469
38419200,0.99962524168147,0.016355125517103,0.006154913830721,0.0061549138229129,0.0040452978634688,-0.0015580118991508,0.0015580118263902,4.5382254103289e-10,-5.2204927569415e-10,-6.3231406523935e-10,5.5545340939727e-10,-0.0016468029454469,0.001646802883719,-0.0016468032610739,0.0016468025635676,-0.0016468026640129,0.0016468031673348,-0.0016468029283104,0.0016468029040282,-0.0013884036788955,0.0013884048807483,-0.0013884045655814,0.0013884040374873,9.9697051341164e-10,-1.4071517424094e-09,-1.7072638046481e-09,1.3183684439512e-09,-0.0015580120561956,0.0015580116665315,-0.0016468031678694,0.0016468026682618,-0.0016468022022473,0.0016468036696641,-0.0016468040518951,0.0016468017628733,-0.001646803023777,0.0016468028099526,-0.0013884063790833,0.0013884021382989,-0.0013884034143356,0.0013884052603139,-0.0015537609202856,0.0015537638962009,-0.0015537633165733,0.0015537616179669,-7.7577539716875e-10,6.6034135873065e-10,-0.00088404009691813,0.00088403997987607,1.3168842339049e-09,-1.4781962056362e-09,-0.0010162989615458,0.0010162993398429,-0.0010162999307316,0.0010162983726136,-0.0010162985152299,0.0010162997890182,-0.0010162993967735,0.001016298894159,-0.0010005798361509,0.0010005803661211,-0.001000581439599,0.001000578865031,0.71254269899666,125803,2834,0.0064691887765484,0.0064691887707363,0.0036811833771541,39.656511628949,7.9652093031595e-05,7.9652093031595e-05,7.9652093031595e-05,3464569.6913096,0.016759264370473
38619200,0.9996550094354,0.016355615754154,0.0061550995785677,0.0061550995707647,0.0040454166048213,-0.0015583215905811,0.0015583215121164,4.0418813338879e-10,-4.9721119653925e-10,-5.5655471640015e-10,5.0358045072761e-10,-0.001647132737578,0.0016471326585175,-0.0016471330124315,0.0016471323963808,-0.0016471325031133,0.0016471329086456,-0.0016471327168412,0.001647132685537,-0.0013887193026183,0.0013887202938807,-0.0013887200472367,0.0013887195797254,1.0511298157057e-09,-1.4718741785423e-09,-1.7421055740963e-09,1.3382130813031e-09,-0.0015583217582333,0.001558321357709,-0.0016471329345259,0.0016471324326042,-0.0016471319477465,0.0016471334777911,-0.0016471338673247,0.001647131501066,-0.0016471328002162,0.0016471325660688,-0.0013887219425036,0.001388717563547,-0.0013887188380824,0.001388720730405,-0.0015540476511055,0.0015540506907186,-0.0015540499734236,0.0015540481194106,-8.2764907446553e-10,7.0999264809431e-10,-0.00088420077431688,0.00088420066308929,1.324535739971e-09,-1.4709060900547e-09,-0.0010165896864273,0.0010165900123562,-0.0010165906465089,0.0010165890556855,-0.0010165891917649,0.0010165905151998,-0.0010165900642387,0.0010165896259657,-0.001000744059195,0.0010007447119262,-0.0010007457619589,0.0010007430129193,0.71626665940947,125803,2834,0.0064704677949069,0.0064704678223748,0.0036818581255061,39.752064632741,8.0416517061931e-05,8.0416517061931e-05,8.0416517061931e-05,3460116.5738387,0.016762553366129
38819200,0.99968241836373,0.01635606867362,0.0061552711403407,0.0061552711325266,0.0040455264007525,-0.0015584146514964,0.0015584145595538,3.2261447299636e-10,-4.2195402365304e-10,-4.8299104189639e-10,4.0402068862176e-10,-0.0016472141506119,0.0016472141053279,-0.0016472144202651,0.0016472138683426,-0.0016472139674339,0.001647214292453,-0.0016472141903602,0.0016472140906465,-0.0013888250593921,0.0013888258980563,-0.0013888257684482,0.001388825302613,1.125164560348e-09,-1.5630262213865e-09,-1.7654544226551e-09,1.3481986633386e-09,-0.0015584148220166,0.0015584144077569,-0.0016472143457193,0.0016472138915667,-0.0016472133764086,0.0016472149503833,-0.0016472153318091,0.0016472129044793,-0.0016472142825249,0.0016472139651248,-0.0013888276803048,0.0013888232323378,-0.0013888246575824,0.0013888264556415,-0.0015541459308657,0.0015541492157464,-0.0015541486087777,0.001554146668899,-8.9753960942206e-10,8.068552921835e-10,-0.00088418023026823,0.00088418013554882,1.3164031581787e-09,-1.4416876696583e-09,-0.001016654082261,0.0010166543944103,-0.0010166550477746,0.0010166534480299,-0.0010166535687728,0.0010166549295387,-0.0010166544340424,0.0010166540235076,-0.0010007522554469,0.0010007530666034,-0.0010007541161929,0.0010007513142562,0.71845446014323,125803,2834,0.0064708504560243,0.0064708504948237,0.0036817798256786,39.755836851508,8.0446694812061e-05,8.0446694812061e-05,8.0446694812061e-05,3452633.2384139,0.016763252867794
38880000,0.99969053775647,0.016356203005673,0.0061553220132735,0.0061553220054573,0.0040455589869423,-0.0015584397530178,0.0015584398010267,7.6926167458388e-10,-7.2529350848706e-10,-1.3630476645942e-09,1.42590414896e-09,-0.0016472355430919,0.001647235254388,-0.0016472360463931,0.0016472347545184,-0.001647234756787,0.0016472360563952,-0.0016472351686631,0.0016472356439787,-0.0013888527514493,0.0013888550195023,-0.0013888540562555,0.0013888537632165,2.5079775512427e-10,-5.3233973556365e-10,-1.6908192918374e-09,1.4202644034746e-09,-0.0015584399137967,0.0015584396444551,-0.0016472358598943,0.0016472349293685,-0.001647234885304,0.0016472359520212,-0.0016472362354392,0.0016472345517819,-0.0016472351530264,0.0016472356454753,-0.0013888557229259,0.0013888519913235,-0.0013888525830503,0.001388855257755,-0.0015541710209502,0.0015541724719592,-0.0015541716879481,0.0015541717734623,-5.3781689580921e-10,4.2481835388501e-10,-0.0008841657363386,0.00088416562508897,1.2900728181609e-09,-1.4417931040247e-09,-0.001016672795635,0.0010166733273503,-0.0010166737618124,0.0010166723701166,-0.0010166725232744,0.0010166736110906,-0.0010166733632807,0.0010166727600039,-0.0010007535616833,0.0010007537293234,-0.0010007547538128,0.0010007525756959,0.71910519390814,125803,2834,0.0064709535691185,0.0064709535778504,0.0036817225925211,39.755981677988,8.0447853423904e-05,8.0447853423904e-05,8.0447853423904e-05,3450006.2570354,0.016763404636683
