time,ASR_ext,ASR_strain,ASR_strain_xx,ASR_strain_yy,ASR_strain_zz,disp_x_101,disp_x_102,disp_x_103,disp_x_104,disp_x_105,disp_x_106,disp_x_p1_neg,disp_x_p1_pos,disp_x_p2_neg,disp_x_p2_pos,disp_x_p3_neg,disp_x_p3_pos,disp_x_p4_neg,disp_x_p4_pos,disp_x_p5_neg,disp_x_p5_pos,disp_x_p6_neg,disp_x_p6_pos,disp_y_101,disp_y_102,disp_y_103,disp_y_104,disp_y_105,disp_y_106,disp_y_p1_neg,disp_y_p1_pos,disp_y_p2_neg,disp_y_p2_pos,disp_y_p3_neg,disp_y_p3_pos,disp_y_p4_neg,disp_y_p4_pos,disp_y_p5_neg,disp_y_p5_pos,disp_y_p6_neg,disp_y_p6_pos,disp_y_p7_neg,disp_y_p7_pos,disp_y_p8_neg,disp_y_p8_pos,disp_z_101,disp_z_102,disp_z_103,disp_z_104,disp_z_105,disp_z_106,disp_z_p1_neg,disp_z_p1_pos,disp_z_p2_neg,disp_z_p2_pos,disp_z_p3_neg,disp_z_p3_pos,disp_z_p4_neg,disp_z_p4_pos,disp_z_p5_neg,disp_z_p5_pos,disp_z_p6_neg,disp_z_p6_pos,humidity,ndof,nelem,strain_xx,strain_yy,strain_zz,temp,thermal_strain_xx,thermal_strain_yy,thermal_strain_zz,vonmises,vstrain
2419200,0,0,0,0,0,0,0,0,0,0,0,0,0,0,0,0,0,0,0,0,0,0,0,0,0,0,0,0,0,0,0,0,0,0,0,0,0,0,0,0,0,0,0,0,0,0,0,0,0,0,0,0,0,0,0,0,0,0,0,0,0,0,0,0,0,0,0,0,0,0,0,0,0,0,0
2919200,0.076372423267743,0.0015950927133764,0.00053169757112547,0.00053169757112547,0.00053169757112547,-0.00017184430641349,0.00017184430641381,2.0712602538328e-17,1.5356883798918e-16,-2.971306287456e-16,7.698661869988e-16,-0.00017050208441697,0.00017050208441694,-0.00017050397429942,0.00017050397429949,-0.00017050210191939,0.00017050210192005,-0.00017050395679642,0.00017050395679709,-0.00017092347472587,0.000170923474726,-0.00017092475134876,0.00017092475134882,3.5301862728796e-16,-7.2127784913099e-16,-1.73221062333e-09,1.7322104621615e-09,-0.00017184430641383,0.00017184430641346,-0.00017050278504543,0.00017050154016323,-0.00017050327367033,0.00017050451855237,-0.00017050278504582,0.00017050154016278,-0.00017050327367074,0.000170504518552,-0.00017092526844112,0.00017092190970809,-0.00017092295763421,0.00017092631636692,-0.00017365006887539,0.00017365125518709,-0.00017365006887619,0.00017365125518549,-8.907252037363e-09,-8.907252170281e-09,-0.00015899272893488,0.00015896996777679,-6.9532322968346e-09,-1.0585512558309e-08,-0.00015921175311454,0.00015919358384182,-0.00015921299157646,0.00015919234538012,-0.00015921175311461,0.00015919358384178,-0.00015921299157651,0.00015919234538001,-0.00016393254844047,0.00016391269451581,-0.00016393254843988,0.00016391269451506,0.83502648770561,120135,2834,0.00071576063781326,0.00071576063781327,0.00066220330288995,32.402235261796,0.00017441788209437,0.00017441788209437,0.00017441788209437,1142335.9978555,0.0020959196065351
3419200,0.15585119099848,0.0031300714580765,0.0010626800094016,0.0010626800094056,0.0010047114392693,-0.00030106789468401,0.00030106789468905,2.3423107969542e-15,2.4893357172085e-15,-5.4700093655569e-15,1.0870550265092e-14,-0.00030188108864002,0.00030188108863955,-0.00030188381608746,0.00030188381608711,-0.00030188110707629,0.00030188110708669,-0.00030188379764649,0.00030188379765691,-0.00029461555699301,0.00029461555700284,-0.00029461857006173,0.00029461857007138,-4.9784361474872e-15,-2.1560848023218e-14,3.3229525765421e-09,-3.3229882266841e-09,-0.00030106789469817,0.00030106789467697,-0.0003018800537796,0.00030188222208946,-0.00030188485095728,0.00030188268262788,-0.00030188005378493,0.00030188222208379,-0.00030188485096264,0.00030188268262231,-0.00029461241340242,0.00029461895473201,-0.00029462171371123,0.0002946151723032,-0.00030245361862747,0.0003024514562329,-0.0003024536186432,0.00030245145621581,-5.2676662173053e-09,-5.2676663596071e-09,-0.00025998469766252,0.00025997067037829,-8.3273810658597e-09,-1.8745597952771e-09,-0.00026609487430523,0.00026608126177383,-0.0002660927315646,0.00026608340450696,-0.00026609487430534,0.00026608126177383,-0.00026609273156466,0.00026608340450685,-0.00027070451133416,0.00027069561645178,-0.00027070451133347,0.00027069561645084,0.77960726241633,120135,2834,0.001253659149135,0.0012536591491394,0.0010826643704341,31.910930046554,0.00017048744037244,0.00017048744037244,0.00017048744037244,1821844.1378203,0.0035964372517227
3919200,0.2432343382021,0.0047306017846805,0.0016418016450003,0.0016418016449986,0.0014469984946816,-0.00044381175804924,0.00044381175805627,3.3199574011097e-15,3.4863493767726e-15,-4.3376616050625e-15,1.182349174162e-14,-0.00045085210011645,0.00045085210011805,-0.00045085411235462,0.00045085411235632,-0.00045085211259778,0.00045085211261003,-0.00045085409986812,0.00045085409988043,-0.00042400960045764,0.00042400960046935,-0.00042401124817793,0.00042401124818949,-3.6220805243969e-15,-2.0134178917412e-14,3.9578588144329e-09,-3.9578920210567e-09,-0.0004438117580623,0.00044381175804231,-0.00045085081635759,0.00045085343776283,-0.00045085539612025,0.00045085277469711,-0.00045085081636295,0.00045085343775714,-0.00045085539612564,0.00045085277469152,-0.00042400581858253,0.00042401359500124,-0.00042401503011682,0.00042400725361527,-0.00044577554396266,0.00044577294592729,-0.00044577554397819,0.00044577294591014,-2.4364347338349e-09,-2.4364348960717e-09,-0.00035588974925832,0.00035588235100229,-6.1923679223251e-09,1.5838823389246e-09,-0.00036659996980041,0.00036659161294903,-0.00036659737820529,0.00036659420454126,-0.00036659996980053,0.00036659161294905,-0.00036659737820537,0.00036659420454114,-0.00037726851307358,0.00037726591130277,-0.00037726851307285,0.00037726591130182,0.74640349119053,120135,2834,0.0018474954494399,0.0018474954494382,0.0014818035950094,32.496234472554,0.00017516987578043,0.00017516987578043,0.00017516987578043,2598572.9444796,0.0051902234589493
4419200,0.33888458588172,0.0064630645996182,0.0022837532596129,0.0022837532596065,0.0018955580803988,-0.00060310305413448,0.00060310305414229,3.7057691442376e-15,3.8947633705937e-15,-2.6475367666279e-15,1.0858550631673e-14,-0.00061823189663047,0.00061823189663376,-0.00061823336749496,0.00061823336749838,-0.00061823189827359,0.0006182318982857,-0.00061823336584351,0.00061823336585569,-0.0005658043838924,0.00056580438390399,-0.000565805774273,0.0005658057742845,-3.1841380208868e-15,-1.6977418593014e-14,4.5355582037782e-09,-4.5355887395649e-09,-0.00060310305414574,0.00060310305412783,-0.00061823040383541,0.00061823341245176,-0.00061823486029625,0.00061823185166072,-0.00061823040383995,0.00061823341244698,-0.00061823486030081,0.00061823185165604,-0.00056580003617797,0.00056580894175945,-0.00056581012203979,0.00056580121638843,-0.00060668944426563,0.0006066864496915,-0.00060668944427856,0.00060668644967706,-1.2209462447821e-09,-1.2209464241601e-09,-0.0004530480234732,0.00045304369401058,-5.589824263249e-09,3.3771323294522e-09,-0.00046750618540453,0.0004675002531189,-0.00046750319726937,0.0004675032412512,-0.00046750618540464,0.00046750025311889,-0.00046750319726944,0.00046750324125108,-0.00048979863523146,0.00048979893511251,-0.00048979863523074,0.00048979893511161,0.74424082049435,120135,2834,0.0025097475378289,0.0025097475378224,0.0018860319333894,33.597832079142,0.00018398265663313,0.00018398265663313,0.00018398265663313,3201230.1087886,0.0069294390206419
4919200,0.44262234819302,0.0083412645006722,0.0029968637498468,0.0029968637498435,0.0023475370009818,-0.00078150766812844,0.00078150766813537,3.2337247413406e-15,3.4762761550909e-15,-1.9638811812486e-15,9.2505703426024e-15,-0.00080555769862208,0.00080555769862522,-0.00080555896736682,0.00080555896737016,-0.00080555769809006,0.00080555769810048,-0.00080555896789169,0.00080555896790227,-0.000722988115866,0.00072298811587583,-0.00072298956471966,0.00072298956472949,-2.5714508557062e-15,-1.4010350830715e-14,4.5775970668287e-09,-4.5776225372406e-09,-0.00078150766813882,0.00078150766812333,-0.00080555620582931,0.00080555923192053,-0.0008055604601684,0.00080555743405738,-0.00080555620583312,0.00080555923191655,-0.00080556046017221,0.00080555743405352,-0.00072298374980074,0.00072299273464992,-0.00072299393082911,0.00072298494592133,-0.00078832857100878,0.00078832553898408,-0.00078832857101944,0.000788325538972,-1.1368841675964e-09,-1.1368844016678e-09,-0.0005498471303335,0.0005498432603241,-5.5450911440752e-09,3.5148698782887e-09,-0.0005690023654379,0.00056899685677814,-0.00056899935056157,0.0005689998716523,-0.00056900236543801,0.00056899685677809,-0.00056899935056165,0.00056899987165212,-0.00060566588702125,0.00060566639857764,-0.00060566588702043,0.00060566639857674,0.74696695512676,120135,2834,0.0032509293694462,0.0032509293694429,0.0022886726032035,35.342249144135,0.00019793799315308,0.00019793799315308,0.00019793799315308,3626088.3583804,0.0088293083224601
5419200,0.54361465619477,0.010128312161035,0.0036893785368505,0.0036893785368529,0.0027495550873315,-0.00095389814320312,0.00095389814321009,3.2816350424197e-15,3.4689234385348e-15,-2.2936652242195e-15,9.6281470431875e-15,-0.00098767717806059,0.00098767717806353,-0.00098767823668925,0.00098767823669234,-0.00098767717532325,0.00098767717533399,-0.00098767823942269,0.00098767823943354,-0.00087170466463331,0.0008717046646435,-0.0008717059968205,0.00087170599683059,-3.3341334386297e-15,-1.5512789537024e-14,4.7061608052888e-09,-4.7061887122977e-09,-0.00095389814321644,0.00095389814319786,-0.00098767564120355,0.00098767875163636,-0.00098767977356536,0.00098767666310525,-0.0009876756412076,0.00098767875163213,-0.00098767977356941,0.00098767666310113,-0.00087170017697882,0.00087170941104482,-0.0008717104845224,0.00087170125039237,-0.0009642974098804,0.00096429428899946,-0.00096429740989178,0.00096429428898667,-6.8519210631197e-10,-6.8519228831652e-10,-0.0006312094873207,0.00063120705312486,-5.2273700153166e-09,4.0979175905381e-09,-0.00065620822957199,0.00065620376992123,-0.00065620512706677,0.00065620687242735,-0.00065620822957209,0.00065620376992121,-0.00065620512706684,0.0006562068724272,-0.00070690571417451,0.00070690735109073,-0.00070690571417376,0.00070690735108981,0.73229095938567,120135,2834,0.0039665871084431,0.0039665871084455,0.0026270834373113,36.272185269766,0.00020537748215813,0.00020537748215813,0.00020537748215813,3893501.131929,0.010616259341864
5919200,0.63498624126951,0.011526745004147,0.0042403751304218,0.0042403751304234,0.0030459947433022,-0.0010914658575454,0.0010914658575521,3.2109019091507e-15,3.3777497532401e-15,-1.8616490102536e-15,9.0194891666795e-15,-0.0011385245189181,0.0011385245189212,-0.0011385253693959,0.0011385253693992,-0.0011385245150637,0.0011385245150738,-0.0011385253732463,0.0011385253732566,-0.00098299710672228,0.00098299710673205,-0.00098299840501624,0.00098299840502573,-3.2169017258604e-15,-1.4358704906109e-14,4.8234851483461e-09,-4.8235115152382e-09,-0.0010914658575578,0.0010914658575404,-0.0011385229378557,0.0011385261307768,-0.001138526950476,0.0011385237575289,-0.0011385229378594,0.0011385261307729,-0.0011385269504797,0.0011385237575252,-0.00098299250249946,0.00098300196453651,-0.00098300300928421,0.00098299354718771,-0.0011023754492398,0.0011023722469621,-0.0011023754492502,0.0011023722469502,-1.3572246053532e-10,-1.3572262026711e-10,-0.00068577960808291,0.0006857786709578,-4.8087657350499e-09,4.7651466259027e-09,-0.00071716709742731,0.00071716388560797,-0.00071716391100769,0.00071716707202867,-0.00071716709742745,0.00071716388560792,-0.00071716391100778,0.00071716707202853,-0.00077771448670408,0.00077771737960675,-0.00077771448670347,0.00077771737960579,0.6360792580923,120135,2834,0.0045373044885195,0.0045373044885211,0.0028541095166464,36.778673009311,0.00020942938407449,0.00020942938407449,0.00020942938407449,4088414.8323131,0.012000222795225
6419200,0.71220880739993,0.012626627971376,0.0046744511267464,0.0046744511267472,0.0032777257178825,-0.0011986551885458,0.0011986551885525,3.1807263604048e-15,3.3666030349412e-15,-2.0882891453765e-15,9.2048364456239e-15,-0.0012587229922555,0.0012587229922584,-0.0012587236227393,0.0012587236227424,-0.0012587229869279,0.0012587229869382,-0.0012587236280621,0.0012587236280725,-0.0010665830172633,0.0010665830172731,-0.001066584271931,0.0010665842719407,-2.9986730984776e-15,-1.4545588615598e-14,5.1729282521601e-09,-5.1729547993277e-09,-0.001198655188558,0.0011986551885406,-0.0012587212876888,0.0012587247183874,-0.0012587253273227,0.0012587218965985,-0.0012587212876927,0.0012587247183834,-0.0012587253273265,0.0012587218965946,-0.0010665780678511,0.0010665882128697,-0.0010665892213881,0.0010665790763093,-0.0012096876231624,0.0012096841851977,-0.0012096876231732,0.0012096841851855,5.7044715238192e-10,5.7044697303066e-10,-0.0007252678639716,0.00072526874882402,-4.466220532545e-09,5.8211695913852e-09,-0.00075943592991944,0.00075943414555615,-0.0007594325045452,0.00075943757093153,-0.00075943592991955,0.00075943414555611,-0.00075943250454528,0.00075943757093139,-0.00083218855673336,0.0008321931742336,-0.00083218855673265,0.00083219317423269,0.59525943091212,120135,2834,0.0049817672053205,0.0049817672053212,0.003018424993296,36.741535382698,0.00020913228306159,0.00020913228306159,0.00020913228306159,4236259.9030659,0.013066696330023
6919200,0.78162116201729,0.013695823737315,0.0050935507360488,0.0050935507360492,0.0035087222652167,-0.0013076275742084,0.0013076275742152,3.0537302400491e-15,3.2737235194054e-15,-2.0451139937596e-15,9.2934807964233e-15,-0.0013765034045302,0.001376503404533,-0.0013765042223754,0.0013765042223785,-0.0013765034013873,0.0013765034013976,-0.001376504225513,0.0013765042255235,-0.0011565370525124,0.0011565370525216,-0.0011565384332084,0.0011565384332177,-2.8793826250726e-15,-1.4468407264795e-14,5.0532648025921e-09,-5.0532907477397e-09,-0.0013076275742205,0.0013076275742033,-0.001376501758834,0.0013765050959425,-0.0013765058680884,0.0013765025309546,-0.0013765017588378,0.0013765050959384,-0.0013765058680922,0.0013765025309507,-0.0011565322387517,0.0011565421537585,-0.0011565432470101,0.0011565333319449,-0.0013213170392335,0.0013213136842838,-0.0013213170392438,0.001321313684271,-5.5710167619522e-10,-5.5710188956674e-10,-0.00076553106087416,0.00076552914824027,-5.4402881104216e-09,4.5847604465105e-09,-0.00080274487273036,0.000802740740832,-0.00080274153953283,0.00080274407403072,-0.00080274487273049,0.00080274074083203,-0.00080274153953297,0.00080274407403065,-0.00088853117968514,0.00088853335656289,-0.00088853117968391,0.00088853335656163,0.64378173705164,120135,2834,0.0054334055488732,0.0054334055488738,0.0031859697440957,38.622924518091,0.00022418339614473,0.00022418339614473,0.00022418339614473,4132070.8774905,0.014152114793896
7419200,0.84134038236071,0.014492127213084,0.0054080631301254,0.0054080631301258,0.0036760009528325,-0.0013934742336199,0.0013934742336265,3.0566125049391e-15,3.2379010843445e-15,-1.7354175724197e-15,8.6775584359581e-15,-0.0014710607097739,0.0014710607097769,-0.0014710616094235,0.0014710616094267,-0.0014710607077579,0.0014710607077676,-0.001471061611435,0.001471061611445,-0.0012243241670444,0.0012243241670534,-0.0012243256100013,0.0012243256100104,-3.4711292535016e-15,-1.4223585240264e-14,4.8881766929907e-09,-4.8882029371601e-09,-0.0013934742336318,0.0013934742336147,-0.0014710591248227,0.0014710623486244,-0.0014710631943905,0.0014710599705636,-0.0014710591248263,0.0014710623486208,-0.0014710631943939,0.0014710599705601,-0.0012243195206821,0.0012243291135074,-0.0012243302564075,0.0012243206635228,-0.0014081307658772,0.00140812752229,-0.0014081307658869,0.0014081275222787,-9.8670499210191e-10,-9.8670515954056e-10,-0.00078697266480823,0.00078696978826727,-5.6951599566954e-09,3.9936075437276e-09,-0.00083166981168796,0.00083166488892929,-0.00083166659165788,0.0008316681089599,-0.00083166981168795,0.00083166488892927,-0.00083166659165797,0.00083166810895966,-0.00092152316197801,0.00092152435225311,-0.00092152316197716,0.00092152435225233,0.55664260548471,120135,2834,0.005789024445302,0.0057890244453024,0.0032753558033906,40.761389282889,0.00024129111426311,0.00024129111426311,0.00024129111426311,3877129.5805345,0.014964436302593
7919200,0.88615371709125,0.015037545660698,0.0056220720590132,0.0056220720590134,0.0037934015426714,-0.0014482175231507,0.001448217523157,2.9199696204619e-15,3.1476097250365e-15,-1.8273559402363e-15,8.5756791953578e-15,-0.0015338975558936,0.0015338975558964,-0.0015338980974779,0.001533898097481,-0.0015338975505968,0.0015338975506063,-0.0015338981027699,0.0015338981027797,-0.0012636882681467,0.0012636882681557,-0.001263689584907,0.0012636895849158,-3.1813733994617e-15,-1.3844453612456e-14,5.0467141491097e-09,-5.0467399620106e-09,-0.0014482175231623,0.0014482175231454,-0.0015338958925146,0.0015338992413496,-0.0015338997608729,0.0015338964120126,-0.0015338958925181,0.0015338992413459,-0.0015338997608764,0.001533896412009,-0.0012636834471721,0.0012636933438104,-0.0012636944059237,0.0012636845092271,-0.0014632810439394,0.0014632776883055,-0.0014632810439493,0.0014632776882941,6.0206459722707e-10,6.0206437987588e-10,-0.00079756276789808,0.0007975639695826,-4.3110705687074e-09,5.731231652683e-09,-0.00084382227135062,0.00084382078124897,-0.00084381892752194,0.00084382412507837,-0.00084382227135075,0.00084382078124892,-0.00084381892752208,0.00084382412507818,-0.0009419596994008,0.00094196436056306,-0.00094195969940012,0.00094196436056201,0.5070717593097,120135,2834,0.0060157435149928,0.0060157435149929,0.0033195852752496,40.955904773518,0.00024284723818814,0.00024284723818814,0.00024284723818814,3780805.3787211,0.0154697050998
8419200,0.91949288384379,0.015423190723051,0.0057723361246504,0.0057723361246506,0.0038785184737501,-0.001488635900915,0.0014886359009215,3.08114116737e-15,3.3118400020319e-15,-1.8474141510011e-15,8.6927344429297e-15,-0.0015797703325252,0.0015797703325283,-0.0015797708903724,0.0015797708903754,-0.0015797703277172,0.001579770327727,-0.0015797708951757,0.0015797708951858,-0.001293156728958,0.0012931567289671,-0.0012931580694813,0.0012931580694905,-2.944792391555e-15,-1.376116445192e-14,5.145790519215e-09,-5.1458156728009e-09,-0.0014886359009265,0.0014886359009099,-0.0015797686400944,0.0015797720521028,-0.0015797725828198,0.0015797691707861,-0.0015797686400982,0.0015797720520992,-0.0015797725828233,0.0015797691707825,-0.0012931518147673,0.0012931619067454,-0.0012931629837134,0.0012931528916779,-0.0015045318464049,0.0015045284255635,-0.0015045318464144,0.0015045284255518,4.8232756739623e-10,4.8232735364219e-10,-0.0008027049367626,0.00080270584014017,-4.5232379041373e-09,5.7137380407847e-09,-0.00085129906206451,0.00085129726359602,-0.00085129565430049,0.00085130067136048,-0.00085129906206448,0.00085129726359603,-0.00085129565430062,0.00085130067136048,-0.00095435223598141,0.00095435671101606,-0.00095435223598048,0.00095435671101497,0.48138031764921,120135,2834,0.0061830922349846,0.0061830922349847,0.0033411448220989,41.431989784148,0.00024665591827319,0.00024665591827319,0.00024665591827319,3613464.088807,0.015831562101919
8919200,0.94378445680465,0.015674911853099,0.0058700238438287,0.0058700238438289,0.0039348641654411,-0.0015162438198663,0.0015162438198727,2.9721444971434e-15,3.1849027034086e-15,-1.8791190647907e-15,8.6984401509772e-15,-0.0016112649672982,0.0016112649673011,-0.00161126550143,0.0016112655014333,-0.0016112649625241,0.0016112649625337,-0.001611265506199,0.0016112655062087,-0.0013128263382865,0.0013128263382959,-0.0013128276752108,0.0013128276752195,-2.8856765504445e-15,-1.3715098246619e-14,5.2259736744096e-09,-5.2259990880798e-09,-0.0015162438198777,0.0015162438198612,-0.0016112632482931,0.0016112667137225,-0.0016112672204506,0.0016112637549974,-0.0016112632482966,0.0016112667137186,-0.0016112672204544,0.0016112637549936,-0.001312821346006,0.0013128315952385,-0.0013128326675325,0.001312822418242,-0.0015327263377773,0.0015327228635174,-0.0015327263377876,0.0015327228635056,5.6211865357206e-10,5.6211845169657e-10,-0.00080302308509506,0.0008030241980137,-4.5238853321878e-09,5.8747999037117e-09,-0.00085450780389109,0.00085450613418619,-0.00085450434219477,0.00085450959588276,-0.00085450780389121,0.00085450613418594,-0.00085450434219498,0.00085450959588275,-0.00095962802546778,0.00095963272398122,-0.00095962802546724,0.00095963272397968,0.43063171924148,120135,2834,0.0062973728777681,0.0062973728777681,0.0033426376970893,41.891018046632,0.00025032814437305,0.00025032814437305,0.00025032814437305,3430535.2603431,0.016065307774884
9419200,0.96040660833361,0.015838204287234,0.0059328996986276,0.0059328996986278,0.0039724048899791,-0.0015317043240964,0.0015317043241029,3.0532008444571e-15,3.2941934822974e-15,-1.9047653401381e-15,8.6602060248858e-15,-0.0016295970918989,0.0016295970919018,-0.001629597334811,0.0016295973348144,-0.0016295970845139,0.0016295970845236,-0.0016295973421905,0.0016295973422005,-0.0013224817894263,0.0013224817894353,-0.0013224830282722,0.0013224830282814,-3.0662592690606e-15,-1.3889783569569e-14,5.4896679808776e-09,-5.4896937947295e-09,-0.0015317043241081,0.0015317043240911,-0.0016295952660947,0.0016295989210525,-0.0016295991606309,0.0016295955056475,-0.0016295952660984,0.0016295989210489,-0.0016295991606345,0.0016295955056438,-0.0013224765241639,0.0013224872853533,-0.0013224882935768,0.0013224775323285,-0.001548628137254,0.0015486244827685,-0.0015486281372641,0.0015486244827574,1.8199830572047e-09,1.8199828232152e-09,-0.00080054312051808,0.00080054740013873,-3.5648141952575e-09,7.3897548991992e-09,-0.0008528182738592,0.00085281922850765,-0.00085281462223623,0.00085282288013094,-0.00085281827385918,0.00085281922850744,-0.00085281462223625,0.00085282288013052,-0.000961085541801,0.00096109306466248,-0.00096108554180037,0.00096109306466173,0.40723906797413,120135,2834,0.0063613668580303,0.0063613668580303,0.0033324578478619,41.151727065406,0.00024441381652325,0.00024441381652325,0.00024441381652325,3326005.1703586,0.016185027368695
9919200,0.97158463235316,0.015947438731679,0.0059746740613622,0.0059746740613624,0.0039980906089545,-0.0015411351176193,0.0015411351176256,2.8812060987785e-15,3.1222575583513e-15,-1.9529403390132e-15,8.6829700353433e-15,-0.0016404667408332,0.001640466740836,-0.0016404668289564,0.0016404668289592,-0.0016404667325935,0.0016404667326031,-0.0016404668371908,0.0016404668372007,-0.0013284907350088,0.0013284907350178,-0.0013284919186631,0.0013284919186722,-3.019731278694e-15,-1.3914519946243e-14,5.817195289873e-09,-5.8172211399314e-09,-0.0015411351176308,0.0015411351176139,-0.0016404647997432,0.001640468677474,-0.001640468770062,0.0016404648923058,-0.0016404647997467,0.0016404686774702,-0.0016404687700656,0.0016404648923021,-0.0013284851440747,0.0013284965454667,-0.0013284975096393,0.0013284861081889,-0.001558635038884,0.0015586311645401,-0.0015586350388942,0.0015586311645285,2.5179058004005e-09,2.5179055680956e-09,-0.00079623645877216,0.0007962424747227,-3.2068988276737e-09,8.4140962204771e-09,-0.00085018408828456,0.00085018635786746,-0.00085018021298757,0.00085019023316506,-0.00085018408828468,0.00085018635786744,-0.00085018021298765,0.00085019023316486,-0.00095922190147304,0.00095923110733335,-0.00095922190147222,0.0009592311073326,0.40432824355073,120135,2834,0.006400389771147,0.006400389771147,0.0033146686260217,39.829126608877,0.00023383301287101,0.00023383301287101,0.00023383301287101,3220419.8211485,0.016246270791322
10419200,0.97909480451242,0.016025378942301,0.0060042658942687,0.0060042658942689,0.0040168471537634,-0.0015468096681582,0.0015468096681646,2.9407336920161e-15,3.1861967815225e-15,-1.9304116154855e-15,8.6877345956716e-15,-0.0016467099683593,0.001646709968362,-0.0016467099516438,0.0016467099516468,-0.0016467099600784,0.0016467099600881,-0.0016467099599196,0.0016467099599295,-0.0013322159677117,0.0013322159677207,-0.0013322171062258,0.0013322171062348,-3.0714944032485e-15,-1.3947999449662e-14,6.2171403477351e-09,-6.2171660004529e-09,-0.0015468096681698,0.0015468096681529,-0.0016467078936096,0.0016467120382531,-0.0016467120264098,0.0016467078817406,-0.0016467078936132,0.0016467120382493,-0.0016467120264133,0.001646707881737,-0.0013322099846267,0.0013322221695644,-0.0013322230893524,0.0013322109043571,-0.0015648770858244,0.0015648729446072,-0.0015648770858344,0.0015648729445956,3.0216413181509e-09,3.021641083292e-09,-0.00079085985687874,0.00079086711956767,-3.1054282225954e-09,9.3192268819486e-09,-0.00084699496856974,0.00084699805417615,-0.00084699082532745,0.00084700219741911,-0.00084699496856986,0.00084699805417611,-0.00084699082532757,0.00084700219741894,-0.0009554481898285,0.00095545871926758,-0.00095544818982765,0.00095545871926665,0.42845224819223,120135,2834,0.0064238576941927,0.0064238576941929,0.0032924235351285,38.101290154375,0.000220010321235,0.000220010321235,0.000220010321235,3121343.0658255,0.016271370594487
10919200,0.98460080982601,0.016078218511606,0.0060243207306832,0.0060243207306834,0.0040295770502391,-0.0015533581945857,0.0015533581945921,2.9478511216423e-15,3.1908436983859e-15,-1.936646719125e-15,8.7001459812182e-15,-0.0016534020591769,0.0016534020591797,-0.0016534024008068,0.0016534024008098,-0.0016534020550026,0.0016534020550122,-0.0016534024049762,0.001653402404986,-0.0013376835619759,0.0013376835619849,-0.0013376848215943,0.0013376848216033,-2.9950849727982e-15,-1.3888484149247e-14,6.2436214841867e-09,-6.243647016647e-09,-0.0015533581945973,0.0015533581945804,-0.0016534000054198,0.0016534041459523,-0.00165340445458,0.0016534003140221,-0.0016534000054234,0.0016534041459486,-0.0016534044545836,0.0016534003140185,-0.0013376775764173,0.0013376898213567,-0.0013376908071948,0.0013376785621976,-0.0015718197001139,0.0015718155484302,-0.001571819700124,0.0015718155484186,1.472895065464e-09,1.4728948314857e-09,-0.00078768089029839,0.00078768424884842,-4.6272825278936e-09,7.8099734293244e-09,-0.00084689939702537,0.00084689902360091,-0.00084689525682582,0.00084690316380104,-0.00084689939702549,0.00084689902360087,-0.00084689525682594,0.00084690316380088,-0.00095304787130999,0.00095305515478457,-0.00095304787130917,0.00095305515478366,0.39597081456719,120135,2834,0.0064509377274273,0.0064509377274275,0.0032792925732743,37.946388325823,0.00021877110660658,0.00021877110660658,0.00021877110660658,3003205.3638849,0.016313077491109
11419200,0.98861225019433,0.016116641955722,0.0060388283903948,0.006038828390395,0.0040389851749324,-0.0015564369377157,0.0015564369377222,3.0312015165214e-15,3.2738411628703e-15,-1.8737074654055e-15,8.7582030311446e-15,-0.0016573466790825,0.0016573466790854,-0.0016573469772167,0.0016573469772198,-0.0016573466745664,0.0016573466745761,-0.0016573469817278,0.0016573469817379,-0.001338910732214,0.0013389107322232,-0.001338911978864,0.0013389119788731,-2.9624977330219e-15,-1.3851557542955e-14,6.2743897274031e-09,-6.2744151648097e-09,-0.0015564369377274,0.0015564369377105,-0.0016573446125012,0.0016573487754744,-0.0016573490438141,0.0016573448808157,-0.0016573446125049,0.0016573487754706,-0.0016573490438178,0.0016573448808121,-0.0013389047146753,0.0013389170192847,-0.0013389179964441,0.0013389056917771,-0.0015750233533631,0.0015750191805113,-0.0015750233533731,0.0015750191804998,1.6406740126335e-09,1.6406737801599e-09,-0.00078611619302807,0.00078611998422544,-4.4952540848068e-09,8.0080822837248e-09,-0.00084489733234956,0.00084489732382929,-0.00084489316956943,0.00084490148660994,-0.00084489733234955,0.00084489732382923,-0.00084489316956958,0.00084490148660976,-0.00095302463484735,0.00095303229586047,-0.00095302463484648,0.00095303229585949,0.39457194111806,120135,2834,0.0064636816854121,0.0064636816854123,0.0032728268665243,37.628775766737,0.0002162302061339,0.0002162302061339,0.0002162302061339,2978445.4648244,0.016332409723874
11919200,0.99151928990559,0.016146676862712,0.0060501178482526,0.0060501178482528,0.0040464411662062,-0.0015590983657641,0.0015590983657705,2.9666152542933e-15,3.2086666833177e-15,-1.9410583490587e-15,8.7161454924441e-15,-0.0016601371385738,0.0016601371385766,-0.0016601373849141,0.001660137384917,-0.0016601371337035,0.0016601371337132,-0.0016601373897793,0.0016601373897892,-0.001340849283482,0.0013408492834911,-0.0013408505088226,0.0013408505088317,-2.9900263038077e-15,-1.3900721711979e-14,6.3416369212962e-09,-6.3416624658589e-09,-0.0015590983657757,0.0015590983657588,-0.0016601350468934,0.0016601392566637,-0.0016601394766105,0.0016601352668148,-0.0016601350468971,0.0016601392566599,-0.0016601394766141,0.0016601352668112,-0.0013408431978978,0.0013408556335595,-0.0013408565944488,0.0013408441587291,-0.0015779984872204,0.0015779942689413,-0.0015779984872305,0.0015779942689297,1.8666620841815e-09,1.8666618516735e-09,-0.00078376077003247,0.00078376513131554,-4.341836872954e-09,8.3006051963386e-09,-0.00084371734325047,0.00084371777999869,-0.00084371313341022,0.00084372198983951,-0.00084371734325057,0.00084371777999866,-0.00084371313341033,0.00084372198983935,-0.00095127638524789,0.0009512845683128,-0.00095127638524708,0.00095128456831188,0.42516298576731,120135,2834,0.0064746865656799,0.00647468656568,0.0032630841802745,37.105494289289,0.00021204395431431,0.00021204395431431,0.00021204395431431,2925495.727453,0.016344880733536
12419200,0.99365934864085,0.016169923842028,0.006058832868015,0.0060588328680152,0.0040522581059975,-0.0015620821866707,0.0015620821866771,2.9536156514222e-15,3.2046079837788e-15,-1.9314115849372e-15,8.7056752240683e-15,-0.0016628162745779,0.0016628162745807,-0.0016628165718281,0.0016628165718311,-0.0016628162703325,0.0016628162703421,-0.0016628165760686,0.0016628165760784,-0.0013437750763843,0.0013437750763934,-0.0013437763126743,0.0013437763126833,-2.9769090574717e-15,-1.3875434111336e-14,6.3573149306629e-09,-6.3573404028462e-09,-0.0015620821866823,0.0015620821866654,-0.001662814182174,0.0016628183990745,-0.0016628186642482,0.0016628144473224,-0.0016628141821776,0.0016628183990707,-0.0016628186642517,0.0016628144473187,-0.0013437689788878,0.0013437814464903,-0.0013437824102128,0.0013437699425525,-0.0015812823168371,0.0015812780893094,-0.0015812823168472,0.0015812780892978,1.6506844164176e-09,1.6506841739963e-09,-0.00078088359882237,0.00078088741726991,-4.5654769494013e-09,8.1021844716899e-09,-0.00084337412987837,0.00084337406022587,-0.00084336991262186,0.00084337827748287,-0.00084337412987847,0.00084337406022582,-0.00084336991262199,0.00084337827748271,-0.00094850196751748,0.00094850970717276,-0.00094850196751667,0.00094850970717185,0.44663644431852,120135,2834,0.0064870148934645,0.0064870148934647,0.0032511862348822,36.802707895208,0.00020962166316167,0.00020962166316167,0.00020962166316167,2842400.8823335,0.016357854384103
12919200,0.99521624226208,0.016185785940474,0.006064780216154,0.0060647802161542,0.0040562255081656,-0.0015632089432981,0.0015632089433045,2.9402631181565e-15,3.2003728190425e-15,-1.9392936970852e-15,8.6903815736318e-15,-0.0016639430928614,0.0016639430928642,-0.0016639433032609,0.0016639433032638,-0.001663943087927,0.0016639430879366,-0.0016639433081903,0.0016639433082001,-0.0013444615103336,0.0013444615103427,-0.001344462708608,0.0013444627086171,-3.0005553939159e-15,-1.3887681898939e-14,6.4287924577575e-09,-6.4288179735827e-09,-0.0015632089433097,0.0015632089432928,-0.0016639409714932,0.0016639452398291,-0.0016639454246452,0.0016639411562839,-0.0016639409714968,0.0016639452398253,-0.0016639454246488,0.0016639411562803,-0.0013444553387604,0.0013444679449947,-0.0013444688802231,0.0013444562739309,-0.0015825661879238,0.0015825619115153,-0.0015825661879338,0.0015825619115037,2.0247861182152e-09,2.0247858686228e-09,-0.00077725457395175,0.00077725934339392,-4.2727393235664e-09,8.5461773846096e-09,-0.00084135595994243,0.0008413566530638,-0.00084135169100566,0.00084136092200111,-0.00084135595994253,0.00084135665306375,-0.00084135169100579,0.00084136092200094,-0.00094528792519285,0.00094529650584951,-0.00094528792519205,0.00094529650584859,0.41875849256559,120135,2834,0.0064916627177918,0.006491662717792,0.0032361594256552,36.137405244348,0.00020429924195478,0.00020429924195478,0.00020429924195478,2781662.399507,0.016352033356772
13419200,0.99632547055333,0.016196830605711,0.0060689130164732,0.0060689130164734,0.0040590045727646,-0.0015613901264304,0.0015613901264367,2.8656183396797e-15,3.1203164411805e-15,-1.946881700571e-15,8.6748526362655e-15,-0.0016627884998412,0.0016627884998438,-0.0016627885434964,0.0016627885434993,-0.0016627884935846,0.0016627884935942,-0.0016627885497479,0.0016627885497577,-0.001341332999546,0.0013413329995549,-0.001341334142308,0.001341334142317,-3.0395542025291e-15,-1.3919404964748e-14,6.5986325294628e-09,-6.5986581418174e-09,-0.001561390126442,0.001561390126425,-0.0016627863120999,0.0016627907008364,-0.0016627907312538,0.0016627863424918,-0.0016627863121035,0.0016627907008326,-0.0016627907312574,0.0016627863424881,-0.0013413266539106,0.0013413395904329,-0.0013413404879852,0.0013413275514049,-0.0015807932915626,0.001580788899462,-0.0015807932915726,0.0015807888994503,2.73435468208e-09,2.7343544365548e-09,-0.00077380251308796,0.00077380907731645,-3.7507939338659e-09,9.421695029641e-09,-0.00083682163749152,0.00083682379771954,-0.0008368172484669,0.00083682818674475,-0.00083682163749171,0.00083682379771952,-0.00083681724846706,0.00083682818674461,-0.00094296997078525,0.00094298016273228,-0.0009429699707843,0.00094298016273129,0.40900439415344,120135,2834,0.0064841393788561,0.0064841393788562,0.0032218341051893,34.797147745464,0.00019357718196371,0.00019357718196371,0.00019357718196371,2788000.4948072,0.016322178697048
13919200,0.99714223955472,0.016204793103985,0.006071892455713,0.0060718924557132,0.0040610081925583,-0.0015605029241336,0.00156050292414,2.9599095767942e-15,3.2156076477466e-15,-1.9194707732502e-15,8.7027341374459e-15,-0.0016621030143158,0.0016621030143186,-0.0016621031426328,0.0016621031426358,-0.0016621030091868,0.0016621030091965,-0.0016621031477567,0.0016621031477666,-0.0013398968225723,0.0013398968225814,-0.0013398980000925,0.0013398980001016,-2.9824971220543e-15,-1.3862869008059e-14,6.683188078716e-09,-6.6832135220045e-09,-0.0015605029241452,0.0015605029241284,-0.0016621008066817,0.0016621052456893,-0.001662105350283,0.00166210091125,-0.0016621008066853,0.0016621052456855,-0.0016621053502866,0.0016621009112464,-0.0013398904005417,0.0013399035050805,-0.0013399044221649,0.0013398913175686,-0.0015800562532216,0.0015800518067632,-0.0015800562532316,0.0015800518067516,2.3806258506933e-09,2.3806256043749e-09,-0.00077105765003643,0.00077106331201749,-4.1748805837125e-09,9.156772209559e-09,-0.00083407641406052,0.00083407774256886,-0.00083407197399877,0.00083408218263112,-0.00083407641406063,0.0008340777425688,-0.00083407197399888,0.00083408218263095,-0.00094065566751884,0.00094066516608051,-0.00094065566751805,0.00094066516607961,0.40047476240274,120135,2834,0.0064804651617019,0.0064804651617021,0.0032104431608061,33.82995290749,0.00018583962325992,0.00018583962325992,0.00018583962325992,2775309.6424043,0.01630313411637
14419200,0.99774459526607,0.016210395716821,0.0060739898371329,0.0060739898371331,0.0040624160425554,-0.0015589569075941,0.0015589569076004,2.9436747786385e-15,3.2032550839325e-15,-1.9320586239941e-15,8.6890286737855e-15,-0.0016607041686015,0.0016607041686043,-0.0016607042452029,0.0016607042452059,-0.0016607041632028,0.0016607041632125,-0.0016607042505965,0.0016607042506064,-0.0013379314848149,0.001337931484824,-0.001337932643714,0.001337932643723,-3.0046140934548e-15,-1.3882993967704e-14,6.7891371321859e-09,-6.7891626283394e-09,-0.0015589569076056,0.0015589569075888,-0.0016607019236499,0.001660706434756,-0.0016607064901706,0.0016607019790391,-0.0016607019236535,0.0016607064347522,-0.0016607064901742,0.0016607019790354,-0.0013379249574362,0.0013379382690789,-0.0013379391711345,0.001337925859434,-0.0015786119042857,0.0015786073866924,-0.0015786119042957,0.0015786073866808,2.6097175901175e-09,2.6097173393678e-09,-0.0007679060672539,0.00076791230555221,-4.0557227784586e-09,9.4913806068229e-09,-0.00083099753736691,0.00083099929928385,-0.00083099302502638,0.00083100381162491,-0.00083099753736702,0.00083099929928381,-0.0008309930250265,0.00083100381162474,-0.00093785661021285,0.00093786666190629,-0.00093785661021202,0.00093786666190541,0.38210045494667,120135,2834,0.0064740630229827,0.0064740630229829,0.003197365380955,32.644005392361,0.00017635204313889,0.00017635204313889,0.00017635204313889,2765464.7405576,0.01627683094397
14919200,0.99817665820424,0.016214571022861,0.0060755491743151,0.0060755491743153,0.0040634726742311,-0.0015553600965205,0.0015553600965269,2.9369102794069e-15,3.1964317629685e-15,-1.9395878057475e-15,8.693028551592e-15,-0.001657363548243,0.0016573635482457,-0.0016573634186649,0.0016573634186679,-0.0016573635412824,0.001657363541292,-0.0016573634256204,0.0016573634256303,-0.0013337761875211,0.0013337761875301,-0.0013337772733003,0.0013337772733093,-3.0346719987359e-15,-1.3922745051129e-14,7.042758311613e-09,-7.0427839218517e-09,-0.0015553600965321,0.0015553600965152,-0.0016573612072597,0.0016573658958568,-0.0016573657596643,0.0016573610710416,-0.0016573612072634,0.001657365895853,-0.0016573657596679,0.001657361071038,-0.0013337694025432,0.0013337832081498,-0.00133378405832,0.0013337702526555,-0.001575080003866,0.0015750753143458,-0.0015750800038761,0.0015750753143342,3.5118242292113e-09,3.5118239791881e-09,-0.00076330244275433,0.00076331095268417,-3.4287407185121e-09,1.0642977551767e-08,-0.0008259805983073,0.00082598418238296,-0.00082597590840379,0.00082598887228702,-0.00082598059830742,0.00082598418238292,-0.00082597590840392,0.00082598887228685,-0.00093375767306299,0.0009337697952582,-0.00093375767306217,0.00093376979525731,0.39678962402156,120135,2834,0.0064591749201032,0.0064591749201033,0.0031782541096912,30.58156427473,0.00015985251419784,0.00015985251419784,0.00015985251419784,2773819.961724,0.016227148195084
15419200,0.99847106590945,0.016218062570251,0.0060768465584102,0.0060768465584104,0.00406436945343,-0.0015497580695016,0.0015497580695079,2.9480275868397e-15,3.1916083809077e-15,-1.9562343560303e-15,8.6893227824477e-15,-0.0016515371913611,0.0016515371913638,-0.0016515367376094,0.0016515367376123,-0.0016515371822144,0.0016515371822241,-0.001651536746751,0.0016515367467609,-0.0013282377040222,0.0013282377040313,-0.0013282386607387,0.0013282386607479,-3.0761413201119e-15,-1.3979572933643e-14,7.5123149216462e-09,-7.5123406863252e-09,-0.0015497580695132,0.0015497580694961,-0.0016515346776273,0.0016515396911995,-0.0016515392513594,0.0016515342377614,-0.001651534677631,0.0016515396911957,-0.001651539251363,0.0016515342377578,-0.0013282304460273,0.0013282451672124,-0.0013282459187756,0.0013282311975323,-0.0015696578901666,0.0015696528835256,-0.0015696578901767,0.0015696528835141,4.9692224507363e-09,4.9692222166723e-09,-0.00075464098230919,0.00075465315838197,-2.4717523004709e-09,1.2564338785943e-08,-0.00081872073962546,0.00081872718116971,-0.00081871572440861,0.00081873219638709,-0.00081872073962558,0.00081872718116967,-0.00081871572440874,0.00081873219638694,-0.00092510324222761,0.00092511875102815,-0.00092510324222685,0.00092511875102728,0.48651353790675,120135,2834,0.0064359700206248,0.006435970020625,0.0031423138206084,27.074482111984,0.00013179585689587,0.00013179585689587,0.00013179585689587,2748540.7830394,0.016143469243972
15919200,0.99869727315477,0.016221350566273,0.0060780644149409,0.0060780644149411,0.0040652217363914,-0.001548911467932,0.0015489114679384,2.9448512132875e-15,3.1901378375965e-15,-1.9472346309657e-15,8.7020282766565e-15,-0.0016496628685169,0.0016496628685197,-0.0016496628356485,0.0016496628356514,-0.0016496628639678,0.0016496628639775,-0.0016496628401926,0.0016496628402025,-0.0013285627268203,0.0013285627268294,-0.0013285638188431,0.0013285638188521,-3.0109080188268e-15,-1.3922187278647e-14,7.5645607166082e-09,-7.5645862480882e-09,-0.0015489114679436,0.0015489114679266,-0.0016496603712522,0.00164966539464,-0.0016496653329293,0.001649660309516,-0.0016496603712558,0.0016496653946362,-0.0016496653329329,0.0016496603095123,-0.0013285554440421,0.0013285702770084,-0.0013285711016631,0.001328556268639,-0.0015690530500715,0.0015690480171258,-0.0015690530500815,0.0015690480171142,3.2037746372642e-09,3.2037743990089e-09,-0.0007472775419881,0.00074728525115956,-4.2318877599746e-09,1.0868834649877e-08,-0.00081593989681546,0.00081594235628548,-0.0008159348680078,0.00081594738509369,-0.00081593989681558,0.00081594235628543,-0.00081593486800791,0.0008159473850935,-0.00091687645264369,0.00091688827334414,-0.00091687645264292,0.00091688827334324,0.59571470761932,120135,2834,0.0064324244921228,0.006432424492123,0.0031117896061853,25.355863362671,0.00011804690690137,0.00011804690690137,0.00011804690690137,2636777.5666692,0.016105258898976
16419200,0.99888081084616,0.016223598456733,0.0060789005828637,0.0060789005828639,0.0040657972910056,-0.0015493252908468,0.0015493252908531,2.9496157736158e-15,3.1943141806003e-15,-1.949763965461e-15,8.6971460728633e-15,-0.0016493416357847,0.0016493416357875,-0.0016493417814257,0.0016493417814286,-0.0016493416327499,0.0016493416327595,-0.0016493417844556,0.0016493417844654,-0.0013296318461494,0.0013296318461585,-0.0013296329932705,0.0013296329932796,-3.0025553328192e-15,-1.3910090681278e-14,7.4464466451014e-09,-7.4464721469241e-09,-0.0015493252908583,0.0015493252908415,-0.0016493391893151,0.0016493441253568,-0.0016493442279114,0.0016493392918442,-0.0016493391893187,0.0016493441253531,-0.001649344227915,0.0016493392918406,-0.0013296246880749,0.0013296392929909,-0.0013296401513869,0.0013296255464132,-0.0015696010129045,0.0015695960619463,-0.0015696010129146,0.0015695960619347,2.4027414577066e-09,2.402741237081e-09,-0.00074044187818339,0.00074044758476535,-4.8931576078277e-09,9.9535999000035e-09,-0.00081340481807342,0.00081340557959548,-0.00081339987643388,0.00081341052123552,-0.00081340481807355,0.00081340557959548,-0.00081339987643401,0.00081341052123539,-0.00090965581776601,0.00090966587608373,-0.00090965581776522,0.00090966587608284,0.50210013400473,120135,2834,0.0064340971052783,0.0064340971052785,0.0030834716489164,24.413115940281,0.00011050492752225,0.00011050492752225,0.00011050492752225,2514783.9131597,0.016079894434131
16919200,0.99903334082236,0.016226029199519,0.006079794180449,0.0060797941804492,0.0040664408386207,-0.0015463718886125,0.0015463718886189,2.9441453524981e-15,3.210548978756e-15,-1.9583519383984e-15,8.6666175937227e-15,-0.0016482560783541,0.0016482560783568,-0.0016482562769647,0.0016482562769676,-0.0016482560756909,0.0016482560757005,-0.0016482562796228,0.0016482562796327,-0.0013235201452687,0.0013235201452777,-0.0013235213400324,0.0013235213400416,-2.9562626293824e-15,-1.3839742186994e-14,7.3029064837177e-09,-7.3029319963706e-09,-0.0015463718886241,0.0015463718886072,-0.0016482536824348,0.0016482585210498,-0.0016482586728999,0.0016482538342596,-0.0016482536824384,0.001648258521046,-0.0016482586729035,0.001648253834256,-0.0013235131305045,0.0013235274546798,-0.0013235283548387,0.0013235140306055,-0.0015665492255026,0.0015665443703746,-0.0015665492255127,0.0015665443703632,2.1133189719741e-09,2.1133187031525e-09,-0.00073956027878567,0.00073956526370508,-5.0319640684739e-09,9.5201787984081e-09,-0.00080736176138277,0.00080736206577577,-0.00080735691888225,0.0008073669082768,-0.00080736176138283,0.00080736206577571,-0.00080735691888231,0.00080736690827663,-0.00091148962873197,0.00091149897849677,-0.00091148962873113,0.00091149897849612,0.65164127745866,120135,2834,0.0064219099553938,0.006421909955394,0.0030797738686458,23.780486199659,0.00010544388959727,0.00010544388959727,0.00010544388959727,2590068.4208039,0.016051356548286
17419200,0.99915300109885,0.016227746038575,0.006080430243707,0.0060804302437072,0.004066885551161,-0.0015461767764422,0.0015461767764487,2.971438636354e-15,3.2361952541035e-15,-1.9686457415769e-15,8.7597323961882e-15,-0.0016465416654363,0.001646541665439,-0.0016465416129289,0.0016465416129318,-0.0016465416604482,0.0016465416604579,-0.0016465416179119,0.0016465416179218,-0.0013251979168646,0.0013251979168736,-0.0013251989837773,0.0013251989837866,-2.972615071003e-15,-1.3954581279841e-14,7.376877010462e-09,-7.3769025151606e-09,-0.0015461767764538,0.0015461767764369,-0.0016465392274682,0.0016465441281803,-0.001646544050913,0.0016465391501755,-0.0016465392274719,0.0016465441281765,-0.0016465440509167,0.0016465391501718,-0.0013251908155458,0.0013252052796139,-0.0013252060851381,0.0013251916210124,-0.0015668424196169,0.0015668375111726,-0.001566842419627,0.0015668375111609,3.2117016901968e-09,3.2117014653131e-09,-0.00073069054600836,0.00073069833102511,-4.0387667000581e-09,1.0684243849165e-08,-0.00080482180892372,0.00080482438037854,-0.00080481690509548,0.00080482928420726,-0.0008048218089238,0.00080482438037852,-0.00080481690509561,0.00080482928420708,-0.00090096991089289,0.0009009816431097,-0.00090096991089207,0.00090098164310886,0.58772740813402,120135,2834,0.0064210471953317,0.006421047195332,0.0030430229087817,21.984871358757,9.1078970870057e-05,9.1078970870057e-05,9.1078970870057e-05,2436126.564779,0.016012281191846
17919200,0.99924442308885,0.016228843704531,0.0060808371271797,0.0060808371271799,0.0040671694501715,-0.0015403041006583,0.0015403041006647,2.9603213289213e-15,3.1863732467198e-15,-1.9582342949335e-15,8.7232041003379e-15,-0.0016421519274883,0.0016421519274911,-0.0016421516957155,0.0016421516957184,-0.0016421519211835,0.0016421519211932,-0.0016421517020152,0.0016421517020251,-0.0013166509149947,0.0013166509150037,-0.0013166519358994,0.0013166519359084,-3.1033169605029e-15,-1.4047126591432e-14,7.5665252529897e-09,-7.566550853694e-09,-0.0015403041006699,0.0015403041006529,-0.0016421494164265,0.0016421544508932,-0.0016421542067935,0.0016421491723011,-0.0016421494164301,0.0016421544508894,-0.0016421542067971,0.0016421491722974,-0.0013166436200962,0.0013166584534643,-0.0013166592308395,0.0013166443974136,-0.001560930065388,0.001560925027812,-0.001560930065398,0.0015609250278004,3.9299828263472e-09,3.9299826012292e-09,-0.00072482952182852,0.00072483913473529,-3.5293533885498e-09,1.1589619280645e-08,-0.00079533361435977,0.00079533770528575,-0.00079532857650581,0.00079534274314016,-0.00079533361435983,0.00079533770528571,-0.00079532857650597,0.00079534274313998,-0.00089747854200068,0.00089749191967589,-0.00089747854199979,0.000897491919675,0.4915601615792,120135,2834,0.0063967600943577,0.0063967600943578,0.0030186677670943,19.505429936794,7.1243439494353e-05,7.1243439494353e-05,7.1243439494353e-05,2482820.9473965,0.015938176042479
18419200,0.99931709299433,0.016229756515113,0.0060811746941452,0.0060811746941454,0.0040674071268227,-0.0015348808399216,0.001534880839928,2.9420277701299e-15,3.1610210800346e-15,-1.9523521216887e-15,8.7340272991084e-15,-0.0016381263246281,0.0016381263246309,-0.0016381261780144,0.0016381261780173,-0.001638126319386,0.0016381263193957,-0.0016381261832513,0.0016381261832612,-0.0013089522028169,0.0013089522028259,-0.0013089532912445,0.0013089532912535,-3.0004965721835e-15,-1.394182420173e-14,7.6718397145717e-09,-7.6718653427634e-09,-0.0015348808399332,0.0015348808399162,-0.0016381237865057,0.0016381288852298,-0.0016381287161528,0.0016381236174032,-0.0016381237865094,0.001638128885226,-0.0016381287161564,0.0016381236173996,-0.0013089448112041,0.0013089598534736,-0.001308960682899,0.0013089456405714,-0.001555544015481,0.0015555389095236,-0.001555544015491,0.0015555389095119,3.5527200285399e-09,3.552719820907e-09,-0.00072216998772624,0.00072217861898418,-3.9976801586153e-09,1.1321708889853e-08,-0.00078793687512359,0.0007879401514559,-0.00078793177257514,0.00078794525400488,-0.00078793687512369,0.00078794015145588,-0.00078793177257527,0.00078794525400473,-0.00089670122561961,0.00089671386041447,-0.00089670122561874,0.00089671386041351,0.51421839069127,120135,2834,0.0063743461279057,0.0063743461279058,0.0030075688102282,17.481682533695,5.5053460269562e-05,5.5053460269562e-05,5.5053460269562e-05,2573002.5510013,0.015881348209603
18919200,0.99938050781212,0.016230666897302,0.0060815111665607,0.0060815111665609,0.0040676445641804,-0.0015347588385122,0.0015347588385186,2.9707915972971e-15,3.182196903716e-15,-1.9786454360931e-15,8.7329685079243e-15,-0.00163744527947,0.0016374452794728,-0.0016374454727244,0.0016374454727274,-0.0016374452772771,0.0016374452772868,-0.0016374454749123,0.0016374454749222,-0.0013095709280232,0.0013095709280323,-0.0013095721324139,0.001309572132423,-2.9654388196443e-15,-1.3936271522096e-14,7.4955820880347e-09,-7.4956076088916e-09,-0.0015347588385238,0.0015347588385069,-0.0016374428226948,0.0016374477872594,-0.0016374479295157,0.0016374429649257,-0.0016374428226985,0.0016374477872556,-0.0016374479295193,0.001637442964922,-0.0013095637267627,0.0013095784296722,-0.0013095793337162,0.0013095646307488,-0.0015557327047452,0.0015557277219227,-0.0015557327047553,0.001555727721911,2.1475293423134e-09,2.1475291419e-09,-0.00072002927763576,0.00072003433454958,-5.1850911400874e-09,9.7488001490017e-09,-0.00078748317886164,0.00078748343950224,-0.00078747821002903,0.00078748840833538,-0.00078748317886174,0.0007874834395022,-0.00078747821002912,0.00078748840833521,-0.00089380505165304,0.00089381459526628,-0.00089380505165231,0.00089381459526539,0.5877987766322,120135,2834,0.0063738277005417,0.0063738277005419,0.002998682099264,16.87572166478,5.020577331824e-05,5.020577331824e-05,5.020577331824e-05,2533295.4137739,0.015871272704841
19419200,0.99944031350313,0.016231626736611,0.0060818651090006,0.0060818651090008,0.00406789651861,-0.0015376302222609,0.0015376302222673,2.9931438556274e-15,3.1922554199646e-15,-1.9562343560303e-15,8.7596735744558e-15,-0.001639445243964,0.0016394452439668,-0.0016394457341212,0.0016394457341242,-0.0016394452436592,0.0016394452436689,-0.001639445734421,0.001639445734431,-0.0013136088786803,0.0013136088786894,-0.0013136101849335,0.0013136101849425,-2.9196755117996e-15,-1.3883551050869e-14,7.0954166426208e-09,-7.0954420475424e-09,-0.0015376302222725,0.0015376302222557,-0.0016394429348424,0.0016394476219034,-0.001639448043259,0.0016394433561727,-0.001639442934846,0.0016394476218996,-0.0016394480432626,0.001639443356169,-0.0013136020806828,0.0013136160036565,-0.0013136169829727,0.0013136030599412,-0.0015587372362186,0.0015587325242267,-0.0015587372362287,0.001558732524215,8.434800663678e-10,8.4347985706347e-10,-0.00071881300190605,0.00071881477246924,-6.0642529408125e-09,8.0517965285667e-09,-0.00078967726727403,0.00078967491510352,-0.00078967257416687,0.00078967960821123,-0.00078967726727413,0.00078967491510347,-0.00078967257416697,0.00078967960821107,-0.00089166377384548,0.00089167030145136,-0.00089166377384474,0.0008916703014504,0.65664642788028,120135,2834,0.0063856853883695,0.0063856853883697,0.0029936692562155,17.545078111564,5.5560624892511e-05,5.5560624892511e-05,5.5560624892511e-05,2444844.569775,0.01589028068551
19919200,0.99949798131026,0.016232528451772,0.0060821974235482,0.0060821974235484,0.0040681336046757,-0.0015409824721817,0.0015409824721881,2.9566155597771e-15,3.1767264825983e-15,-1.96223417274e-15,8.7265569390874e-15,-0.0016423746102839,0.0016423746102867,-0.0016423752058299,0.0016423752058328,-0.0016423746099887,0.0016423746099984,-0.0016423752061201,0.00164237520613,-0.0013173628834206,0.0013173628834297,-0.0013173642288181,0.0013173642288271,-2.92496946772e-15,-1.3870607167803e-14,6.6966933115805e-09,-6.6967186620549e-09,-0.0015409824721933,0.0015409824721765,-0.0016423724343713,0.0016423768553014,-0.0016423773817586,0.0016423729608032,-0.0016423724343749,0.0016423768552976,-0.0016423773817622,0.0016423729607996,-0.0013173564764683,0.0013173696181823,-0.0013173706358121,0.0013173574940404,-0.0015621427293691,0.0015621382835758,-0.0015621427293792,0.0015621382835642,3.3778492968822e-10,3.3778472149686e-10,-0.00071824544199504,0.00071824595181117,-6.1681640319919e-09,7.1452056428668e-09,-0.0007915225724814,0.00079151938609231,-0.00079151814675716,0.000791523811817,-0.0007915225724815,0.00079151938609226,-0.00079151814675728,0.00079152381181684,-0.00089084880209441,0.00089085400014402,-0.00089084880209361,0.00089085400014307,0.63949909152815,120135,2834,0.0063995407575775,0.0063995407575777,0.0029913543233507,18.680619236892,6.4644953895133e-05,6.4644953895133e-05,6.4644953895133e-05,2365243.563761,0.015916085641646
20419200,0.99954947849226,0.01623339816372,0.0060825165700158,0.006082516570016,0.004068365023688,-0.0015405503411805,0.0015405503411869,2.9509098517296e-15,3.159491714991e-15,-1.9409407055938e-15,8.6927932646622e-15,-0.0016426409079035,0.0016426409079062,-0.0016426412224727,0.0016426412224756,-0.0016426409046985,0.0016426409047082,-0.0016426412256726,0.0016426412256825,-0.0013155802809893,0.0013155802809984,-0.0013155815180608,0.0013155815180698,-2.9579684596234e-15,-1.3852418672438e-14,6.5942509362202e-09,-6.5942763430313e-09,-0.0015405503411921,0.0015405503411752,-0.0016426387441795,0.001642643113277,-0.0016426433862127,0.0016426390170899,-0.0016426387441831,0.0016426431132732,-0.0016426433862163,0.0016426390170862,-0.0013155739573088,0.0013155868917164,-0.0013155878417831,0.0013155749073178,-0.0015617370228449,0.0015617326395113,-0.0015617370228549,0.0015617326394998,1.5126781195589e-09,1.512677921169e-09,-0.00071695858217046,0.00071696208912969,-4.9307272054148e-09,8.2086195510371e-09,-0.0007888534631057,0.00078885292028659,-0.00078884909024089,0.0007888572931519,-0.0007888534631058,0.00078885292028653,-0.000788849090241,0.00078885729315173,-0.0008907311503212,0.00089073877424753,-0.00089073115032047,0.00089073877424666,0.69004788769245,120135,2834,0.0063977607561296,0.0063977607561298,0.0029860177326389,18.601964816818,6.401571853454e-05,6.401571853454e-05,6.401571853454e-05,2364917.512092,0.015907043163801
20919200,0.99959231275641,0.016234073636421,0.0060827650944207,0.0060827650944209,0.0040685434475798,-0.00153905170404,0.0015390517040463,2.9559096989877e-15,3.164609205714e-15,-1.946352304979e-15,8.7047340763491e-15,-0.0016409196984589,0.0016409196984617,-0.0016409197237735,0.0016409197237764,-0.0016409196927624,0.0016409196927721,-0.0016409197294649,0.0016409197294748,-0.0013141168955561,0.0013141168955652,-0.0013141180153573,0.0013141180153663,-2.991908599246e-15,-1.391730852144e-14,6.7444804731418e-09,-6.7445059967141e-09,-0.0015390517040515,0.0015390517040346,-0.0016409174659708,0.0016409219490877,-0.0016409219562777,0.0016409174731354,-0.0016409174659744,0.0016409219490839,-0.0016409219562813,0.0016409174731317,-0.0013141104098048,0.0013141236332251,-0.0013141245011505,0.0013141112776724,-0.001560454933233,0.001560450445053,-0.0015604549332431,0.0015604504450413,2.7549547825341e-09,2.7549545875284e-09,-0.0007117331977071,0.00071173985847967,-3.8705093824702e-09,9.5908806660523e-09,-0.00078529779905543,0.00078529985636564,-0.00078529331443121,0.00078530434099033,-0.00078529779905552,0.00078529985636561,-0.00078529331443133,0.00078530434099019,-0.00088544653877251,0.00088545689284223,-0.00088544653877174,0.00088545689284127,0.64466974006305,120135,2834,0.0063915401227728,0.006391540122773,0.0029643502155851,17.278884850684,5.3431078805468e-05,5.3431078805468e-05,5.3431078805468e-05,2311454.5340945,0.015872397281418
21419200,0.99962669060798,0.016234612897059,0.0060829631350652,0.0060829631350654,0.0040686866269279,-0.0015345049771976,0.0015345049772039,2.9653211761794e-15,3.1754324044845e-15,-1.9763513885276e-15,8.6984401509772e-15,-0.0016372942574098,0.0016372942574125,-0.0016372941000619,0.0016372941000649,-0.0016372942504483,0.0016372942504581,-0.0016372941070183,0.0016372941070282,-0.0013078712203555,0.0013078712203646,-0.0013078722860255,0.0013078722860345,-3.0054964194416e-15,-1.3948585599035e-14,6.9967625571623e-09,-6.996788058025e-09,-0.0015345049772092,0.0015345049771923,-0.0016372919314305,0.0016372965896283,-0.0016372964260573,0.0016372917678341,-0.0016372919314341,0.0016372965896245,-0.001637296426061,0.0016372917678304,-0.0013078644799487,0.0013078781954997,-0.001307879026474,0.0013078653108654,-0.0015559522015265,0.0015559475427533,-0.0015559522015365,0.0015559475427418,3.5213389625325e-09,3.521338767959e-09,-0.00070705002801878,0.00070705862794463,-3.3747633503991e-09,1.0607035013891e-08,-0.00077825385455372,0.00077825746342218,-0.00077824919442312,0.00077826212355331,-0.00077825385455383,0.00077825746342216,-0.00077824919442316,0.00077826212355311,-0.00088224682244478,0.00088225896292787,-0.00088224682244412,0.00088225896292692,0.64095610021346,120135,2834,0.0063727334435298,0.00637273344353,0.002944888794958,15.23372938613,3.706983508904e-05,3.706983508904e-05,3.706983508904e-05,2342420.4817511,0.015814411933121
21919200,0.9996559229262,0.016235058499556,0.0060831270381603,0.0060831270381605,0.0040688044232352,-0.0015323559403123,0.0015323559403187,2.9646153153901e-15,3.1654915317007e-15,-1.953175625943e-15,8.711145645186e-15,-0.0016352951459755,0.0016352951459782,-0.0016352951763578,0.0016352951763607,-0.001635295141113,0.0016352951411227,-0.0016352951812152,0.001635295181225,-0.0013053029462387,0.0013053029462478,-0.0013053040870701,0.0013053040870791,-3.0023200458894e-15,-1.3927431431401e-14,7.0728602839212e-09,-7.0728858257647e-09,-0.0015323559403239,0.001532355940307,-0.0016352928102982,0.0016352975076369,-0.0016352975120512,0.0016352928146869,-0.0016352928103018,0.0016352975076331,-0.0016352975120548,0.0016352928146833,-0.0013052961435738,0.0013053100125962,-0.0013053108897769,0.0013052970206967,-0.0015539736859063,0.0015539689802636,-0.0015539736859164,0.001553968980252,2.7508946651298e-09,2.7508944736504e-09,-0.00070370718842591,0.00070371381722639,-4.1938169618478e-09,9.9201041366777e-09,-0.00077469403648483,0.00077469590367854,-0.00077468933602967,0.0007747006041342,-0.00077469403648492,0.00077469590367851,-0.00077468933602978,0.00077470060413405,-0.00087921183518415,0.00087922239018068,-0.00087921183518337,0.00087922239017971,0.62311101531201,120135,2834,0.006363837053453,0.0063638370534532,0.0029310001979897,13.9974803675,2.7179842940004e-05,2.7179842940004e-05,2.7179842940004e-05,2335961.7487681,0.015782230212324
22419200,0.99968428045232,0.01623551023354,0.0060832929462605,0.0060832929462607,0.004068924341019,-0.0015338440087699,0.0015338440087763,2.9599683985266e-15,3.1541389373382e-15,-1.9390584101554e-15,8.6781466532826e-15,-0.0016370213531757,0.0016370213531785,-0.0016370218703496,0.0016370218703525,-0.0016370213508376,0.0016370213508473,-0.0016370218726826,0.0016370218726924,-0.0013063542862263,0.0013063542862353,-0.0013063556108205,0.0013063556108294,-2.9703210234375e-15,-1.3841365586389e-14,6.0886366604197e-09,-6.0886620643714e-09,-0.0015338440087815,0.0015338440087647,-0.001637019364383,0.001637023391736,-0.0016370238591583,0.0016370198317801,-0.0016370193643866,0.0016370233917322,-0.0016370238591619,0.0016370198317764,-0.0013063484631162,0.0013063604084299,-0.0013063614339724,0.001306349488601,-0.0015555139377647,0.0015555098931464,-0.0015555139377748,0.0015555098931348,5.9279506332718e-10,5.9279487961157e-10,-0.00070533347259269,0.00070533466264055,-5.3291228312019e-09,6.7813801150145e-09,-0.00077550598774565,0.0007755037887669,-0.0007755019593755,0.00077550781713756,-0.00077550598774575,0.00077550378876687,-0.00077550195937561,0.00077550781713741,-0.00088119356432918,0.00088119890857328,-0.00088119356432842,0.00088119890857232,0.65096373206224,120135,2834,0.0063700043768478,0.006370004376848,0.0029377376619986,14.849052758824,3.3992422070589e-05,3.3992422070589e-05,3.3992422070589e-05,2336405.8492038,0.015801601395903
22919200,0.99971110039055,0.01623589558342,0.0060834348886758,0.006083434888676,0.0040690258060683,-0.0015354767188419,0.0015354767188482,2.95043927787e-15,3.1511390289833e-15,-1.9340585628973e-15,8.6643235461572e-15,-0.0016383458066893,0.0016383458066921,-0.0016383462460804,0.0016383462460833,-0.0016383458033162,0.0016383458033259,-0.0016383462494485,0.0016383462494583,-0.0013083661517135,0.0013083661517226,-0.0013083674431644,0.0013083674431734,-2.9818500829974e-15,-1.3836185023144e-14,6.0036343341714e-09,-6.003659742634e-09,-0.0015354767188534,0.0015354767188366,-0.0016383438385551,0.001638347814945,-0.0016383482142307,0.0016383442378155,-0.0016383438385587,0.0016383478149412,-0.0016383482142343,0.0016383442378119,-0.0013083604057402,0.001308372182322,-0.0013083731891795,0.0013083614125401,-0.0015572563874976,0.0015572523976214,-0.0015572563875076,0.0015572523976098,9.035010222773e-10,9.0350083081687e-10,-0.00070518808595701,0.00070519007427285,-4.9473513070158e-09,7.0039765676802e-09,-0.00077662135408548,0.00077661989007692,-0.00077661737683271,0.0007766238673302,-0.00077662135408557,0.00077661989007689,-0.00077661737683281,0.00077662386733006,-0.00088069799942678,0.0008807039478098,-0.00088069799942602,0.00088070394780885,0.58748017292924,120135,2834,0.0063767528803119,0.0063767528803122,0.0029371524320022,15.356845869174,3.8054766953389e-05,3.8054766953389e-05,3.8054766953389e-05,2297764.882305,0.015814720755994
23419200,0.99973615444835,0.016236266296948,0.0060835710303867,0.0060835710303869,0.0040691242361741,-0.0015351667498674,0.0015351667498738,2.9503216344051e-15,3.1461980034577e-15,-1.9238235814513e-15,8.6449123744493e-15,-0.0016388436183675,0.0016388436183702,-0.001638844017146,0.001638844017149,-0.0016388436145134,0.001638843614523,-0.0016388440209951,0.0016388440210049,-0.001306777175454,0.0013067771754631,-0.0013067784585404,0.0013067784585493,-2.989143977821e-15,-1.3816681597821e-14,5.9680009813328e-09,-5.9680263409397e-09,-0.001535166749879,0.0015351667498622,-0.0016388416585071,0.0016388456138747,-0.0016388459770225,0.0016388420216296,-0.0016388416585107,0.0016388456138709,-0.001638845977026,0.001638842021626,-0.0013067714616914,0.0013067831674497,-0.0013067841723446,0.0013067724665289,-0.0015568655598005,0.001556861592622,-0.0015568655598105,0.0015568615926105,1.0634188273139e-09,1.0634186419375e-09,-0.00070679383372049,0.00070679623185141,-4.7579556995925e-09,7.1265764867128e-09,-0.00077549340744734,0.00077549233599886,-0.00077548945171963,0.00077549629172709,-0.00077549340744744,0.00077549233599883,-0.00077548945171974,0.00077549629172695,-0.00088342600462419,0.00088343226890617,-0.00088342600462345,0.00088343226890523,0.60459639632209,120135,2834,0.0063754918609355,0.0063754918609356,0.0029437973682837,15.705339458576,4.0842715668612e-05,4.0842715668612e-05,4.0842715668612e-05,2342041.9703147,0.015818901486616
23919200,0.99976084493908,0.016236696858103,0.0060837287716817,0.0060837287716819,0.004069239314739,-0.0015382213472834,0.0015382213472897,2.9591448942724e-15,3.1510802072509e-15,-1.9214707121534e-15,8.6504416172994e-15,-0.0016415160095308,0.0016415160095336,-0.0016415166322616,0.0016415166322645,-0.0016415160074739,0.0016415160074835,-0.0016415166343136,0.0016415166343234,-0.0013104151229306,0.0013104151229397,-0.0013104164846662,0.0013104164846751,-2.9653211761794e-15,-1.3790843864628e-14,5.7656989396049e-09,-5.765724282228e-09,-0.0015382213472949,0.0015382213472782,-0.0016415141304354,0.0016415179410989,-0.0016415185113731,0.0016415147006844,-0.001641514130439,0.0016415179410951,-0.0016415185113767,0.0016415147006808,-0.0013104096178112,0.0013104209307801,-0.0013104219898273,0.001310410676801,-0.0015600512364074,0.0015600474074788,-0.0015600512364174,0.0015600474074673,1.0150837718154e-10,1.0150819540607e-10,-0.00070896204735167,0.00070896201184277,-5.4932775646411e-09,5.9676740078292e-09,-0.00077879646560222,0.00077879340631373,-0.00077879265416217,0.0007787972177543,-0.00077879646560231,0.0007787934063137,-0.00077879265416226,0.00077879721775415,-0.00088500612100051,0.00088501021775296,-0.00088500612099978,0.00088501021775201,0.71228945632067,120135,2834,0.0063881296163801,0.0063881296163803,0.0029528074336401,17.003048332909,5.1224386663271e-05,5.1224386663271e-05,5.1224386663271e-05,2310029.100022,0.015853733441617
24419200,0.99978439032901,0.016237088146557,0.0060838723592977,0.0060838723592979,0.0040693434279618,-0.0015417136047063,0.0015417136047126,2.9701445582402e-15,3.1473156163742e-15,-1.9801748011367e-15,8.6585590163773e-15,-0.0016439028490552,0.0016439028490579,-0.0016439033736796,0.0016439033736824,-0.0016439028457232,0.0016439028457329,-0.0016439033770065,0.0016439033770164,-0.0013154818822095,0.0013154818822185,-0.0013154832016225,0.0013154832016316,-2.9669093629555e-15,-1.3857566665446e-14,5.6847478805449e-09,-5.6847732948942e-09,-0.0015417136047178,0.001541713604701,-0.0016439009875632,0.0016439047510559,-0.0016439052351878,0.0016439014716698,-0.0016439009875668,0.001643904751052,-0.0016439052351914,0.0016439014716662,-0.0013154764488955,0.0013154876006412,-0.0013154886349782,0.0013154774831746,-0.0015636539073004,0.0015636501303448,-0.0015636539073103,0.0015636501303332,5.0440053688134e-10,5.0440036426805e-10,-0.00070773873555105,0.0007077397248273,-5.0260826413312e-09,6.2852010513395e-09,-0.0007819192608303,0.00078191713023093,-0.00078191549679983,0.00078192089426197,-0.00078191926083039,0.00078191713023097,-0.00078191549679994,0.00078192089426182,-0.00088248687118425,0.0008824917667682,-0.0008824868711835,0.0008824917667673,0.6789410524186,120135,2834,0.0064025495005427,0.0064025495005429,0.0029477849735779,17.880797549473,5.8246380395785e-05,5.8246380395785e-05,5.8246380395785e-05,2206764.7976312,0.01587793966529
24919200,0.99980619826097,0.016237412777238,0.006083991410494,0.0060839914104942,0.0040694299562498,-0.0015420204115611,0.0015420204115674,2.9653799979119e-15,3.1524331070972e-15,-1.9646458637704e-15,8.7114985755807e-15,-0.0016449575148508,0.0016449575148536,-0.0016449579423878,0.0016449579423907,-0.0016449575105917,0.0016449575106014,-0.0016449579466419,0.0016449579466517,-0.0013144488511661,0.0013144488511753,-0.0013144501378666,0.0013144501378755,-2.959615468132e-15,-1.3901439808148e-14,5.6920994094417e-09,-5.6921248004376e-09,-0.0015420204115727,0.0015420204115558,-0.0016449556439658,0.0016449594175729,-0.001644959813289,0.0016449560396565,-0.0016449556439695,0.0016449594175691,-0.0016449598132926,0.0016449560396528,-0.0013144434053278,0.0013144545694891,-0.0013144555837467,0.0013144444195277,-0.0015638894202051,0.001563885636437,-0.0015638894202152,0.0015638856364254,9.119239573404e-10,9.119237801486e-10,-0.00070823819853842,0.00070824022627992,-4.6380746080467e-09,6.6969119838173e-09,-0.00078062165811365,0.00078062042514626,-0.00078061788463906,0.00078062419862136,-0.00078062165811374,0.00078062042514626,-0.00078061788463916,0.0007806241986212,-0.00088419490456062,0.0008842006700143,-0.00088419490455989,0.00088420067001334,0.60789483588396,120135,2834,0.0064038325141466,0.0064038325141468,0.0029498580372987,18.351423608834,6.2011388870669e-05,6.2011388870669e-05,6.2011388870669e-05,2219457.1410648,0.015882646527328
25419200,0.99982761617853,0.016237799799361,0.0060841325784015,0.0060841325784017,0.0040695346425578,-0.001543951547033,0.0015439515470394,2.9654976413768e-15,3.149786129137e-15,-1.9550579213813e-15,8.7106750713264e-15,-0.0016477548045849,0.0016477548045876,-0.0016477554911904,0.0016477554911933,-0.0016477548025602,0.0016477548025699,-0.0016477554932099,0.0016477554932198,-0.0013150390912781,0.0013150390912871,-0.0013150404780883,0.0013150404780972,-2.9428512743842e-15,-1.3861191899367e-14,5.4926888546934e-09,-5.492714263732e-09,-0.0015439515470446,0.0015439515470278,-0.0016477530167058,0.0016477566453088,-0.0016477572790854,0.0016477536504572,-0.0016477530167095,0.001647756645305,-0.0016477572790889,0.0016477536504535,-0.0013150338540503,0.0013150446318766,-0.001315045715358,0.001315034937474,-0.0015658050340642,0.0015658013870963,-0.0015658050340742,0.0015658013870847,-1.9744904513459e-10,-1.9744921815016e-10,-0.00071268964454432,0.00071268886591674,-5.5174130156028e-09,5.3945972644303e-09,-0.00078197510899495,0.0007819715795544,-0.00078197148055154,0.00078197520799831,-0.000781975108995,0.00078197157955436,-0.00078197148055164,0.00078197520799814,-0.00088971261487197,0.00088971590317542,-0.00088971261487118,0.00088971590317443,0.7372586897946,120135,2834,0.006411854231619,0.0064118542316192,0.0029683083954092,19.918383535235,7.4547068281879e-05,7.4547068281879e-05,7.4547068281879e-05,2265082.2497779,0.015917680933232
25919200,0.99984755089491,0.016238155787322,0.0060842628454388,0.006084262845439,0.0040696300964438,-0.0015477709513724,0.0015477709513787,2.9780854921207e-15,3.1659621055603e-15,-1.9708809674099e-15,8.7372036726606e-15,-0.0016501116469922,0.0016501116469949,-0.0016501121562932,0.0016501121562961,-0.0016501116430173,0.001650111643027,-0.0016501121602631,0.001650112160273,-0.0013210143950553,0.0013210143950644,-0.0013210157087785,0.0013210157087876,-3.0003201069861e-15,-1.3967338932383e-14,5.4721453190478e-09,-5.4721707274185e-09,-0.001547770951384,0.0015477709513671,-0.0016501098515305,0.0016501134769139,-0.0016501139517711,0.0016501103263622,-0.0016501098515341,0.0016501134769101,-0.0016501139517748,0.0016501103263585,-0.0013210091663043,0.0013210198999434,-0.0013210209375704,0.001321010203874,-0.0015698854083196,0.0015698817718936,-0.0015698854083297,0.0015698817718819,5.420584380956e-10,5.4205825163956e-10,-0.00071122437591732,0.00071122547280151,-4.78361266163e-09,6.1072676718937e-09,-0.0007858276782455,0.00078582577497042,-0.0007858240531255,0.00078582940009074,-0.00078582767824561,0.00078582577497033,-0.00078582405312562,0.00078582940009053,-0.00088632619471186,0.0008863310323757,-0.00088632619471115,0.00088633103237483,0.72914636768882,120135,2834,0.0064276214331402,0.0064276214331403,0.0029622851494763,20.733526840886,8.106821472709e-05,8.106821472709e-05,8.106821472709e-05,2146503.9282578,0.015943613096808
26419200,0.99986485697553,0.016238491920455,0.0060843851975765,0.0060843851975767,0.0040697215253013,-0.0015469548480698,0.0015469548480762,2.9729680013977e-15,3.1666091446172e-15,-1.9711750760721e-15,8.7423211633836e-15,-0.0016497825124366,0.0016497825124394,-0.0016497827497006,0.0016497827497036,-0.0016497825062042,0.001649782506214,-0.0016497827559279,0.0016497827559378,-0.0013192238953751,0.0013192238953843,-0.0013192251069561,0.0013192251069652,-2.9489687345588e-15,-1.3920446982547e-14,5.6587950432506e-09,-5.6588205456961e-09,-0.0015469548480814,0.0015469548480645,-0.0016497806378499,0.0016497844002201,-0.0016497846243035,0.0016497808619079,-0.0016497806378535,0.0016497844002163,-0.0016497846243071,0.0016497808619042,-0.0013192184704403,0.0013192295651097,-0.0013192305319331,0.0013192194372057,-0.0015690229546711,0.0015690191894459,-0.0015690229546813,0.0015690191894343,1.7099721516852e-09,1.7099719675302e-09,-0.00070941573199911,0.00070941979121795,-3.8331901285809e-09,7.4549328851676e-09,-0.00078322980119052,0.0007832303321575,-0.00078322603976247,0.00078323409358603,-0.00078322980119061,0.00078323033215746,-0.00078322603976256,0.00078323409358587,-0.00088545292208158,0.00088546035745552,-0.00088545292208084,0.00088546035745459,0.7920419595447,120135,2834,0.0064242463944797,0.0064242463944799,0.002954787647678,20.399232772168,7.8393862177348e-05,7.8393862177348e-05,7.8393862177348e-05,2141529.0685847,0.015929135198266
26919200,0.99988096851434,0.016238786925137,0.0060844927956251,0.0060844927956253,0.004069801333887,-0.0015495705863562,0.0015495705863625,2.9941438250791e-15,3.1903731245263e-15,-1.9143532825272e-15,8.6829112136109e-15,-0.001652037542158,0.0016520375421608,-0.0016520380648666,0.0016520380648695,-0.0016520375386423,0.0016520375386519,-0.0016520380683773,0.0016520380683871,-0.001322214957331,0.0013222149573402,-0.0013222162781101,0.0013222162781192,-2.9629683068815e-15,-1.381604932164e-14,5.6101277567633e-09,-5.6101532248887e-09,-0.0015495705863677,0.0015495705863509,-0.0016520357041749,0.0016520394189399,-0.0016520399028658,0.0016520361880755,-0.0016520357041785,0.0016520394189361,-0.0016520399028694,0.0016520361880718,-0.0013222095959965,0.0013222206010972,-0.0013222216394866,0.0013222106343282,-0.0015717743947721,0.0015717706672324,-0.0015717743947822,0.0015717706672209,5.0271285742586e-10,5.0271266394378e-10,-0.0007091196231722,0.00070912061140878,-4.955132733804e-09,6.2077269705331e-09,-0.00078477229061688,0.00078477020869614,-0.00078476857570122,0.00078477392361231,-0.00078477229061699,0.00078477020869612,-0.00078476857570132,0.00078477392361215,-0.00088480609204987,0.00088481093632395,-0.00088480609204915,0.00088481093632302,0.74688297492095,120135,2834,0.0064350584116086,0.0064350584116088,0.0029535814725782,21.286138690273,8.5489109522184e-05,8.5489109522184e-05,8.5489109522184e-05,2081901.7783602,0.015949883321267
27419200,0.99989592460261,0.016239053192514,0.0060845897559527,0.0060845897559529,0.0040698736806082,-0.0015507130891774,0.0015507130891838,2.95043927787e-15,3.1544330460004e-15,-1.9368231843224e-15,8.6504416172994e-15,-0.0016539938989474,0.0016539938989502,-0.001653994442251,0.0016539944422539,-0.0016539938955226,0.0016539938955322,-0.0016539944456709,0.0016539944456807,-0.0013219375783089,0.0013219375783179,-0.0013219389098701,0.001321938909879,-2.9570273119042e-15,-1.3797548623037e-14,5.5447989806685e-09,-5.5448243511998e-09,-0.001550713089189,0.0015507130891722,-0.0016539920833902,0.0016539957542055,-0.0016539962578244,0.0016539925869837,-0.0016539920833938,0.0016539957542017,-0.0016539962578279,0.0016539925869801,-0.0013219322817427,0.001321943158978,-0.0013219442064779,0.0013219333291851,-0.0015729138018572,0.0015729101178692,-0.0015729138018672,0.0015729101178577,4.0142593452408e-10,4.0142573963097e-10,-0.00071102917566327,0.00071102991686289,-4.9895318058882e-09,6.0413179818183e-09,-0.0007843989977161,0.00078439674757307,-0.00078439532705172,0.00078440041823795,-0.00078439899771619,0.00078439674757303,-0.00078439532705186,0.00078440041823779,-0.0008879142894161,0.00088791887915888,-0.00088791428941527,0.00088791887915789,0.72588280929977,120135,2834,0.0064398062916265,0.0064398062916266,0.002961498389088,22.249991808553,9.3199934468426e-05,9.3199934468426e-05,9.3199934468426e-05,2100948.5366607,0.015967567323527
27919200,0.99990948045474,0.016239307660284,0.0060846823338314,0.0060846823338316,0.0040699429926208,-0.0015518210311735,0.0015518210311798,2.9397925442969e-15,3.1426098777784e-15,-1.9216471773507e-15,8.6689704630206e-15,-0.0016554023886396,0.0016554023886424,-0.0016554028607809,0.0016554028607839,-0.0016554023844967,0.0016554023845063,-0.0016554028649189,0.0016554028649287,-0.001322504634449,0.001322504634458,-0.0013225059408423,0.0013225059408513,-2.9710857059594e-15,-1.3819117357509e-14,5.5431686447122e-09,-5.543194038286e-09,-0.001551821031185,0.0015518210311682,-0.001655400568245,0.0016554042419623,-0.0016554046811917,0.0016554010074491,-0.0016554005682486,0.0016554042419586,-0.0016554046811952,0.0016554010074454,-0.001322499335242,0.0013225102078102,-0.001322511240091,0.0013225003674652,-0.0015741199866877,0.0015741163024244,-0.0015741199866977,0.0015741163024128,6.9491125992004e-10,6.9491106579689e-10,-0.00071233507993039,0.00071233656970655,-4.7040057507301e-09,6.3307672392888e-09,-0.00078474718535589,0.00078474558446718,-0.00078474351213247,0.0007847492576911,-0.00078474718535599,0.00078474558446716,-0.00078474351213258,0.00078474925769096,-0.00088959176263482,0.00088959697338617,-0.00088959176263399,0.0008895969733852,0.76533978020323,120135,2834,0.0064444014077235,0.0064444014077237,0.0029669142574653,22.917865402743,9.8542923221948e-05,9.8542923221948e-05,9.8542923221948e-05,2104769.741708,0.015982404795249
28419200,0.99992160454305,0.016239553200111,0.0060847715779538,0.006084771577954,0.0040700100442032,-0.0015535341867267,0.001553534186733,2.9549685512685e-15,3.164609205714e-15,-1.9352938192787e-15,8.6895580693775e-15,-0.0016567429218874,0.0016567429218901,-0.0016567433594099,0.0016567433594129,-0.0016567429174599,0.0016567429174696,-0.0016567433638324,0.0016567433638422,-0.0013247146919174,0.0013247146919264,-0.0013247159828412,0.0013247159828502,-2.9713798146216e-15,-1.3854919342827e-14,5.5695769529691e-09,-5.5696023138842e-09,-0.0015535341867382,0.0015535341867214,-0.0016567410905523,0.0016567447834272,-0.0016567451907611,0.001656741497861,-0.0016567410905559,0.0016567447834234,-0.0016567451907647,0.0016567414978573,-0.001324709365047,0.0013247202887354,-0.0013247213097533,0.0013247103860075,-0.0015759511598952,0.0015759474575695,-0.0015759511599052,0.0015759474575579,8.4725305905939e-10,8.4725286112432e-10,-0.00071215561691343,0.00071215748992631,-4.5821250006107e-09,6.508642285309e-09,-0.00078601590335009,0.00078601461125121,-0.00078601221088867,0.00078601830371311,-0.00078601590335021,0.00078601461125118,-0.00078601221088879,0.00078601830371295,-0.00088894951930394,0.0008889550689898,-0.00088894951930318,0.00088895506898879,0.82558911402084,120135,2834,0.0064514809299686,0.0064514809299688,0.0029661875779712,23.440906554863,0.0001027272524389,0.0001027272524389,0.0001027272524389,2063750.9713416,0.015996055992819
28919200,0.99993241068233,0.016239755721785,0.0060848452717269,0.0060848452717271,0.0040700651783312,-0.0015554061151916,0.001555406115198,2.9910262732593e-15,3.201490431959e-15,-1.9361761452655e-15,8.7022047418539e-15,-0.0016582289504513,0.001658228950454,-0.0016582293929459,0.0016582293929488,-0.0016582289461212,0.0016582289461308,-0.0016582293972709,0.0016582293972808,-0.0013270441756633,0.0013270441756724,-0.0013270454653732,0.0013270454653823,-2.9956731901227e-15,-1.3892915999151e-14,5.5880221846194e-09,-5.5880476001765e-09,-0.0015554061152032,0.0015554061151863,-0.0016582271136925,0.0016582308183041,-0.0016582312297208,0.0016582275250839,-0.0016582271136961,0.0016582308183003,-0.0016582312297244,0.0016582275250802,-0.0013270388312226,0.0013270497912352,-0.0013270508098559,0.0013270398497857,-0.0015778857495768,0.0015778820352037,-0.0015778857495868,0.001577882035192,8.3187289924222e-10,8.3187270544811e-10,-0.00071134536975386,0.0007113472014946,-4.6148453538848e-09,6.5121108959969e-09,-0.00078704378632935,0.00078704244015767,-0.00078704008192273,0.0007870461445648,-0.00078704378632944,0.00078704244015767,-0.00078704008192285,0.00078704614456463,-0.00088778578593356,0.00088779131503574,-0.00088778578593298,0.00088779131503484,0.76400561131051,120135,2834,0.0064592129483233,0.0064592129483235,0.002962852053269,23.983163029995,0.00010706530423996,0.00010706530423996,0.00010706530423996,2009895.1788335,0.016008383033703
29419200,0.99994212353758,0.016239904408322,0.0060848995172691,0.0060848995172693,0.0040701053737833,-0.0015560310236333,0.0015560310236396,2.9182637902209e-15,3.1143166244708e-15,-1.9444111878082e-15,8.6776172576905e-15,-0.0016597453417968,0.0016597453417995,-0.0016597458441632,0.0016597458441661,-0.0016597453380098,0.0016597453380194,-0.0016597458479452,0.001659745847955,-0.0013261562342427,0.0013261562342516,-0.0013261575520206,0.0013261575520295,-2.9744973664414e-15,-1.3847329960707e-14,5.5581100669668e-09,-5.5581354884434e-09,-0.0015560310236449,0.001556031023628,-0.0016597435190772,0.0016597472007915,-0.0016597476668988,0.0016597439851591,-0.0016597435190808,0.0016597472007877,-0.0016597476669024,0.0016597439851555,-0.00132615092247,0.0013261618250703,-0.0013261628638348,0.0013261519611769,-0.001578472498329,0.0015784688047611,-0.001578472498339,0.0015784688047495,5.688427196811e-10,5.6884253228052e-10,-0.00071332648372959,0.00071332765326387,-4.8403525782443e-09,6.2208850414684e-09,-0.00078634690629286,0.00078634501801225,-0.00078634322488258,0.00078634869942297,-0.00078634690629296,0.0007863450180122,-0.00078634322488268,0.00078634869942286,-0.00089106796849903,0.00089107292258589,-0.0008910679684981,0.00089107292258491,0.62417410960896,120135,2834,0.0064618214940789,0.0064618214940791,0.0029710597516207,24.777703088526,0.00011342162470821,0.00011342162470821,0.00011342162470821,2040880.4285957,0.01602201521368
29919200,0.99995074196392,0.016240049650612,0.0060849523109631,0.0060849523109633,0.0040701450286855,-0.0015553753411476,0.0015553753411539,2.9494393084184e-15,3.1351395177574e-15,-1.9107651568478e-15,8.6450300179142e-15,-0.0016604879632129,0.0016604879632156,-0.0016604884384964,0.0016604884384993,-0.0016604879591508,0.0016604879591604,-0.0016604884425535,0.0016604884425633,-0.0013234360732595,0.0013234360732684,-0.0013234373900402,0.0013234373900491,-2.986261712931e-15,-1.3794711853081e-14,5.5501140389004e-09,-5.5501394469467e-09,-0.0015553753411591,0.0015553753411423,-0.0016604861410984,0.0016604898190921,-0.0016604902606269,0.0016604865826079,-0.001660486141102,0.0016604898190883,-0.0016604902606305,0.0016604865826043,-0.0013234307679053,0.0013234416543613,-0.001323442695436,0.0013234318089224,-0.0015776999372526,0.0015776962482672,-0.0015776999372625,0.0015776962482557,6.6854630676607e-10,6.6854613296278e-10,-0.00071758558740401,0.00071758701806734,-4.7359805575522e-09,6.3116630514472e-09,-0.00078520909786569,0.00078520745733927,-0.00078520542070822,0.00078521113449731,-0.0007852090978658,0.00078520745733926,-0.00078520542070832,0.0007852111344972,-0.00089705607109012,0.00089706123292072,-0.00089705607108927,0.00089706123291973,0.68688558505508,120135,2834,0.0064591539710321,0.0064591539710322,0.0029886858483885,25.464431549179,0.00011891545239343,0.00011891545239343,0.00011891545239343,2143073.6598682,0.016034490019753
30419200,0.99995833158455,0.016240154224639,0.0060849906226997,0.0060849906226999,0.004070172979239,-0.0015580909489002,0.0015580909489065,2.9442041742305e-15,3.1281397315961e-15,-1.9264705594115e-15,8.6169720515364e-15,-0.0016620318619294,0.0016620318619322,-0.0016620323339166,0.0016620323339195,-0.0016620318578117,0.0016620318578213,-0.0016620323380294,0.0016620323380391,-0.0013280251623592,0.0013280251623683,-0.0013280264702443,0.0013280264702532,-2.9934379642897e-15,-1.3797286337851e-14,5.5488428848893e-09,-5.5488682433877e-09,-0.0015580909489117,0.001558090948895,-0.0016620300398042,0.0016620337171837,-0.0016620341560577,0.0016620304786531,-0.0016620300398078,0.0016620337171799,-0.0016620341560613,0.0016620304786495,-0.001328019857644,0.0013280307413995,-0.0013280317750015,0.0013280208911885,-0.0015806961391682,0.0015806924511514,-0.0015806961391783,0.0015806924511399,6.9345225261453e-10,6.9345207866206e-10,-0.00071798768951134,0.00071798917551357,-4.7108998651049e-09,6.3350169965361e-09,-0.00078917563279175,0.00078917402696161,-0.00078917195590124,0.0007891777038526,-0.00078917563279183,0.0007891740269616,-0.00078917195590135,0.00078917770385245,-0.00089565703746693,0.00089566224784201,-0.0008956570374662,0.00089566224784108,0.56251928746541,120135,2834,0.0064703684321746,0.0064703684321748,0.0029903806574972,26.129764521422,0.00012423811617137,0.00012423811617137,0.00012423811617137,2077074.4952889,0.016059011320503
30919200,0.99996508120916,0.016240266181438,0.0060850313186559,0.0060850313186561,0.0040702035441263,-0.0015580772076484,0.0015580772076547,2.9386161096479e-15,3.1305514226265e-15,-1.9078240702254e-15,8.5985020275477e-15,-0.0016631859913276,0.0016631859913304,-0.0016631865435145,0.0016631865435174,-0.0016631859879373,0.0016631859879468,-0.0016631865468998,0.0016631865469095,-0.0013263893838077,0.0013263893838167,-0.0013263907259651,0.001326390725974,-3.0002024635212e-15,-1.3753664278931e-14,5.4828018197163e-09,-5.482827145613e-09,-0.0015580772076599,0.0015580772076432,-0.0016631841965391,0.0016631878261216,-0.0016631883383189,0.0016631847087112,-0.0016631841965427,0.0016631878261179,-0.0016631883383225,0.0016631847087076,-0.001326384148268,0.0013263949040413,-0.001326395961546,0.0013263852057154,-0.001580381803364,0.0015803781603711,-0.0015803818033739,0.0015803781603596,3.4498613021843e-10,3.4498594729847e-10,-0.00072280371961256,0.00072280433183439,-4.9831069987995e-09,5.9225497996589e-09,-0.00078935669791829,0.00078935438289723,-0.00078935306929033,0.00078935801152575,-0.00078935669791838,0.00078935438289723,-0.00078935306929045,0.00078935801152562,-0.00090199750041573,0.00090200193383578,-0.00090199750041496,0.00090200193383482,0.67617106509292,120135,2834,0.0064703503937412,0.0064703503937413,0.0030103304953261,27.118582048647,0.00013214865638918,0.00013214865638918,0.00013214865638918,2171419.0824311,0.016079232401064
31419200,0.99997111968721,0.016240369712211,0.0060850690702749,0.0060850690702751,0.004070231571661,-0.0015627274785842,0.0015627274785905,2.9653211761794e-15,3.1535507200137e-15,-1.9304116154855e-15,8.6030313009462e-15,-0.0016661677136916,0.0016661677136943,-0.001666168345138,0.0016661683451409,-0.0016661677107613,0.0016661677107708,-0.0016661683480633,0.0016661683480731,-0.0013336500353617,0.0013336500353707,-0.0013336513979472,0.0013336513979561,-2.9637329894033e-15,-1.3760831109622e-14,5.3736845871125e-09,-5.3737098849895e-09,-0.0015627274785957,0.001562727478579,-0.0016661659587664,0.0016661695128569,-0.001666170100079,0.0016661665459634,-0.0016661659587701,0.0016661695128531,-0.0016661701000826,0.0016661665459598,-0.0013336449091468,0.0013336554521305,-0.0013336565242038,0.0013336459811623,-0.0015852900309399,0.0015852864619764,-0.00158529003095,0.001585286461965,-4.0130780132283e-12,-4.0132533978635e-12,-0.00072342777935495,0.00072342750625717,-5.2166568177776e-09,5.4654317622396e-09,-0.00079552929547546,0.00079552627224404,-0.00079552574191701,0.0007955298258031,-0.00079552929547545,0.00079552627224404,-0.00079552574191714,0.00079552982580297,-0.00090023984055223,0.00090024346115443,-0.00090023984055157,0.00090024346115347,0.69952705654839,120135,2834,0.0064895564278117,0.0064895564278119,0.0030129717864067,28.435439121349,0.00014268351297079,0.00014268351297079,0.00014268351297079,2062467.9582952,0.016120961788896
31919200,0.99997632092382,0.016240461497538,0.0060851024211786,0.0060851024211788,0.0040702566551804,-0.0015645966156992,0.0015645966157056,2.9560273424526e-15,3.1423745908486e-15,-1.920235455772e-15,8.6430889007434e-15,-0.0016679118062183,0.001667911806221,-0.0016679123215529,0.0016679123215558,-0.0016679118020917,0.0016679118021013,-0.0016679123256745,0.0016679123256843,-0.001335653057524,0.0013356530575331,-0.0013356543774404,0.0013356543774493,-2.9790266398399e-15,-1.3798534576373e-14,5.3699430165947e-09,-5.3699683558219e-09,-0.0015645966157108,0.001564596615694,-0.001667910043676,0.001667913601826,-0.0016679140841112,0.001667910525936,-0.0016679100436796,0.0016679136018222,-0.0016679140841148,0.0016679105259324,-0.0013356479281014,0.0013356584611734,-0.0013356595069047,0.0013356489737753,-0.0015870523378572,0.0015870487691929,-0.0015870523378672,0.0015870487691813,4.9117623308264e-10,4.9117605493809e-10,-0.0007240900029054,0.0007240909841555,-4.7335382572143e-09,5.9530132784204e-09,-0.00079708578034588,0.00079708384531998,-0.00079708222313077,0.00079708740253562,-0.00079708578034598,0.00079708384531996,-0.00079708222313087,0.00079708740253547,-0.00090091484011094,0.00090091950622546,-0.00090091484011019,0.00090091950622448,0.71926751588325,120135,2834,0.0064972844560659,0.0064972844560661,0.0030157463277548,29.268229649723,0.00014934583719778,0.00014934583719778,0.00014934583719778,2034039.2935048,0.016139487434977
32419200,0.99998059182453,0.016240544222612,0.0060851324017487,0.006085132401749,0.0040702794191143,-0.0015649510297542,0.0015649510297605,2.961321298373e-15,3.1483744075583e-15,-1.9307057241478e-15,8.6586178381097e-15,-0.0016682449230121,0.0016682449230149,-0.0016682452434916,0.0016682452434946,-0.0016682449172849,0.0016682449172946,-0.0016682452492138,0.0016682452492236,-0.0013359186282909,0.0013359186283,-0.0013359198745918,0.0013359198746008,-2.9945555772062e-15,-1.3841022708537e-14,5.523844452361e-09,-5.5238698839161e-09,-0.0015649510297657,0.0015649510297489,-0.0016682430972335,0.0016682467668006,-0.0016682470692863,0.0016682433996939,-0.0016682430972371,0.0016682467667968,-0.0016682470692899,0.0016682433996903,-0.0013359133386292,0.0013359241699252,-0.0013359251642954,0.0013359143329417,-0.0015874249649425,0.0015874212906815,-0.0015874249649526,0.00158742129067,1.3382938267626e-09,1.3382936496065e-09,-0.00072308231572164,0.00072308543763197,-4.0616552591206e-09,6.9486128472153e-09,-0.00079669782341987,0.00079669763800082,-0.00079669415546624,0.00079670130595497,-0.00079669782341997,0.0007966976380008,-0.00079669415546633,0.00079670130595483,-0.00089999930286571,0.0009000058621968,-0.00089999930286496,0.00090000586219584,0.78912843059547,120135,2834,0.0064987451201516,0.0064987451201518,0.0030115811590933,29.299062016586,0.00014959249613268,0.00014959249613268,0.00014959249613268,2011463.0256442,0.016138224791437
32919200,0.99998407139434,0.016240603217003,0.006085153846359,0.0060851538463593,0.0040702955242849,-0.0015656610795804,0.0015656610795868,2.9762620184148e-15,3.1649033143762e-15,-1.9403524882693e-15,8.6569708296012e-15,-0.0016685179481807,0.0016685179481835,-0.0016685182317537,0.0016685182317567,-0.0016685179424894,0.0016685179424991,-0.0016685182374401,0.0016685182374498,-0.0013371437797263,0.0013371437797354,-0.0013371450071884,0.0013371450071974,-3.01290795773e-15,-1.3869627303436e-14,5.6698313062716e-09,-5.6698566878345e-09,-0.001565661079592,0.0015656610795752,-0.0016685160739063,0.0016685198406764,-0.0016685201060443,0.0016685163392488,-0.0016685160739099,0.0016685198406726,-0.0016685201060479,0.0016685163392452,-0.0013371383470204,0.0013371494643609,-0.0013371504399363,0.0013371393225383,-0.0015882208027586,0.0015882170312259,-0.0015882208027686,0.0015882170312143,1.5197967413685e-09,1.5197965620524e-09,-0.00072069999408201,0.00072070356844479,-4.0274025633295e-09,7.2775266396761e-09,-0.00079648880224959,0.00079648889923169,-0.00079648503609429,0.00079649266538746,-0.00079648880224969,0.00079648889923168,-0.00079648503609439,0.0007964926653873,-0.00089719202078944,0.00089719906067305,-0.00089719202078867,0.00089719906067214,0.69092321609739,120135,2834,0.0065016643547004,0.0065016643547006,0.0030017210939688,29.174750711761,0.00014859800569408,0.00014859800569408,0.00014859800569408,1955510.8340381,0.016134143840141
33419200,0.99998694673228,0.016240657996863,0.0060851736531428,0.006085173653143,0.0040703106905776,-0.001564528821726,0.0015645288217324,3.0080845756693e-15,3.1861967815225e-15,-1.9542932388595e-15,8.7867903931144e-15,-0.0016686356351463,0.0016686356351492,-0.0016686359767929,0.0016686359767958,-0.0016686356301822,0.001668635630192,-0.0016686359817519,0.0016686359817618,-0.0013339602636489,0.0013339602636581,-0.0013339615257346,0.0013339615257437,-2.9093228868887e-15,-1.3904398644688e-14,5.7495933958296e-09,-5.7496187286056e-09,-0.0015645288217376,0.0015645288217208,-0.0016686337398348,0.0016686375556504,-0.0016686378721205,0.0016686340562797,-0.0016686337398385,0.0016686375556465,-0.0016686378721241,0.001668634056276,-0.0013339547572919,0.0013339660328511,-0.0013339670321332,0.0013339557565165,-0.0015870057243864,0.0015870019009619,-0.0015870057243965,0.0015870019009501,1.2578225964979e-09,1.2578224279765e-09,-0.00072207598568085,0.00072207889855665,-4.3592792853668e-09,7.0981984513049e-09,-0.00079393059610941,0.00079393010094095,-0.00079392678063132,0.00079393391641965,-0.0007939305961095,0.00079393010094095,-0.0007939267806314,0.00079393391641949,-0.0009003360948183,0.00090034263280186,-0.00090033609481753,0.00090034263280096,0.77567308772676,120135,2834,0.0064970094606267,0.0064970094606268,0.0030074008641426,29.315947013609,0.00014972757610887,0.00014972757610887,0.00014972757610887,2016913.4281249,0.016130444379939
33919200,0.9999893898533,0.016240703752727,0.0060851902485419,0.0060851902485421,0.0040703232556431,-0.0015673098265079,0.0015673098265143,2.9736738621871e-15,3.1629621972054e-15,-1.9789983664878e-15,8.7539678664083e-15,-0.0016705279992259,0.0016705279992287,-0.0016705284939576,0.0016705284939605,-0.001670527995696,0.0016705279957057,-0.0016705284974825,0.0016705284974923,-0.0013380670111727,0.0013380670111819,-0.0013380683229167,0.0013380683229257,-2.8927351583383e-15,-1.3887914083942e-14,5.6979274085966e-09,-5.69795281871e-09,-0.0015673098265195,0.0015673098265027,-0.001670526131811,0.0016705299052491,-0.0016705303613885,0.0016705265879251,-0.0016705261318146,0.0016705299052453,-0.0016705303613921,0.0016705265879215,-0.0013380615636992,0.0013380727408838,-0.0013380737704322,0.0013380625931899,-0.0015900019687977,0.0015899981826317,-0.0015900019688078,0.00158999818262,6.1871490225676e-10,6.1871472530749e-10,-0.00072180076411672,0.00072180205159538,-4.9276631230186e-09,6.4119393444338e-09,-0.00079679054295915,0.00079678865999732,-0.00079678676915924,0.00079679243379778,-0.00079679054295925,0.00079678865999731,-0.00079678676915932,0.00079679243379766,-0.00089880760290772,0.00089881275233224,-0.00089880760290704,0.0008988127523313,0.76303060755973,120135,2834,0.0065084959161927,0.0065084959161929,0.0030062858429893,30.068905735686,0.00015575124588549,0.00015575124588549,0.00015575124588549,1946322.7347907,0.01615266414813
34419200,0.99999151208977,0.016240741687626,0.0060852039910066,0.0060852039910068,0.0040703337056125,-0.0015697491835033,0.0015697491835096,2.9654388196443e-15,3.150433168194e-15,-1.9688222067742e-15,8.7344390512355e-15,-0.0016732894814357,0.0016732894814385,-0.0016732901387858,0.0016732901387887,-0.0016732894791649,0.0016732894791746,-0.0016732901410516,0.0016732901410615,-0.0013399337589543,0.0013399337589634,-0.0013399351329751,0.0013399351329841,-2.9330868667978e-15,-1.3892389475714e-14,5.5340535577287e-09,-5.5340789345825e-09,-0.0015697491835148,0.001569749183498,-0.0016732876780526,0.0016732913353355,-0.0016732919421851,0.0016732882848768,-0.0016732876780562,0.0016732913353317,-0.0016732919421887,0.0016732882848732,-0.0013399284796245,0.0013399393382657,-0.0013399404123468,0.0013399295536479,-0.0015923984629612,0.0015923947883236,-0.0015923984629713,0.0015923947883119,-8.7540119851375e-11,-8.7540294762909e-11,-0.00072435762143802,0.00072435712541253,-5.4525535444526e-09,5.545540004633e-09,-0.00079853823718512,0.00079853492166258,-0.00079853457947339,0.0007985385793748,-0.0007985382371852,0.00079853492166257,-0.00079853457947347,0.00079853857937464,-0.00090188834121592,0.00090189188939947,-0.0009018883412152,0.00090189188939852,0.72790058071019,120135,2834,0.0065185994536581,0.0065185994536583,0.0030169017888387,31.477738378722,0.00016702190702977,0.00016702190702977,0.00016702190702977,1942633.727332,0.016183982551901
34919200,0.99999338005659,0.016240776468911,0.0060852165722007,0.0060852165722008,0.0040703433245092,-0.0015732671967214,0.0015732671967278,2.9807912918133e-15,3.1645503839815e-15,-1.9538814867324e-15,8.7023223853188e-15,-0.0016772050286116,0.0016772050286143,-0.0016772058610071,0.00167720586101,-0.0016772050275211,0.0016772050275308,-0.0016772058620925,0.0016772058621023,-0.0013428406934092,0.0013428406934184,-0.0013428421306782,0.0013428421306871,-2.9235577461412e-15,-1.3838704305097e-14,5.2676028155816e-09,-5.2676281183213e-09,-0.001573267196733,0.0015732671967162,-0.0016772033227654,0.0016772067960889,-0.0016772075668692,0.0016772040935205,-0.0016772033227691,0.0016772067960852,-0.0016772075668728,0.0016772040935169,-0.0013428356821865,0.0013428460209337,-0.0013428471419428,0.0013428368031383,-0.0015959156588075,0.0015959121638293,-0.0015959156588176,0.0015959121638176,-8.4962552091744e-10,-8.4962569425354e-10,-0.00072913312063467,0.0007291307048008,-5.9313164859888e-09,4.5197384344325e-09,-0.00080187221569937,0.0008018674041898,-0.00080186874242242,0.00080187087746727,-0.00080187221569945,0.00080186740418978,-0.00080186874242252,0.0008018708774671,-0.00090712205798302,0.00090712382083982,-0.0009071220579823,0.00090712382083889,0.75808686568768,120135,2834,0.0065331751433886,0.0065331751433888,0.0030367174624159,33.570286127018,0.00018376228901614,0.00018376228901614,0.00018376228901614,1953649.4921796,0.016233739452304
35419200,0.99999499510058,0.016240803184756,0.0060852262650525,0.0060852262650527,0.0040703506546505,-0.0015782187137544,0.0015782187137608,2.9400866529591e-15,3.1216693410268e-15,-1.9692927806338e-15,8.6965578555388e-15,-0.0016818146212821,0.0016818146212849,-0.0016818155208625,0.0016818155208654,-0.0016818146202083,0.0016818146202179,-0.0016818155219313,0.0016818155219412,-0.0013483572179572,0.0013483572179662,-0.0013483586796232,0.0013483586796322,-2.9171461773043e-15,-1.3841313830158e-14,5.0254740021104e-09,-5.0254993372078e-09,-0.001578218713766,0.0015782187137492,-0.0016818129963542,0.0016818163080462,-0.0016818171458064,0.0016818138340893,-0.0016818129963578,0.0016818163080423,-0.0016818171458101,0.0016818138340857,-0.0013483524440949,0.0013483623085128,-0.0013483634535274,0.0013483535890521,-0.0016009333778799,0.0016009300445539,-0.0016009333778901,0.0016009300445424,-1.171418331212e-09,-1.1714185038512e-09,-0.00073340600302726,0.00073340278334945,-6.0097113731707e-09,3.9549992227606e-09,-0.00080719327481087,0.00080718792729652,-0.00080718996358291,0.00080719123852495,-0.000807193274811,0.00080718792729645,-0.0008071899635831,0.00080719123852484,-0.00091083004535833,0.00091083096869488,-0.00091083004535755,0.00091083096869392,0.67379056419234,120135,2834,0.0065536637157017,0.006553663715702,0.0030544719986779,35.925899582678,0.00020260719666142,0.00020260719666142,0.00020260719666142,1918336.0504286,0.016293429167645
35919200,0.99999630152516,0.01624082635071,0.0060852346392333,0.0060852346392335,0.0040703570722428,-0.0015801257212178,0.0015801257212241,2.9723797840732e-15,3.156609450101e-15,-1.9254117682274e-15,8.7132044058217e-15,-0.0016845548549118,0.0016845548549146,-0.0016845555728096,0.0016845555728125,-0.0016845548518172,0.0016845548518269,-0.0016845555758992,0.001684555575909,-0.0013490308525493,0.0013490308525583,-0.0013490322476806,0.0013490322476896,-2.9424395222571e-15,-1.3835004395149e-14,4.9277469743609e-09,-4.9277723479851e-09,-0.0015801257212293,0.0015801257212126,-0.0016845532474032,0.0016845565052668,-0.0016845571803343,0.0016845539224455,-0.0016845532474068,0.001684556505263,-0.0016845571803379,0.0016845539224418,-0.0013490261627456,0.0013490358312668,-0.0013490369375261,0.0013490272689473,-0.0016027245943843,0.0016027213222602,-0.0016027245943944,0.0016027213222486,-4.1801148109593e-10,-4.1801165529557e-10,-0.00073819108645456,0.00073818979279021,-5.1848605821013e-09,4.6034013975184e-09,-0.00080891079802481,0.00080890716855048,-0.00080890754208442,0.00080891042449137,-0.00080891079802493,0.00080890716855046,-0.00080890754208454,0.00080891042449122,-0.00091666929219769,0.00091667175127559,-0.00091666929219686,0.00091667175127461,0.72183945217264,120135,2834,0.0065615837609559,0.006561583760956,0.0030743169590707,37.533887306635,0.00021547109845308,0.00021547109845308,0.00021547109845308,1967269.5387573,0.016329687989154
36419200,0.99999726512527,0.016240843017919,0.0060852406777931,0.0060852406777933,0.0040703616623325,-0.0015809476140082,0.0015809476140146,2.9646741371225e-15,3.1508449203211e-15,-1.9511168653073e-15,8.7217335570267e-15,-0.0016847212322262,0.001684721232229,-0.0016847215299511,0.001684721529954,-0.0016847212253454,0.0016847212253551,-0.001684721536827,0.0016847215368367,-0.0013508614193071,0.0013508614193162,-0.0013508626621751,0.0013508626621841,-2.9319104321488e-15,-1.3860743383657e-14,5.1494678480119e-09,-5.149493077365e-09,-0.0015809476140198,0.001580947614003,-0.0016847195226743,0.0016847229490042,-0.0016847232395193,0.001684719813164,-0.0016847195226779,0.0016847229490004,-0.0016847232395228,0.0016847198131603,-0.0013508564899372,0.0013508665851235,-0.0013508675915868,0.0013508574963432,-0.0016036934697005,0.0016036900429976,-0.0016036934697104,0.0016036900429858,1.3730334997456e-09,1.3730333235392e-09,-0.00073711565106311,0.00073711888560447,-3.6660511377498e-09,6.6036338440953e-09,-0.00081004049891994,0.00081004065716858,-0.0008100370756348,0.0008100440804543,-0.00081004049891998,0.00081004065716858,-0.00081003707563492,0.0008100440804542,-0.00091464252713669,0.00091464891710393,-0.00091464252713596,0.00091464891710288,0.70447270805609,120135,2834,0.0065649681134045,0.0065649681134046,0.0030698788266215,37.488428400756,0.00021510742720604,0.00021510742720604,0.00021510742720604,1924952.0378804,0.016332063129494
36919200,0.99999795933525,0.016240854053455,0.0060852446773703,0.0060852446773705,0.0040703646987147,-0.001579586982095,0.0015795869821014,2.977732561726e-15,3.1665503228848e-15,-1.9558814256356e-15,8.7313803211482e-15,-0.001683561000149,0.0016835610001518,-0.0016835611485132,0.0016835611485161,-0.0016835609924027,0.0016835609924124,-0.0016835611562544,0.0016835611562643,-0.0013491309611012,0.0013491309611104,-0.0013491321525958,0.0013491321526048,-2.9712621711567e-15,-1.3916560497416e-14,5.4396734904656e-09,-5.4396989624509e-09,-0.0015795869821066,0.0015795869820897,-0.0016835591875014,0.0016835628119171,-0.001683562961177,0.001683559336736,-0.001683559187505,0.0016835628119132,-0.0016835629611806,0.0016835593367323,-0.0013491257421699,0.0013491364045084,-0.0013491373715691,0.0013491267091728,-0.0016022948328152,0.0016022912110637,-0.0016022948328253,0.001602291211052,2.0354425608865e-09,2.0354423814266e-09,-0.00073568593261045,0.00073569083122482,-3.3073167808124e-09,7.5553625541304e-09,-0.00080812890665793,0.00080813032898552,-0.00080812528428872,0.00080813395135515,-0.00080812890665803,0.00080813032898552,-0.00080812528428884,0.00080813395135502,-0.00091359286300075,0.00091360084377879,-0.00091359286300001,0.00091360084377783,0.64727478642577,120135,2834,0.0065593388395637,0.0065593388395639,0.0030639440486456,36.862570067132,0.00021010056053705,0.00021010056053705,0.00021010056053705,1932160.3248716,0.01631458753499
37419200,0.99999849507305,0.016240862666609,0.0060852477959946,0.0060852477959948,0.0040703670746192,-0.0015804259238155,0.0015804259238218,2.9667917194906e-15,3.1584329238069e-15,-1.965645833222e-15,8.70379292863e-15,-0.0016848678893566,0.0016848678893594,-0.0016848683993167,0.0016848683993196,-0.0016848678853782,0.0016848678853878,-0.0016848684032901,0.0016848684033,-0.0013492912168691,0.0013492912168782,-0.0013492925415113,0.0013492925415203,-2.9337927275872e-15,-1.3858519646444e-14,5.4430288129951e-09,-5.4430541972669e-09,-0.001580425923827,0.0015804259238102,-0.0016848661035372,0.0016848697096486,-0.0016848701851521,0.0016848665790155,-0.0016848661035408,0.0016848697096448,-0.0016848701851557,0.0016848665790118,-0.0013492860166864,0.0013492966933767,-0.0013492977417359,0.0013492870649879,-0.0016030838537461,0.0016030802364705,-0.0016030838537562,0.0016030802364589,5.173285614316e-10,5.1732837982605e-10,-0.00073842738842259,0.00073842843542258,-4.7787906834179e-09,6.0530354948324e-09,-0.00080900772742163,0.0008090058120548,-0.00080900412217367,0.00080900941730328,-0.00080900772742172,0.00080900581205478,-0.00080900412217378,0.00080900941730313,-0.00091690414541898,0.00091690891617583,-0.00091690414541821,0.00091690891617489,0.65462458225499,120135,2834,0.0065628277867589,0.0065628277867591,0.0030752999405326,37.672798347482,0.00021658238677985,0.00021658238677985,0.00021658238677985,1965364.5378151,0.016333215736807
37919200,0.99999889022326,0.016240868590865,0.0060852499458399,0.0060852499458401,0.0040703686991848,-0.0015807576691493,0.0015807576691557,2.9750855837658e-15,3.1667267880821e-15,-1.9521168347589e-15,8.7139102666111e-15,-0.00168491469605,0.0016849146960528,-0.001684915005856,0.0016849150058589,-0.0016849146903169,0.0016849146903266,-0.0016849150115841,0.0016849150115939,-0.0013500953750293,0.0013500953750385,-0.0013500966264516,0.0013500966264606,-2.9715562798189e-15,-1.389518879277e-14,5.5763044968867e-09,-5.5763299451759e-09,-0.0015807576691609,0.0015807576691441,-0.001684912852822,0.0016849165572854,-0.0016849168491001,0.0016849131446114,-0.0016849128528257,0.0016849165572816,-0.0016849168491037,0.0016849131446077,-0.0013500900340464,0.0013501009683431,-0.0013501019674764,0.001350091033122,-0.001603481813515,0.001603478104287,-0.0016034818135251,0.0016034781042754,1.3721044735579e-09,1.3721042921263e-09,-0.00073831546924462,0.00073831867868597,-4.0804037516078e-09,7.0352378049742e-09,-0.00080970981153327,0.00080970968619035,-0.00080970610849045,0.00080971338923368,-0.00080970981153337,0.00080970968619033,-0.00080970610849055,0.00080971338923353,-0.00091633353343467,0.00091634019795062,-0.00091633353343391,0.00091634019794966,0.61069305856341,120135,2834,0.0065641949864356,0.0065641949864357,0.0030748434778776,37.676448111591,0.00021661158489273,0.00021661158489273,0.00021661158489273,1952742.0929136,0.016335533480243
38419200,0.99999917590854,0.016240873482945,0.0060852517145159,0.0060852517145161,0.0040703700539133,-0.001579359819583,0.0015793598195894,2.9889086908912e-15,3.1789028866989e-15,-1.9431171096943e-15,8.7002048029506e-15,-0.0016838234625677,0.0016838234625705,-0.0016838236484895,0.0016838236484925,-0.0016838234559741,0.0016838234559838,-0.001683823655078,0.0016838236550879,-0.001348257108818,0.0013482571088271,-0.0013482583210481,0.0013482583210571,-2.9817912612649e-15,-1.3882796018788e-14,5.7730471156148e-09,-5.7730726118372e-09,-0.0015793598195946,0.0015793598195778,-0.0016838215475044,0.0016838253876707,-0.0016838255635689,0.0016838217233772,-0.0016838215475081,0.0016838253876669,-0.0016838255635725,0.0016838217233736,-0.0013482515701037,0.0013482628884038,-0.0013482638598044,0.0013482525414464,-0.0016020197773705,0.0016020159354569,-0.0016020197773806,0.0016020159354453,1.9126279509539e-09,1.9126277705639e-09,-0.00073809510804746,0.00073809967604309,-3.7493606756675e-09,7.7713190029314e-09,-0.00080829791146836,0.00080829885521251,-0.0008082940719909,0.00080830269469055,-0.00080829791146847,0.00080829885521245,-0.00080829407199097,0.00080830269469041,-0.00091652665684813,0.00091653459184375,-0.00091652665684739,0.00091653459184277,0.69725492786578,120135,2834,0.0065584186920441,0.0065584186920443,0.0030739171829722,37.198693488572,0.00021278954790858,0.00021278954790858,0.00021278954790858,1981357.311429,0.016322847680786
38880000,0.99999937540362,0.016240877030018,0.0060852529981991,0.0060852529981993,0.0040703710336195,-0.001580704905692,0.0015807049056984,2.9615565853027e-15,3.154374224268e-15,-1.949763965461e-15,8.6922638690701e-15,-0.0016841798102181,0.0016841798102208,-0.0016841801208375,0.0016841801208405,-0.0016841798052135,0.0016841798052231,-0.0016841801258371,0.001684180125847,-0.0013510993547275,0.0013510993547366,-0.0013511005995026,0.0013511005995115,-2.981144222208e-15,-1.3881114659306e-14,5.8549164705768e-09,-5.8549419183816e-09,-0.0015807049057036,0.0015807049056867,-0.0016841778794761,0.0016841817657098,-0.0016841820515956,0.0016841781653366,-0.0016841778794797,0.001684181765706,-0.0016841820515992,0.001684178165333,-0.0013510937447453,0.0013511052264361,-0.0013511062095265,0.001351094727778,-0.0016034769851888,0.0016034730915456,-0.0016034769851989,0.001603473091534,1.4234057431617e-09,1.4234055618489e-09,-0.00073629137707198,0.00073629469509671,-4.3021053562686e-09,7.3712157685229e-09,-0.00081002972771907,0.00081002950050751,-0.00081002584007232,0.00081003338815475,-0.00081002972771916,0.00081002950050749,-0.00081002584007243,0.00081003338815461,-0.00091343252346633,0.00091343947835443,-0.00091343252346556,0.00091343947835348,0.7241603432261,120135,2834,0.0065639566223807,0.0065639566223809,0.0030664613049171,37.193698269723,0.00021274958615778,0.00021274958615778,0.00021274958615778,1912312.7515187,0.016326536149236
