time,ASR_ext,ASR_strain,ASR_strain_xx,ASR_strain_yy,ASR_strain_zz,disp_x_101,disp_x_102,disp_x_103,disp_x_104,disp_x_105,disp_x_106,disp_x_p1_neg,disp_x_p1_pos,disp_x_p2_neg,disp_x_p2_pos,disp_x_p3_neg,disp_x_p3_pos,disp_x_p4_neg,disp_x_p4_pos,disp_x_p5_neg,disp_x_p5_pos,disp_x_p6_neg,disp_x_p6_pos,disp_y_101,disp_y_102,disp_y_103,disp_y_104,disp_y_105,disp_y_106,disp_y_p1_neg,disp_y_p1_pos,disp_y_p2_neg,disp_y_p2_pos,disp_y_p3_neg,disp_y_p3_pos,disp_y_p4_neg,disp_y_p4_pos,disp_y_p5_neg,disp_y_p5_pos,disp_y_p6_neg,disp_y_p6_pos,disp_y_p7_neg,disp_y_p7_pos,disp_y_p8_neg,disp_y_p8_pos,disp_z_101,disp_z_102,disp_z_103,disp_z_104,disp_z_105,disp_z_106,disp_z_p1_neg,disp_z_p1_pos,disp_z_p2_neg,disp_z_p2_pos,disp_z_p3_neg,disp_z_p3_pos,disp_z_p4_neg,disp_z_p4_pos,disp_z_p5_neg,disp_z_p5_pos,disp_z_p6_neg,disp_z_p6_pos,humidity,ndof,nelem,strain_xx,strain_yy,strain_zz,temp,thermal_strain_xx,thermal_strain_yy,thermal_strain_zz,vonmises,vstrain
2419200,0,0,0,0,0,0,0,0,0,0,0,0,0,0,0,0,0,0,0,0,0,0,0,0,0,0,0,0,0,0,0,0,0,0,0,0,0,0,0,0,0,0,0,0,0,0,0,0,0,0,0,0,0,0,0,0,0,0,0,0,0,0,0,0,0,0,0,0,0,0,0,0,0,0,0
2619200,0.021283341641865,0.00043632138247706,0.00014544046082569,0.00014544046082569,0.00014544046082569,-4.0889403558248e-05,4.088969224391e-05,1.4100002217111e-10,1.4302739530794e-10,-2.8059731535639e-10,5.8287328292462e-10,-4.0602265458801e-05,4.0602265143738e-05,-4.0602258067179e-05,4.0602259079749e-05,-4.0601981839664e-05,4.0602548649688e-05,-4.0601979533705e-05,4.060254755049e-05,-4.0995240222439e-05,4.0995799105071e-05,-4.0995233427306e-05,4.0995792500415e-05,1.2597367180661e-09,-2.5892339973249e-09,-1.8318633782294e-09,5.5862879533534e-10,-4.0890186782876e-05,4.0888909019306e-05,-4.060266679355e-05,4.0601874249948e-05,-4.0601900958091e-05,4.0602675558788e-05,-4.0603890138515e-05,4.0600586174825e-05,-4.0603124358341e-05,4.0601387417837e-05,-4.0997945619035e-05,4.0993043488516e-05,-4.0995633795847e-05,4.099541908141e-05,-4.1252043181331e-05,4.1255324167625e-05,-4.1255791192219e-05,4.1251465970901e-05,-3.9191033045756e-10,-3.9395084106671e-10,-3.9514288598217e-05,3.9513497633715e-05,1.0840418391152e-09,-1.9211158535896e-09,-3.9433440455722e-05,3.9433659337355e-05,-3.9434430689063e-05,3.9432656948139e-05,-3.943343780592e-05,3.9433655412744e-05,-3.9434420388576e-05,3.9432645216009e-05,-4.0251217664941e-05,4.0249426298828e-05,-4.0251242855021e-05,4.0249459249425e-05,0.8199305721132,125803,2834,0.00017035858095192,0.00017035858095201,0.00016462766475453,32.685581886676,2.3884655093406e-05,2.3884655093406e-05,2.3884655093406e-05,291946.66018269,0.00050547259281955
2819200,0.043239577183526,0.00088332531181272,0.00029527607984556,0.00029527607979506,0.0002927731521721,-7.7580852121701e-05,7.7580833969614e-05,-2.076186575837e-10,1.8681316565514e-10,-1.1235324343554e-10,9.344417848052e-11,-7.7149875881315e-05,7.7149592862157e-05,-7.714974435784e-05,7.7149710969942e-05,-7.7149741677937e-05,7.7149720136739e-05,-7.7149601072737e-05,7.7149859766574e-05,-7.7680199057413e-05,7.7679862834163e-05,-7.7679786848473e-05,7.7680267562263e-05,9.4596476617205e-10,-9.9998445647332e-10,-1.1187849753749e-09,1.0849333421495e-09,-7.7580861546796e-05,7.758082451973e-05,-7.7149828419353e-05,7.7149632370332e-05,-7.7149112801833e-05,7.7150368696299e-05,-7.7150392625129e-05,7.7149047204693e-05,-7.7149663905072e-05,7.7149801044886e-05,-7.768144805603e-05,7.7678590562158e-05,-7.7679270094137e-05,7.7680809145523e-05,-7.8212003211361e-05,7.8214563534974e-05,-7.8213847581772e-05,7.8212669585577e-05,-4.3507469980639e-10,-3.0546813117298e-11,-7.4291778736597e-05,7.4291306663981e-05,1.2559563173364e-09,-1.7689154370089e-09,-7.444434524958e-05,7.4444742187832e-05,-7.4445321149119e-05,7.444372384454e-05,-7.4444197915011e-05,7.4444851276285e-05,-7.444517377626e-05,7.4443863147138e-05,-7.5852005101335e-05,7.5850957809563e-05,-7.5852405272356e-05,7.5850521641871e-05,0.82138593197755,125803,2834,0.00032320119870025,0.00032320119864864,0.00030950023673988,32.939923257801,2.5919386062407e-05,2.5919386062407e-05,2.5919386062407e-05,445640.63730479,0.00095635984952774
3019200,0.065327492397962,0.0013314575651564,0.00044660291837239,0.00044660291841045,0.00043825172837357,-0.0001139965051841,0.00011399679659931,-8.7606563150587e-10,1.1658526346824e-09,-3.9847220089631e-10,6.9436039007921e-10,-0.00011348095006145,0.0001134801115942,-0.00011348024853857,0.00011348074981765,-0.00011348049296775,0.00011348047191961,-0.00011347974041523,0.00011348127553629,-0.0001138892811404,0.00011388790979782,-0.00011388722503134,0.00011389004020819,-6.3704485823893e-11,8.018406396698e-10,-4.2909095980941e-10,1.1542482882403e-09,-0.00011399627734871,0.00011399702448054,-0.00011348057908799,0.00011348048129248,-0.00011348001960988,0.00011348089722442,-0.00011348019070213,0.00011348075099038,-0.00011347968243261,0.00011348143456466,-0.00011388886654191,0.00011388824643953,-0.00011388723535749,0.00011388999781048,-0.00011488645329749,0.0001148867700585,-0.00011488550814531,0.00011488775211774,-1.2128958101886e-09,8.5380844183745e-10,-0.00010794614084395,0.00010794577607951,1.2661304363295e-09,-1.6658429685161e-09,-0.0001084272996322,0.00010842721936703,-0.00010842817203706,0.00010842608681825,-0.00010842652688764,0.00010842777646349,-0.00010842749249271,0.0001084269558681,-0.00011057026932754,0.00011057113045141,-0.00011057229266127,0.00011056883721395,0.82013448775515,125803,2834,0.00047487308947935,0.00047487308957664,0.00044967392210295,32.856981598228,2.5255852785827e-05,2.5255852785827e-05,2.5255852785827e-05,585463.91632105,0.0014004001754113
3219200,0.086766751991782,0.0017584622490124,0.00059187718377967,0.00059187718460017,0.00057470788063261,-0.00014803626724507,0.0001480360099946,-8.8717638565717e-10,6.2522967611845e-10,4.5403778033983e-11,-3.2522307448185e-10,-0.00014764908388932,0.00014764837597359,-0.00014764852142132,0.00014764892048378,-0.00014764917408156,0.00014764822853295,-0.00014764856925772,0.00014764884739673,-0.00014736335791531,0.00014736148658077,-0.00014736189073826,0.0001473629958691,-5.664615267539e-11,4.7875609863636e-10,-4.0046689728489e-10,8.1842922734945e-10,-0.00014803592988729,0.00014803634772837,-0.00014764880130965,0.00014764863770327,-0.0001476483802292,0.00014764898411996,-0.00014764860108527,0.00014764877959018,-0.00014764820761779,0.00014764927032033,-0.0001473627678568,0.00014736207568919,-0.00014736150358618,0.00014736336080922,-0.00014897968385251,0.00014897999993206,-0.000148979174997,0.00014898049873319,-8.5756100925892e-10,6.9474151729265e-10,-0.00013853540974927,0.00013853524269125,1.0484026490702e-09,-1.2428526008612e-09,-0.00013958822788736,0.00013958828488882,-0.00013958887438169,0.00013958736018184,-0.00013958761385735,0.00013958867856568,-0.00013958836468173,0.00013958808100095,-0.00014218945022679,0.000142190217239,-0.00014219098954152,0.0001421884431509,0.80676032169566,125803,2834,0.00061662677099438,0.00061662677177844,0.00057706459731478,32.292408289539,2.0739266316314e-05,2.0739266316314e-05,2.0739266316314e-05,670903.24735868,0.001811958377061
3419200,0.10565189135012,0.0021239398190099,0.00071730106604631,0.0007173010705784,0.00068933768238522,-0.00017471993449882,0.0001747194774321,-9.4483174908274e-10,4.8418448054795e-10,3.5163012890417e-10,-8.4074036556188e-10,-0.00017472910905814,0.00017472849590543,-0.00017472857020487,0.00017472902901602,-0.00017472947187943,0.00017472808039149,-0.0001747288896686,0.00017472866764352,-0.00017311715846394,0.00017311491198441,-0.00017311577977839,0.00017311632787847,-3.3817970020994e-10,9.5828912631125e-10,1.767314703758e-10,4.3070420060585e-10,-0.00017471940413936,0.00017472000995354,-0.00017472875312298,0.00017472884204969,-0.00017472863248431,0.00017472886708597,-0.00017472830693716,0.00017472923190117,-0.00017472823145266,0.00017472939958066,-0.00017311568312919,0.00017311639770307,-0.00017311536789567,0.00017311671596672,-0.00017548186808726,0.00017548132010161,-0.00017548064345851,0.00017548258423121,-6.9490169317815e-10,7.9414378709213e-10,-0.00016148660156885,0.0001614866982341,7.043449808638e-10,-6.2118701332445e-10,-0.00016330177285464,0.00016330178869961,-0.00016330210242296,0.00016330118636906,-0.00016330117894856,0.00016330216652289,-0.00016330160423694,0.00016330188132397,-0.0001659336896865,0.00016593497353326,-0.0001659351796699,0.00016593327980986,0.78590062250698,125803,2834,0.00072773346215422,0.0007277334666561,0.00067263596801806,30.395644092083,5.5651527366635e-06,5.5651527366635e-06,5.5651527366635e-06,751409.93191217,0.0021303696099602
3619200,0.12372327013248,0.0024645775113023,0.00083481803647262,0.000834818039319,0.00079494143551071,-0.00020178909403841,0.00020178873942579,-8.8716524432841e-10,5.2744466872154e-10,4.9305020096363e-11,-4.2750102747529e-10,-0.00020240640683629,0.00020240566489247,-0.00020240587359926,0.00020240619197851,-0.00020240654057286,0.00020240548872627,-0.00020240596334147,0.00020240607116756,-0.0001988985973625,0.00019889670567117,-0.00019889722878431,0.00019889811365939,-5.8161697582416e-11,5.4006046455822e-10,8.4701117439003e-12,4.6893051326585e-10,-0.00020178867977804,0.00020178915502915,-0.00020240597563025,0.00020240609560456,-0.00020240578885332,0.00020240618906309,-0.00020240574973535,0.0002024062526809,-0.00020240560883266,0.00020240649135669,-0.00019889757576024,0.00019889773193526,-0.00019889705784738,0.0001988982564309,-0.00020233323736424,0.00020233331578334,-0.00020233269538737,0.00020233387679862,-7.0452088839252e-10,7.8990842063408e-10,-0.00018451300350927,0.00018451308500999,7.8926316280307e-10,-7.2240044974842e-10,-0.00018705054983947,0.00018705060735642,-0.00018705094021635,0.00018704994823193,-0.00018704995599737,0.0001870509916746,-0.00018705043889203,0.00018705064207277,-0.00018976108669584,0.00018976229477215,-0.00018976258451204,0.00018976060863512,0.7701203437566,125803,2834,0.00084043326079347,0.00084043326359004,0.00076851097413953,29.684941459634,-1.2046832293068e-07,-1.2046832293068e-07,-1.2046832293068e-07,892151.17356542,0.0024523804682663
3819200,0.14132103652444,0.0027940116586477,0.00094882138331967,0.00094882138457494,0.00089636889075313,-0.00022851462314074,0.00022851497059394,-5.6824172961992e-10,9.0841683993763e-10,-7.3814431438906e-10,1.0894001327355e-09,-0.00022982684244144,0.00022982595662473,-0.00022982621844561,0.00022982653685867,-0.00022982615726024,0.00022982655892304,-0.00022982559030519,0.00022982718421083,-0.00022428777813795,0.00022428743499774,-0.00022428649997689,0.0002242888284312,-4.8590409847068e-10,1.2713495120335e-09,-2.1501142049307e-10,9.8692876637267e-10,-0.00022851440502599,0.00022851518919566,-0.00022982651880763,0.00022982629040534,-0.00022982600979382,0.00022982662230316,-0.00022982582861263,0.00022982683422569,-0.00022982552596447,0.00022982736049531,-0.00022428746036194,0.00022428769525732,-0.00022428636472125,0.00022428889706172,-0.00022884768501847,0.00022884730025966,-0.00022884613700936,0.00022884888993544,-7.35117869246e-10,8.4101756927732e-10,-0.00020702593497997,0.00020702603588589,8.013345604865e-10,-7.1234650337752e-10,-0.00021023173036327,0.0002102317183635,-0.00021023201676963,0.00021023103273539,-0.00021023100478132,0.00021023213159391,-0.00021023156579341,0.00021023181286445,-0.00021320773212085,0.00021320894828291,-0.00021320911245206,0.00021320719351056,0.7714087908162,125803,2834,0.00095169107306157,0.00095169107407867,0.00086223949402036,29.235067052176,-3.7194635825906e-06,-3.7194635825906e-06,-3.7194635825906e-06,1019672.9727319,0.002769450527255
4019200,0.16072296160982,0.003156010680062,0.0010744609015081,0.0010744609105306,0.0010070888680233,-0.00026143841354867,0.0002614392521151,-8.754222410838e-10,1.7048430004886e-09,-8.0605165194004e-10,1.6671145461847e-09,-0.00026353669489445,0.00026353569508968,-0.00026353577890353,0.00026353657931821,-0.0002635357655587,0.00026353655187246,-0.00026353479807271,0.00026353756447083,-0.00025569389859875,0.00025569302129761,-0.00025569134098208,0.00025569565297074,2.4282220208076e-10,3.7909838459961e-11,-9.2454354171067e-10,1.2144986493894e-09,-0.00026143868799838,0.00026143898190925,-0.00026353641575812,0.00026353598576889,-0.00026353567288174,0.00026353660970202,-0.00026353633410636,0.00026353593538164,-0.00026353565540495,0.0002635368033465,-0.00025569440636586,0.00025569245602127,-0.0002556922174136,0.00025569475780899,-0.00026159009927114,0.00026159125815762,-0.00026159025834234,0.00026159115366664,-1.4921222202998e-09,1.2085570704405e-09,-0.00023495394778295,0.00023495365705576,1.3847517094035e-09,-1.7106122336943e-09,-0.00023883760073079,0.00023883740042368,-0.00023883845519069,0.00023883614353443,-0.00023883656922093,0.00023883813818447,-0.00023883756191708,0.00023883733535441,-0.0002423663804962,0.00024236793194583,-0.00024236903960688,0.00024236493766322,0.77300335044397,125803,2834,0.0010887342098629,0.0010887342186975,0.00097849991974739,30.533532029545,6.6682562363593e-06,6.6682562363593e-06,6.6682562363593e-06,1151612.0802514,0.0031609551070569
4219200,0.18194746043826,0.0035514585375584,0.0012122241470102,0.0012122241583886,0.0011270102321595,-0.000297194503659,0.00029719577669499,-1.4646030639994e-10,1.4099299095356e-09,-8.2277057662954e-10,2.1308892462374e-09,-0.00030022108398173,0.00030022061394976,-0.00030022043909274,0.00030022122462485,-0.00030021995622263,0.000300221698539,-0.00030021934365541,0.00030022235338221,-0.00028967887687283,0.00028967970652962,-0.00028967742583949,0.00028968123623698,3.1540339149583e-10,-3.1890295918877e-10,-1.5192339365939e-09,1.5372265673167e-09,-0.0002971951328132,0.00029719515293252,-0.00030022132073922,0.00030022040580514,-0.00030022024600076,0.00030022137204199,-0.00030022131431562,0.00030022026553372,-0.00030022039550268,0.00030022139953851,-0.0002896808071076,0.0002896776747561,-0.00028967788401026,0.0002896807809618,-0.00029717376840434,0.00029717545074403,-0.00029717445815053,0.00029717484502566,-1.1162748690461e-09,5.841335132839e-10,-0.0002648978451481,0.000264897303988,1.5584543985158e-09,-2.1519972287528e-09,-0.00026949344389066,0.00026949346085307,-0.00026949447014894,0.00026949205030495,-0.00026949267080255,0.00026949394873858,-0.00026949391934102,0.00026949289595612,-0.00027384879660877,0.00027384883092432,-0.00027385038549518,0.00027384689903795,0.77489564853225,125803,2834,0.001237544939382,0.0012375449506042,0.0011031381916965,31.77657374659,1.6612589972723e-05,1.6612589972723e-05,1.6612589972723e-05,1282845.9326683,0.003584639671084
4419200,0.20351129683764,0.0039527528307204,0.0013526219930928,0.0013526220049652,0.0012475088326625,-0.00033159394475295,0.00033159531075883,5.5543191973023e-10,8.0297510755871e-10,-5.4336442766325e-10,1.9412684604634e-09,-0.00033562533156554,0.00033562541434979,-0.00033562500430447,0.00033562570109246,-0.00033562422206966,0.00033562648088609,-0.00033562417738271,0.00033562657798419,-0.00032215813307135,0.00032216053573655,-0.00032215832296291,0.00032216045564271,-2.1700325909645e-10,5.4962592758674e-10,-1.3394561403568e-09,1.6748650827944e-09,-0.00033159445895142,0.00033159480214898,-0.00033562596998011,0.00033562479677168,-0.00033562478535652,0.0003356258693948,-0.00033562538079596,0.00033562525734657,-0.00033562460177645,0.0003356262633552,-0.0003221602702395,0.00032215830877899,-0.00032215773362941,0.0003221610296115,-0.00033142696392307,0.00033142791069522,-0.00033142660603798,0.0003314283577133,-3.9207034238018e-10,2.1523594954243e-11,-0.00029299783042053,0.00029299745251064,1.2930654497556e-09,-1.7177745046855e-09,-0.0002983100711822,0.00029831033679475,-0.00029831075006314,0.00029830928079692,-0.00029830961387781,0.00029831050128133,-0.00029831076207933,0.00029830958157085,-0.00030368019081052,0.00030367901130949,-0.00030368014150766,0.00030367866991498,0.77613009778422,125803,2834,0.0013806877042299,0.001380687715861,0.0012200890599977,31.980110028428,1.8240880227424e-05,1.8240880227424e-05,1.8240880227424e-05,1397689.4644044,0.0039894039607953
4619200,0.22661712948973,0.0043823947931104,0.0015036028258537,0.0015036028377639,0.0013751891294928,-0.00037017638136331,0.00037017775216424,4.3900350677362e-10,9.2614017396518e-10,-4.9251456219467e-10,1.8921925643748e-09,-0.00037526444586066,0.00037526448749203,-0.0003752640850814,0.00037526480446322,-0.00037526332047323,0.00037526556614696,-0.00037526324811467,0.00037526569078331,-0.00035862288132822,0.00035862497736558,-0.0003586227966535,0.00035862517723329,-7.0477569546863e-11,3.4646077913046e-10,-1.3753788826256e-09,1.6563994888955e-09,-0.00037017692610947,0.00037017721332717,-0.00037526506135076,0.00037526387860285,-0.00037526387055899,0.00037526498407276,-0.00037526455513283,0.00037526428324821,-0.00037526374652741,0.00037526529015033,-0.00035862501083846,0.00035862278163856,-0.00035862235687297,0.00035862557688734,-0.00036992303722998,0.00036992421928641,-0.00036992291182303,0.00036992433855535,-5.3369016398525e-10,1.3537756089668e-10,-0.00032427994742017,0.00032427954253695,1.397422936615e-09,-1.8530204237772e-09,-0.00033039495519482,0.00033039524196659,-0.00033039573762103,0.00033039409601932,-0.00033039447997005,0.00033039543701168,-0.00033039566430221,0.00033039446577487,-0.00033700233398207,0.00033700131934777,-0.00033700255017551,0.00033700069407516,0.77694609165688,125803,2834,0.0015412119345394,0.0015412119468362,0.0013502682375821,33.009370273445,2.6474962187563e-05,2.6474962187563e-05,2.6474962187563e-05,1515626.6964787,0.0044425350166349
4819200,0.25201923889656,0.0048547069862727,0.0016705059863841,0.0016705059985564,0.0015136950013322,-0.00041352888179478,0.00041353007970366,-2.9717412865201e-10,1.4906424627489e-09,-2.500647003127e-10,1.4679964491132e-09,-0.00041979987601583,0.00041979972037812,-0.00041979928842934,0.00041980025151571,-0.00041979907979277,0.000419800347696,-0.00041979839071791,0.00041980108809429,-0.00039953035488585,0.00039953020930268,-0.0003995284180532,0.0003995322163479,4.3752413489389e-10,-6.473335341865e-10,-1.4140102389162e-09,1.221575883755e-09,-0.00041352957952612,0.00041352938793217,-0.00041980022278607,0.00041979935007854,-0.00041979933192604,0.00041980012033096,-0.00041980035114152,0.00041979906222176,-0.0004197994737449,0.0004198001567173,-0.00039953196143823,0.00039952856903402,-0.00039952908327798,0.00039953157093406,-0.00041326056430051,0.0004132620896662,-0.00041326134640318,0.00041326129589873,-1.2946762332719e-09,6.9261614186112e-10,-0.00035888517150425,0.00035888456237648,1.7946987066249e-09,-2.4681198612519e-09,-0.0003659321247423,0.00036593229171395,-0.00036593337275431,0.00036593055285906,-0.00036593138754434,0.00036593271152078,-0.00036593264652423,0.00036593156687871,-0.00037403415032555,0.00037403441101576,-0.00037403622935735,0.00037403195072341,0.77793123078769,125803,2834,0.0017215508628777,0.0017215508752775,0.0014942576978792,34.495817996036,3.8366543968291e-05,3.8366543968291e-05,3.8366543968291e-05,1640563.4534883,0.0049495736341368
5019200,0.27948191900191,0.0053639110050848,0.0018516339942631,0.0018516340158909,0.0016606429949309,-0.0004600066026205,0.00046000771660742,-6.4164217338969e-10,1.7506454194988e-09,-2.2212142600467e-10,1.3525270960933e-09,-0.00046760670361776,0.0004676064919084,-0.00046760601222781,0.00046760712931713,-0.00046760619189631,0.00046760689511503,-0.00046760513792513,0.0004676079823339,-0.00044318091098984,0.00044317969469799,-0.000443178055495,0.00044318261639281,4.5672256065987e-10,-8.453095921766e-10,-1.3901144930694e-09,1.0417735396658e-09,-0.00046000734263906,0.00046000698787587,-0.00046760693119209,0.00046760627513413,-0.00046760625937621,0.00046760683250842,-0.00046760734340774,0.00046760571244748,-0.0004676064181702,0.00046760682881728,-0.00044318216521515,0.00044317838870178,-0.00044317918107579,0.00044318150189118,-0.00045976194459376,0.00045976307015611,-0.00045976265392082,0.00045976243552841,-1.6288876001676e-09,9.9047141716045e-10,-0.00039507936812439,0.00039507872487359,1.8527005680874e-09,-2.5686193764865e-09,-0.00040322314136501,0.00040322322390138,-0.00040322456747248,0.00040322131919237,-0.0004032222900368,0.00040322376536232,-0.0004032235019305,0.00040322266050233,-0.00041301232930131,0.00041301350217742,-0.00041301543829435,0.00041301006685823,0.77678229409766,125803,2834,0.0019148538048782,0.001914853828353,0.0016448390761182,35.806021660299,4.884817328239e-05,4.884817328239e-05,4.884817328239e-05,1769507.7970459,0.005489566533339
5219200,0.30837016684176,0.0058997655206212,0.0020434576587663,0.0020434576818828,0.0018128501799721,-0.00050840027604606,0.00050840124996798,-1.2585361901127e-09,2.2270528574169e-09,-1.2559426284325e-10,1.1104648998537e-09,-0.00051740292566453,0.00051740258104501,-0.00051740207813638,0.00051740335693486,-0.00051740282216605,0.00051740256250455,-0.0005174010937399,0.00051740433288831,-0.00048843891515401,0.00048843565507445,-0.00048843428712246,0.0004884403682659,2.9179498811341e-10,-7.0337891244756e-10,-1.1335685613113e-09,7.6042662523766e-10,-0.00050840095521698,0.00050840058308974,-0.0005174029013184,0.0005174026342824,-0.00051740266002808,0.00051740270868142,-0.000517403499659,0.00051740184786856,-0.00051740251501169,0.00051740305432882,-0.00048843916952112,0.00048843531455655,-0.00048843606317894,0.00048843859116986,-0.00050830945478464,0.00050830937616951,-0.00050830922102487,0.00050830977133828,-2.160803941675e-09,1.5838213826675e-09,-0.00043177336238059,0.00043177278184271,1.7845186807951e-09,-2.4389830294628e-09,-0.00044112373618456,0.00044112366971753,-0.00044112532793059,0.00044112156484151,-0.00044112271549503,0.00044112434556308,-0.00044112364027425,0.00044112356211341,-0.00045287359186462,0.00045287680766888,-0.00045287860995835,0.00045287145968676,0.77856400333527,125803,2834,0.0021160848687608,0.0021160848943257,0.0017974797228036,36.759737638679,5.647790110943e-05,5.647790110943e-05,5.647790110943e-05,1892241.9577473,0.0060478736610288
5419200,0.3383578426869,0.0064486448786381,0.0022412899546947,0.002241289980944,0.0019660649429994,-0.00055802239881401,0.00055802325911705,-1.4295810003994e-09,2.2851037333554e-09,-7.325585058405e-11,9.4117201948791e-10,-0.00056865020427162,0.00056864982742717,-0.00056864933560922,0.00056865063255917,-0.00056865031887943,0.0005686496015683,-0.00056864834627266,0.00056865160777069,-0.00053450128270593,0.00053449739424949,-0.0005344962152436,0.00053450253304795,1.5144310604648e-10,-4.7276653065202e-10,-8.7873704357926e-10,5.9024533995139e-10,-0.00055802297949915,0.00055802269286457,-0.00056865003661926,0.00056865003182038,-0.00056865006093586,0.00056864984187707,-0.0005686506634135,0.00056864923348928,-0.00056864971771233,0.00056865037854632,-0.00053450098472857,0.00053449759343916,-0.00053449815657073,0.00053450061607402,-0.00055798900057187,0.00055798830386209,-0.00055798827495937,0.00055798932377427,-2.231824463062e-09,1.7811465678273e-09,-0.00046841411289793,0.00046841365997145,1.6353655400472e-09,-2.1591121666146e-09,-0.00047923054065921,0.00047923041812343,-0.00047923206337128,0.00047922838701232,-0.00047922947102738,0.00047923114230136,-0.00047923019863357,0.00047923056179305,-0.00049274490659936,0.00049274899361882,-0.00049275053950957,0.00049274305190156,0.76958754011452,125803,2834,0.002322381277075,0.0023223813070834,0.0019498791574055,37.571477795975,6.2971822367799e-05,6.2971822367799e-05,6.2971822367799e-05,2025138.8063599,0.0066164462887611
5619200,0.36818009603525,0.0069678644609555,0.0024297079065891,0.002429707934376,0.0021084486199904,-0.00060444188282563,0.0006044425829356,-1.4165478093485e-09,2.113238674862e-09,7.4012071864361e-11,6.293299233146e-10,-0.00061727042764323,0.00061727010552705,-0.00061726961461062,0.00061727085658651,-0.00061727073545478,0.00061726967768532,-0.00061726874144518,0.00061727170673522,-0.00057692769011232,0.00057692358989916,-0.00057692271812741,0.00057692862760128,-1.0784620693123e-10,2.7814276602829e-11,-4.5233562450533e-10,3.9090828857526e-10,-0.00060444227014395,0.00060444221149147,-0.00061727016753945,0.00061727039753009,-0.00061727044271089,0.00061726995265674,-0.00061727059778623,0.00061726980796651,-0.00061726982135113,0.00061727077045054,-0.00057692674620366,0.00057692442861984,-0.00057692452121444,0.00057692686490167,-0.00060376656733137,0.00060376511465743,-0.00060376510358082,0.00060376696822082,-2.0582844188237e-09,1.8059299990635e-09,-0.00050128918909815,0.00050128893647202,1.3667900083564e-09,-1.6803766970438e-09,-0.00051427142940533,0.00051427130244525,-0.00051427271921464,0.00051426950568468,-0.00051427039928031,0.00051427198445571,-0.0005142708764976,0.00051427166139819,-0.00052804143128736,0.00052804598413709,-0.00052804708514113,0.00052804003765104,0.73637638152977,125803,2834,0.002515323127746,0.002515323160744,0.0020866007990745,37.74089425013,6.4327154001036e-05,6.4327154001036e-05,6.4327154001036e-05,2207217.3442372,0.0071426512071127
5819200,0.39545575872473,0.0074212530794786,0.0025949424034279,0.0025949424322226,0.0022313682438281,-0.0006433865677595,0.00064338690895731,-1.2904680451459e-09,1.6302548061877e-09,6.7945497544043e-10,-3.4812202475816e-10,-0.0006586428880419,0.00065864279647265,-0.00065864214975639,0.00065864347478184,-0.00065864359517392,0.00065864195508956,-0.00065864189037445,0.00065864369737881,-0.00061201142112428,0.00061200736364229,-0.00061200736696359,0.00061201147692251,-4.7089352976119e-10,6.7490787104476e-10,2.7349341030076e-10,-6.5809758078204e-11,-0.00064338664237337,0.00064338685109057,-0.00065864263308483,0.0006586430715077,-0.00065864319337928,0.00065864234211031,-0.00065864262934767,0.00065864293770974,-0.00065864233872336,0.00065864338788692,-0.00061200944379304,0.00061200923478628,-0.0006120087253198,0.00061201016351419,-0.00064157828320856,0.00064157608015039,-0.00064157622023441,0.00064157861144712,-1.653628181016e-09,1.628642252156e-09,-0.0005270570860531,0.00052705706318673,9.121667780046e-10,-9.8058865268287e-10,-0.00054287784907835,0.00054287763351328,-0.00054287864328716,0.00054287634265038,-0.00054287688624735,0.00054287824811,-0.00054287710283756,0.00054287819091176,-0.000555623975444,0.0005556283044272,-0.00055562879555862,0.00055562321659647,0.71318193292849,125803,2834,0.0026771647988643,0.0026771648336704,0.0021937583622634,36.558553128288,5.4868425026303e-05,5.4868425026303e-05,5.4868425026303e-05,2316494.7554655,0.0075766694899386
6019200,0.42116861568427,0.0078389960875076,0.002747928064789,0.0027479280939278,0.0023431399287907,-0.00068082284608831,0.00068082308183335,-1.4065321642314e-09,1.6401800534782e-09,8.1779098495853e-10,-5.9327572509855e-10,-0.00069840488241438,0.00069840481481248,-0.00069840413392581,0.0006984055055681,-0.00069840574550763,0.00069840380875792,-0.0006984039905348,0.00069840560448802,-0.00064560111174492,0.00064559661065597,-0.0006455968398366,0.00064560092670546,-5.7837445876318e-10,8.7494327473827e-10,5.5612542272856e-10,-2.5781780092771e-10,-0.00068082282411048,0.00068082312064077,-0.00069840454486717,0.00069840516408306,-0.00069840528489028,0.00069840425888918,-0.00069840448618843,0.00069840510172714,-0.00069840432300286,0.00069840540478322,-0.0006455986269058,0.00064559899986484,-0.00064559828442227,0.00064559952768944,-0.00067785352578004,0.0006778508758383,-0.00067785108210521,0.00067785379692914,-1.6800923895651e-09,1.7485721131457e-09,-0.00055145751841222,0.00055145758961418,7.3486921724985e-10,-6.9997794783065e-10,-0.00057045782047923,0.00057045753967688,-0.00057045849441656,0.00057045637656012,-0.00057045685506156,0.00057045816524427,-0.00057045689289681,0.00057045827897832,-0.00058186032294014,0.0005818651673799,-0.00058186541965535,0.00058185981807858,0.70262235079031,125803,2834,0.0028327124780487,0.0028327125130187,0.002295222386352,35.89308522484,4.9544681798718e-05,4.9544681798718e-05,4.9544681798718e-05,2342937.5554653,0.0079924490683117
6219200,0.44618599717051,0.0082482444621365,0.0028981669156806,0.0028981669446496,0.0024519106018063,-0.0007184615239404,0.00071846179433447,-1.4709634899574e-09,1.7391908028266e-09,6.3358619099442e-10,-3.7092952388707e-10,-0.00073815726061722,0.00073815709600228,-0.00073815650721703,0.00073815779624355,-0.00073815805498859,0.00073815618099052,-0.00073815620427796,0.00073815806815998,-0.00067959986443339,0.0006795952259531,-0.00067959527668394,0.00067959985276893,-5.1242209756254e-10,8.2759089753832e-10,5.0019793556176e-10,-1.8022712100686e-10,-0.00071846151035392,0.00071846182458754,-0.00073815684297846,0.00073815752958393,-0.00073815759006865,0.00073815662860024,-0.00073815688888341,0.00073815738142246,-0.00073815663096084,0.00073815775966316,-0.00067959744995076,0.00067959753747325,-0.00067959684061245,0.00067959833477515,-0.00071457327360101,0.00071457064883388,-0.00071457079363709,0.00071457358963278,-1.7692899040954e-09,1.8442685050102e-09,-0.00057627668576052,0.00057627676330678,7.6325886524684e-10,-7.1875838508372e-10,-0.00059841744561004,0.00059841717703147,-0.00059841819751968,0.00059841596807908,-0.00059841647800342,0.00059841782488436,-0.0005984164906883,0.00059841796140724,-0.0006087401348963,0.0006087452875953,-0.00060874554595501,0.00060873963239115,0.7074629639175,125803,2834,0.0029890762018556,0.0029890762364814,0.0023984193749756,35.771554553258,4.8572436426064e-05,4.8572436426064e-05,4.8572436426064e-05,2335718.533611,0.0084117946466587
6419200,0.47092868363116,0.00865058187375,0.003046100785481,0.0030461008134554,0.0025583802748136,-0.00075600251840991,0.00075600285289268,-1.472281074265e-09,1.8038019463828e-09,4.0195971752419e-10,-7.1623095787117e-11,-0.00077781769406255,0.00077781740231294,-0.00077781693167633,0.00077781811111369,-0.00077781832704109,0.00077781664552152,-0.00077781642449902,0.00077781858715659,-0.00071356317459633,0.0007135586497836,-0.00071355846127688,0.00071356339585088,-3.4693700695964e-10,6.1451764158624e-10,3.0159791214885e-10,-2.6402356957368e-11,-0.0007560025588344,0.00075600282845746,-0.00077781722245385,0.00077781788884264,-0.00077781787407339,0.00077781708313253,-0.00077781740922767,0.00077781759805128,-0.0007778170126032,0.00077781811708565,-0.00071356109609305,0.00071356062115221,-0.00071356009401654,0.00071356181869118,-0.00075119946189591,0.00075119722807946,-0.00075119729542487,0.00075119985204155,-1.7913424929297e-09,1.9126943975579e-09,-0.00060121387394644,0.00060121399661888,9.3186826743358e-10,-8.424833918821e-10,-0.00062641458142099,0.00062641444580994,-0.00062641545328185,0.00062641310997765,-0.00062641360356412,0.00062641510122279,-0.00062641368624618,0.00062641516744287,-0.00063569116935379,0.00063569642518983,-0.00063569674109126,0.00063569061554884,0.70211760636516,125803,2834,0.0031450085940608,0.0031450086272726,0.0025020991275581,35.956998287108,5.0055986296868e-05,5.0055986296868e-05,5.0055986296868e-05,2358332.0939057,0.0088309329047874
6619200,0.49618539651335,0.0090851967241803,0.0032053254957918,0.0032053255235627,0.0026745457048258,-0.00079652004674476,0.00079652049469355,-1.4920693205418e-09,1.9360528434734e-09,4.0468695915001e-11,4.0833673768119e-10,-0.00082006739674368,0.00082006691673279,-0.00082006661278815,0.00082006764193637,-0.00082006778795772,0.00082006640314714,-0.00082006578921983,0.00082006844524398,-0.00075097808949646,0.0007509737222347,-0.0007509731445437,0.00075097871248105,-8.3854564241799e-11,2.5466948005333e-10,-6.1830154673554e-11,2.4527417632536e-10,-0.00079652018858094,0.0007965203681969,-0.00082006686216793,0.00082006747152764,-0.00082006733939844,0.00082006683437853,-0.00082006728251073,0.0008200669337772,-0.00082006664233317,0.00082006771089376,-0.00075097658763678,0.00075097510128346,-0.00075097488437653,0.00075097702389831,-0.00079164794664211,0.00079164633466013,-0.00079164627787967,0.0007916484455249,-1.9007760079605e-09,1.9800530779435e-09,-0.00062891922940134,0.00062891930849836,1.1828866112767e-09,-1.1395943736144e-09,-0.00065670564866376,0.00065670563839915,-0.00065670674919363,0.00065670406831635,-0.00065670465606474,0.00065670630423393,-0.0006567048738079,0.00065670624193766,-0.00066617736679672,0.0006661827053625,-0.0006661832327092,0.00066617658103242,0.7407151778448,125803,2834,0.0033132770872192,0.0033132771190793,0.0026172763526204,36.727605381464,5.6220843051716e-05,5.6220843051716e-05,5.6220843051716e-05,2319940.9271506,0.0092867479485375
6819200,0.52284533767851,0.0095793779534445,0.0033855622988774,0.0033855623266148,0.0028082533279523,-0.00084221899289964,0.00084221964105954,-1.5355929338664e-09,2.1783399056817e-09,-3.6608325349613e-10,1.0236377917152e-09,-0.00086693716598854,0.00086693647862178,-0.00086693631741608,0.00086693726676704,-0.0008669372588569,0.00086693626632286,-0.00086693511281927,0.00086693845712395,-0.00079415771555254,0.00079415350610691,-0.00079415239167504,0.00079415887076179,2.3513040272171e-10,-2.3581255006612e-10,-5.8808864410988e-10,6.095909524847e-10,-0.00084221931570823,0.00084221933331357,-0.00086693660621656,0.00086693706260733,-0.00086693683234184,0.00086693668130147,-0.00086693732198331,0.00086693621810846,-0.000866936349804,0.00086693733861634,-0.00079415698840953,0.00079415410770793,-0.00079415432349821,0.0007941570028396,-0.00083841325356745,0.00083841244459257,-0.00083841225740783,0.00083841388890811,-2.1063910170076e-09,2.0869225279787e-09,-0.0006611919246257,0.00066119190321218,1.4991946895082e-09,-1.5618130649656e-09,-0.00069083705370856,0.00069083713684335,-0.00069083844955389,0.00069083525657546,-0.00069083600526802,0.00069083785035962,-0.00069083641148922,0.00069083760254313,-0.00070238661965186,0.00070239208858939,-0.00070239295832611,0.00070238548019798,0.79222278783398,125803,2834,0.0035030304287845,0.0035030304600635,0.0027514249615392,38.157480224394,6.765984179515e-05,6.765984179515e-05,6.765984179515e-05,2278555.5981763,0.0098053109268565
7019200,0.55125089535759,0.010068082809956,0.0035649250261663,0.003564925054159,0.0029382327296312,-0.0008896894367395,0.00088969027242803,-9.6749259650059e-10,1.7968319706343e-09,-5.1234507338617e-10,1.3637789259311e-09,-0.00091612332579662,0.00091612283428031,-0.00091612264982843,0.00091612344864991,-0.00091612313853207,0.00091612291617272,-0.00091612141234056,0.00091612468278499,-0.00083795373338304,0.00083795119256859,-0.00083794972066665,0.00083795523899086,5.2013303782214e-10,-7.2902071725551e-10,-9.8061770440508e-10,8.0456409040975e-10,-0.00088968995305724,0.00088968977140338,-0.00091612300167719,0.00091612318964584,-0.00091612291118829,0.00091612313396782,-0.00091612384001559,0.00091612221651481,-0.00091612279638357,0.00091612341015303,-0.00083795415248001,0.00083795063902684,-0.00083795131015081,0.00083795372009586,-0.00088569484821747,0.00088569515150022,-0.00088569497691082,0.0008856954702808,-1.722190223714e-09,1.5503243477436e-09,-0.00069436722128119,0.00069436704649283,1.8967064258784e-09,-2.121017035709e-09,-0.00072662530511748,0.00072662573943526,-0.00072662691264339,0.00072662365443369,-0.00072662444573562,0.00072662626835892,-0.00072662527496573,0.00072662559467465,-0.00073859158729379,0.00073859538584418,-0.00073859671764429,0.00073858997451431,0.73336567961631,125803,2834,0.0037000994671707,0.0037000994989225,0.0028893102041038,39.883776293805,8.1470210350443e-05,8.1470210350443e-05,8.1470210350443e-05,2297552.7015478,0.010342704623258
7219200,0.57984428663378,0.010541243829151,0.0037389057276725,0.0037389057557562,0.0030634323457222,-0.00093462037688775,0.00093462126387999,-1.1445474480964e-09,2.0256607947179e-09,-2.2647529430581e-10,1.1276849359699e-09,-0.00096326996096352,0.00096326964802942,-0.00096326923135723,0.00096327031708886,-0.0009632700020417,0.00096326949930227,-0.00096326812490141,0.00096327141578885,-0.00087877212341826,0.00087876889621464,-0.00087876754451006,0.00087877349870904,2.1512241636373e-10,-4.7298039647892e-10,-1.1077760254882e-09,8.8160652405342e-10,-0.00093462094376563,0.00093462071239885,-0.00096326984202328,0.00096326979091807,-0.00096326974690188,0.00096326975205764,-0.00096327055354728,0.00096326895318696,-0.00096326940136183,0.00096327025221786,-0.00087877232392288,0.00087876856910427,-0.00087876909490915,0.00087877201318809,-0.00092984477758147,0.00092984438393403,-0.00092984418693955,0.00092984540676024,-1.9673615241148e-09,1.7208311253492e-09,-0.00072528487308519,0.00072528462345241,1.8829253519506e-09,-2.1846545810214e-09,-0.00076035923954905,0.00076035956180024,-0.00076036092424134,0.00076035739436256,-0.00076035831886706,0.00076036014757734,-0.00076035911126702,0.00076035951083193,-0.00077202988777499,0.00077203416559869,-0.00077203559573619,0.00077202818452146,0.70719547736777,125803,2834,0.0038865875772407,0.0038865876092014,0.0030178009328987,40.738218830957,8.8305750647656e-05,8.8305750647656e-05,8.8305750647656e-05,2350964.239137,0.010849499951944
7419200,0.60796445251102,0.01098952787747,0.0039038552132805,0.0039038552414553,0.003181817422734,-0.00097701907780192,0.00097701991626069,-1.1055577317349e-09,1.9391336334162e-09,1.0693706446961e-10,7.4117512525575e-10,-0.0010082996947982,0.0010082995838703,-0.0010082989765653,0.0010083002406876,-0.0010082999494652,0.0010082992183843,-0.0010082981304438,0.0010083010774653,-0.00091685733468239,0.00091685401261251,-0.00091685294482951,0.00091685842769474,-1.3066516415128e-10,-5.9435137436538e-11,-1.0105135597152e-09,8.4717473607716e-10,-0.0009770195888875,0.00097701942062186,-0.0010082997570564,0.0010082995416176,-0.0010082996831613,0.0010082994805741,-0.0010083001990868,0.0010082989780245,-0.0010082991157492,0.0010083002105852,-0.00091685722313684,0.0009168539841758,-0.0009168542105849,0.00091685723826244,-0.00097094091267457,0.00097093987384756,-0.00097093966785954,0.00097094157373871,-1.9329479410555e-09,1.6566353506625e-09,-0.00075427691812786,0.00075427663902152,1.8077042493393e-09,-2.1392409844151e-09,-0.00079231898398538,0.00079231922965535,-0.00079232059760932,0.00079231713444561,-0.00079231805609407,0.00079231982084258,-0.00079231884083585,0.00079231919514424,-0.00080311575738182,0.00080311986427837,-0.00080312128189845,0.00080311406778544,0.68502084081089,125803,2834,0.0040625305891642,0.0040625306212235,0.003138279324195,41.270760905178,9.2566087241421e-05,9.2566087241421e-05,9.2566087241421e-05,2426998.0590453,0.011327121141458
7619200,0.63442892096574,0.011401009851645,0.0040552849392016,0.0040552849674287,0.0032904399450147,-0.0010148954724972,0.0010148961088652,-1.0670572997496e-09,1.6997889474674e-09,6.4444904487699e-10,-9.0878868418834e-12,-0.0010489139152257,0.0010489140192617,-0.001048913184966,0.0010489146787719,-0.00104891448365,0.0010489133181933,-0.0010489128513235,0.0010489149954847,-0.00095066702026883,0.00095066363910141,-0.00095066319549547,0.00095066752276493,-4.3767554593015e-10,3.6413024495154e-10,-7.1048784701251e-10,6.5788355817139e-10,-0.0010148958240165,0.0010148957719945,-0.0010489141109292,0.0010489138391942,-0.0010489140912974,0.00104891369984,-0.0010489142086435,0.0010489136093923,-0.0010489133902142,0.001048914591085,-0.00095066630209537,0.00095066419223652,-0.00095066407120051,0.00095066670344657,-0.0010073049074613,0.0010073034305336,-0.0010073032594755,0.0010073055098895,-1.7877520730496e-09,1.5490572520113e-09,-0.00077956336109187,0.0007795631201952,1.6098653429413e-09,-1.8995317669356e-09,-0.00082084398486271,0.00082084410963304,-0.00082084535575565,0.00082084225001069,-0.00082084304331881,0.00082084470975611,-0.00082084377733479,0.00082084413647625,-0.00083001725006434,0.00083002103790069,-0.00083002224331292,0.00083001574278969,0.67223853893842,125803,2834,0.0042196780706336,0.0042196781010391,0.0032433539840988,41.071286052062,9.0970288416495e-05,9.0970288416495e-05,9.0970288416495e-05,2486223.5566471,0.011751352352078
7819200,0.6594179055655,0.011784728324836,0.0041965090727275,0.0041965091014504,0.0033917101506582,-0.0010506665886746,0.00105066712136,-1.0605487177882e-09,1.5901272722622e-09,8.8114145029236e-10,-3.5186811149426e-10,-0.0010872953672705,0.0010872955121219,-0.0010872945761284,0.0010872962387931,-0.0010872960308921,0.001087294718957,-0.0010872945614236,0.0010872962283372,-0.00098262824010859,0.00098262496087943,-0.00098262482324975,0.00098262841712816,-6.7702956506446e-10,7.0869901490597e-10,-4.8011203394811e-10,5.3113185204202e-10,-0.0010506668382303,0.001050666887253,-0.0010872956148123,0.0010872952736732,-0.0010872956079284,0.0010872951352097,-0.001087295435875,0.0010872953429496,-0.0010872948423575,0.0010872960788855,-0.00098262711788883,0.00098262594064043,-0.00098262552004822,0.00098262778366892,-0.0010416196203532,0.0010416178646807,-0.0010416177200966,0.0010416202278768,-1.7166903189823e-09,1.525302071304e-09,-0.00080326606933787,0.00080326587638629,1.4628181382115e-09,-1.7025758463442e-09,-0.00084787152018327,0.00084787151177303,-0.00084787267107592,0.00084786987806822,-0.00084787051218337,0.00084787218400119,-0.00084787124281378,0.00084787160813352,-0.00085537795642324,0.00085538151658782,-0.00085538258157572,0.00085537662135321,0.6665568439199,125803,2834,0.0043680671715756,0.0043680672036299,0.0033418422070752,40.972294491748,9.0178355933985e-05,9.0178355933985e-05,9.0178355933985e-05,2498689.9060986,0.012151367240586
8019200,0.68309282432175,0.012144937177524,0.0043291355159539,0.0043291355445363,0.0034866661170335,-0.0010845324029916,0.0010845329007606,-1.1033590658732e-09,1.5980785850609e-09,9.7095815189495e-10,-4.7646543077874e-10,-0.0011236676893256,0.0011236678719903,-0.0011236668937201,0.001123668604114,-0.001123668431326,0.0011236669977622,-0.0011236669529225,0.0011236685167563,-0.0010129332725594,0.0010129297685936,-0.0010129297352186,0.0010129333367466,-8.2187642718049e-10,9.0252780595697e-10,-3.4953843737611e-10,4.4922767569699e-10,-0.0010845326110132,0.0010845327081395,-0.0011236679458498,0.0011236676221713,-0.0011236680126071,0.0011236674102749,-0.0011236676682566,0.0011236677954519,-0.0011236671418795,0.0011236684600866,-0.0010129318881936,0.0010129310146076,-0.0010129304294802,0.0010129327058829,-0.0010740591237115,0.0010740569718834,-0.0010740568471257,0.0010740597050123,-1.7322403269216e-09,1.581065670382e-09,-0.00082565084315576,0.00082565069076592,1.3657043398372e-09,-1.5629505445155e-09,-0.00087350963478529,0.00087350954337944,-0.00087351068205634,0.00087350802229986,-0.00087350858565859,0.00087351026608103,-0.00087350926407607,0.00087350973262813,-0.00087940176210402,0.0008794055630982,-0.00087940651415299,0.00087940054808172,0.66097842752215,125803,2834,0.0045085313333558,0.0045085313653035,0.0034348486373289,40.977143200197,9.0217145601575e-05,9.0217145601575e-05,9.0217145601575e-05,2506678.7984227,0.012529942693301
8219200,0.70557407991608,0.01248405613415,0.004454015704059,0.0044540157326109,0.0035760246974799,-0.0011166508965547,0.0011166513992798,-1.1500412490881e-09,1.6494713822521e-09,9.7530110080908e-10,-4.7423516644119e-10,-0.0011582123496158,0.0011582125423636,-0.0011582115588586,0.0011582132691386,-0.0011582131207513,0.0011582116264256,-0.0011582115767729,0.0011582132121583,-0.0010414646360289,0.0010414609475191,-0.0010414609116273,0.0010414647009507,-9.474901400619e-10,1.044707388495e-09,-2.8308874402919e-10,4.0111636147197e-10,-0.0011166510979116,0.0011166512132038,-0.0011582126069612,0.0011582122868096,-0.001158212745158,0.001158211999446,-0.0011582122760479,0.0011582125131128,-0.0011582117521034,0.0011582131757848,-0.0010414631046247,0.0010414623492258,-0.0010414616449076,0.00104146403636,-0.0011047801523236,0.0011047775921963,-0.0011047774953068,0.0011047807294979,-1.7768539124585e-09,1.6588349074087e-09,-0.00084681160180377,0.00084681148267197,1.3101756219661e-09,-1.4729582314919e-09,-0.00089781481372804,0.00089781468565727,-0.00089781582103723,0.00089781318142967,-0.00089781373737148,0.0008978154228484,-0.00089781434777688,0.00089781495863702,-0.00090199772482797,0.00090200176446008,-0.0009020026381186,0.0009019965915131,0.65549731099728,125803,2834,0.0046417285095936,0.0046417285412835,0.0035227647659301,41.070964945199,9.0967719561591e-05,9.0967719561591e-05,9.0967719561591e-05,2512281.3595632,0.012888783676377
8419200,0.72694291627907,0.012805667821885,0.0045723975114363,0.0045723975401604,0.0036608727702879,-0.0011472125759661,0.0011472130862613,-1.1215118771702e-09,1.6284936072264e-09,1.0403527268207e-09,-5.3075503679795e-10,-0.0011910907527056,0.001191091013962,-0.0011910899882267,0.0011910917151601,-0.0011910915756988,0.0011910900557926,-0.0011910900344225,0.0011910916371757,-0.0010686407392452,0.0010686370455331,-0.0010686370305538,0.0010686407854719,-9.6946718009018e-10,1.0648705107148e-09,-2.5687418709357e-10,3.7433670357397e-10,-0.0011472127822918,0.001147212895294,-0.0011910910418852,0.0011910907289462,-0.0011910912119715,0.0011910904150487,-0.0011910907062967,0.0011910909655153,-0.001191090185606,0.0011910916178209,-0.0010686391859052,0.0010686384653761,-0.0010686377406247,0.0010686401374916,-0.0011340273595201,0.0011340247114913,-0.0011340246296343,0.0011340279018798,-1.7562555242515e-09,1.6583621430572e-09,-0.00086692991020587,0.00086692981118468,1.2948898374565e-09,-1.4364242897717e-09,-0.0009209723913688,0.00092097228225635,-0.00092097339584775,0.00092097078843834,-0.00092097133205013,0.00092097300427321,-0.00092097191908994,0.0009209725701291,-0.00092346972953276,0.00092347377658222,-0.00092347460519459,0.00092346863343918,0.65381528135316,125803,2834,0.004768451786611,0.0047684518184599,0.0036063456609225,41.233548410223,9.2268387281785e-05,9.2268387281785e-05,9.2268387281785e-05,2508655.5332482,0.013230240428101
8619200,0.74768747307404,0.01311751767305,0.0046871232755184,0.0046871233042006,0.0037432710933308,-0.0011776304691184,0.0011776310165562,-1.0822189167785e-09,1.6257581603218e-09,1.0167703526578e-09,-4.6773986851515e-10,-0.0012237839996033,0.001223784268304,-0.0012237832357442,0.0012237849720558,-0.0012237847861514,0.0012237833583825,-0.0012237832725804,0.0012237849111373,-0.0010957660926273,0.0010957625133607,-0.0010957624396935,0.0010957661950385,-9.1069751081617e-10,9.7375201667487e-10,-3.3586338138774e-10,4.2413714588111e-10,-0.0011776307089739,0.0011776307922295,-0.0012237843116971,0.0012237839620762,-0.0012237844306881,0.0012237837104905,-0.0012237840146243,0.0012237841678013,-0.0012237834621605,0.0012237848434749,-0.0010957646968297,0.0010957637768958,-0.0010957631350255,0.0010957655549662,-0.0011632289413377,0.0011632265076031,-0.0011632264028301,0.0011632294862127,-1.7485921120763e-09,1.6511697491917e-09,-0.00088726840501819,0.00088726830641903,1.3548455413031e-09,-1.4961426178755e-09,-0.00094411378129579,0.0009441137040531,-0.00094411481892921,0.00094411219749008,-0.00094411271937271,0.00094411444207773,-0.00094411336266562,0.00094411394800118,-0.00094523396751632,0.00094523787160863,-0.00094523874198923,0.0009452328335493,0.65261451722073,125803,2834,0.0048945623622641,0.0048945623944607,0.0036908341626793,41.854080634077,9.7232645072617e-05,9.7232645072617e-05,9.7232645072617e-05,2505063.4678411,0.013571490469672
8819200,0.76724185315383,0.013400587146559,0.0047914902923498,0.0047914903211131,0.0038176065330961,-0.0012048653211009,0.0012048658874936,-1.0766755850646e-09,1.6392830150291e-09,1.1213975408984e-09,-5.5240772138212e-10,-0.0012533642487726,0.001253364632763,-0.0012533635156435,0.0012533653027902,-0.0012533651316193,0.0012533636181517,-0.0012533635795996,0.0012533652125066,-0.0011195884942159,0.0011195847456058,-0.001119584715416,0.0011195885546412,-1.0543759017164e-09,1.1123794598778e-09,-3.3378193182793e-10,4.1670686740595e-10,-0.0012048655729817,0.0012048656511814,-0.0012533646478939,0.0012533642386996,-0.001253364802717,0.0012533639453551,-0.0012533642908588,0.0012533644989563,-0.0012533637070719,0.0012533652102174,-0.0011195870167339,0.001119586083583,-0.0011195853544631,0.0011195879712828,-0.0011890102833368,0.0011890074509319,-0.0011890073598295,0.0011890108256291,-1.7623318510515e-09,1.6721923583772e-09,-0.0009050627597855,0.00090506266856219,1.3601572461022e-09,-1.4939271895241e-09,-0.00096459279549889,0.00096459274614292,-0.00096459386324959,0.00096459120509961,-0.00096459175261592,0.00096459346336486,-0.00096459236307836,0.00096459299998101,-0.00096414186955111,0.00096414590197305,-0.00096414676002352,0.00096414073548056,0.62942561606693,125803,2834,0.0050074601649669,0.005007460197241,0.0037647532579536,41.996449423845,9.837159539076e-05,9.837159539076e-05,9.837159539076e-05,2527791.9152169,0.013875350045908
9019200,0.78553857861859,0.013665503893167,0.0048890656619733,0.004889065690774,0.0038873725404194,-0.0012300938748836,0.0012300944571637,-1.0694697343749e-09,1.6489710200672e-09,1.2937275072186e-09,-7.0507836586932e-10,-0.0012808000556898,0.0012808005702253,-0.0012807993512055,0.0012808012263484,-0.0012808010686772,0.001280799421685,-0.0012807994774376,0.0012808010673478,-0.001141504793021,0.0011415007954393,-0.00114150086008,0.0011415046939758,-1.2223440709336e-09,1.2877256483102e-09,-3.3137409278776e-10,4.1490492984361e-10,-0.0012300941353015,0.0012300942136539,-0.001280800568901,0.0012808000592885,-0.0012808007640772,0.0012807997467072,-0.0012808001212761,0.0012808004116653,-0.0012807995031963,0.0012808011621157,-0.0011415032268357,0.0011415022708802,-0.0011415013987767,0.0011415042157918,-0.0012129791108031,0.0012129758374724,-0.0012129757077041,0.0012129796331466,-1.7702401625341e-09,1.6940850367768e-09,-0.00092146417129326,0.00092146409493493,1.3522062295389e-09,-1.4736103299963e-09,-0.00098337642792393,0.00098337640668083,-0.00098337751107281,0.00098337483059458,-0.0009833753944335,0.00098337709450832,-0.00098337595853073,0.00098337669015715,-0.00098172571109538,0.00098172980895741,-0.0009817307052171,0.00098172458291037,0.62978086630296,125803,2834,0.0051120295949639,0.0051120296299943,0.0038328828458268,42.046581944404,9.8772655555233e-05,9.8772655555233e-05,9.8772655555233e-05,2530855.1597443,0.014156535422484
9219200,0.80244790253894,0.013907617383018,0.004978254188735,0.0049782542173129,0.0039511089769705,-0.0012528173325178,0.0012528177825775,-1.1105463519242e-09,1.5589066588246e-09,1.2748686663432e-09,-8.288592857413e-10,-0.0013056658737804,0.001305666276478,-0.0013056651431069,0.0013056669506484,-0.0013056668809987,0.0013056651306016,-0.0013056653490939,0.0013056667132433,-0.0011609865912403,0.0011609826445373,-0.0011609828678305,0.0011609863839959,-1.1977972726449e-09,1.3739882679095e-09,-2.4494976509976e-10,4.3740384754653e-10,-0.0012528174721924,0.0012528176586597,-0.0013056662902648,0.0013056658575918,-0.001305666464211,0.0013056655586336,-0.0013056657888759,0.0013056662678261,-0.0013056652357283,0.0013056669514719,-0.0011609848530877,0.0011609842582374,-0.0011609832780881,0.0011609860379113,-0.001234545820279,0.001234542714361,-0.0012345425295383,0.001234546450155,-1.7561852945567e-09,1.6841545448524e-09,-0.00093608532523486,0.00093608525141486,1.3333029508832e-09,-1.4494736833589e-09,-0.00100018330931,0.0010001832483105,-0.0010001843473008,0.0010001817199446,-0.0010001822547167,0.0010001839568509,-0.0010001828408219,0.0010001835308273,-0.00099749617871685,0.0009975001791073,-0.00099750100304658,0.00099749508387666,0.62301125658041,125803,2834,0.0052062050267022,0.0052062050593519,0.0038936161274653,41.897150107824,9.7577200862594e-05,9.7577200862594e-05,9.7577200862594e-05,2535038.7654962,0.014409207540335
9419200,0.81779215742109,0.014124852086203,0.0050582866531651,0.0050582866817765,0.0040082787512619,-0.0012725480027965,0.001272548402619,-1.1380836907362e-09,1.5371118518763e-09,1.2236357371799e-09,-8.2904916423476e-10,-0.0013274330667733,0.0013274333819166,-0.0013274323212179,0.0013274340710549,-0.0013274340288807,0.0013274322661011,-0.0013274325091302,0.0013274338282396,-0.0011778312091854,0.0011778272627253,-0.0011778275087379,0.0011778309534528,-1.1599707164556e-09,1.3878300159796e-09,-1.7449076651211e-10,4.1526072271886e-10,-0.0012725480954343,0.0012725483271608,-0.0013274334033926,0.0013274330317504,-0.0013274335957831,0.0013274327169939,-0.00132743289678,0.0013274334569442,-0.0013274323850795,0.0013274340852872,-0.0011778293947153,0.0011778289825422,-0.0011778279428672,0.0011778306189063,-0.001253226370851,0.0012532233232425,-0.0012532231520323,0.0012532270678258,-1.7656192679847e-09,1.7059943183093e-09,-0.00094851080818598,0.00094851074746107,1.2716707233562e-09,-1.3757411313258e-09,-0.0010145986517994,0.0010145985307072,-0.0010145996181983,0.0010145970609986,-0.0010145975661998,0.0010145992695653,-0.0010145981212544,0.0010145988590462,-0.0010109034757112,0.0010109075128543,-0.0010109082931229,0.0010109024257569,0.61621359926756,125803,2834,0.0052879688466388,0.0052879688822246,0.0039452291523109,41.415534026557,9.3724272212456e-05,9.3724272212456e-05,9.3724272212456e-05,2542194.5568273,0.014627500933896
9619200,0.83137463359956,0.014314915099232,0.0051283137690076,0.0051283137973979,0.0040582875328263,-0.0012887818030487,0.0012887821691475,-1.160490956739e-09,1.5263686650733e-09,1.1501877604358e-09,-7.8859074909393e-10,-0.0013455442786262,0.0013455445047235,-0.0013455435267627,0.0013455452112918,-0.0013455451949393,0.0013455434469366,-0.0013455436776636,0.0013455449953156,-0.0011914953577518,0.0011914913916929,-0.0011914916336888,0.0011914950805529,-1.0985276474403e-09,1.3784987506413e-09,-6.5791855195954e-11,3.5512854289399e-10,-0.0012887818573591,0.001288782133053,-0.0013455445129331,0.0013455442461879,-0.0013455447684704,0.0013455438995907,-0.0013455440343324,0.0013455446760184,-0.0013455435735928,0.0013455452203573,-0.0011914934629953,0.0011914932336613,-0.0011914921552584,0.0011914946784176,-0.0012685201586979,0.0012685171867133,-0.0012685170068523,0.0012685208592099,-1.7747697703574e-09,1.7362007882283e-09,-0.00095832018722529,0.00095832014867005,1.1798206435576e-09,-1.262417677217e-09,-0.001026163832692,0.0010261636425925,-0.0010261647229542,0.0010261622530897,-0.0010261627265033,0.0010261644068325,-0.0010261632212304,0.0010261640521788,-0.0010215535998714,0.0010215577512717,-0.0010215584656869,0.0010215526526712,0.60938555987896,125803,2834,0.0053552354137391,0.0053552354514595,0.0039859775487086,40.449635323758,8.5997082590062e-05,8.5997082590062e-05,8.5997082590062e-05,2549431.4377248,0.014805389279508
9819200,0.84367058205456,0.014487811798466,0.0051919382841482,0.005191938312239,0.0041039352020791,-0.0013039933154635,0.0013039936763993,-1.1260580130536e-09,1.4859748095484e-09,9.4639871687472e-10,-5.9148285260486e-10,-0.001362447964421,0.0013624480899709,-0.0013624472384539,0.0013624487635753,-0.0013624487711797,0.0013624471540664,-0.0013624472667273,0.0013624486991156,-0.0012044512925874,0.0012044475102064,-0.0012044476135819,0.0012044511830097,-8.6037402686995e-10,1.1252837662948e-09,-3.219257670007e-11,3.129906943234e-10,-0.0013039933696531,0.0013039936380029,-0.0013624480519382,0.0013624479881965,-0.0013624483368189,0.0013624476041457,-0.0013624477472728,0.0013624482318091,-0.0013624473061662,0.0013624487716954,-0.0012044495377205,0.0012044491759399,-0.0012044482747227,0.0012044505963967,-0.0012829624214652,0.001282959833369,-0.0012829596839233,0.0012829630185292,-1.7446109271883e-09,1.7167475223946e-09,-0.00096776217710223,0.00096776214899595,1.1816746205688e-09,-1.2518308665385e-09,-0.0010371492017903,0.0010371490397358,-0.0010371501120246,0.0010371476536307,-0.0010371481264666,0.0010371497842349,-0.0010371486052999,0.0010371494523074,-0.0010318401499759,0.0010318443327661,-0.0010318450000275,0.0010318392222871,0.61214217294854,125803,2834,0.005418262405312,0.0054182624380248,0.0040251964477317,39.874890181267,8.1399121450133e-05,8.1399121450133e-05,8.1399121450133e-05,2551516.4303535,0.01497314739964
10019200,0.8546869653006,0.014643746968133,0.0052492555315843,0.0052492555595623,0.0041452358769864,-0.0013170870233851,0.0013170873814832,-1.061079977735e-09,1.4172358393003e-09,7.9679539303592e-10,-4.4296147477218e-10,-0.0013770389749482,0.0013770390191855,-0.0013770382769498,0.0013770396616105,-0.0013770396500259,0.0013770381886419,-0.0013770381952815,0.001377039685665,-0.0012155915496194,0.0012155880205932,-0.0012155880562553,0.0012155915393257,-6.1773899420364e-10,8.3139215387104e-10,1.1410331468162e-12,2.277716181029e-10,-0.0013170870974682,0.0013170873219131,-0.0013770389381126,0.0013770390332711,-0.0013770392446456,0.0013770386158029,-0.0013770387864121,0.0013770391118146,-0.0013770383976822,0.001377039610414,-0.0012155899523613,0.0012155895154938,-0.0012155888643307,0.0012155908032745,-0.0012954208187885,0.0012954187732261,-0.0012954186653345,0.0012954213453633,-1.685519813049e-09,1.668723546994e-09,-0.00097572737036347,0.00097572735394173,1.1970389953447e-09,-1.2561112399754e-09,-0.0010464732552905,0.0010464731350396,-0.0010464741397086,0.0010464717284931,-0.001046472191456,0.0010464738418921,-0.0010464726854613,0.0010464734976312,-0.0010406193251638,0.0010406233747212,-0.0010406240403011,0.0010406184144887,0.61575181267099,125803,2834,0.0054725107959889,0.0054725108260408,0.0040582822365646,39.085294477765,7.508235582212e-05,7.508235582212e-05,7.508235582212e-05,2550347.0618432,0.015116881739002
10219200,0.86444373510369,0.014782957545007,0.0053003659222477,0.0053003659505086,0.0041822256722507,-0.0013280423930549,0.0013280427799241,-1.1252891643649e-09,1.5114960067169e-09,5.6546841603393e-10,-1.8085843484014e-10,-0.0013892729685911,0.0013892728055926,-0.0013892721910059,0.0013892735438857,-0.0013892734702067,0.0013892722040943,-0.0013892720299078,0.0013892736690396,-0.0012248936407082,0.0012248903052389,-0.0012248901159059,0.0012248938097579,-5.1252840755014e-10,7.7730047829491e-10,4.5104932154558e-12,2.7593780034476e-10,-0.0013280424640765,0.0013280427273238,-0.001389272818694,0.0013892729459797,-0.0013892730802519,0.0013892726108691,-0.0013892727031052,0.0013892730302584,-0.0013892723370787,0.0013892734569269,-0.0012248921015882,0.0012248917685862,-0.0012248911020461,0.0012248929295645,-0.0013058661426048,0.0013058643929119,-0.0013058642981099,0.0013058667467575,-1.7736695143163e-09,1.7625389295867e-09,-0.00098215770833346,0.0009821576973037,1.1218875404311e-09,-1.1748425279371e-09,-0.001054090274507,0.0010540900170666,-0.0010540911032845,0.001054088754466,-0.0010540891406666,0.0010540908515153,-0.0010540896313512,0.0010540904880884,-0.0010478125062023,0.0010478166299342,-0.0010478172495622,0.0010478116441895,0.6200754167972,125803,2834,0.0055178968827396,0.0055178969208928,0.0040849948892586,38.046288151842,6.6770305214738e-05,6.6770305214738e-05,6.6770305214738e-05,2545503.064806,0.015236168349823
10419200,0.87343980196371,0.014912472993938,0.0053478610651678,0.0053478610930447,0.0042167508357254,-0.0013393761232515,0.0013393765220414,-9.8426620599009e-10,1.3810263969445e-09,4.3234040870905e-10,-3.600177752335e-11,-0.0014017431855111,0.0014017429940043,-0.001401742462317,0.0014017436635829,-0.0014017435589637,0.0014017424938139,-0.0014017422099493,0.0014017438806195,-0.0012347680200857,0.0012347650959808,-0.001234764811517,0.0012347682997955,-1.9590114547213e-10,3.7210145631794e-10,-3.5976941228773e-11,2.3591982685167e-10,-0.0013393762359925,0.0013393764239575,-0.0014017429489369,0.001401743219928,-0.0014017431772079,0.0014017428869831,-0.0014017430318618,0.0014017430693477,-0.001401742689898,0.0014017435092087,-0.0012347668175604,0.0012347661986285,-0.001234765853675,0.0012347673267041,-0.0013167926779387,0.001316791625466,-0.0013167915632834,0.0013167931522207,-1.6528377406614e-09,1.6386077496286e-09,-0.00098933224598329,0.00098933223114756,1.2516333835843e-09,-1.3083441258288e-09,-0.0010623436488746,0.001062343522993,-0.0010623445235007,0.001062342168724,-0.0010623425547951,0.0010623442873657,-0.0010623431481753,0.0010623438353682,-0.0010557530871199,0.0010557568425622,-0.0010557575449368,0.0010557521342985,0.6250667092188,125803,2834,0.0055648491079446,0.0055648491382952,0.0041147941597881,37.718277799366,6.4146222394926e-05,6.4146222394926e-05,6.4146222394926e-05,2537881.7559375,0.01536178128958
10619200,0.88185144018051,0.015031344214839,0.0053914946117585,0.0053914946395848,0.0042483549634959,-0.0013503209563009,0.0013503214270849,-1.2690248967487e-09,1.7379410253888e-09,-2.4561737891061e-11,4.9839129184109e-10,-0.0014137862503029,0.001413785704901,-0.0014137854226955,0.0014137864863735,-0.0014137864137807,0.0014137854309843,-0.0014137847663092,0.0014137871228651,-0.0012443100341012,0.0012443065559623,-0.0012443058772435,0.0012443106943666,-2.2497896345886e-10,4.1651902282105e-10,-2.9052038616502e-10,5.0232314811896e-10,-0.0013503211002371,0.0013503212987269,-0.0014137858774898,0.0014137860726107,-0.0014137860417153,0.0014137858199271,-0.0014137860494477,0.0014137858393303,-0.0014137854419656,0.0014137865452047,-0.0012443089584174,0.0012443075365192,-0.0012443071618908,0.0012443094711002,-0.0013272972523484,0.0013272959706724,-0.0013272957163534,0.0013272978796547,-1.9860312403132e-09,1.9714518772631e-09,-0.00099640419076352,0.00099640417645296,1.1846722864407e-09,-1.2415048564827e-09,-0.0010704558602453,0.0010704555833693,-0.0010704568035522,0.0010704541816864,-0.0010704546558171,0.0010704564680256,-0.0010704551112054,0.0010704561572,-0.0010634823217355,0.0010634870724015,-0.0010634877493717,0.0010634814020864,0.61395642639298,125803,2834,0.0056101881317096,0.0056101881639705,0.0041441657482223,37.647461476608,6.3579691812867e-05,6.3579691812867e-05,6.3579691812867e-05,2535794.4842586,0.015483699334801
10819200,0.88974336473881,0.015140958084162,0.005431761243455,0.0054317612711982,0.0042774355695086,-0.0013605984481782,0.0013605989811042,-1.5695459947414e-09,2.101227780169e-09,-3.4560437649412e-10,8.8400228798397e-10,-0.0014251199895798,0.0014251193487454,-0.0014251192287663,0.0014251200599514,-0.0014251202056965,0.001425119051538,-0.0014251180893845,0.0014251211994373,-0.0012532380471783,0.0012532334243471,-0.0012532324558277,0.0012532390559331,-2.3739809418059e-10,4.3870505223926e-10,-5.2435700417573e-10,7.5435883376721e-10,-0.001360598618614,0.0013605988276183,-0.0014251195133099,0.0014251198245388,-0.0014251197970482,0.0014251194624128,-0.0014251199555028,0.0014251193408486,-0.0014251189190592,0.0014251204507298,-0.0012532370008497,0.0012532343587523,-0.0012532339996015,0.0012532376271087,-0.0013371251815274,0.0013371231675895,-0.0013371228590936,0.0013371261010106,-2.3341106327756e-09,2.3138565015075e-09,-0.0010030785304824,0.0010030785101048,1.1390970412644e-09,-1.2009069546628e-09,-0.0010781130981892,0.0010781128376166,-0.0010781143035086,0.0010781112235836,-0.0010781119603687,0.0010781136916169,-0.001078112130285,0.0010781136518702,-0.0010707221953546,0.0010707284850272,-0.001070729078369,0.0010707213152191,0.60387279164145,125803,2834,0.0056527608845018,0.0056527609196065,0.0041718842934182,37.649668493521,6.359734794817e-05,6.359734794817e-05,6.359734794817e-05,2539205.5892219,0.015598334240752
11019200,0.89721087030636,0.015242733986346,0.0054691802959265,0.0054691803233155,0.0043043733671044,-0.0013705325399058,0.0013705330673613,-1.1966902956388e-09,1.722330228582e-09,-1.8942622221776e-10,7.2112018039113e-10,-0.0014360798492986,0.0014360794126328,-0.0014360792177277,0.0014360799843694,-0.0014360800537248,0.0014360791121181,-0.0014360782380607,0.0014360809705326,-0.0012618625470659,0.001261858885307,-0.0012618580145373,0.0012618634341318,6.9510551618009e-11,6.4359104806603e-11,-4.9215661140533e-10,6.5784484965905e-10,-0.0013705327367262,0.0013705328851822,-0.0014360794340295,0.0014360798307687,-0.0014360796527279,0.0014360795094852,-0.0014360799767522,0.0014360792167929,-0.0014360790628901,0.0014360802337092,-0.0012618618950674,0.0012618594204013,-0.0012618593179279,0.0012618622001754,-0.0013465969297801,0.0013465958322492,-0.0013465955842453,0.0013465976739665,-1.9866791427988e-09,1.9435702586745e-09,-0.0010096260111699,0.0010096259674748,1.3978547689596e-09,-1.4851282532465e-09,-0.0010855965731831,0.0010855965821036,-0.0010855978474971,0.0010855948688111,-0.0010855955464617,0.0010855972989795,-0.0010855959741301,0.0010855970221016,-0.0010777758026825,0.0010777808397352,-0.0010777816488982,0.0010777747170965,0.59321240573991,125803,2834,0.005693909434262,0.0056939094645818,0.0041990740116282,37.825777268603,6.5006218148824e-05,6.5006218148824e-05,6.5006218148824e-05,2546425.8950547,0.015709551828217
11219200,0.90424308502552,0.015338484549578,0.0055043668393636,0.0055043668665861,0.0043297508436282,-0.0013797376672373,0.0013797381764066,-8.5587076638264e-10,1.3590715341799e-09,-3.5463435028168e-11,5.4507352643675e-10,-0.0014462504301817,0.0014462501927916,-0.001446249907004,0.001446250640817,-0.001446250618748,0.0014462498526613,-0.0014462491008735,0.0014462514355345,-0.0012698503435378,0.0012698475536538,-0.0012698468181437,0.0012698511132742,1.9789246163878e-10,-1.6464150074692e-10,-4.8548923661352e-10,5.5030846863418e-10,-0.0013797378939557,0.0013797379605595,-0.0014462501191602,0.001446250501378,-0.0014462502559085,0.0014462502183415,-0.0014462506564395,0.0014462498411394,-0.0014462498819447,0.001446250776393,-0.0012698500122911,0.0012698477288927,-0.0012698478361018,0.0012698501092188,-0.0013553852973489,0.0013553848109882,-0.0013553845860888,0.0013553858470994,-1.6586666611151e-09,1.6014104030114e-09,-0.0010156606696626,0.0010156606077945,1.6110092374244e-09,-1.7136703939621e-09,-0.001092488938423,0.0010924891886833,-0.001092490238233,0.0010924873752818,-0.0010924880129374,0.0010924897579179,-0.001092488663007,0.0010924892740499,-0.0010843112966294,0.0010843151972228,-0.001084316180681,0.0010843100454542,0.59263756978659,125803,2834,0.0057320369471102,0.0057320369696204,0.0042241335269023,37.935922867209,6.5887382937674e-05,6.5887382937674e-05,6.5887382937674e-05,2552819.3112901,0.015812479065432
11419200,0.91079557066771,0.015428298689192,0.0055373394734454,0.0055373395010082,0.0043536197147384,-0.0013879871425138,0.0013879876670771,-7.8700225215083e-10,1.3095370713649e-09,-8.1671128532496e-13,5.2901117577759e-10,-0.0014553854454719,0.0014553851745226,-0.0014553848563598,0.0014553857163176,-0.0014553855659116,0.0014553849776025,-0.0014553842380952,0.0014553863425373,-0.0012769913221973,0.001276989014692,-0.0012769882487168,0.0012769920880912,1.0586688560402e-10,3.0762458592666e-11,-4.8821292720295e-10,6.4956092867201e-10,-0.0013879873410791,0.0013879874864423,-0.0014553852162807,0.0014553854093101,-0.001455385222145,0.0014553853308586,-0.0014553855733288,0.0014553850050435,-0.0014553848734982,0.0014553857827318,-0.0012769910178421,0.0012769891992058,-0.0012769891152792,0.0012769913041848,-0.0013632813357479,0.0013632810033244,-0.0013632807418559,0.0013632820662365,-1.6269697772041e-09,1.5417342861347e-09,-0.0010209683609331,0.0010209682744755,1.6316169977262e-09,-1.7642030285401e-09,-0.0010985728374024,0.0010985730135985,-0.0010985740903513,0.0010985713707059,-0.0010985718631123,0.0010985737090262,-0.0010985726692964,0.0010985730375785,-0.0010901298160029,0.0010901332111338,-0.00109013425734,0.0010901285261006,0.59626754007396,125803,2834,0.0057662047564246,0.0057662047935643,0.0042461748667981,37.863984996811,6.5311879974488e-05,6.5311879974488e-05,6.5311879974488e-05,2555046.214331,0.015904303669606
11619200,0.91683289349426,0.015511442160209,0.0055678400420854,0.0055678400694134,0.0043757620487105,-0.0013951845314479,0.0013951850585809,-9.605336070047e-10,1.4843125092717e-09,-4.3612860892331e-11,5.7294246623623e-10,-0.0014633804224988,0.0014633797957784,-0.0014633794908576,0.0014633806671693,-0.0014633802799682,0.0014633798285946,-0.0014633790632858,0.0014633810908582,-0.0012831974963058,0.0012831955482504,-0.0012831947770118,0.0012831982836786,-2.3201458952532e-10,3.5910599051994e-10,-5.9651795326807e-10,7.545567635e-10,-0.0013951847282993,0.001395184875362,-0.0014633802602457,0.0014633799573891,-0.0014633799579165,0.0014633801506779,-0.0014633801615692,0.0014633799750922,-0.00146337963496,0.001463380620011,-0.0012831970250288,0.0012831958813983,-0.001283195592227,0.0012831975268583,-0.0013701758062982,0.0013701756183868,-0.0013701752483346,0.0013701765785482,-1.8084044070193e-09,1.7307865740112e-09,-0.0010254647814032,0.0010254647016091,1.5359391669565e-09,-1.6594096559645e-09,-0.0011037744248892,0.0011037741905411,-0.0011037753507725,0.0011037728134417,-0.0011037730813341,0.0011037752190554,-0.0011037740631991,0.0011037743834963,-0.0010951104533472,0.0010951136093225,-0.0010951145740302,0.0010951092151236,0.5987386647934,125803,2834,0.0057960136586659,0.0057960136868935,0.0042648485466362,37.58454162393,6.307633299144e-05,6.307633299144e-05,6.307633299144e-05,2553888.6115529,0.015983856408071
11819200,0.92231909630961,0.015587491515467,0.0055957150684672,0.0055957150957786,0.004396061351221,-0.0014011665832103,0.0014011670720728,-1.008123222057e-09,1.4946024050401e-09,2.3774812066399e-10,2.5238211960537e-10,-0.0014700734753014,0.0014700732100135,-0.0014700727609636,0.0014700738689764,-0.0014700737392998,0.0014700728311951,-0.0014700722892419,0.001470074322943,-0.0012883172139816,0.0012883142135369,-0.001288313685115,0.0012883177448973,-2.7527237255915e-10,4.2358781285122e-10,-5.231256141449e-10,6.9361895917059e-10,-0.0014011667549883,0.0014011669155615,-0.0014700733757552,0.001470073301593,-0.0014700733498571,0.0014700732321856,-0.001470073457573,0.001470073152561,-0.001470072746503,0.0014700739664788,-0.0012883165083992,0.0012883147969039,-0.0012883144574663,0.0012883170500253,-0.0013759069550976,0.0013759058626719,-0.0013759055146079,0.0013759077298629,-1.8484247183262e-09,1.7707080716721e-09,-0.0010290030671792,0.001029002987866,1.5249175979593e-09,-1.6495540341104e-09,-0.0011079422260123,0.0011079421775263,-0.0011079433491306,0.0011079405836488,-0.0011079410663483,0.0011079430055619,-0.0011079418304117,0.0011079423981439,-0.0010990810738571,0.001099085058524,-0.0010990860284661,0.0010990798538441,0.60218599000631,125803,2834,0.0058207877720667,0.0058207878036707,0.0042795452052338,37.034252360721,5.8674018885772e-05,5.8674018885772e-05,5.8674018885772e-05,2550208.697986,0.016049141712854
12019200,0.92735086340602,0.015659388302164,0.0056220035911343,0.0056220036184708,0.0044153810925585,-0.0014069373125096,0.0014069378085868,-1.0859326774433e-09,1.580422060485e-09,1.9705128898309e-10,2.9993886183836e-10,-0.0014764585095467,0.0014764578859764,-0.0014764574481324,0.0014764588972961,-0.0014764584746505,0.0014764578376447,-0.0014764572746331,0.0014764590803505,-0.001293363992358,0.0012933617902626,-0.0012933612174136,0.0012933645785937,-5.2825684423367e-10,7.4008790473073e-10,-5.2944439741642e-10,7.6417448731014e-10,-0.0014069374581696,0.0014069376785579,-0.0014764584576492,0.0014764579428362,-0.0014764581113369,0.001476458200881,-0.001476458069058,0.0014764582719148,-0.0014764576318948,0.0014764588090917,-0.0012933631441415,0.001293362514321,-0.0012933619284499,0.0012933639324207,-0.0013815222711908,0.0013815216220509,-0.0013815212142191,0.0013815230996765,-1.9404715991707e-09,1.8675019379212e-09,-0.0010325360341813,0.0010325359606353,1.4232362095666e-09,-1.5413081927646e-09,-0.0011120220870886,0.0011120216321281,-0.0011120228853122,0.0011120204225786,-0.0011120205995877,0.0011120228232998,-0.001112021579528,0.0011120219942325,-0.0011030694209421,0.0011030727595202,-0.0011030736400016,0.0011030682791753,0.61930375546503,125803,2834,0.0058446865349206,0.0058446865672896,0.0042942190348266,36.631792048434,5.5454336387473e-05,5.5454336387473e-05,5.5454336387473e-05,2541537.2020469,0.016112626825592
12219200,0.93206001333605,0.015728866238043,0.0056473488394291,0.0056473488666746,0.0044341685319394,-0.0014131044176068,0.0014131048904814,-1.0492871042345e-09,1.5200309475685e-09,3.2935951788105e-10,1.431318246563e-10,-0.0014831567221621,0.0014831566281512,-0.0014831561286402,0.0014831571666897,-0.0014831571977624,0.001483156046196,-0.0014831555875846,0.0014831576996827,-0.0012989049590926,0.0012989013709975,-0.0012989009223174,0.001298905419212,-4.309832864035e-10,6.1947698961988e-10,-4.8344025014196e-10,6.9476353486452e-10,-0.0014131045615807,0.0014131047616988,-0.0014831566729667,0.0014831566740605,-0.0014831567987698,0.0014831564507587,-0.0014831567786268,0.0014831565003428,-0.0014831559403314,0.0014831574445381,-0.0012989040879058,0.0012989021204629,-0.0012989016241596,0.0012989047882906,-0.0013876176141696,0.0013876157312259,-0.0013876153696469,0.0013876184098904,-1.9058172462694e-09,1.8318813996336e-09,-0.0010365858413525,0.0010365857658944,1.46673537598e-09,-1.5866438921173e-09,-0.0011165757142156,0.0011165757504772,-0.0011165769688065,0.0011165740472189,-0.0011165746835785,0.0011165764631145,-0.0011165752434656,0.0011165760564583,-0.0011076172923291,0.0011076218976101,-0.0011076228101469,0.0011076161205295,0.63790519391291,125803,2834,0.0058702265981595,0.0058702266296073,0.0043110376310764,36.591081360214,5.5128650881714e-05,5.5128650881714e-05,5.5128650881714e-05,2526989.5481632,0.016181629373687
12419200,0.93650532460698,0.015792350111901,0.0056705589422126,0.0056705589694394,0.0044512322002493,-0.0014191874012046,0.0014191878782093,-1.0269366736719e-09,1.5019142518447e-09,2.7424482342066e-10,2.0403304957745e-10,-0.0014897548911028,0.0014897546153032,-0.0014897541607216,0.0014897552928138,-0.0014897551720355,0.0014897542189102,-0.0014897537136634,0.0014897557238693,-0.0013043408391582,0.0013043377483549,-0.0013043372561934,0.0013043413117649,-4.0765800203375e-10,6.0358194571002e-10,-4.8870510185829e-10,7.0226983092181e-10,-0.0014191875460682,0.0014191877486586,-0.0014897548236168,0.0014897546764356,-0.0014897547985499,0.0014897546056174,-0.0014897547890112,0.0014897546396295,-0.0014897540892906,0.0014897554495868,-0.0013043400289648,0.0013043384520258,-0.0013043379475089,0.0013043406808346,-0.0013935683969249,0.0013935670334787,-0.0013935666274906,0.0013935691810461,-1.8988787341878e-09,1.8259463170052e-09,-0.0010406400582713,0.0010406399838607,1.4641233288112e-09,-1.5836631767303e-09,-0.0011211609097416,0.0011211607918256,-0.0011211619997485,0.0011211592336626,-0.0011211597188021,0.0011211616503112,-0.001121160427409,0.0011211611002573,-0.001112093021415,0.0011120971328927,-0.0011120980728224,0.0011120918472096,0.61827139999557,125803,2834,0.0058954172996691,0.0058954173313633,0.0043278744859213,36.717111741375,5.6136893931004e-05,5.6136893931004e-05,5.6136893931004e-05,2515265.9401074,0.016249946097872
12619200,0.9406452933774,0.01584836290203,0.0056911124702371,0.0056911124974675,0.0044661379343252,-0.0014242441069703,0.0014242445745668,-9.5516270561146e-10,1.4212928131861e-09,3.3752396658039e-10,1.2957748767317e-10,-0.0014953423860744,0.0014953422676227,-0.0014953417705972,0.001495342834659,-0.0014953427942656,0.0014953417791461,-0.0014953413335802,0.0014953432808772,-0.0013087086143243,0.0013087054596592,-0.001308705011427,0.0013087090705702,-2.9401561896584e-10,4.9333239356567e-10,-4.1941754140445e-10,6.4266198981221e-10,-0.0014242442449205,0.0014242444526812,-0.0014953423090343,0.0014953423500695,-0.001495342390252,0.0014953421846944,-0.0014953424198125,0.0014953421818858,-0.0014953417004618,0.0014953429958362,-0.0013087078171627,0.0013087061365098,-0.0013087057131045,0.0013087084352176,-0.0013984068909861,0.0013984054869592,-0.0013984051649073,0.0013984076381653,-1.8387752588889e-09,1.760579801672e-09,-0.0010438437169496,0.0010438436380522,1.4779627993539e-09,-1.6021021778056e-09,-0.001124872656156,0.0011248726514534,-0.0011248738456746,0.0011248710528466,-0.0011248715887808,0.0011248734211804,-0.0011248722495724,0.0011248729136412,-0.0011155928863307,0.0011155970678327,-0.0011155979946913,0.0011155917132057,0.58731726768689,125803,2834,0.0059163570413422,0.0059163570746043,0.0043411796834779,36.603785246015,5.5230281968124e-05,5.5230281968124e-05,5.5230281968124e-05,2514474.7246823,0.016306038531839
12819200,0.94449591996812,0.015900860539256,0.005710357507576,0.0057103575347092,0.0044801454969704,-0.0014288380891365,0.0014288385577074,-9.6425644709802e-10,1.4308238532546e-09,2.9090888746259e-10,1.7732074397299e-10,-0.0015004368055296,0.001500436667296,-0.0015004362005379,0.0015004372218569,-0.0015004371920074,0.0015004361856752,-0.0015004357065496,0.0015004377139659,-0.0013126703061757,0.0013126671190603,-0.0013126666452583,0.0013126707862915,-2.9089407997377e-10,4.7743226072741e-10,-4.0679890335663e-10,6.1732515229292e-10,-0.0014288382324263,0.0014288384300328,-0.0015004367022556,0.001500436770756,-0.0015004368115958,0.0015004365713247,-0.0015004368333527,0.0015004365762732,-0.0015004361110369,0.0015004373993728,-0.0013126695050284,0.0013126678012888,-0.0013126673940998,0.00131267010423,-0.0014028196263978,0.0014028181911994,-0.0014028178766037,0.0014028203565938,-1.8584876524924e-09,1.7864942739439e-09,-0.0010467735109632,0.0010467734377566,1.4452924384846e-09,-1.562925298103e-09,-0.0011282199494958,0.0011282199272122,-0.0011282211196002,0.0011282183236605,-0.0011282188762557,0.0011282206894579,-0.0011282194975117,0.0011282202217337,-0.0011188082511331,0.0011188125400554,-0.0011188134442657,0.0011188071036561,0.59135073155902,125803,2834,0.005935380830503,0.0059353808628278,0.0043533459156628,36.464924838842,5.4119398710734e-05,5.4119398710734e-05,5.4119398710734e-05,2518371.0298758,0.016357080526236
13019200,0.94799898844963,0.015948772095896,0.0057279116158733,0.0057279116429535,0.004492948837069,-0.0014321891691345,0.0014321896884215,-1.4002300564623e-09,1.917660972303e-09,-8.177458260734e-11,6.0457138793556e-10,-0.0015042408538317,0.0015042403429758,-0.0015042400750883,0.0015042410668695,-0.0015042411129925,0.0015042399749496,-0.0015042391988363,0.0015042419419531,-0.00131546038384,0.0013154562251438,-0.0013154554451339,0.0013154611647077,-7.0194838895856e-10,9.4135518158045e-10,-5.4003889412739e-10,8.0039058215389e-10,-0.0014321893116113,0.0014321895608524,-0.0015042406610034,0.0015042405358338,-0.0015042407919731,0.0015042402994839,-0.0015042406393858,0.00150424047928,-0.0015042396957122,0.0015042415468011,-0.0013154592685058,0.0013154572205832,-0.0013154564776103,0.0013154601958402,-0.0014060163929401,0.0014060138352102,-0.0014060133674864,0.0014060172614841,-2.318905452138e-09,2.2739231180332e-09,-0.0010486269334745,0.0010486268884163,1.1828883078738e-09,-1.2705675517384e-09,-0.0011304452142953,0.0011304448571222,-0.0011304463223969,0.0011304433005067,-0.0011304439535451,0.0011304457993542,-0.0011304442671047,0.0011304456414939,-0.0011209129307004,0.0011209187333801,-0.0011209194264552,0.0011209119650007,0.59303209876457,125803,2834,0.0059492568772144,0.005949256908072,0.0043610453892672,35.906581857615,4.9652654860917e-05,4.9652654860917e-05,4.9652654860917e-05,2519589.2179657,0.016393119902411
13219200,0.9511629522147,0.01599221798412,0.0057438197310411,0.0057438197581178,0.004504578494961,-0.0014347978410323,0.0014347982607031,-5.4047524355819e-10,9.5899014603873e-10,6.2387935473749e-10,-2.0651281029305e-10,-0.0015072489892572,0.0015072489973657,-0.0015072483641198,0.001507249573261,-0.0015072492825578,0.0015072485998264,-0.0015072483851865,0.0015072495363619,-0.0013175743745862,0.0013175727500703,-0.001317572546697,0.0013175745522905,-3.0307879115097e-11,1.9046106644216e-10,-1.1833666842956e-10,3.0075954111276e-10,-0.0014347979746586,0.001434798143262,-0.0015072489494587,0.0015072490344279,-0.001507248947853,0.0015072489454537,-0.0015072489359013,0.0015072489846417,-0.0015072487097399,0.0015072493039773,-0.0013175736866331,0.001317573341955,-0.001317573111147,0.0013175740571026,-0.0014084977513444,0.0014084976415706,-0.0014084975376629,0.001408498245553,-1.4335996109617e-09,1.369409792765e-09,-0.0010498938300902,0.001049893765192,1.5036817219967e-09,-1.6145424200901e-09,-0.0011320376076005,0.0011320375678415,-0.0011320384841705,0.001132036241316,-0.0011320364748522,0.0011320383780672,-0.0011320374361402,0.0011320375709214,-0.0011224136346031,0.0011224161022521,-0.0011224170363111,0.0011224124642627,0.59512912351372,125803,2834,0.0059600579234249,0.005960057956923,0.004366310436063,35.184901235179,4.3879209881434e-05,4.3879209881434e-05,4.3879209881434e-05,2518292.8311705,0.016420434172234
13419200,0.95402493406879,0.016030890784736,0.0057579915520218,0.0057579915790648,0.004514907653649,-0.0014369775946862,0.0014369780340682,-7.0541608708158e-10,1.1427195305851e-09,4.513789325658e-10,-1.381641021227e-11,-0.0015097933084678,0.0015097930320676,-0.0015097924845602,0.0015097938046081,-0.0015097934122506,0.0015097928207825,-0.0015097924782056,0.0015097937962881,-0.0013192993605979,0.0013192977705963,-0.0013192974313799,0.0013192996985941,-2.2149016268639e-10,3.938621719137e-10,-1.5089488963442e-10,3.4654424304471e-10,-0.0014369777293994,0.0014369779142828,-0.0015097932270648,0.0015097931107972,-0.0015097931158995,0.0015097931241338,-0.0015097930134588,0.0015097932561689,-0.0015097928454641,0.0015097935257698,-0.0013192985292559,0.0013192984858533,-0.0013192981246359,0.0013192990677206,-0.0014105508009292,0.0014105505775212,-0.0014105504261981,0.0014105513319243,-1.6166708065534e-09,1.5663648586876e-09,-0.0010508649333979,0.001050864882296,1.3672205772028e-09,-1.4619050304362e-09,-0.0011333085743218,0.0011333082742748,-0.0011333092903492,0.0011333071064535,-0.0011333072592595,0.0011333092682572,-0.0011333082001886,0.0011333084801761,-0.0011235802044122,0.0011235829310083,-0.0011235837647176,0.0011235791432992,0.5860878685174,125803,2834,0.0059690828634371,0.0059690828943337,0.0043703475868159,34.454360128401,3.8034881027208e-05,3.8034881027208e-05,3.8034881027208e-05,2516741.5662235,0.016442890117657
13619200,0.95664510348774,0.016065841716959,0.0057708062017118,0.0057708062287542,0.0045242292864935,-0.0014391724771552,0.001439172936478,-9.464972390414e-10,1.4036836598395e-09,2.8543001707361e-10,1.7323812310602e-10,-0.0015123272305765,0.0015123270725685,-0.001512326610247,0.00151232764053,-0.0015123275844126,0.0015123266120893,-0.0015123261431619,0.0015123280951371,-0.001321070258666,0.0013210672051538,-0.0013210667415017,0.0013210707346836,-3.1948337006117e-10,5.0329523081663e-10,-2.2166934791938e-10,4.2844026147352e-10,-0.0014391726159879,0.0014391728125252,-0.0015123270754021,0.001512327225573,-0.001512327274841,0.0015123269267942,-0.0015123271598584,0.0015123270732437,-0.0015123265922777,0.0015123277434446,-0.0013210692808406,0.0013210680605113,-0.0013210676394486,0.0013210699064179,-0.0014126228853831,0.0014126213622283,-0.0014126211676766,0.0014126234954105,-1.8733024495704e-09,1.8340950163033e-09,-0.0010519663856741,0.0010519663455365,1.2629286707343e-09,-1.3452887450471e-09,-0.0011346778532151,0.0011346776954804,-0.0011346788647531,0.001134676234244,-0.0011346767401972,0.0011346784897093,-0.0011346772490691,0.0011346781333244,-0.0011248548794824,0.0011248593172,-0.0011248600541376,0.0011248538959274,0.57890325049007,125803,2834,0.0059781707418994,0.0059781707726982,0.004374924451611,33.909181627959,3.3673453023671e-05,3.3673453023671e-05,3.3673453023671e-05,2517479.9617828,0.016466022697218
13819200,0.9590663493671,0.016098116576157,0.0057826356112907,0.005782635638337,0.0045328453265296,-0.00144138367815,0.001441384144116,-9.2810025823301e-10,1.3923885687791e-09,2.4163558966919e-10,2.2424911787279e-10,-0.0015148519500653,0.0015148517909422,-0.0015148513542014,0.0015148523402163,-0.0015148522915066,0.0015148513632851,-0.0015148508607359,0.0015148528348921,-0.0013228929483474,0.0013228899443001,-0.0013228894408406,0.0013228934584279,-2.4317468753316e-10,4.3381907519414e-10,-2.2263334547531e-10,4.3682997728927e-10,-0.0014413838183641,0.0014413840193836,-0.0015148517689116,0.0015148519761548,-0.0015148519785659,0.0015148516793604,-0.0015148519148729,0.0015148517711748,-0.0015148513367543,0.0015148524438421,-0.0013228920357522,0.00132289073728,-0.0013228903595487,0.0013228926011679,-0.001414723947706,0.0014147225506707,-0.0014147223523192,0.0014147245461751,-1.8708922465351e-09,1.8303754701093e-09,-0.0010531790734871,0.0010531790322925,1.2760722176013e-09,-1.3598309396626e-09,-0.0011361290292236,0.0011361288786199,-0.0011361300583138,0.0011361274288792,-0.0011361279212364,0.0011361296829445,-0.0011361284458977,0.0011361293112504,-0.0011262328866059,0.0011262373205075,-0.001126238066823,0.0011262318965607,0.5784261754682,125803,2834,0.0059873264150702,0.0059873264471204,0.0043799619483133,33.508534956927,3.046827965542e-05,3.046827965542e-05,3.046827965542e-05,2519271.8697697,0.016489761362483
14019200,0.96134102278112,0.016128429234183,0.0057937420756307,0.0057937421026425,0.0045409450559101,-0.0014439568388414,0.0014439573268139,-1.021470756946e-09,1.5073893108795e-09,5.4287113213014e-11,4.355043841106e-10,-0.0015177144869556,0.0015177140575847,-0.0015177137268263,0.0015177147528664,-0.0015177145767515,0.0015177138234782,-0.0015177131607595,0.0015177152853367,-0.00132510710642,0.00132510432247,-0.0013251036705628,0.0013251077452848,-2.8256514018187e-10,4.3833272086069e-10,-3.3621490497591e-10,5.1555876118815e-10,-0.0014439570051474,0.0014439571751059,-0.0015177142625647,0.001517714273031,-0.0015177143050709,0.001517714103634,-0.0015177142863801,0.0015177141562154,-0.0015177137428655,0.0015177148232306,-0.0013251062643552,0.0013251050520867,-0.0013251046808706,0.0013251068241929,-0.0014171982449063,0.0014171971561413,-0.0014171969350932,0.001417198930947,-1.9864376698529e-09,1.949059132699e-09,-0.0010548071632531,0.0010548071239733,1.2659757364463e-09,-1.3473877810315e-09,-0.0011379842453578,0.0011379839180453,-0.0011379851399882,0.0011379825211008,-0.0011379829474797,0.0011379848701711,-0.0011379835488037,0.0011379844179795,-0.0011280307890846,0.0011280351565927,-0.0011280358952456,0.0011280297774001,0.57821463107839,125803,2834,0.0059979812085637,0.0059979812387646,0.0043867227119943,33.39133400231,2.9530672018477e-05,2.9530672018477e-05,2.9530672018477e-05,2520850.3319518,0.016518299736686
14219200,0.96347378517687,0.016155824451902,0.0058038030998471,0.0058038031268954,0.0045482182251596,-0.0014462335769497,0.0014462340742782,-1.0031200711939e-09,1.4984553213362e-09,1.9781927028649e-11,4.7998822115991e-10,-0.0015202761190048,0.0015202756309697,-0.0015202753180557,0.0015202763792533,-0.0015202761497753,0.0015202754979452,-0.0015202748056955,0.0015202768844469,-0.0013270283571611,0.001327025799476,-0.0013270251120397,0.0013270290477981,-1.9201704571694e-10,3.6486377815565e-10,-3.6545596721645e-10,5.5952744635735e-10,-0.0014462337417097,0.0014462339245681,-0.0015202758767465,0.0015202758757695,-0.0015202758487455,0.0015202758026936,-0.0015202759119536,0.0015202757692098,-0.0015202753963137,0.0015202763898371,-0.0013270276087452,0.0013270264307851,-0.0013270261134105,0.0013270281164918,-0.0014193519888037,0.0014193512490895,-0.0014193509861095,0.0014193526786579,-1.9900868406499e-09,1.9445549137116e-09,-0.0010562044115011,0.0010562043648895,1.3102331649233e-09,-1.3998660870933e-09,-0.0011396090709842,0.0011396087183237,-0.0011396099715644,0.0011396073732001,-0.0011396077360179,0.0011396097376016,-0.0011396084277334,0.0011396091992249,-0.0011295523700027,0.001129556554682,-0.0011295573264435,0.0011295513441233,0.55856766592263,125803,2834,0.0060074082417008,0.0060074082728532,0.0043925252169774,33.234273642014,2.8274189136112e-05,2.8274189136112e-05,2.8274189136112e-05,2523577.9224716,0.016543368984094
14419200,0.96546097726282,0.016181613281108,0.0058132628933278,0.0058132629203736,0.004555087467407,-0.0014480779102132,0.0014480783953759,-7.37799019217e-10,1.2254086654888e-09,2.0271314148797e-10,2.8806364585335e-10,-0.0015223869369566,0.0015223869589567,-0.0015223865709147,0.0015223872998587,-0.0015223873423725,0.0015223865044253,-0.0015223859251143,0.0015223879339614,-0.0013285490726124,0.0013285461203514,-0.0013285455438102,0.0013285495789068,6.5606894048539e-11,1.6073066472683e-10,-2.5793333523749e-10,5.031257047742e-10,-0.0014480780572619,0.0014480782693652,-0.0015223867333301,0.0015223871585269,-0.0015223870341806,0.0015223868292524,-0.0015223871811323,0.0015223867105123,-0.0015223864380759,0.0015223874771754,-0.0013285485200792,0.0013285466361422,-0.0013285463813227,0.0013285488767082,-0.0014210951566939,0.0014210940311924,-0.001421093808952,0.0014210958801374,-1.7473698861317e-09,1.679091797604e-09,-0.0010572667945778,0.0010572667285937,1.4418661619785e-09,-1.55888580414e-09,-0.001140849319842,0.0011408494558336,-0.0011408505819325,0.0011408478044181,-0.0011408484082711,0.0011408500839265,-0.0011408489455518,0.0011408496822051,-0.0011307319408552,0.0011307362533557,-0.0011307371921633,0.0011307308215976,0.56383593228744,125803,2834,0.0060150449220884,0.0060150449656241,0.004396936869251,32.956418276618,2.6051346212946e-05,2.6051346212946e-05,2.6051346212946e-05,2528516.7482042,0.016563384176609
14619200,0.96722871076007,0.016204673395551,0.005821715830797,0.0058217158576944,0.0045612417070601,-0.0014480200045735,0.0014480204855604,-9.3259705150612e-10,1.4123821738117e-09,1.4139122235992e-10,3.4022166634398e-10,-0.0015225637356037,0.0015225635310183,-0.0015225631543289,0.001522564065021,-0.0015225640329463,0.0015225631483632,-0.0015225625526703,0.0015225646623871,-0.001328221525512,0.001328218537549,-0.0013282179359833,0.0013282221140079,-2.2137238899018e-10,4.0492420430066e-10,-3.2108027505037e-10,5.3603110512688e-10,-0.0014480201548478,0.001448020349371,-0.001522563548236,0.0015225637185183,-0.0015225637192885,0.0015225634592415,-0.001522563738847,0.0015225634701858,-0.0015225630598123,0.0015225642398371,-0.0013282207516801,0.0013282192064667,-0.0013282188269297,0.0013282213031596,-0.0014209485436351,0.0014209471967403,-0.0014209469341689,0.0014209492072458,-1.9427536491866e-09,1.893702893853e-09,-0.0010565750108872,0.0010565749606467,1.3285144254506e-09,-1.4221792873356e-09,-0.0011402965660042,0.0011402964231112,-0.0011402976533645,0.0011402949044529,-0.0011402954355797,0.0011402972468376,-0.001140295971059,0.0011402968587337,-0.0011301087007249,0.0011301132916732,-0.0011301140899214,0.0011301076660607,0.56645705950327,125803,2834,0.006014803742775,0.0060148037719164,0.0043940700227674,31.825332034763,1.7002656278108e-05,1.7002656278108e-05,1.7002656278108e-05,2527185.9043275,0.016559983217847
14819200,0.9688211749398,0.016225575157928,0.0058293700620698,0.0058293700889018,0.0045668350069565,-0.0014480964284387,0.0014480968945817,-9.1883335321295e-10,1.3818506669989e-09,1.7935946575026e-10,2.8422691218058e-10,-0.0015228358702783,0.0015228356860537,-0.001522835275894,0.0015228362166071,-0.0015228361644459,0.0015228352695479,-0.0015228347285482,0.0015228367572299,-0.0013280773512791,0.0013280744592905,-0.0013280739123189,0.0013280779304209,-3.25662151186e-10,4.7305795855545e-10,-3.2578349860754e-10,5.0249193456559e-10,-0.0014480965819094,0.0014480967530578,-0.0015228357270333,0.0015228358317759,-0.0015228358676537,0.001522835560789,-0.0015228358239683,0.0015228356359696,-0.0015228351985535,0.0015228363975837,-0.0013280765346157,0.0013280751273915,-0.0013280747490502,0.0013280771480936,-0.0014209612126911,0.0014209597480866,-0.0014209595262373,0.0014209618244891,-1.9281703618802e-09,1.8868092739189e-09,-0.0010560787449876,0.0010560787007414,1.3141576503601e-09,-1.3982534212259e-09,-0.0011399190019269,0.0011399188305622,-0.0011399200374181,0.0011399173265338,-0.0011399178425937,0.0011399196597616,-0.0011399183898767,0.0011399192712785,-0.0011296880441653,0.0011296925632623,-0.0011296933032399,0.0011296870150076,0.56962155322816,125803,2834,0.006015118994806,0.0060151190195327,0.0043920142558869,30.872906730208,9.3832538416614e-06,9.3832538416614e-06,9.3832538416614e-06,2523836.3941472,0.016558537375679
15019200,0.97022739549428,0.016243962043584,0.0058361024548201,0.0058361024816753,0.0045717571070884,-0.0014471857314108,0.0014471861896688,-9.4553550395116e-10,1.4021372697277e-09,2.6886796862106e-10,1.8906079596952e-10,-0.0015221020880449,0.0015221019104976,-0.00152210146195,0.0015221024852139,-0.0015221024170352,0.0015221014769237,-0.001522100997736,0.0015221029368994,-0.0013269804931463,0.0013269775409605,-0.0013269770574358,0.0013269809684027,-3.7934611029555e-10,5.8324839342774e-10,-2.685803151203e-10,4.8940093925857e-10,-0.0014471858623532,0.0014471860737471,-0.0015221019648278,0.0015221020328986,-0.001522102116419,0.0015221017816951,-0.0015221019875719,0.0015221019422441,-0.0015221014011282,0.0015221026314626,-0.001326979538741,0.0013269783616573,-0.0013269778815351,0.0013269802209343,-0.0014199886918728,0.0014199871782036,-0.0014199869339775,0.0014199893570457,-1.9657604337322e-09,1.9233730977427e-09,-0.0010547221277885,0.0010547220843261,1.2682338533778e-09,-1.3542926281336e-09,-0.0011386558269728,0.0011386555834997,-0.0011386568182093,0.0011386541471906,-0.0011386546263115,0.0011386564666101,-0.0011386551687341,0.0011386560792052,-0.0011283811540687,0.0011283856727203,-0.0011283864217187,0.0011283801588112,0.56738227181839,125803,2834,0.0060113463163477,0.0060113463474391,0.0043863883350666,29.528300222258,-1.3735982219395e-06,-1.3735982219395e-06,-1.3735982219395e-06,2517355.3112981,0.016545150827326
15219200,0.97138300128859,0.016258416207558,0.0058414087227331,0.0058414087495971,0.0045755987352277,-0.0014434215521745,0.0014434219771643,-9.2166432690512e-10,1.3453610359086e-09,4.7441668666058e-10,-5.2261657442239e-11,-0.0015184986567446,0.0015184986096438,-0.001518498048382,0.0015184991661828,-0.0015184991245849,0.0015184980342091,-0.0015184977342517,0.0015184994663002,-0.001323062018069,0.0013230589808176,-0.0013230586758215,0.0013230623099061,-5.1313291631811e-10,7.4021455804441e-10,-1.1240459537119e-10,3.5728842656544e-10,-0.0014434216551107,0.0014434218889449,-0.0015184985932231,0.0015184986718023,-0.0015184988316115,0.0015184983301755,-0.0015184985109632,0.0015184986845011,-0.0015184980243309,0.0015184992753678,-0.0013230608144507,0.0013230600570088,-0.0013230594488881,0.0013230616101231,-0.0014161460425624,0.0014161441845345,-0.0014161440119634,0.001416146631174,-1.9343259363598e-09,1.9035399648666e-09,-0.0010507679852408,0.0010507679534235,1.1658997943484e-09,-1.2389441743357e-09,-0.0011347322749969,0.0011347319777369,-0.0011347331848313,0.0011347306195109,-0.0011347310817283,0.0011347328507892,-0.0011347315564855,0.0011347325314159,-0.001124387178652,0.0011243917153943,-0.0011243923813418,0.0011243862701457,0.54391445126829,125803,2834,0.0059957563324966,0.0059957563629572,0.0043699833912644,26.888824463266,-2.2489404293875e-05,-2.2489404293875e-05,-2.2489404293875e-05,2504000.5900794,0.016496782219271
15419200,0.97243450668519,0.016273407166866,0.0058468563513074,0.0058468563781708,0.0045796944373873,-0.0014428310129094,0.0014428314455825,-8.4867819664012e-10,1.2799696381003e-09,4.2179065823198e-10,8.1915379306097e-12,-0.0015180110453394,0.0015180110011969,-0.001518010469244,0.0015180115240009,-0.0015180114621782,0.0015180104750054,-0.0015180101272922,0.0015180118496469,-0.001322366556457,0.0013223637435192,-0.0013223633886273,0.0013223669019967,-3.8360725659104e-10,5.8322064096828e-10,-1.437009768147e-10,3.6506414161643e-10,-0.0014428311313513,0.0014428313416893,-0.0015180109593991,0.0015180110851445,-0.0015180111719144,0.0015180107677955,-0.0015180109588371,0.0015180110153653,-0.0015180104698744,0.0015180116071582,-0.001322365522619,0.0013223646545613,-0.0013223641582177,0.0013223662109585,-0.0014155688386595,0.0014155672858549,-0.0014155671305628,0.0014155694208566,-1.884322041303e-09,1.8465783213587e-09,-0.0010499140549175,0.0010499140161775,1.231358430029e-09,-1.3118962689594e-09,-0.0011338658371152,0.0011338655997049,-0.0011338667797091,0.0011338642075804,-0.0011338646664732,0.0011338664518432,-0.0011338651968368,0.0011338660721396,-0.0011236141327607,0.0011236184763107,-0.001123619188534,0.0011236131719531,0.61488003148418,125803,2834,0.005993310634359,0.0059933106644704,0.004366440904366,25.933473845483,-3.0132209236133e-05,-3.0132209236133e-05,-3.0132209236133e-05,2499384.3908378,0.016488209634464
15619200,0.97342587262079,0.016287836970586,0.0058520932478925,0.0058520932747578,0.0045836504479357,-0.0014434248021751,0.0014434252968927,-1.1039991768771e-09,1.5978286601959e-09,3.0402764922283e-11,4.6645531946312e-10,-0.001518669631038,0.001518669238883,-0.0015186689241506,0.0015186698988755,-0.0015186698297043,0.0015186689506261,-0.0015186682668491,0.0015186705489206,-0.0013228953740098,0.001322892178615,-0.0013228914888625,0.0013228960522621,-4.3629998180563e-10,6.6629646462456e-10,-3.5871764353148e-10,6.084658057873e-10,-0.0014434249404492,0.0014434251747101,-0.0015186694328222,0.0015186694366303,-0.0015186695527239,0.0015186692301657,-0.0015186694491085,0.0015186693666247,-0.0015186687594887,0.0015186701449004,-0.0013228944234543,0.0013228930176934,-0.0013228924602841,0.0013228951742111,-0.0014161784591261,0.0014161767923447,-0.0014161764718856,0.0014161792391426,-2.1860679123718e-09,2.1489664104924e-09,-0.0010500979759055,0.0010500979379044,1.2085063701401e-09,-1.289339792309e-09,-0.0011341647137229,0.0011341643233149,-0.0011341657035703,0.0011341629074878,-0.0011341634063326,0.0011341653269977,-0.0011341638779277,0.0011341650029845,-0.0011238968052536,0.0011239019040211,-0.0011239026066636,0.0011238958589833,0.62695261516714,125803,2834,0.0059957683665961,0.0059957683998996,0.0043672090027281,25.554915909443,-3.3160672724454e-05,-3.3160672724454e-05,-3.3160672724454e-05,2484265.6261487,0.016493988298083
15819200,0.97434036372413,0.016302107206689,0.0058572518637037,0.0058572518905595,0.004587603452426,-0.0014432419334263,0.0014432425091153,-1.6178286827384e-09,2.1928559915782e-09,-4.7833880072504e-10,1.0605296677231e-09,-0.0015185318214602,0.0015185309051632,-0.0015185308625257,0.0015185318148319,-0.001518531784874,0.0015185308672866,-0.0015185297517452,0.0015185329407425,-0.0013226773466688,0.0013226731709645,-0.0013226720354064,0.0013226784985906,-7.5105811827827e-10,1.0338441927973e-09,-6.3436851963825e-10,9.3894527713285e-10,-0.0014432420855788,0.0014432423729786,-0.001518531488193,0.0015185312460094,-0.0015185315190523,0.0015185311241259,-0.0015185313995294,0.0015185312777758,-0.0015185304066331,0.0015185323701106,-0.0013226762224172,0.0013226741637958,-0.0013226733479431,0.001322677284743,-0.0014160292804631,0.0014160268153876,-0.0014160262831694,0.0014160303264135,-2.7490187347702e-09,2.7269047753427e-09,-0.0010495489065236,0.0010495488838945,1.0526043655231e-09,-1.1162237405785e-09,-0.0011337257788058,0.0011337250349049,-0.0011337267858357,0.0011337236289527,-0.0011337242173374,0.0011337263092331,-0.001133724472939,0.0011337262028554,-0.0011234449402472,0.0011234516455632,-0.0011234521869684,0.0011234441005457,0.6692015706865,125803,2834,0.005995009527041,0.0059950095601948,0.0043649360527734,24.793717357785,-3.9250261137717e-05,-3.9250261137717e-05,-3.9250261137717e-05,2465529.8583747,0.016490136141816
16019200,0.9752135562171,0.016315702875835,0.0058621685159034,0.0058621685427355,0.0045913658171959,-0.0014441472708148,0.0014441477830523,-9.0642379143419e-10,1.4160652195913e-09,-5.5500384560172e-11,5.7099206929011e-10,-0.0015194482901891,0.0015194479101935,-0.0015194476559927,0.0015194484883901,-0.0015194483515427,0.0015194477274542,-0.0015194469455245,0.0015194491769573,-0.0013235638779112,0.0013235612693535,-0.0013235605107742,0.0013235646311629,-1.1178929485495e-10,2.646268332741e-10,-5.0138939988668e-10,6.7456555401845e-10,-0.0014441474512382,0.0014441476163484,-0.0015194480719263,0.001519448122731,-0.0015194480700406,0.0015194480167952,-0.0015194482574332,0.0015194478570914,-0.0015194475451598,0.0015194486839089,-0.0013235634068641,0.0013235616104572,-0.0013235613710732,0.0013235638397139,-0.0014169711627364,0.0014169703698743,-0.0014169700213434,0.0014169719240199,-2.0373650787323e-09,1.9808382585744e-09,-0.0010499746191519,0.0010499745607965,1.4392513333744e-09,-1.5414191704294e-09,-0.0011343308827226,0.001134330669948,-0.0011343319600998,0.0011343291166859,-0.0011343296059845,0.0011343316134799,-0.0011343302755716,0.0011343310978434,-0.0011239946997717,0.0011239991705463,-0.0011240000427876,0.0011239935681993,0.6674324684786,125803,2834,0.0059987563609159,0.0059987563893052,0.004366709870636,24.593833689632,-4.0849330482945e-05,-4.0849330482945e-05,-4.0849330482945e-05,2443800.5672821,0.016499557781654
16219200,0.97607514057203,0.01632906052034,0.0058670019723719,0.0058670019992157,0.0045950565487528,-0.0014460974070806,0.0014460979340863,-8.4966782099601e-10,1.3739763874939e-09,-1.4418522118164e-10,6.7490592949889e-10,-0.0015214112924366,0.0015214108887156,-0.0015214106772708,0.0015214114451422,-0.0015214112937773,0.0015214107696637,-0.0015214099154028,0.0015214121945602,-0.0013254827326887,0.0013254803148758,-0.0013254794677794,0.0013254835777894,2.3491579289554e-11,1.0119013629627e-10,-6.2312460722385e-10,7.727762324831e-10,-0.0014460976066502,0.0014460977480068,-0.0015214110634938,0.0015214111176326,-0.0015214109788589,0.0015214110886208,-0.0015214113456503,0.0015214107466928,-0.0015214105637023,0.0015214116520557,-0.001325482514506,0.0013254803958776,-0.0013254802758606,0.0013254828351958,-0.0014189515251675,0.0014189510648479,-0.0014189506744146,0.0014189523220806,-2.013236876792e-09,1.9423544589928e-09,-0.0010513844089325,0.0010513843361836,1.5741761089894e-09,-1.6920056066751e-09,-0.0011359401522754,0.0011359400410214,-0.0011359413267994,0.0011359383924899,-0.0011359388952199,0.0011359409618441,-0.0011359396619483,0.0011359403583428,-0.0011255417144373,0.0011255460149699,-0.0011255469893652,0.0011255404666494,0.66426056461728,125803,2834,0.0060068303207559,0.0060068303486759,0.0043725667075899,24.944215629836,-3.8046274961313e-05,-3.8046274961313e-05,-3.8046274961313e-05,2429456.2495555,0.016521927253215
16419200,0.9768655864887,0.016340066671165,0.0058710139288469,0.0058710139557,0.0045980387866181,-0.0014455251959594,0.0014455258368861,-1.6919183544674e-09,2.3273092410061e-09,-9.0322507432927e-10,1.5577952955407e-09,-0.0015208821220892,0.001520880801843,-0.0015208810237078,0.0015208818340729,-0.0015208816435138,0.0015208810880346,-0.0015208795641285,0.001520883214703,-0.0013248572508939,0.0013248533863059,-0.0013248519269343,0.0013248587016814,-9.1983338178041e-10,1.1566709211701e-09,-9.9123450340785e-10,1.2267895558881e-09,-0.0014455254016392,0.0014455256429563,-0.0015208817791166,0.0015208811052763,-0.0015208815317525,0.0015208812262127,-0.0015208815000845,0.0015208812953249,-0.0015208803455607,0.0015208825845427,-0.0013248565015844,0.0013248540111133,-0.0013248531387476,0.0013248575695611,-0.001418351315871,0.0014183490907287,-0.0014183482447481,0.0014183525721131,-2.9042499131925e-09,2.8832553182939e-09,-0.001050428594868,0.0010504285703706,1.1881117946693e-09,-1.2530605315999e-09,-0.0011351608892158,0.0011351600549654,-0.0011351618362959,0.0011351584973024,-0.0011351591013907,0.0011351614388256,-0.0011351594863479,0.0011351612164718,-0.0011246191545963,0.001124625834786,-0.001124626511127,0.0011246182028626,0.59982142425006,125803,2834,0.0060044584451797,0.0060044584694664,0.0043686069143694,24.074986980842,-4.500010415326e-05,-4.500010415326e-05,-4.500010415326e-05,2414080.9178641,0.016513082132606
16619200,0.97761645818561,0.016352425745739,0.005875471369936,0.0058754713968542,0.0046014829789485,-0.0014459711554283,0.0014459716895265,-1.0388830955404e-09,1.5707494587411e-09,-1.4681868831926e-10,6.8508969027435e-10,-0.0015213570054924,0.0015213565252486,-0.0015213563197916,0.0015213571558921,-0.0015213570441573,0.0015213563730289,-0.0015213554980171,0.0015213579601658,-0.0013252649271338,0.0013252619947638,-0.001325261139376,0.0013252657815233,-2.3715741847425e-10,4.1447960566119e-10,-6.9900860571424e-10,8.9615780317992e-10,-0.0014459713358359,0.001445971523369,-0.0015213568210516,0.0015213567051654,-0.0015213567261933,0.001521356697427,-0.001521356959779,0.0015213564923957,-0.001521356063069,0.0015213574997472,-0.0013252645048507,0.0013252622851729,-0.0013252619340609,0.0013252650716718,-0.0014188357689518,0.0014188347116415,-0.0014188342204896,0.0014188367061969,-2.2378989502019e-09,2.1726720324784e-09,-0.0010505563922914,0.0010505563254818,1.516163187123e-09,-1.6285772775334e-09,-0.0011353454728546,0.0011353452211963,-0.0011353466609058,0.001135343574946,-0.0011353441193465,0.0011353462559666,-0.0011353447907241,0.0011353457302083,-0.0011248534625658,0.0011248583986633,-0.0011248593209149,0.0011248522604958,0.70236006866189,125803,2834,0.0060063044205489,0.0060063044500445,0.0043691396334246,23.767016449575,-4.7463868403397e-05,-4.7463868403397e-05,-4.7463868403397e-05,2410456.7066233,0.016517376456369
16819200,0.97833801707029,0.016364361084173,0.0058797772963839,0.0058797773233039,0.0046048064644856,-0.0014468796861049,0.0014468802027868,-1.0068894698061e-09,1.5215576690459e-09,-2.6695828460765e-11,5.4665849801695e-10,-0.0015222481247426,0.0015222477203347,-0.0015222474473468,0.0015222483455925,-0.0015222482369527,0.001522247495931,-0.0015222467258441,0.0015222490500398,-0.0013261827101944,0.0013261797918769,-0.00132617903532,0.0013261834621931,-2.0237391343939e-10,3.7533070517436e-10,-6.8949588451321e-10,8.8275180252e-10,-0.0014468798601071,0.0014468800433774,-0.001522247972675,0.0015222478685513,-0.0015222478704615,0.0015222478715876,-0.0015222481232946,0.0015222476443132,-0.0015222472452351,0.0015222486340765,-0.001326182280197,0.001326180095477,-0.0013261797657338,0.0013261828150555,-0.0014197850093824,0.0014197840503526,-0.0014197835612091,0.0014197859157789,-2.2175560600379e-09,2.1490169225964e-09,-0.0010509884740236,0.0010509884045951,1.5532567273048e-09,-1.6695134209099e-09,-0.0011359719561338,0.0011359717301344,-0.0011359731555721,0.0011359700711009,-0.0011359706010505,0.0011359727625909,-0.0011359713140984,0.0011359721997976,-0.0011253998948944,0.0011254047190394,-0.0011254056762644,0.0011253986639236,0.70571909746606,125803,2834,0.006010064375884,0.0060100644060847,0.004370940119185,23.643863369005,-4.8449093047958e-05,-4.8449093047958e-05,-4.8449093047958e-05,2391302.2506781,0.016526851914235
17019200,0.97902726715221,0.016375542818521,0.0058838177238902,0.0058838177508098,0.0046079073438209,-0.0014475293995311,0.001447529930872,-1.8108467563452e-11,5.4639330570663e-10,-1.3675002649821e-10,6.6968371226934e-10,-0.0015228838706828,0.001522884096706,-0.0015228838649259,0.0015228840375951,-0.0015228839295065,0.0015228839173144,-0.0015228830604691,0.001522884825243,-0.0013268335607474,0.0013268326426826,-0.0013268317932336,0.0013268344420454,-4.3943922166872e-10,6.2477931563079e-10,-5.0921172199094e-10,7.1620437798096e-10,-0.0014475295716501,0.001447529773128,-0.0015228840266482,0.0015228839357099,-0.0015228840505103,0.0015228837925999,-0.0015228840415916,0.0015228838422494,-0.0015228832661672,0.0015228847301852,-0.0013268338779262,0.0013268321893727,-0.0013268316949647,0.0013268346375448,-0.0014204601472554,0.0014204585849118,-0.0014204582352372,0.0014204610192627,-1.2600768621565e-09,1.1742973122585e-09,-0.0010511742866181,0.001051174197333,1.6935661250189e-09,-1.8285946946864e-09,-0.0011363556007332,0.0011363561223481,-0.0011363569209837,0.0011363543409312,-0.0011363549169562,0.0011363564895459,-0.0011363557144221,0.001136355835491,-0.0011256830730699,0.0011256859445499,-0.0011256869828252,0.0011256817213239,0.69246304209562,125803,2834,0.0060127525054798,0.0060127525352264,0.0043717184558993,23.416833614079,-5.0265331087371e-05,-5.0265331087371e-05,-5.0265331087371e-05,2374627.4954733,0.016533109464725
17219200,0.97967824674426,0.016385824643619,0.0058875399543159,0.0058875399812368,0.0046107447080666,-0.0014477083858661,0.0014477088744504,-1.0507665518031e-09,1.5354963970508e-09,1.1042826831573e-10,3.7789657340143e-10,-0.0015230600507108,0.0015230596788674,-0.0015230593215723,0.0015230603409457,-0.0015230602389891,0.0015230593482865,-0.0015230587114531,0.0015230609322727,-0.0013270025031906,0.0013269994575828,-0.0013269988369687,0.0013270031522349,-3.4185433905519e-10,4.9040983643952e-10,-6.4074945114905e-10,8.117216983582e-10,-0.0014477085504863,0.001447708721358,-0.0015230599441918,0.0015230597836087,-0.0015230598473905,0.0015230597415674,-0.0015230599811802,0.0015230596350344,-0.0015230591700201,0.001523060598951,-0.001327001875204,0.0013269999260481,-0.0013269995428275,0.0013270024973194,-0.0014206488866556,0.0014206476771047,-0.0014206472363391,0.0014206497253105,-2.2791194707181e-09,2.2189893292815e-09,-0.0010509467036689,0.0010509466413061,1.5123149031597e-09,-1.6175348972299e-09,-0.0011362995073779,0.0011362992033632,-0.0011363006472491,0.0011362975684067,-0.0011362980891551,0.0011363002758385,-0.0011362987893271,0.0011362997384215,-0.0011255269310911,0.0011255318867647,-0.0011255327799398,0.0011255257280246,0.67476319852237,125803,2834,0.0060134914156042,0.0060134914394643,0.004370780359906,22.994133945246,-5.3646928438033e-05,-5.3646928438033e-05,-5.3646928438033e-05,2361770.2641271,0.016533659242765
17419200,0.98029966100441,0.01639522507917,0.0058909524636393,0.0058909524905699,0.0046133201249609,-0.0014481191410864,0.001448119633172,-8.6448886281159e-10,1.3543617795302e-09,1.2478562412013e-10,3.6839497572754e-10,-0.0015234786687337,0.0015234784493552,-0.0015234780859572,0.0015234789754154,-0.0015234788811139,0.0015234781194567,-0.0015234774847841,0.0015234795586996,-0.0013273824602406,0.0013273797500055,-0.0013273791271357,0.0013273830843089,-3.7251002313332e-10,5.6672998191491e-10,-5.6064185447569e-10,7.7336912266667e-10,-0.0014481192918969,0.0014481194964817,-0.0015234786205246,0.0015234784930175,-0.001523478584547,0.0015234784214365,-0.0015234786432268,0.001523478393421,-0.0015234778546078,0.0015234792959457,-0.0013273819283145,0.0013273801498808,-0.0013273796826065,0.0013273826076776,-0.0014210569026594,0.0014210555702956,-0.0014210551422958,0.0014210577659191,-2.1124902693506e-09,2.0496790092426e-09,-0.0010509797800204,0.0010509797151798,1.4958168776557e-09,-1.6052540690616e-09,-0.0011364795300864,0.0011364793340824,-0.0011364806812247,0.0011364777210763,-0.0011364782396701,0.0011364803006543,-0.0011364789239239,0.001136479768024,-0.0011256219200302,0.0011256265573685,-0.0011256274649758,0.0011256207345569,0.6474812671502,125803,2834,0.0060151907168271,0.0060151907460503,0.004370922399764,22.737286404808,-5.5701708761534e-05,-5.5701708761534e-05,-5.5701708761534e-05,2354704.7747815,0.016537259497646
17619200,0.98080666211228,0.016402603307861,0.0058936378388511,0.0058936378657811,0.004615327603229,-0.0014432988391475,0.001443299293179,-9.0627816205954e-10,1.3583457080004e-09,3.6300298121398e-10,8.9730892488711e-11,-0.0015186988190641,0.0015186987235537,-0.0015186982287613,0.0015186992604615,-0.0015186992101892,0.0015186982183207,-0.0015186977931311,0.0015186996780541,-0.0013225412606998,0.001322538273605,-0.0013225378651225,0.0013225416713217,-6.4813218794773e-10,8.9624124993537e-10,-3.1287972950495e-10,5.7450231367772e-10,-0.0014432989464805,0.0014432992000449,-0.0015186988322133,0.0015186987053928,-0.0015186989521442,0.00151869848136,-0.0015186986633664,0.001518698803746,-0.001518698015051,0.0015186995610598,-0.0013225402608448,0.0013225391427005,-0.0013225384293538,0.0013225411774527,-0.0014161979656372,0.0014161959274435,-0.0014161955926189,0.0014161987315541,-2.1435719177408e-09,2.1056454896815e-09,-0.0010461545141303,0.0010461544745262,1.2575714224717e-09,-1.3390672360989e-09,-0.0011316817347129,0.0011316813751835,-0.0011316827262688,0.0011316799260567,-0.0011316804231456,0.001131682362978,-0.0011316809364928,0.0011316820053476,-0.001120719098161,0.0011207240328286,-0.0011207247516521,0.0011207181109784,0.62390558397657,125803,2834,0.0059952267890278,0.0059952268184148,0.0043509026028575,19.890484094522,-7.847612724382e-05,-7.847612724382e-05,-7.847612724382e-05,2338470.8647415,0.016476323156548
17819200,0.98128056449913,0.016409262145192,0.0058960639879417,0.00589606401487,0.0046171341423804,-0.0014425750513444,0.0014425754698871,-5.5762157392604e-10,9.7409407497701e-10,5.8100938620913e-10,-1.6620311243253e-10,-0.0015179872441716,0.0015179874722788,-0.0015179868583132,0.0015179878033436,-0.0015179877510502,0.0015179868455787,-0.001517986606874,0.001517988030052,-0.0013217797901033,0.0013217774442762,-0.0013217772170013,0.0013217800094134,-2.9733263875081e-10,4.8244745741876e-10,-1.5485256844161e-10,3.5875389387179e-10,-0.0014425751695119,0.0014425753658263,-0.0015179872782087,0.00151798743319,-0.0015179874836379,0.0015179871195931,-0.0015179873222221,0.0015179873145484,-0.0015179868291638,0.0015179879142028,-0.0013217790280123,0.0013217780821387,-0.0013217776631081,0.0013217796359125,-0.0014154685820694,0.0014154672210566,-0.0014154670632563,0.0014154691536283,-1.8088912525094e-09,1.7576571508982e-09,-0.001045280247056,0.0010452801940269,1.3774595968122e-09,-1.4733620416401e-09,-0.0011308282001047,0.0011308280968737,-0.0011308292376796,0.0011308265981648,-0.0011308270761826,0.0011308288971498,-0.0011308277030731,0.0011308284188462,-0.0011198679304534,0.0011198719884661,-0.0011198728087929,0.0011198668485718,0.60341923194558,125803,2834,0.0059922288402377,0.0059922288694312,0.0043472758481555,19.21244676497,-8.3900425880241e-05,-8.3900425880241e-05,-8.3900425880241e-05,2336171.5525033,0.016466541923543
18019200,0.98174170018597,0.016415733076579,0.0058984208302832,0.0058984208572122,0.0046188913890836,-0.0014430561966454,0.0014430567113224,-1.155261256444e-09,1.6673440563718e-09,-7.5452211692608e-11,5.9376174304515e-10,-0.0015185038102257,0.0015185033309168,-0.0015185030800186,0.0015185039991155,-0.0015185039203883,0.0015185030777477,-0.0015185022805815,0.0015185047596049,-0.0013222033521989,0.0013222000569493,-0.0013221992865905,0.0013222041163127,-6.4124919827716e-10,8.6617973003199e-10,-4.5936888129941e-10,6.965351410575e-10,-0.0014430563449389,0.0014430565769148,-0.0015185036509042,0.0015185034767627,-0.0015185037202742,0.0015185032858574,-0.001518503533797,0.0015185035108673,-0.0015185027614553,0.0015185044015207,-0.0013222024101789,0.001322200877504,-0.001322200198099,0.0013222032991303,-0.0014159349811482,0.0014159329385736,-0.0014159325424403,0.0014159358590807,-2.4660659187767e-09,2.4405520712213e-09,-0.0010455810509272,0.0010455810232575,1.1533269878434e-09,-1.2219545063134e-09,-0.0011311602006053,0.0011311596092867,-0.001131161141553,0.0011311581650785,-0.0011311587070581,0.0011311607585667,-0.0011311591045103,0.0011311605108487,-0.0011201964074625,0.0011202021782161,-0.001120202816882,0.0011201954876969,0.60266013518964,125803,2834,0.005994221653988,0.0059942216827111,0.0043485239944612,19.16963534781,-8.4242917217523e-05,-8.4242917217523e-05,-8.4242917217523e-05,2342548.3177868,0.016471862193141
18219200,0.98215199657256,0.016421599081493,0.0059005544538013,0.0059005544807395,0.0046204901469525,-0.0014406895232741,0.0014406900195744,-9.6770240165001e-10,1.4618319560372e-09,6.5559205211283e-11,4.3234936461192e-10,-0.0015161847968571,0.0015161845025425,-0.0015161841724349,0.0015161850701506,-0.001516184997043,0.0015161841827228,-0.0015161835069894,0.0015161857170124,-0.0013197958038747,0.0013197928509698,-0.0013197921865545,0.0013197964708827,-4.9445655086825e-10,7.111339459364e-10,-3.2428979176459e-10,5.5782434132354e-10,-0.0014406896657086,0.0014406898912541,-0.0015161846553409,0.001516184641383,-0.0015161847940276,0.0015161843890506,-0.0015161846181556,0.0015161845990224,-0.0015161839552098,0.0015161853773829,-0.001319794914578,0.0013197936087749,-0.0013197930346013,0.0013197957000473,-0.0014135408508922,0.0014135390452697,-0.0014135387528517,0.0014135415922938,-2.2989865127879e-09,2.2704187793236e-09,-0.0010432132036118,0.0010432131735056,1.1693662103212e-09,-1.2403838508601e-09,-0.0011287807211981,0.0011287802236017,-0.001128781668108,0.0011287788126478,-0.0011287793233519,0.0011287812965445,-0.0011287797534248,0.0011287810184432,-0.0011177892021851,0.0011177945805325,-0.00111779522286,0.0011177882778894,0.61339062349435,125803,2834,0.0059844201372864,0.0059844201664966,0.0043386982062831,17.687550078367,-9.6099599373065e-05,-9.6099599373065e-05,-9.6099599373065e-05,2340384.9941564,0.016441949435322
18419200,0.98252263623649,0.016426934686655,0.0059024930152569,0.0059024930421948,0.0046219486292035,-0.0014387080839459,0.0014387085757973,-8.5009435673034e-10,1.3395890060048e-09,9.8729562350229e-11,3.9442364104027e-10,-0.0015142276884069,0.0015142274649951,-0.0015142271180956,0.0015142279794807,-0.001514227887862,0.0015142271475779,-0.0015142264977969,0.0015142285813757,-0.0013177910946061,0.0013177884214,-0.0013177877833022,0.0013177917347128,-3.9665101717193e-10,5.9808075293439e-10,-2.7255530939341e-10,4.9162533152182e-10,-0.0014387082311435,0.0014387084426342,-0.0015142275479984,0.0015142276032794,-0.0015142277021454,0.0015142273371329,-0.0015142275559354,0.0015142275165565,-0.0015142269533608,0.0015142282327676,-0.0013177902946818,0.0013177890907416,-0.0013177885977307,0.0013177909937245,-0.0014115491033273,0.0014115475273491,-0.0014115472811475,0.0014115497839109,-2.2078671633569e-09,2.1772793673746e-09,-0.0010412268454373,0.0010412268132216,1.1899029708398e-09,-1.2630251495249e-09,-0.0011267800959073,0.0011267796451605,-0.0011267810333513,0.0011267782446442,-0.0011267787336813,0.0011267806825936,-0.0011267792008698,0.0011267803680305,-0.001115783319216,0.0011157884309499,-0.0011157890907315,0.0011157823824336,0.61738715620182,125803,2834,0.0059762139274015,0.0059762139564468,0.0043304559005912,16.428549765632,-0.00010617160187494,-0.00010617160187494,-0.00010617160187494,2335280.8120856,0.016416889643675
18619200,0.98287524196596,0.016431962493173,0.0059043198662135,0.0059043198931516,0.0046233227338083,-0.0014382576224192,0.0014382582145483,-1.4838080770935e-09,2.0734714288123e-09,-5.9546449655661e-10,1.1879553028986e-09,-0.001513794145208,0.0015137932245772,-0.0015137932087642,0.0015137940791708,-0.0015137939985021,0.0015137932761801,-0.0015137920836134,0.0015137952602625,-0.0013173155556945,0.0013173119262037,-0.0013173106756048,0.0013173169402928,-8.8900384460161e-10,1.1134943606509e-09,-6.1752066838099e-10,8.8422297485794e-10,-0.0014382577934528,0.0014382580546271,-0.0015137938544031,0.0015137935503835,-0.0015137938311433,0.0015137934009624,-0.0015137936371073,0.0015137936353913,-0.0015137927360913,0.0015137947161641,-0.0013173145179938,0.0013173127451481,-0.0013173119396382,0.0013173157466344,-0.0014110945404652,0.0014110918390736,-0.0014110914578652,0.0014110954956249,-2.9093933378158e-09,2.8984044451455e-09,-0.0010406965347937,0.0010406965223486,9.5616297878175e-10,-1.0031204554221e-09,-0.0011262628656978,0.0011262619062115,-0.0011262637739686,0.0011262606098883,-0.0011262611589905,0.0011262633321769,-0.0011262613819625,0.0011262632696431,-0.001115262069208,0.0011152691351901,-0.0011152694622213,0.0011152612849057,0.6117894576036,125803,2834,0.005974348396494,0.0059743484195307,0.0043282558441954,15.968232939898,-0.00010985413648081,-0.00010985413648081,-0.00010985413648081,2333834.5521689,0.016410861262614
18819200,0.98321696633344,0.016437151197348,0.0059061973258848,0.0059061973528077,0.004624756518656,-0.0014383565427885,0.00143835706843,-7.7311138415437e-10,1.2960536583916e-09,-9.3021220265573e-11,6.2153868930204e-10,-0.0015139113661516,0.0015139110647902,-0.0015139108239365,0.0015139115482608,-0.0015139114199979,0.0015139108960152,-0.0015139100721469,0.0015139122899083,-0.0013173900680408,0.0013173877135293,-0.0013173868984689,0.0013173908956388,-1.6619604970712e-10,3.2531046108505e-10,-4.265139220683e-10,6.0827963805916e-10,-0.0014383567251312,0.0014383568997449,-0.00151391117252,0.0015139112608959,-0.0015139112267166,0.0015139110898473,-0.0015139113348897,0.0015139110118175,-0.0015139106501311,0.0015139118178862,-0.0013173896434653,0.0013173879965154,-0.0013173877110639,0.00131739015392,-0.0014111949029235,0.0014111938852099,-0.0014111935938904,0.0014111956297139,-2.2127038748434e-09,2.1656656218136e-09,-0.0010406975127935,0.0010406974637553,1.3409512650487e-09,-1.4319934283282e-09,-0.0011262804057799,0.0011262800344008,-0.0011262814446396,0.0011262785384402,-0.0011262790368266,0.0011262810820807,-0.0011262796150683,0.001126280657259,-0.0011152878398668,0.001115292810462,-0.0011152935806012,0.0011152867803727,0.64923263646737,125803,2834,0.0059747578821295,0.0059747579103977,0.0043282600834195,15.791470235433,-0.00011126823811653,-0.00011126823811653,-0.00011126823811653,2334945.4308392,0.016411698059494
19019200,0.98356013574961,0.016442683032486,0.0059081921219147,0.0059081921488378,0.0046262987617331,-0.0014396050611247,0.0014396056063008,-7.9964069964317e-10,1.3422396000898e-09,-2.1138482533869e-10,7.6087958435687e-10,-0.001515154765092,0.0015151543890541,-0.0015151542129721,0.0015151548817793,-0.0015151547486776,0.0015151542909783,-0.0015151533634276,0.00151515572172,-0.0013186346402381,0.0013186322746135,-0.0013186313533068,0.0013186355702935,-8.6029906551291e-11,2.3301416188486e-10,-5.6989384774645e-10,7.4064067879963e-10,-0.001439605259532,0.0014396054218606,-0.0015151545505779,0.0015151546062759,-0.0015151545276855,0.0015151545130393,-0.0015151547846396,0.0015151542847819,-0.0015151539950481,0.0015151551960073,-0.0013186344009735,0.0013186323741294,-0.0013186321568513,0.0013186348447488,-0.0014124603588308,0.0014124595434358,-0.0014124591787178,0.0014124611719113,-2.2829661690743e-09,2.2252075157908e-09,-0.0010417313686386,0.0010417313089108,1.4404709381384e-09,-1.543836198215e-09,-0.0011273951580741,0.0011273948197956,-0.0011273962820599,0.0011273932391138,-0.0011273937618956,0.0011273958955495,-0.0011273943967179,0.0011273954126174,-0.0011163805116084,0.0011163855703517,-0.0011163864223072,0.0011163793677956,0.68719396850516,125803,2834,0.0059799278974969,0.0059799279264048,0.0043325525076962,16.171440034051,-0.00010822847972759,-0.00010822847972759,-0.00010822847972759,2332358.3600233,0.016426571124713
19219200,0.98392535376411,0.016448747639397,0.0059103763964639,0.0059103764233869,0.0046279948195463,-0.0014427510139773,0.0014427514052529,8.8857371762405e-11,2.9738466974953e-10,7.0976937379754e-10,-3.2249871165044e-10,-0.0015182748120992,0.0015182754940261,-0.0015182748238453,0.0015182754117933,-0.0015182753397892,0.0015182747817167,-0.001518274646184,0.0015182755227779,-0.0013217844693669,0.0013217833632827,-0.0013217832864334,0.0013217845268126,1.0750534173266e-09,-1.1625955777511e-09,-3.9092532771977e-10,3.2874045518821e-10,-0.0014427512449753,0.001442751185102,-0.0015182747492344,0.0015182755409183,-0.0015182748433747,0.001518275304831,-0.001518275727038,0.0015182744390336,-0.0015182751982738,0.0015182751087031,-0.0013217850165414,0.0013217826740521,-0.0013217835252329,0.0013217843333085,-0.0014156335302503,0.0014156350838919,-0.0014156350525185,0.0014156338976518,-1.3718785626084e-09,1.2563162044611e-09,-0.0010444895403356,0.0010444894214588,2.0461953795806e-09,-2.2141085851901e-09,-0.0011303144421988,0.0011303150125283,-0.0011303158698193,0.0011303130189835,-0.0011303135625063,0.0011303155058631,-0.0011303146794618,0.00113031454388,-0.0011192471642747,0.0011192496634013,-0.0011192510465281,0.0011192455498082,0.70678358521412,125803,2834,0.0059929549401941,0.0059929549626295,0.0043440020082159,17.483095901444,-9.7735232788451e-05,-9.7735232788451e-05,-9.7735232788451e-05,2329986.9551723,0.016464692262158
19419200,0.98429940490172,0.016454828527479,0.0059125710028646,0.0059125710298023,0.0046296864948123,-0.0014448168071271,0.001444817326706,-4.5975332549855e-10,9.7624536819765e-10,-6.4874433307065e-11,5.8779193271287e-10,-0.0015203243955366,0.0015203243137911,-0.0015203240530518,0.0015203245968487,-0.0015203244577137,0.0015203241293202,-0.0015203233360918,0.0015203252937845,-0.0013238554138366,0.0013238536855783,-0.0013238529002546,0.0013238561916947,2.7392511448167e-10,-1.9346759833221e-10,-7.2396148866597e-10,8.2932920006589e-10,-0.0014448170246564,0.0014448171228433,-0.0015203242790723,0.0015203244283078,-0.0015203241511698,0.0015203244441969,-0.0015203247498409,0.0015203238691037,-0.0015203239073122,0.0015203248309256,-0.0013238557396385,0.0013238532242709,-0.0013238533275329,0.0013238558343387,-0.0014177108004679,0.001417710878977,-0.0014177104735193,0.0014177116195306,-2.004853714014e-09,1.9103869945181e-09,-0.0010461797292362,0.0010461796323638,1.8105681733741e-09,-1.9553071409057e-09,-0.0011321867773613,0.0011321868397947,-0.0011321881282594,0.0011321850148179,-0.0011321855503656,0.001132187735265,-0.0011321864757642,0.0011321869629466,-0.0011210112361538,0.0011210153221607,-0.0011210164899452,0.0011210098022704,0.69265167563282,125803,2834,0.0060015086373006,0.0060015086655858,0.004351020675063,18.220758577451,-9.1833931380395e-05,-9.1833931380395e-05,-9.1833931380395e-05,2324182.8110028,0.016489217153633
19619200,0.98467023144644,0.016460709349576,0.0059146975263896,0.0059146975533278,0.0046313142698591,-0.0014458670207237,0.0014458675397144,-6.1134421261865e-10,1.1275119232847e-09,-5.4395726836119e-11,5.7630163814525e-10,-0.0015213676663125,0.0015213675055076,-0.0015213672356831,0.0015213678771302,-0.0015213677504885,0.001521367303339,-0.0015213665206665,0.0015213685765832,-0.0013249023279702,0.001324900267847,-0.0013248994895505,0.0013249031042451,3.4300646256449e-11,8.6023334399124e-11,-7.7229536808712e-10,9.1617445245341e-10,-0.0014458672188838,0.0014458673553321,-0.0015213675930231,0.00152136757763,-0.0015213674318903,0.0015213676274715,-0.0015213679056242,0.0015213671791813,-0.0015213670098062,0.0015213681951668,-0.0013249024623259,0.0013248999956642,-0.0013248998922904,0.0013249027742639,-0.001418764308648,0.0014187639231876,-0.0014187634420198,0.0014187652111878,-2.1816809254076e-09,2.0938871627139e-09,-0.0010469245195756,0.0010469244293054,1.7525071580174e-09,-1.8898231153518e-09,-0.001133075225879,0.0011330751468017,-0.001133076551971,0.0011330733576008,-0.0011330738946817,0.0011330761536258,-0.0011330747687985,0.0011330754309887,-0.0011218082043716,0.0011218127234847,-0.0011218138389331,0.0011218068172132,0.67639365970784,125803,2834,0.0060058563917721,0.006005856420287,0.0043541154364921,18.455599337192,-8.9955205302468e-05,-8.9955205302468e-05,-8.9955205302468e-05,2319074.7561998,0.016501202938133
19819200,0.985034707066,0.016466323875899,0.005916731763577,0.0059167317905148,0.0046328603218067,-0.001446614900668,0.0014466153395838,-1.6266700069361e-10,5.974497044981e-10,4.1421135448039e-10,2.2439418255881e-11,-0.001522115675342,0.0015221160490304,-0.0015221155221414,0.0015221161305655,-0.0015221160305869,0.0015221155271764,-0.0015221151525163,0.0015221164541683,-0.0013256353374296,0.0013256339305086,-0.0013256335806885,0.0013256356842962,1.9843489830301e-10,-1.4481135618715e-10,-5.911930398026e-10,6.664754643747e-10,-0.0014466150874117,0.0014466151640467,-0.001522115776643,0.0015221159362429,-0.001522115706907,0.0015221158632536,-0.0015221161616033,0.0015221154354362,-0.0015221154503983,0.0015221162913197,-0.0013256356234168,0.0013256334954157,-0.0013256335834423,0.0013256357336155,-0.0014195107661471,0.0014195107105212,-0.0014195103985322,0.0014195114536477,-1.7253965583288e-09,1.6271934372986e-09,-0.0010474081458111,0.0010474080444706,1.891780662006e-09,-2.0403794820436e-09,-0.0011336712200997,0.0011336714837304,-0.0011336725718038,0.0011336696010087,-0.0011336701316415,0.0011336722081399,-0.0011336711337567,0.0011336713612295,-0.001122336781277,0.0011223401653415,-0.0011223413933801,0.0011223352813956,0.65787305202961,125803,2834,0.0060089522591524,0.0060089522823372,0.0043561254431594,18.557929062376,-8.9136567500996e-05,-8.9136567500996e-05,-8.9136567500996e-05,2316449.1514856,0.01650954081474
20019200,0.98538716844275,0.016471950555598,0.0059187661211682,0.0059187661481146,0.0046344182863148,-0.0014468259721206,0.0014468266232269,-2.5157975215832e-09,3.1704809407483e-09,-7.3667902978485e-10,1.4043918062649e-09,-0.0015223354429228,0.0015223338110295,-0.0015223339315251,0.001522335311904,-0.0015223352667077,0.0015223339842962,-0.0015223325744702,0.0015223366806068,-0.0013258314658418,0.0013258255481242,-0.0013258241328147,0.0013258328058626,-1.17890676309e-09,1.6659103895171e-09,-1.1407874278106e-09,1.6258984363269e-09,-0.0014468260862701,0.0014468265327624,-0.0015223350461744,0.0015223342028334,-0.0015223347713657,0.0015223344898652,-0.0015223346819802,0.0015223346133554,-0.0015223332126845,0.0015223360821957,-0.0013258299121427,0.0013258270541241,-0.001325825688105,0.0013258314233488,-0.0014197253594909,0.0014197223413923,-0.0014197212333801,0.0014197270707519,-4.1843795592653e-09,4.1608166386137e-09,-0.001047417181281,0.0010474171581146,1.033162659226e-09,-1.1039109545116e-09,-0.0011337541460992,0.0011337525093564,-0.001133755228258,0.0011337511089126,-0.0011337517163517,0.0011337547048526,-0.0011337519173669,0.0011337546299178,-0.0011223785781475,0.0011223881842838,-0.0011223888027568,0.0011223777785007,0.68048786453071,125803,2834,0.0060098260512411,0.0060098261002553,0.0043561651732924,18.401534088245,-9.0387727294039e-05,-9.0387727294039e-05,-9.0387727294039e-05,2315204.872264,0.016511358044884
20219200,0.98573036869943,0.016477586754548,0.005920800767739,0.0059208007946776,0.0046359851921318,-0.0014472630721964,0.0014472635758077,-1.2401530045888e-09,1.7432892242403e-09,1.1485128931313e-10,3.9312719529286e-10,-0.0015227651039951,0.001522764693626,-0.0015227643483237,0.0015227654118478,-0.0015227653736419,0.0015227643362892,-0.0015227636725742,0.0015227660672864,-0.001326263895076,0.0013262602526705,-0.0013262596029994,0.0013262644985248,-5.6268434249723e-10,8.4350173971655e-10,-7.0495081736821e-10,9.9488895408089e-10,-0.0014472631957156,0.001447263468977,-0.001522765040605,0.0015227647470893,-0.0015227649686946,0.0015227647570021,-0.0015227649837235,0.0015227647697562,-0.0015227640008601,0.0015227658269038,-0.0013262630787787,0.0013262609671659,-0.0013262602555902,0.0013262639391681,-0.0014201728695395,0.0014201710901734,-0.0014201704568851,0.0014201739294333,-2.8731829607084e-09,2.8191810984232e-09,-0.0010476187744644,0.0010476187198495,1.4102852986051e-09,-1.5115136373051e-09,-0.0011340497798281,0.0011340490805392,-0.0011340509501326,0.001134047489843,-0.0011340480470072,0.0011340505172775,-0.0011340486017416,0.0011340500986421,-0.001122629500117,0.0011226358733144,-0.0011226367463465,0.0011226283978742,0.69909041844638,125803,2834,0.006011634850044,0.00601163488457,0.0043570046945593,18.352524015454,-9.0779807876366e-05,-9.0779807876366e-05,-9.0779807876366e-05,2310790.23183,0.016515889169569
20419200,0.98607111432001,0.016483190674063,0.0059228240477645,0.0059228240747039,0.0046375425515946,-0.0014483223483209,0.0014483228663516,-1.1402418609821e-09,1.6603013635213e-09,7.8611592940385e-11,4.4412963361514e-10,-0.0015238089608444,0.0015238085921819,-0.0015238082530645,0.0015238092724205,-0.001523809218105,0.0015238082998,-0.0015238076018412,0.0015238099310473,-0.00132732347053,0.0013273201072983,-0.0013273193971585,0.0013273241350107,-6.1207327087584e-10,9.5058753206071e-10,-6.3625888364473e-10,9.8691027326712e-10,-0.0014483224564984,0.0014483227788073,-0.0015238089213889,0.001523808633246,-0.0015238088677093,0.0015238086539842,-0.0015238088209751,0.0015238087354985,-0.0015238078709235,0.0015238097193783,-0.0013273226798249,0.0013273208171063,-0.0013273200015424,0.0013273236716633,-0.0014212454070407,0.001421243528539,-0.0014212429307575,0.0014212465500366,-2.8147771354749e-09,2.7578774379138e-09,-0.0010483849421891,0.0010483848846897,1.3519845289698e-09,-1.4571940293973e-09,-0.0011349406779269,0.0011349399800552,-0.0011349418353813,0.0011349384847472,-0.0011349390054149,0.0011349414072941,-0.0011349395463353,0.0011349409891737,-0.0011234576281928,0.001123463877008,-0.0011234647130051,0.001123456574972,0.69998782130128,125803,2834,0.0060160203238598,0.0060160203665576,0.0043601877963171,18.615495480881,-8.867603615295e-05,-8.867603615295e-05,-8.867603615295e-05,2306145.6070947,0.016528041334624
20619200,0.98639909065793,0.016488026719605,0.0059245825245162,0.0059245825514426,0.004638861643646,-0.0014483822139619,0.0014483827203372,-1.0165163323003e-09,1.5221663942145e-09,8.8403507157068e-11,4.2078191228377e-10,-0.0015238685521976,0.0015238682402756,-0.0015238678967386,0.0015238688505492,-0.0015238687758488,0.0015238679290634,-0.0015238672513314,0.0015238694862477,-0.0013273714443199,0.001327368382994,-0.0013273677090618,0.0013273721020625,-6.7841489906699e-10,9.6533885542136e-10,-5.6281645886293e-10,8.6259134882714e-10,-0.0014483823331012,0.0014483826178261,-0.0015238685413333,0.0015238682481094,-0.0015238685137857,0.0015238681945942,-0.0015238683715104,0.0015238683715704,-0.0015238675190399,0.0015238693091206,-0.0013273706696163,0.0013273690429704,-0.0013273682542762,0.0013273716585805,-0.0014212929086473,0.0014212909163115,-0.0014212903965993,0.0014212939144338,-2.7066139691651e-09,2.6622040649638e-09,-0.001048206577938,0.0010482065321513,1.2934178463734e-09,-1.3831577625653e-09,-0.0011348818241966,0.0011348811310272,-0.0011348828820784,0.0011348796573464,-0.0011348801707514,0.0011348824902568,-0.0011348806859969,0.0011348821161659,-0.0011233006931124,0.0011233067452071,-0.0011233075021166,0.0011232996784608,0.63099507117163,125803,2834,0.0060162667931201,0.006016266827525,0.0043594513691344,18.385753470527,-9.0513972235787e-05,-9.0513972235787e-05,-9.0513972235787e-05,2300568.340737,0.016527794812079
20819200,0.9867061226435,0.016492899343251,0.0059263456191226,0.0059263456460472,0.0046402080780808,-0.0014474635905366,0.0014474640788824,-9.0215339206843e-10,1.3891995484956e-09,1.7437441145201e-10,3.1559199935164e-10,-0.0015229743550519,0.0015229741591741,-0.0015229737694454,0.0015229746967086,-0.0015229746270204,0.0015229737873362,-0.0015229731906248,0.0015229752601097,-0.0013264234388422,0.0013264205618896,-0.0013264199780122,0.001326424013384,-6.4905981913865e-10,9.1816347702084e-10,-4.3217834022717e-10,7.1380205558901e-10,-0.0014474637075473,0.0014474639773806,-0.0015229743531018,0.001522974157026,-0.0015229744048897,0.0015229740141489,-0.0015229741945273,0.0015229742587735,-0.0015229734462872,0.0015229751019137,-0.001326422626408,0.0013264212532937,-0.0013264205124888,0.0013264235687169,-0.0014203689149395,0.0014203669211309,-0.0014203664987931,0.0014203698042034,-2.6080100833848e-09,2.5716736641937e-09,-0.001047210622445,0.0010472105847,1.2295674783002e-09,-1.3099176842135e-09,-0.0011338904785638,0.0011338898002964,-0.0011338914722423,0.0011338883711375,-0.0011338888720754,0.0011338910994419,-0.0011338893523795,0.0011338907655143,-0.0011223103454347,0.0011223162399314,-0.0011223169424325,0.0011223093825651,0.67643098720193,125803,2834,0.0060124624019344,0.0060124624340253,0.0043553186400987,17.705808479694,-9.5953532162448e-05,-9.5953532162448e-05,-9.5953532162448e-05,2302199.4833288,0.016515859188302
21019200,0.98698881596659,0.016497242613977,0.0059279201728384,0.0059279201997633,0.0046414022413758,-0.0014460224760672,0.0014460230440573,-1.2014834982097e-09,1.7705707166329e-09,-2.7017694116226e-10,8.4361949412119e-10,-0.0015215377506526,0.0015215371216909,-0.0015215369673408,0.001521537872206,-0.0015215377692861,0.0015215370807387,-0.0015215361028928,0.001521538780405,-0.0013249770122401,0.0013249738311503,-0.0013249728197794,0.0013249780191282,-1.1029640612639e-09,1.5015756236059e-09,-4.8153752813985e-10,8.9793142344925e-10,-0.0014460225734602,0.001446022965148,-0.0015215376804593,0.0015215372106746,-0.0015215376869586,0.0015215371482867,-0.0015215372263758,0.0015215376437907,-0.0015215363790687,0.0015215385598486,-0.0013249759540894,0.0013249747739484,-0.0013249735618197,0.0013249773758521,-0.001418922182056,0.0014189192340722,-0.0014189186758814,0.0014189232559493,-2.9662338322732e-09,2.9546002942244e-09,-0.0010456819614325,0.0010456819496202,9.1868877970678e-10,-9.7044944804121e-10,-0.001132405088777,0.0011324040039964,-0.0011324059417848,0.0011324028355048,-0.0011324032941336,0.0011324055584523,-0.0011324035482973,0.0011324054496644,-0.0011207746334682,0.00112078157338,-0.0011207820136688,0.0011207739174352,0.65602046131969,125803,2834,0.0060064936419396,0.0060064936802102,0.0043489774992559,16.750407031547,-0.00010359674374762,-0.00010359674374762,-0.00010359674374762,2294479.8836782,0.016497279109391
21219200,0.98723548719682,0.016501055557068,0.0059293015094527,0.0059293015363654,0.0046424525112499,-0.0014428409784516,0.0014428414349344,-7.0573094099242e-10,1.1611503551243e-09,3.7819486781816e-10,7.7702136194253e-11,-0.0015183719001327,0.0015183719319889,-0.0015183714345741,0.0015183723504021,-0.0015183722986039,0.0015183714325514,-0.0015183710113571,0.0015183727619257,-0.0013217926120814,0.0013217900189857,-0.0013217896036487,0.0013217930070782,-5.880490930921e-10,8.4971986648361e-10,-1.1468441119164e-10,3.9042314088332e-10,-0.0014428410822756,0.0014428413462029,-0.0015183719011898,0.0015183719319028,-0.0015183721447091,0.0015183715907112,-0.0015183717618775,0.0015183720057159,-0.0015183712391623,0.0015183726309559,-0.0013217916320994,0.0013217908793384,-0.0013217901719951,0.0013217925093045,-0.0014157283448334,0.0014157262834532,-0.0014157260684741,0.0014157289732109,-2.446844793968e-09,2.4261264172092e-09,-0.0010425600823069,0.0010425600607648,1.0754333296654e-09,-1.1374477415684e-09,-0.0011292643982496,0.0011292637049164,-0.0011292652670301,0.0011292624045682,-0.0011292628719366,0.0011292649232672,-0.0011292632539399,0.0011292646901116,-0.0011176050701494,0.0011176107424398,-0.0011176113252845,0.0011176042275591,0.65967489838575,125803,2834,0.0059933173052456,0.0059933173364771,0.0043360236250276,14.939036224778,-0.00011808771020178,-0.00011808771020178,-0.00011808771020178,2284820.999283,0.016457324817596
21419200,0.98746047611135,0.01650455660241,0.0059305685225231,0.0059305685494359,0.0046434195304513,-0.0014409356990699,0.001440936194738,-9.0724773461623e-10,1.4019726956965e-09,1.2579937062146e-10,3.7159987517301e-10,-0.0015164666601271,0.0015164664384168,-0.0015164660760189,0.0015164669731675,-0.0015164669034182,0.0015164660947885,-0.001516465455038,0.0015164675800944,-0.0013198891765732,0.0013198863083811,-0.0013198856767247,0.0013198898025646,-7.2089057317018e-10,1.0028956998523e-09,-1.7191154282992e-10,4.6764529419844e-10,-0.0014409358131603,0.0014409360963364,-0.0015164665786658,0.0015164665186825,-0.0015164668021116,0.0015164661970047,-0.0015164663732376,0.0015164666649144,-0.0015164657857307,0.0015164673471274,-0.0013198880954166,0.001319887272089,-0.0013198864611796,0.0013198891157182,-0.001413825221523,0.0014138228864326,-0.0014138226348782,0.0014138259642792,-2.6909216996389e-09,2.6833595591486e-09,-0.0010406644499997,0.0010406644413239,9.2781318126037e-10,-9.7554031799656e-10,-0.0011273579669354,0.0011273570469549,-0.0011273587580439,0.0011273558259771,-0.0011273563054344,0.0011273584066055,-0.0011273565638446,0.0011273582894838,-0.0011156937114703,0.0011157000622235,-0.0011157005150475,0.0011156929850095,0.66373847161405,125803,2834,0.0059854265935411,0.0059854266260013,0.0043281581782552,13.802428606956,-0.00012718057114435,-0.00012718057114435,-0.00012718057114435,2277434.1978898,0.016433288741965
21619200,0.98767405622912,0.016507909524099,0.0059317808499837,0.0059317808768974,0.0046443477972175,-0.0014401983107739,0.0014401987935072,-4.8994570137749e-10,9.7108519783732e-10,1.6808682276883e-10,3.1280664726576e-10,-0.0015157272864812,0.0015157273270654,-0.001515726926917,0.0015157276202954,-0.0015157275242514,0.0015157269753357,-0.0015157263939163,0.0015157281593619,-0.0013191497468924,0.0013191478191266,-0.001319147218133,0.0013191503741343,-4.174018975409e-10,6.0726629875185e-10,-8.4347340759161e-11,3.0243802412302e-10,-0.0014401984538731,0.0014401986637616,-0.0015157272335866,0.0015157273952584,-0.001515727475777,0.0015157270099151,-0.0015157272035863,0.0015157273179431,-0.0015157267570114,0.0015157279054204,-0.0013191490756039,0.0013191483355717,-0.0013191478396349,0.0013191498253712,-0.0014130910534988,0.0014130893126859,-0.0014130892558472,0.0014130915842461,-2.3059461710495e-09,2.2785517607489e-09,-0.0010398767036802,0.0010398766749122,1.116720730917e-09,-1.1843221355723e-09,-0.0011265850143865,0.0011265844180112,-0.001126585894525,0.0011265831067699,-0.0011265835663629,0.0011265855596772,-0.0011265839975391,0.0011265852787641,-0.0011149108278007,0.0011149161543386,-0.001114916714669,0.0011149099335343,0.66921246631791,125803,2834,0.0059823724457493,0.0059823724733909,0.0043248900973216,13.270345795329,-0.00013143723363737,-0.00013143723363737,-0.00013143723363737,2273469.0647124,0.016423758193627
21819200,0.98788846596679,0.016511226471757,0.0059329810599641,0.0059329810868755,0.0046452643249178,-0.0014411290557113,0.0014411297957288,-3.024308382102e-09,3.7663921093652e-09,-1.3954675824232e-09,2.1521075381214e-09,-0.0015166547785887,0.001516652452106,-0.0015166529267365,0.0015166542567059,-0.0015166542054456,0.0015166529768893,-0.0015166510393467,0.0015166562112184,-0.0013200733032849,0.0013200666854683,-0.0013200646777881,0.0013200753202282,-1.5473472260162e-09,1.9941329303909e-09,-1.1226675182734e-09,1.5897490988041e-09,-0.0014411292131818,0.0014411296551447,-0.0015166541053286,0.0015166531596155,-0.0015166538653094,0.0015166532941644,-0.0015166535380123,0.0015166536449195,-0.001516652052693,0.0015166552781581,-0.0013200713197419,0.0013200685388438,-0.0013200669545025,0.0013200731327126,-0.0014140285993085,0.0014140244643801,-0.0014140234410728,0.0014140301007632,-4.9584273468894e-09,5.0245680317192e-09,-0.0010406578449691,0.0010406579138086,2.5522335027647e-10,-2.2112471565018e-10,-0.0011274203222026,0.0011274177056681,-0.0011274209102094,0.0011274167726976,-0.0011274173762134,0.0011274203891363,-0.0011274169362474,0.0011274209933866,-0.0011157250663741,0.0011157372213823,-0.001115737073061,0.001115724838508,0.65989246957486,125803,2834,0.0059862272325082,0.0059862272674768,0.0043281329495395,13.592920693237,-0.0001288566344541,-0.0001288566344541,-0.0001288566344541,2274292.5408507,0.016434890706157
22019200,0.98810552080942,0.016514530405314,0.005934177885874,0.0059341779127741,0.0046461746066656,-0.0014423221482659,0.0014423227020246,-8.8671188632524e-10,1.4369183197787e-09,-2.4852110661549e-10,8.091052317435e-10,-0.0015178545360449,0.0015178540928085,-0.001517853959358,0.0015178546174477,-0.0015178545109685,0.0015178539904451,-0.0015178530115961,0.0015178555382198,-0.0013212429998354,0.0013212403532051,-0.0013212394057835,0.00132124392416,-1.0085148311524e-10,2.5543854995434e-10,-4.9663313171108e-10,6.6651978661995e-10,-0.001442322348609,0.0014423225144088,-0.001517854253962,0.0015178543690693,-0.0015178543234629,0.0015178541908712,-0.0015178545027217,0.0015178540349266,-0.0015178537156694,0.0015178549460173,-0.0013212426168241,0.0013212406055197,-0.0013212403576882,0.0013212430204303,-0.0014152183940887,0.0014152174076572,-0.0014152170175485,0.0014152191104063,-2.8029684780352e-09,2.7676357990379e-09,-0.0010416929083332,0.0010416928716034,1.2458350723842e-09,-1.3241341938051e-09,-0.0011285097019146,0.0011285089138757,-0.0011285107099568,0.0011285074192892,-0.0011285079664541,0.001128510310531,-0.0011285084131866,0.001128510019438,-0.0011167969905388,0.0011168033373984,-0.0011168040625168,0.0011167960060097,0.64982770575845,125803,2834,0.0059911677107916,0.0059911677371159,0.0043324285597893,14.052124119989,-0.00012518300704009,-0.00012518300704009,-0.00012518300704009,2278330.1786434,0.016449300679971
22219200,0.98832610167535,0.016517861343697,0.0059353852040244,0.0059353852309317,0.0046470909087406,-0.0014436440011895,0.0014436445856065,-7.5944349840478e-10,1.3401611609376e-09,-4.483258674819e-10,1.0400171066031e-09,-0.0015191903512003,0.0015191898454912,-0.0015191898094245,0.0015191903274061,-0.0015191901569438,0.0015191899146253,-0.0015191887717641,0.0015191913506693,-0.0013225350319168,0.0013225329041704,-0.0013225317795763,0.0013225361576004,-1.1626746963802e-10,2.602120607105e-10,-6.5365066735313e-10,8.1841861013428e-10,-0.0014436442196307,0.0014436443800166,-0.0015191901090761,0.0015191900881808,-0.0015191900336598,0.0015191900415789,-0.0015191903180098,0.0015191897828585,-0.0015191894721797,0.0015191907633931,-0.0013225349891996,0.0013225328015753,-0.0013225325676697,0.0013225354306289,-0.0014165371220575,0.0014165363058376,-0.0014165358619042,0.0014165379629151,-2.7281475603178e-09,2.6803613897994e-09,-0.0010428585088814,0.0010428584589581,1.3476403718316e-09,-1.4395152375384e-09,-0.0011297222997016,0.0011297215948575,-0.0011297233507115,0.0011297200668152,-0.0011297205903655,0.001129722971519,-0.0011297211506787,0.0011297225678881,-0.0011179986554939,0.0011180046673676,-0.0011180054499276,0.0011179975815747,0.64497825223,125803,2834,0.0059966420153947,0.005996642041983,0.0043372656074446,14.581457661277,-0.00012094833870978,-0.00012094833870978,-0.00012094833870978,2284274.2429083,0.016465346418581
22419200,0.98854667815103,0.016521335663886,0.0059366413877525,0.0059366414146634,0.0046480528614702,-0.0014445021598842,0.0014445027468822,-7.3755897849125e-10,1.3221908270366e-09,-4.3282416763643e-10,1.027597065615e-09,-0.0015200655889951,0.0015200651080838,-0.0015200650610248,0.0015200655824402,-0.0015200654090791,0.0015200651840503,-0.0015200640492195,0.0015200665875399,-0.0013233655148574,0.0013233634325853,-0.001323362308006,0.0013233666356381,-1.177508523217e-10,2.8539901530229e-10,-7.3250484307619e-10,9.2151641007461e-10,-0.001444502371465,0.0014445025499967,-0.0015200653908748,0.0015200653089606,-0.001520065257369,0.0015200653388573,-0.0015200655946868,0.001520065027192,-0.0015200646900198,0.0015200660469674,-0.0013233655653783,0.0013233632487175,-0.0013233629837228,0.0013233660418381,-0.0014173941446283,0.0014173933820259,-0.0014173928824118,0.0014173950860843,-2.7445902968578e-09,2.6851883607505e-09,-0.0010435901554476,0.0010435900943003,1.4277188766003e-09,-1.5331495146849e-09,-0.0011304871191726,0.0011304864546314,-0.001130488237832,0.0011304848921576,-0.0011304854107166,0.001130487851149,-0.001130486035704,0.0011304873749736,-0.0011187600562783,0.0011187660101641,-0.0011187668628546,0.0011187589194431,0.67139741931769,125803,2834,0.0060001959651163,0.0060001959955234,0.0043403017511009,14.870661289746,-0.00011863470968203,-0.00011863470968203,-0.00011863470968203,2289032.7078883,0.016475657734008
22619200,0.98876503172532,0.016524814310315,0.0059378985129597,0.0059378985398712,0.0046490172574842,-0.0014450961356926,0.0014450967105264,-7.518281824004e-10,1.3245457205669e-09,-3.49350830219e-10,9.3099863445431e-10,-0.0015206635898039,0.0015206631531509,-0.0015206630579074,0.001520663631607,-0.0015206634710679,0.0015206631692408,-0.001520662106705,0.0015206645769587,-0.0013239472852067,0.0013239451146396,-0.0013239440598654,0.0013239483362363,-2.0284632459579e-10,3.8583078996096e-10,-7.795890361805e-10,9.832757896345e-10,-0.0014450963341278,0.001445096526926,-0.0015206634549611,0.0015206632904379,-0.0015206632864572,0.0015206633565887,-0.0015206635989733,0.0015206630701184,-0.0015206626580982,0.0015206641256433,-0.0013239473072485,0.0013239449595,-0.0013239446183509,0.0013239478616144,-0.0014179904792557,0.0014179895795665,-0.001417989032954,0.0014179914719603,-2.7855303175683e-09,2.7217156837482e-09,-0.0010440369354553,0.0010440368698482,1.470379876814e-09,-1.5808293243972e-09,-0.001130992899797,0.0011309922371715,-0.0011309940511895,0.001130990646309,-0.0011309911683726,0.0011309936591959,-0.0011309918231405,0.0011309931524632,-0.0011192364727332,0.0011192424706667,-0.0011192433569086,0.0011192353018431,0.6788065037189,125803,2834,0.0060026552951088,0.0060026553258051,0.0043421572356127,15.007914128338,-0.00011753668697329,-0.00011753668697329,-0.00011753668697329,2288183.8489435,0.016482543888609
22819200,0.98898038562392,0.016528235261142,0.0059391351811073,0.0059391352080189,0.0046499648720161,-0.0014455848658206,0.0014455853625907,-3.2180547400484e-10,8.1686869998664e-10,1.3911592928032e-10,3.5949295573697e-10,-0.0015211523579233,0.0015211525298375,-0.0015211521614768,0.0015211526698056,-0.0015211526062591,0.0015211521659069,-0.0015211515270722,0.0015211532846111,-0.0013244272332511,0.0013244254763811,-0.0013244248475877,0.0013244278493709,6.4709239294805e-11,6.9381062871021e-11,-6.0823949014054e-10,7.6473071226638e-10,-0.0014455850489846,0.0014455851945585,-0.0015211523773904,0.0015211525096794,-0.0015211523596497,0.0015211524189753,-0.0015211527347894,0.0015211520711389,-0.0015211518961038,0.0015211530209769,-0.0013244274285287,0.0013244251527453,-0.0013244250467419,0.0013244277441906,-0.0014184818263397,0.0014184812555279,-0.0014184808878605,0.001418482653029,-2.358808970415e-09,2.2701094265976e-09,-0.0010443746869067,0.0010443745962169,1.6992510839134e-09,-1.837666288867e-09,-0.0011313940988876,0.0011313938886178,-0.001131395430495,0.0011313921054776,-0.0011313926809617,0.0011313949911715,-0.0011313934683292,0.0011313943450939,-0.0011196035721178,0.0011196085945343,-0.0011196096751539,0.0011196022180523,0.67692181110327,125803,2834,0.0060046785084657,0.006004678539773,0.0043435605667246,15.09006572878,-0.00011687947416976,-0.00011687947416976,-0.00011687947416976,2286038.2757966,0.016488083883103
23019200,0.98919188880166,0.0165313639853,0.0059402713351915,0.0059402713621036,0.0046508212880044,-0.001445928846672,0.0014459293983711,-9.549491711348e-10,1.5040038031868e-09,-2.2965609339928e-10,7.8688733230861e-10,-0.0015215016560471,0.0015215011367463,-0.0015215009752899,0.0015215017545767,-0.0015215015904316,0.001521501063103,-0.0015215001080313,0.0015215025948794,-0.0013247568246999,0.0013247542085368,-0.0013247532701956,0.0013247577550579,-5.41546414717e-10,7.5749041269038e-10,-8.7060532521079e-10,1.099835103322e-09,-0.0014459290175705,0.0014459292411303,-0.001521501619371,0.0015215011659312,-0.0015215013577151,0.0015215013031491,-0.0015215015025742,0.0015215011876899,-0.0015215005132938,0.0015215023128885,-0.0013247565705642,0.0013247543275237,-0.0013247537184876,0.0013247573881907,-0.0014188213475259,0.0014188199205224,-0.0014188192552408,0.0014188224533183,-3.0324352175387e-09,2.9795631141568e-09,-0.0010445786007572,0.0010445785455547,1.4204037857092e-09,-1.5195257011275e-09,-0.0011316587782176,0.0011316579052832,-0.001131659852988,0.0011316563355301,-0.0011316568477617,0.0011316594929313,-0.0011316574809656,0.0011316590155168,-0.0011198264020569,0.001119832884045,-0.0011198337281099,0.0011198252644676,0.63260381655785,125803,2834,0.0060061025648711,0.0060061025931241,0.0043444084695751,15.108032368311,-0.00011673574105351,-0.00011673574105351,-0.00011673574105351,2284483.6522815,0.01649184132733
23219200,0.98939938070244,0.016534569055494,0.0059414318514503,0.0059414318783656,0.0046517053256779,-0.0014461848407429,0.0014461853456595,-6.1371569117161e-10,1.1167029540795e-09,7.9670742584091e-11,4.2717882821532e-10,-0.0015217796447961,0.0015217795706448,-0.001521779233648,0.0015217799262634,-0.0015217798361237,0.0015217792666835,-0.0015217785827441,0.0015217805640731,-0.0013249800493036,0.0013249778272934,-0.0013249771521156,0.0013249807203615,-4.1728164880265e-10,6.2883120967094e-10,-7.0844131700732e-10,9.3753586934186e-10,-0.0014461849903381,0.0014461852104442,-0.001521779728311,0.0015217794858538,-0.0015217796019657,0.0015217795047621,-0.0015217797252946,0.0015217794098175,-0.0015217788198517,0.0015217804336472,-0.0013249799055888,0.0013249778356507,-0.0013249773169308,0.0013249806354927,-0.001419074827322,0.0014190734569808,-0.0014190729170537,0.0014190758060871,-2.7056102439319e-09,2.636722896749e-09,-0.0010447615885847,0.0010447615178469,1.5352143506966e-09,-1.6513690590055e-09,-0.0011318413955034,0.0011318408329807,-0.0011318425923608,0.0011318391866061,-0.0011318397209659,0.0011318421909566,-0.0011318404167631,0.0011318416451839,-0.0011200281504013,0.0011200339479754,-0.0011200348865308,0.0011200269306593,0.65900389195318,125803,2834,0.0060071628808554,0.006007162910612,0.0043451671436595,15.109147475404,-0.00011672682019677,-0.00011672682019677,-0.00011672682019677,2289448.5331106,0.016494768033159
23419200,0.98960222212302,0.016537669489701,0.0059425552282933,0.0059425552552088,0.0046525590061991,-0.0014463608316688,0.0014463613216584,-5.5295779040142e-10,1.0413814359237e-09,1.7407628367726e-10,3.1706805308274e-10,-0.0015219664984843,0.0015219665261655,-0.0015219661366186,0.001521966833103,-0.00152196675929,0.0015219661523661,-0.0015219655498147,0.0015219674032458,-0.0013251366417353,0.0013251344612273,-0.001325133867217,0.0013251372258181,-4.5772550685879e-10,6.8050240004595e-10,-6.4632695308355e-10,8.855813784056e-10,-0.0014463609694894,0.0014463611986806,-0.0015219666237179,0.0015219663981034,-0.0015219665386858,0.0015219663776595,-0.0015219665940865,0.0015219663527312,-0.0015219657223319,0.001521967337133,-0.001325136448863,0.0013251345250112,-0.0013251339624707,0.0013251372177467,-0.0014192491996427,0.0014192477054055,-0.0014192471978092,0.001419250161706,-2.6673853404665e-09,2.5998753700038e-09,-0.0010448369945489,0.0010448369251614,1.5173319509549e-09,-1.6321962990253e-09,-0.001131948283444,0.0011319477391965,-0.0011319494711498,0.0011319461030343,-0.0011319466383874,0.0011319490692866,-0.0011319473188113,0.0011319485355588,-0.0011201216681971,0.0011201274103356,-0.0011201283392693,0.0011201204628736,0.65256750997169,125803,2834,0.0060078914365723,0.0060078914672848,0.004345480839682,15.055272488628,-0.00011715782009097,-0.00011715782009097,-0.00011715782009097,2289384.4811078,0.016496568268764
23619200,0.98981360189421,0.016540974309411,0.0059437508802759,0.0059437509071916,0.0046534725219431,-0.0014484900422244,0.001448490541886,-5.5182861495578e-10,1.0494708369157e-09,1.0326390171163e-10,3.9823738917995e-10,-0.0015241003171746,0.0015241002935469,-0.001524099944204,0.0015241006111048,-0.001524100518848,0.0015240999764128,-0.0015240993143764,0.0015241012235174,-0.0013272369582467,0.0013272348551228,-0.0013272342034653,0.0013272376025597,-3.863461806835e-10,5.9217728505667e-10,-6.8549355350329e-10,9.0842356785342e-10,-0.001448490192163,0.0014484904063998,-0.0015241004109081,0.0015241001966296,-0.0015241002967566,0.0015241002040345,-0.0015241004252253,0.0015241001044453,-0.0015240995419301,0.0015241011037704,-0.001327236856427,0.0013272348258703,-0.0013272343327313,0.0013272375550948,-0.0014213887290501,0.0014213874261421,-0.001421386905313,0.0014213896894284,-2.7024530404354e-09,2.6336653265086e-09,-0.0010467639816677,0.001046763910906,1.5399186099259e-09,-1.6561995045839e-09,-0.0011339264205062,0.001133925860337,-0.0011339276128465,0.0011339242128228,-0.0011339247430604,0.0011339272184186,-0.001133925448308,0.0011339266623703,-0.0011221137063746,0.0011221194744966,-0.0011221204195112,0.0011221124838836,0.66669414294649,125803,2834,0.0060167091244797,0.0060167091543834,0.0043534775824789,16.004416276085,-0.00010956466979132,-0.00010956466979132,-0.00010956466979132,2295872.7601556,0.016522623657837
23819200,0.99003745379837,0.016544662158606,0.0059450815079566,0.0059450815348732,0.0046544991157764,-0.0014512214736786,0.0014512220365617,-8.3881940058428e-10,1.3940474812181e-09,-4.3474058273832e-10,9.9997888768434e-10,-0.0015268350547467,0.0015268345537095,-0.0015268344927051,0.0015268350135581,-0.0015268348947207,0.0015268344927341,-0.0015268333996782,0.0015268360751369,-0.0013299425530472,0.0013299401466086,-0.001329939073956,0.0013299436823171,-7.7908460279429e-10,9.0763394444049e-10,-9.340741639994e-10,1.0826796402938e-09,-0.0014512216729423,0.001451221841717,-0.0015268350692359,0.0015268345350461,-0.0015268348205344,0.0015268345582526,-0.0015268348587081,0.0015268345501072,-0.0015268338187369,0.0015268358376157,-0.0013299424520422,0.0013299400251338,-0.0013299393834244,0.0013299433616191,-0.0014241326640617,0.0014241306028233,-0.0014241299516603,0.0014241336321209,-3.0343985332456e-09,2.9930692483184e-09,-0.001049226461249,0.001049226416008,1.4162677995203e-09,-1.4985642050613e-09,-0.0011364780640737,0.0011364772405234,-0.0011364791511378,0.0011364755467645,-0.0011364761560725,0.0011364787337838,-0.0011364767131837,0.0011364783705238,-0.0011246547660111,0.0011246615020108,-0.0011246622637937,0.0011246536105659,0.70079569648737,125803,2834,0.0060280204522411,0.0060280204613817,0.0043636972732891,17.23668077555,-9.9706553795599e-05,-9.9706553795599e-05,-9.9706553795599e-05,2302370.3405818,0.016556009622156
24019200,0.9902578810142,0.01654833525949,0.0059464068567485,0.0059464068836688,0.0046555215190725,-0.0014518080831108,0.0014518085538455,-2.9812813809591e-10,7.6682263750656e-10,2.7456855788373e-10,1.9565508663611e-10,-0.0015274209705354,0.0015274211806438,-0.0015274207336277,0.0015274213595976,-0.0015274212557443,0.0015274207790233,-0.0015274202715596,0.001527421808177,-0.0013305255802319,0.0013305239735951,-0.0013305234738746,0.0013305260769459,-8.5161749367014e-11,2.328983475756e-10,-5.635920694378e-10,7.3392278779865e-10,-0.0014518082442602,0.0014518084064824,-0.0015274210693066,0.0015274210839018,-0.0015274210083083,0.001527421029971,-0.0015274212572644,0.0015274208073875,-0.0015274205162902,0.0015274216709738,-0.0013305256517316,0.0013305237597717,-0.0013305235426029,0.0013305260793105,-0.0014247198340827,0.0014247191337979,-0.0014247187698396,0.001424720624691,-2.4987938005165e-09,2.422236047822e-09,-0.0010496074820692,0.0010496074037287,1.612079376839e-09,-1.7362558028087e-09,-0.0011369627017926,0.0011369622810001,-0.0011369639067508,0.0011369606265644,-0.0011369611227657,0.0011369635432242,-0.0011369619176176,0.0011369628968335,-0.0011250697322469,0.0011250749206971,-0.0011250759201002,0.0011250684527621,0.70866616103388,125803,2834,0.0060304483814055,0.0060304484099416,0.0043652814955239,17.342544070005,-9.8859647439959e-05,-9.8859647439959e-05,-9.8859647439959e-05,2297666.0941394,0.016562557227254
24219200,0.99047448703837,0.016551792529683,0.0059476577846084,0.0059476578115271,0.0046564769335477,-0.0014523184341606,0.0014523188955276,-5.4941610571511e-11,5.1337711956375e-10,3.0311196566693e-10,1.5926333026164e-10,-0.0015279208983807,0.0015279212121742,-0.0015279207355163,0.0015279212650589,-0.0015279211135241,0.0015279207779486,-0.0015279202861328,0.0015279216512164,-0.0013310360298952,0.0013310350073159,-0.0013310345386327,0.0013310364915716,-1.6984719440245e-10,2.2307859191958e-10,-4.7680728497193e-10,5.5175837586624e-10,-0.0014523186205086,0.0014523187093762,-0.0015279210570532,0.0015279210371565,-0.0015279209894334,0.0015279208754118,-0.0015279211385961,0.0015279207846793,-0.0015279205427287,0.0015279215796176,-0.0013310361831631,0.0013310346293326,-0.001331034447817,0.0013310365506619,-0.0014252340358122,0.001425233255419,-0.0014252329972302,0.0014252346073583,-2.2861492885558e-09,2.2004640738624e-09,-0.0010499087028558,0.0010499086235304,1.5920195954493e-09,-1.7194314066703e-09,-0.0011373644097141,0.0011373640552985,-0.0011373654884473,0.0011373623762288,-0.0011373628738221,0.0011373651947301,-0.0011373636902754,0.0011373645446986,-0.0011254087294649,0.0011254133776134,-0.0011254143368898,0.0011254074133622,0.68010472479053,125803,2834,0.0060325606041234,0.0060325606045113,0.0043665349253722,17.417946933764,-9.8256424529888e-05,-9.8256424529888e-05,-9.8256424529888e-05,2291766.9695366,0.016568126476848
24419200,0.9906872895531,0.016555185894855,0.0059488857306997,0.0059488857576306,0.0046574144065242,-0.0014527821829752,0.0014527827128437,-1.1744448299872e-09,1.7022116356618e-09,-9.7455751970144e-11,6.3081468480909e-10,-0.0015283874417358,0.0015283870109753,-0.0015283867672842,0.0015283876198782,-0.0015283876301908,0.0015283866910342,-0.0015283858590388,0.0015283885098816,-0.0013314864724198,0.0013314828990288,-0.0013314820751214,0.001331487299603,-5.7773710388099e-10,7.9663636197119e-10,-6.9697479378582e-10,9.3138142963518e-10,-0.0014527823393926,0.0014527825685827,-0.001528387325691,0.001528387124832,-0.0015283873214883,0.001528386997173,-0.001528387337622,0.001528387015899,-0.0015283863145602,0.001528388176044,-0.0013314857685169,0.00133148345511,-0.0013314828207508,0.0013314866214712,-0.0014257012349622,0.0014256991774979,-0.0014256986283571,0.0014257022211954,-3.4450407625025e-09,3.4173542902898e-09,-0.001050205726003,0.0010502056976885,1.1752829218877e-09,-1.2455387248629e-09,-0.0011377236364198,0.001137722488093,-0.0011377246957501,0.001137720950174,-0.0011377215808304,0.0011377242110905,-0.0011377218967115,0.0011377240519955,-0.0011257377367783,0.0011257456976032,-0.001125746334108,0.0011257368027108,0.67934992800637,125803,2834,0.0060344805759824,0.0060344806011498,0.0043677694265733,17.491575251786,-9.7667397985709e-05,-9.7667397985709e-05,-9.7667397985709e-05,2290866.1243245,0.016573285349739
24619200,0.99089545122595,0.016558659880669,0.0059501395778745,0.0059501396048061,0.0046583806979883,-0.0014531121689936,0.001453112658132,-1.5476336632069e-10,6.4326589972714e-10,2.0082555985818e-10,2.9205474928083e-10,-0.0015287188911637,0.0015287191140109,-0.0015287187227183,0.0015287192379102,-0.0015287190895497,0.0015287188105105,-0.0015287182193403,0.0015287197148133,-0.0013318039964203,0.0013318027778592,-0.0013318021976467,0.001331804519514,-3.0138544405803e-10,5.2475431499893e-10,-3.4105743499461e-10,5.7592774601225e-10,-0.0014531123104389,0.0014531125316664,-0.0015287190092707,0.0015287189890228,-0.0015287190599737,0.0015287188533421,-0.0015287190090557,0.0015287189332523,-0.001528718406029,0.0015287196260265,-0.0013318039499644,0.0013318027213525,-0.0013318022368755,0.0013318045515259,-0.0014260371174211,0.0014260359501246,-0.0014260356090965,0.0014260378346145,-2.4471207455899e-09,2.3937461915793e-09,-0.0010503821189313,0.0010503820661091,1.3795549434111e-09,-1.478950054977e-09,-0.0011379532559487,0.0011379526929288,-0.0011379542684509,0.0011379512313445,-0.0011379516706849,0.0011379539619726,-0.0011379523268019,0.001137953451539,-0.001125949048494,0.0011259542405626,-0.001125955095438,0.0011259479562367,0.70944811971678,125803,2834,0.0060358464611236,0.0060358464921198,0.0043685030336427,17.497778823549,-9.7617769411607e-05,-9.7617769411607e-05,-9.7617769411607e-05,2289673.3579628,0.016576808367174
24819200,0.99109894089105,0.016561813118155,0.0059512830147071,0.0059512830416388,0.0046592470618091,-0.0014534386160333,0.0014534391029631,-2.5945396715352e-10,7.4427323166955e-10,1.7578072407836e-10,3.1214584574691e-10,-0.0015290376874607,0.001529037863692,-0.0015290374705379,0.0015290380222669,-0.001529037905897,0.0015290375260407,-0.0015290369321571,0.0015290385437781,-0.0013321272883638,0.0013321258166022,-0.0013321252287196,0.0013321278678178,-3.6157675507833e-10,5.5409516830731e-10,-3.2839567973528e-10,5.3942369169708e-10,-0.0014534387641072,0.0014534389681142,-0.0015290377733625,0.0015290377779621,-0.0015290378560282,0.0015290375761788,-0.0015290377704371,0.0015290376947348,-0.0015290371653087,0.0015290384211533,-0.0013321271047558,0.0013321258629259,-0.0013321253964031,0.0013321277625802,-0.0014263639640223,0.0014263625758684,-0.0014263623007381,0.0014263646551168,-2.5776884871384e-09,2.5333473466246e-09,-0.0010505183087813,0.0010505182638398,1.2962344976795e-09,-1.3840003405604e-09,-0.0011381799006807,0.0011381792353681,-0.0011381808829995,0.0011381777927604,-0.0011381782616957,0.0011381805510328,-0.0011381788341226,0.0011381801317416,-0.0011261137345414,0.0011261193693401,-0.0011261201170584,0.0011261127059948,0.66112594406504,125803,2834,0.0060371972423833,0.0060371972697507,0.0043690712356239,17.493847795628,-9.7649217634977e-05,-9.7649217634977e-05,-9.7649217634977e-05,2284624.7683737,0.016580132950583
25019200,0.99130935298834,0.016565035425168,0.0059524522007293,0.0059524522276603,0.0046601309967782,-0.0014554601454124,0.0014554605920892,-6.9656452219669e-11,5.1174394022096e-10,3.7154257786458e-10,7.3285599175251e-11,-0.0015310662796319,0.0015310666949882,-0.0015310661984954,0.0015310667035842,-0.0015310666207815,0.0015310661839851,-0.0015310657676274,0.0015310670943807,-0.0013341135013898,0.0013341122398578,-0.0013341118523839,0.0013341138972868,-3.0928490449965e-12,8.5910039033818e-11,-2.8975886109706e-10,3.9161602717125e-10,-0.0014554603203601,0.0014554604270202,-0.001531066356755,0.0015310666120898,-0.0015310664926517,0.0015310663195039,-0.0015310666101371,0.0015310662294067,-0.0015310660683246,0.0015310669329426,-0.001334113521602,0.0013341120566981,-0.0013341119771015,0.0013341138030585,-0.0014283902456173,0.0014283895243309,-0.0014283893650008,0.0014283907458304,-2.401720405591e-09,2.3490115792499e-09,-0.0010523176282436,0.001052317573553,1.4484253404052e-09,-1.5452546351695e-09,-0.0011400358454134,0.0011400353900637,-0.0011400369029731,0.0011400337958812,-0.0011400343035691,0.0011400365605277,-0.0011400349704194,0.0011400360603153,-0.0011279769092504,0.0011279820960787,-0.0011279829527675,0.0011279757604134,0.65362907329687,125803,2834,0.0060455685513105,0.006045568571747,0.0043765381208086,18.390435853741,-9.0476513170075e-05,-9.0476513170075e-05,-9.0476513170075e-05,2292453.2875581,0.016604744260294
25219200,0.99153764148772,0.016568648820574,0.0059537608272194,0.0059537608541538,0.0046611271392013,-0.0014590853862308,0.0014590859076116,-3.2962997532464e-10,8.4843917100101e-10,-5.2450605611179e-11,5.7750431893359e-10,-0.0015347033686085,0.0015347033834206,-0.0015347031185048,0.0015347035739652,-0.0015347034484957,0.0015347031814127,-0.0015347023908699,0.0015347042839489,-0.0013376902398966,0.0013376887155017,-0.0013376879345905,0.0013376910142626,-1.2407801808995e-10,2.7414795547297e-10,-4.9961961134256e-10,6.6926718155289e-10,-0.0014590855718334,0.001459085735012,-0.0015347033451152,0.0015347034070929,-0.0015347033531134,0.0015347032796041,-0.0015347035378496,0.0015347031237295,-0.0015347028082049,0.0015347039781273,-0.0013376903224027,0.0013376884924807,-0.0013376882440588,0.001337690767622,-0.0014320251034688,0.0014320242186073,-0.0014320238758089,0.0014320258548257,-2.7331478737572e-09,2.67903666521e-09,-0.0010556303490908,0.0010556302938265,1.4049426440953e-09,-1.5041542487755e-09,-0.0011434293121982,0.0011434286407163,-0.0011434303918413,0.0011434270897911,-0.0011434275963169,0.0011434300259029,-0.0011434282224833,0.001143429556711,-0.0011313864057813,0.0011313923237093,-0.0011313931605049,0.0011313852898282,0.67455040346475,125803,2834,0.0060605813167582,0.0060605813436676,0.0043902845269302,20.097955647497,-7.6816354820021e-05,-7.6816354820021e-05,-7.6816354820021e-05,2306412.7037193,0.016649244274911
25419200,0.9917728970856,0.016572680676978,0.0059552151536123,0.0059552151805469,0.0046622503428188,-0.0014612540715807,0.001461254581202,-1.7654515784308e-10,6.8463349538726e-10,3.3640844648229e-11,4.7794165603401e-10,-0.0015368845926633,0.0015368847631813,-0.0015368844422464,0.001536884854316,-0.0015368847382555,0.0015368845123288,-0.0015368838009124,0.0015368854930201,-0.0013398275621029,0.0013398263113409,-0.0013398255884971,0.0013398282779765,-2.2748111649039e-11,1.6240914203391e-10,-4.7502563264122e-10,6.4172630087113e-10,-0.0014612542554172,0.0014612544113155,-0.0015368846124283,0.0015368847521514,-0.001536884629123,0.001536884616972,-0.0015368848724592,0.0015368844033363,-0.0015368841704097,0.0015368852259123,-0.0013398277748064,0.0013398259580181,-0.0013398257811653,0.0013398281585884,-0.0014342003777227,0.0014341996631781,-0.0014341993813765,0.0014342010969123,-2.6122321947386e-09,2.5459571798734e-09,-0.0010575253539575,0.0010575252868908,1.483532640655e-09,-1.5956115512809e-09,-0.0011454173950147,0.0011454168438956,-0.0011454185406134,0.0011454152669956,-0.0011454157670899,0.0011454181669519,-0.0011454164545172,0.0011454176254201,-0.0011333519939014,0.0011333575780296,-0.0011333584723486,0.0011333508095451,0.72789746734565,125803,2834,0.0060695614515234,0.0060695614803965,0.0043981493857904,21.024729080817,-6.9402167353465e-05,-6.9402167353465e-05,-6.9402167353465e-05,2312508.706217,0.016675500298025
25619200,0.99200052852773,0.016576605804544,0.005956631427649,0.0059566314545804,0.0046633429223147,-0.0014615135998523,0.0014615140990601,-7.9560772037733e-10,1.2931064910137e-09,9.8685687396461e-11,4.019832519817e-10,-0.0015371355797781,0.0015371354011275,-0.001537135047013,0.0015371358784109,-0.0015371358018662,0.001537135077971,-0.0015371344253411,0.0015371365014405,-0.001340091728422,0.0013400891311237,-0.0013400884749868,0.0013400923859928,-1.979244770725e-10,3.7039731281005e-10,-5.7631389569784e-10,7.7233349398088e-10,-0.0014615137632683,0.0014615139493876,-0.0015371354986511,0.0015371354908106,-0.0015371354688396,0.0015371354084185,-0.0015371356607548,0.0015371352425875,-0.0015371348539585,0.0015371361731742,-0.0013400913472931,0.0013400893656822,-0.0013400890431822,0.0013400918806583,-0.0014344655855912,0.0014344645254283,-0.0014344641246863,0.0014344664072558,-3.2474167691978e-09,3.2058389822314e-09,-0.0010575441715855,0.0010575441293855,1.2726635038087e-09,-1.3573510364623e-09,-0.0011455595358179,0.0011455584572181,-0.0011455605603531,0.0011455570017428,-0.0011455575022162,0.0011455601812972,-0.0011455580171442,0.0011455598227858,-0.0011334092694828,0.0011334163798724,-0.0011334171011917,0.0011334082648356,0.7324407505341,125803,2834,0.0060706345543448,0.0060706345827916,0.0043982319611254,20.943859929819,-7.0049120561451e-05,-7.0049120561451e-05,-7.0049120561451e-05,2304426.3143341,0.016677767142813
25819200,0.99221094124748,0.016580138155118,0.0059579082779732,0.0059579083049014,0.0046643215722433,-0.0014602757047984,0.001460276177912,-3.0256600863966e-10,7.7361355975443e-10,2.5850278115277e-10,2.146181518569e-10,-0.001535886097935,0.0015358863325766,-0.0015358858911143,0.0015358864819374,-0.0015358864029581,0.0015358859083585,-0.0015358853901613,0.0015358869648569,-0.0013388661738951,0.0013388644890797,-0.0013388639769511,0.0013388666805913,-3.8783404293621e-10,5.8199521249068e-10,-3.4499113286409e-10,5.5717199297293e-10,-0.0014602758453833,0.0014602760507111,-0.0015358862116834,0.0015358862177281,-0.0015358863113421,0.0015358860021551,-0.001535886219049,0.0015358861270648,-0.0015358855793707,0.0015358868852846,-0.0013388659274367,0.0013388645968481,-0.0013388641162115,0.001338866606971,-0.0014332290701742,0.0014332275700983,-0.001433227284778,0.0014332297744133,-2.771719575291e-09,2.7282188910797e-09,-0.0010561526177594,0.0010561525730755,1.2871922816483e-09,-1.3741400773913e-09,-0.0011442602961598,0.0011442595210397,-0.0011442612981158,0.001144258060357,-0.0011442585529652,0.0011442609415473,-0.0011442590949332,0.0011442605521903,-0.0011320268981437,0.0011320329922726,-0.0011320337323352,0.0011320258793836,0.71386863946222,125803,2834,0.0060655066827911,0.006065506710486,0.0043924621552104,20.111776443598,-7.6705788451212e-05,-7.6705788451212e-05,-7.6705788451212e-05,2291832.8598892,0.016661475081063
26019200,0.99241095624267,0.016583364177653,0.0059590770239359,0.0059590770508639,0.0046652101028527,-0.0014598318718563,0.0014598322854715,1.9166108365604e-09,-1.51043024004e-09,5.0755074608487e-10,-9.6321622146444e-11,-0.0015354305334585,0.0015354322659307,-0.0015354317086842,0.0015354310002006,-0.0015354308354939,0.0015354316958363,-0.0015354313904076,0.0015354312014711,-0.0013384210576701,0.0013384238033593,-0.0013384235748543,0.0013384212722928,-3.3459340751872e-10,4.1275199334102e-10,1.8444679886008e-10,-1.0449181972531e-10,-0.0014598320325471,0.0014598321317641,-0.0015354312477239,0.0015354315121248,-0.0015354316139109,0.0015354309475439,-0.0015354311760013,0.0015354314236493,-0.0015354310380699,0.0015354317466315,-0.0013384223949672,0.0013384223142489,-0.0013384220132546,0.0013384228596637,-0.0014327905188286,0.00143278914822,-0.0014327892515856,0.0014327907361111,-5.6483380517556e-10,4.8689622006646e-10,-0.0010555509976216,0.0010555509153908,1.7590838313839e-09,-1.8850946885713e-09,-0.0011437256549669,0.0011437265391622,-0.0011437267770582,0.0011437247205365,-0.0011437252236209,0.0011437265094576,-0.0011437261801654,0.0011437257256794,-0.00113145230294,0.0011314533548762,-0.0011314544783332,0.0011314508822998,0.68688838324576,125803,2834,0.006063667547844,0.0060636675622605,0.0043899686959079,19.71759975371,-7.9859201970317e-05,-7.9859201970317e-05,-7.9859201970317e-05,2285048.6506932,0.016655200754153
26219200,0.99260481055806,0.016586674880628,0.0059602722009886,0.0059602722279273,0.0046661304517118,-0.0014599510453461,0.0014599515059334,-5.5980180061573e-10,1.0180450497167e-09,3.203853399772e-10,1.3995647477871e-10,-0.0015355505325567,0.0015355506151861,-0.0015355501413472,0.0015355509408151,-0.0015355508789235,0.00153555011949,-0.0015355496540825,0.0015355513909307,-0.001338530361924,0.0013385280626622,-0.0013385276123472,0.0013385307970633,-4.8699815495242e-10,6.878548832803e-10,-3.3064851273401e-10,5.4368310645356e-10,-0.0014599511777036,0.0014599513863017,-0.0015355505939771,0.0015355505479078,-0.0015355507006903,0.0015355503018981,-0.0015355505343981,0.0015355505039672,-0.0015355498892349,0.0015355512855224,-0.0013385297856571,0.0013385285095136,-0.001338527949847,0.0013385305328678,-0.0014329181080506,0.0014329163957095,-0.001432916093741,0.0014329188405879,-3.0859367917704e-09,3.0580399726838e-09,-0.0010555257954598,0.0010555257662523,1.1839937411679e-09,-1.2549464057616e-09,-0.0011437410334729,0.0011437400117675,-0.0011437419575592,0.0011437385846808,-0.0011437390898331,0.0011437416090692,-0.0011437395450522,0.0011437413058198,-0.0011314572759504,0.0011314641267468,-0.0011314647946961,0.0011314563317855,0.72525109010782,125803,2834,0.006064160706096,0.0060641607324287,0.0043898656169662,19.629522550766,-8.0563819593872e-05,-8.0563819593872e-05,-8.0563819593872e-05,2284520.6832175,0.016656098641825
26419200,0.99279711322302,0.016590052645579,0.005961489913742,0.0059614899406831,0.0046670727911541,-0.0014608478111285,0.0014608482720084,6.8747610160641e-11,3.8814502002431e-10,2.8525758757651e-10,1.7502254176972e-10,-0.0015364304041854,0.001536430865925,-0.001536430414814,0.0015364307834459,-0.0015364306866095,0.0015364304101007,-0.0015364299175577,0.0015364312311929,-0.0013394292300844,0.0013394282761726,-0.0013394278108493,0.0013394296939097,-3.9755554777444e-10,5.5196435911025e-10,-2.6770843092454e-10,4.3543315345576e-10,-0.0014608479616938,0.0014608481318356,-0.0015364306147593,0.0015364306428342,-0.0015364307494213,0.0015364303561866,-0.0015364305942609,0.001536430546034,-0.0015364300384196,0.0015364312521315,-0.0013394292514915,0.0013394281063837,-0.0013394276704657,0.0013394298864377,-0.0014338288324272,0.0014338273341215,-0.0014338271122329,0.0014338294436605,-2.4923415743569e-09,2.4514886024119e-09,-0.0010561883994091,0.0010561883566456,1.3305813481495e-09,-1.4150534025448e-09,-0.0011445003890176,0.0011444998096367,-0.0011445013671281,0.0011444982888541,-0.0011444987924887,0.0011445010356873,-0.0011444993724642,0.0011445006147348,-0.0011321731045546,0.0011321785857426,-0.0011321793536139,0.0011321720427717,0.74503104739331,125803,2834,0.0060678732075316,0.0060678732290303,0.0043926182102656,19.917913740472,-7.8256690076227e-05,-7.8256690076227e-05,-7.8256690076227e-05,2281153.9282054,0.016666446162395
26619200,0.99299427751284,0.016593484210136,0.0059627281267235,0.0059627281536657,0.004668027929747,-0.0014628387678786,0.0014628392869747,-2.5467266207793e-09,3.0663020706354e-09,2.7566591330146e-11,4.9378944354204e-10,-0.0015383979226645,0.0015383965988443,-0.0015383962746771,0.0015383982109763,-0.0015383981936515,0.0015383962955127,-0.0015383955830093,0.0015383989425508,-0.0013414254272128,0.0013414192880831,-0.0013414185398616,0.0013414261713239,-3.64063395172e-10,6.147141134421e-10,-7.2689879035443e-10,1.0049096655194e-09,-0.0014628389075658,0.0014628391645134,-0.0015383973408059,0.0015383972032136,-0.0015383972614133,0.0015383972166519,-0.0015383974581658,0.0015383970450744,-0.0015383964548902,0.0015383981322002,-0.0013414234531674,0.0013414211389497,-0.0013414206004622,0.0013414242018296,-0.0014358347304113,0.0014358332563573,-0.0014358326858976,0.0014358357446976,-5.1673522184223e-09,5.1497941380888e-09,-0.001057852090568,0.0010578520733233,9.9345914365584e-10,-1.0520187812929e-09,-0.0011463066717929,0.0011463041974833,-0.0011463076129986,0.0011463029340467,-0.0011463034410005,0.0011463071856837,-0.0011463037025484,0.0011463070638418,-0.0011339095370306,0.0011339208251405,-0.0011339213293852,0.0011339087728431,0.73848801036561,125803,2834,0.0060761165666983,0.0060761166023664,0.0043995257432615,20.755677971525,-7.1554576227798e-05,-7.1554576227798e-05,-7.1554576227798e-05,2279582.2650913,0.016690231266915
26819200,0.99319485812531,0.016596889743665,0.0059639593145611,0.005963959341498,0.0046689710876062,-0.0014646300280474,0.0014646305306895,-2.9572926696801e-10,7.957845829743e-10,6.1355158347911e-11,4.4359678295219e-10,-0.0015401752376036,0.0015401753808271,-0.0015401750529068,0.0015401755093037,-0.0015401754008034,0.0015401750981538,-0.0015401744077317,0.0015401761332086,-0.001343207874393,0.0013432063578599,-0.0013432056771479,0.001343208546516,-1.8141697489477e-10,3.4090022090551e-10,-4.8198492955786e-10,6.6095878769583e-10,-0.0014646302001769,0.0014646303722558,-0.0015401752844477,0.0015401753286529,-0.0015401753138205,0.0015401751937676,-0.0015401754433155,0.0015401750938748,-0.0015401747228339,0.0015401759240999,-0.0013432079223877,0.0013432061729513,-0.0013432058749109,0.0013432084205358,-0.0014376317748553,0.0014376307627578,-0.0014376304271441,0.0014376325237258,-2.9444385157125e-09,2.8885674775993e-09,-0.0010593259125573,0.0010593258549977,1.4032207388343e-09,-1.5043290978972e-09,-0.0011479186503768,0.0011479178291489,-0.0011479197330343,0.001147916283677,-0.0011479167914451,0.0011479193644192,-0.0011479174130129,0.0011479188928317,-0.0011354523445421,0.0011354586575603,-0.0011354594923729,0.0011354512323816,0.72122274396565,125803,2834,0.0060835328103284,0.0060835328386619,0.0044056449195739,21.493931949494,-6.5648544404051e-05,-6.5648544404051e-05,-6.5648544404051e-05,2279853.7688318,0.01671153360388
27019200,0.9933923347043,0.016600150053018,0.0059651404051626,0.0059651404320993,0.0046698692157559,-0.0014653845196345,0.0014653850337125,-1.005423451886e-09,1.5195838962845e-09,4.4408494762733e-11,4.7268678715488e-10,-0.0015409302456039,0.0015409299156468,-0.0015409295896588,0.0015409305283264,-0.0015409304492197,0.001540929645602,-0.0015409289383662,0.0015409311899512,-0.0013439479698459,0.0013439449892298,-0.001343944266996,0.0013439486715442,-1.7931730733229e-10,3.8912578468934e-10,-5.7090510964692e-10,8.0361217721431e-10,-0.0014653846779911,0.0014653848920954,-0.0015409300798777,0.001540930091151,-0.0015409300628002,0.0015409300302557,-0.00154093026606,0.0015409298557896,-0.0015409294368286,0.001540930769325,-0.001343947413477,0.0013439454275902,-0.0013439450612936,0.0013439479692574,-0.0014383838375381,0.0014383827966651,-0.0014383823739721,0.0014383847188393,-3.6991208411171e-09,3.6457199762278e-09,-0.0010598439305773,0.0010598438765748,1.3208414747253e-09,-1.4195520169213e-09,-0.001148537050689,0.0011485357161048,-0.0011485381427961,0.0011485342451887,-0.0011485347492992,0.0011485377441481,-0.0011485352946523,0.0011485373375339,-0.0011360098146852,0.0011360177516223,-0.0011360185367594,0.0011360087721474,0.70228867415214,125803,2834,0.0060866561237787,0.0060866561584239,0.0044077971835311,21.714272999835,-6.3885816001321e-05,-6.3885816001321e-05,-6.3885816001321e-05,2279944.3962921,0.016720073482186
27219200,0.99358440241251,0.016603224423965,0.0059662563640191,0.0059662563909521,0.0046707116689935,-0.0014657205853026,0.0014657210989271,-1.423126507815e-09,1.9373384768747e-09,6.4901212136049e-11,4.5219612324825e-10,-0.0015412743424492,0.0015412737685884,-0.0015412734348352,0.001541274640754,-0.0015412745758241,0.0015412734813659,-0.0015412727867666,0.0015412752997675,-0.0013442606167395,0.0013442567669778,-0.0013442560592564,0.0013442612977482,-2.2148531401099e-10,4.5612741383683e-10,-5.9701199209826e-10,8.5251585287294e-10,-0.0014657207341413,0.0014657209681221,-0.0015412740707272,0.0015412740477385,-0.0015412740511504,0.0015412740089698,-0.0015412742398697,0.0015412738478961,-0.001541273369235,0.0015412747857613,-0.001344259659122,0.00134425761817,-0.0013442571931926,0.0013442602652487,-0.001438716299695,0.0014387151615485,-0.0014387146947459,0.0014387172347775,-4.1468725465245e-09,4.097327903798e-09,-0.0010600012589281,0.0010600012088436,1.2742491287109e-09,-1.3690644337704e-09,-0.0011487556907216,0.001148754040909,-0.0011487567690305,0.0011487525987533,-0.0011487531056832,0.001148756361568,-0.0011487536074459,0.0011487559956552,-0.0011361967729262,0.0011362056576333,-0.0011362064138047,0.0011361957728389,0.68192141964916,125803,2834,0.0060880471481562,0.0060880471854769,0.0044084516556702,21.739803451988,-6.3681572384092e-05,-6.3681572384092e-05,-6.3681572384092e-05,2281244.908922,0.016723567742991
27419200,0.99377262542352,0.016606331025167,0.0059673817314538,0.0059673817583837,0.0046715675353296,-0.0014662736664952,0.0014662741813176,-2.194960166003e-09,2.7119089251027e-09,9.9104383664401e-11,4.2197897712602e-10,-0.0015418410100663,0.0015418399661708,-0.0015418396258661,0.0015418413251508,-0.0015418412851111,0.0015418396471585,-0.0015418389624034,0.0015418419864439,-0.0013447828877654,0.0013447774071203,-0.0013447767163726,0.0013447835082337,-2.2301708104008e-10,4.9496761454662e-10,-6.3831262237455e-10,9.2341883648988e-10,-0.0014662738047652,0.0014662740625881,-0.0015418405108514,0.0015418404642565,-0.0015418404922568,0.001541840452471,-0.0015418406964013,0.0015418402768258,-0.0015418397514317,0.0015418412574907,-0.0013447812096118,0.0013447790118929,-0.0013447785252174,0.0013447818183405,-0.0014392713858024,0.0014392702148057,-0.0014392696707964,0.0014392724109839,-4.9515708640918e-09,4.9046966913534e-09,-0.0010604017609492,0.0010604017144308,1.2211993920314e-09,-1.3144093538693e-09,-0.0011491871035333,0.0011491849117625,-0.001149188171319,0.0011491834836322,-0.0011491840078935,0.001149187746561,-0.0011491844469113,0.0011491874367278,-0.0011366334432214,0.001136643998473,-0.0011366447509695,0.0011366324841599,0.70215247910072,125803,2834,0.0060903373125046,0.0060903373529311,0.0044101139821906,21.891460259268,-6.2468317925856e-05,-6.2468317925856e-05,-6.2468317925856e-05,2285453.1015207,0.016729914763584
27619200,0.99395967950248,0.016609465607505,0.0059685162562903,0.0059685162832216,0.0046724330679931,-0.0014673127282942,0.0014673132243617,-4.9953135071895e-10,9.9374515941457e-10,1.2025647236496e-10,3.7774485433047e-10,-0.0015428838317683,0.0015428838755174,-0.0015428835136014,0.0015428841417534,-0.0015428840515539,0.0015428835500871,-0.0015428829097631,0.0015428847316573,-0.00134579598455,0.0013457940001966,-0.0013457933642623,0.0013457966062046,-2.3708949013764e-10,4.2202743975134e-10,-5.2398926951323e-10,7.2836600713169e-10,-0.0014673128866441,0.0014673130807387,-0.0015428838589669,0.0015428838461537,-0.0015428838610112,0.0015428837474933,-0.0015428839848428,0.0015428836525261,-0.0015428832170659,0.0015428845230146,-0.0013457958343436,0.0013457940223947,-0.001345793652835,0.0013457963955283,-0.0014403170785944,0.0014403159631593,-0.001440315575453,0.0014403178933742,-3.2794526040826e-09,3.222238055251e-09,-0.0010612429728393,0.0010612429140865,1.4001379306628e-09,-1.5029446597938e-09,-0.0011500876934043,0.0011500866563958,-0.0011500887920702,0.0011500851149038,-0.001150085625019,0.0011500884122275,-0.0011500862392479,0.0011500879463166,-0.0011375267025018,0.0011375336920902,-0.0011375345313981,0.0011375255928618,0.71253168940725,125803,2834,0.0060946395248149,0.0060946395552803,0.0044136059500508,22.280680927714,-5.9354552578287e-05,-5.9354552578287e-05,-5.9354552578287e-05,2287699.0150706,0.016742213774447
27819200,0.99414291629029,0.016612586894265,0.0059696450783255,0.0059696451052566,0.0046732967106825,-0.0014679223186881,0.0014679228015068,-7.4541567959207e-10,1.2238047814863e-09,1.3807653515075e-10,3.4462201468107e-10,-0.0015434969336562,0.0015434968118675,-0.0015434964388808,0.0015434972371888,-0.0015434971537289,0.0015434964355957,-0.0015434958247503,0.0015434978212367,-0.0013463882039834,0.0013463857088726,-0.0013463851150585,0.0013463888134011,-2.9498316252569e-10,4.2987939141557e-10,-5.5829412915372e-10,7.1381236232378e-10,-0.0014679224872629,0.0014679226442631,-0.0015434968996933,0.0015434968410001,-0.0015434968802829,0.0015434967156432,-0.0015434969874965,0.0015434966356556,-0.0015434962205506,0.0015434975572943,-0.0013463878116626,0.0013463859448847,-0.0013463856060176,0.0013463883707482,-0.0014409311743193,0.0014409299561628,-0.0014409295806159,0.0014409319358388,-3.5471379085043e-09,3.5008615333774e-09,-0.0010616649680615,0.0010616649191732,1.3792070862438e-09,-1.4692773150232e-09,-0.0011505769855729,0.0011505757599527,-0.0011505780399685,0.0011505741906258,-0.0011505747197801,0.0011505776679419,-0.0011505753089088,0.0011505772423462,-0.0011379884685865,0.0011379960485529,-0.0011379968377354,0.0011379873709353,0.72383697803429,125803,2834,0.0060971630960875,0.0060971631195268,0.0044153589950908,22.443153043498,-5.8054775652012e-05,-5.8054775652012e-05,-5.8054775652012e-05,2287443.5596197,0.016749128148037
28019200,0.99432304747618,0.016615709746961,0.0059707734767587,0.0059707735036893,0.0046741627665128,-0.0014686634142925,0.001468663902662,-5.2201448905098e-10,1.0086079000739e-09,1.6430524705807e-10,3.2547928547831e-10,-0.0015442338247116,0.0015442338692124,-0.0015442334822873,0.0015442341593588,-0.0015442340771898,0.0015442335096193,-0.0015442329099096,0.0015442347185124,-0.0013471180140561,0.0013471159433469,-0.0013471153476162,0.0013471185970648,-2.7739717358911e-10,4.667428897379e-10,-5.0508741527182e-10,7.1369060380445e-10,-0.0014686635663194,0.0014686637650024,-0.001544233859042,0.0015442338345212,-0.0015442338690504,0.0015442337232995,-0.0015442339556113,0.0015442336649395,-0.0015442331989128,0.0015442345306247,-0.0013471177902575,0.00134711603868,-0.0013471156356836,0.0013471183809198,-0.0014416803487252,0.0014416791394389,-0.0014416787532034,0.0014416811493074,-3.364237315594e-09,3.3102269038403e-09,-0.001062204363484,0.0010622043082202,1.3873557360213e-09,-1.4866617232916e-09,-0.001151193843901,0.0011511927481429,-0.0011511949321773,0.0011511912136537,-0.0011511917213548,0.0011511945551117,-0.0011511923266765,0.0011511941008781,-0.0011385752172258,0.0011385823974958,-0.0011385832230791,0.0011385741176186,0.73612813435651,125803,2834,0.0061002310845248,0.0061002311142545,0.0044175996663249,22.669910110598,-5.6240719115218e-05,-5.6240719115218e-05,-5.6240719115218e-05,2285656.9391883,0.016757645467871
28219200,0.99450287264782,0.016618886616685,0.0059719203987111,0.0059719204256411,0.0046750457923328,-0.0014699320424959,0.001469932536525,-6.0502876025727e-10,1.0985713672812e-09,1.5595715802764e-10,3.3953028211236e-10,-0.0015454915270955,0.0015454915181828,-0.0015454911296294,0.0015454918684946,-0.0015454917887199,0.001545491175747,-0.0015454905682703,0.0015454924321543,-0.0013483790274585,0.001348376801735,-0.0013483761831352,0.0013483796271528,-2.4372696660259e-10,4.5027930575446e-10,-4.9967682790104e-10,7.2819733522568e-10,-0.0014699321911531,0.0014699324039909,-0.0015454915240498,0.0015454915277373,-0.0015454915361425,0.0015454914277538,-0.0015454916482776,0.00154549134569,-0.0015454908860736,0.0015454922005008,-0.0013483787322523,0.001348376977346,-0.0013483765721846,0.0013483793279028,-0.0014429598190037,0.0014429586567799,-0.0014429582805389,0.0014429606496686,-3.4882677549648e-09,3.4278160024564e-09,-0.0010632374278597,0.0010632373663109,1.4013800057109e-09,-1.5078137697196e-09,-0.0011523233356355,0.0011523221714713,-0.0011523244577233,0.0011523206490463,-0.0011523211511694,0.0011523240699106,-0.0011523217679689,0.001152323593644,-0.001139670835399,0.0011396782376493,-0.0011396790831523,0.0011396697241026,0.74949206614317,125803,2834,0.006105483350499,0.0061054833838638,0.0044218892750981,23.162361891741,-5.2301104866073e-05,-5.2301104866073e-05,-5.2301104866073e-05,2283461.4833017,0.016772688061798
28419200,0.99467716718,0.016622027972651,0.005973053628072,0.0059730536550011,0.0046759206895775,-0.0014702834367353,0.0014702839895234,9.3883939245395e-10,-3.7838217150792e-10,2.8546508453174e-11,5.3356615274382e-10,-0.0015458322880976,0.0015458333194433,-0.0015458329983433,0.0015458326223926,-0.0015458325585857,0.0015458331366553,-0.0015458323650674,0.0015458333038472,-0.0013487302535005,0.0013487310092149,-0.0013487302044954,0.0013487309727693,-3.6548843746147e-10,7.9461898873555e-10,-5.421556528923e-10,9.8116878365834e-10,-0.0014702835348152,0.001470283920125,-0.0015458328524554,0.0015458327702174,-0.0015458328703015,0.0015458328200329,-0.0015458329375316,0.0015458327952728,-0.0015458319971668,0.001545833654895,-0.0013487315222196,0.001348729717588,-0.0013487289520124,0.001348732431126,-0.0014433180403541,0.0014433166051472,-0.00144331603229,0.0014433192946748,-2.0107814587527e-09,1.9443978317456e-09,-0.0010633713045842,0.0010633712403212,1.1887103026684e-09,-1.3050568879364e-09,-0.0011525589986618,0.0011525587688372,-0.0011525601325184,0.0011525574799605,-0.0011525579480958,0.0011525596934168,-0.0011525583933964,0.0011525593243827,-0.0011398460970514,0.001139850836238,-0.0011398516188426,0.0011398451875898,0.76402645555336,125803,2834,0.0061069372504891,0.0061069373098422,0.0044224484305607,23.176286670268,-5.2189706637853e-05,-5.2189706637853e-05,-5.2189706637853e-05,2278540.4199878,0.016776213762133
28619200,0.9948464220307,0.016625099225529,0.005974161458813,0.0059741614857452,0.0046767762809706,-0.0014706977640494,0.0014706982554547,-6.406769877578e-11,5.5440235074168e-10,1.7828440947485e-10,3.146748281353e-10,-0.0015462277634027,0.0015462281126167,-0.0015462277157107,0.0015462281157595,-0.001546228038474,0.0015462277555993,-0.0015462271619464,0.0015462286650495,-0.0013491535616385,0.0013491523573194,-0.0013491517635688,0.0013491541366408,-3.2752052170818e-10,5.4867438123055e-10,-4.6457459195838e-10,7.0500374668933e-10,-0.0014706979051369,0.0014706981310077,-0.0015462279538248,0.0015462279292604,-0.0015462279878274,0.001546227803478,-0.0015462280150234,0.0015462278082061,-0.0015462272748554,0.0015462286434076,-0.0013491537163651,0.0013491520865107,-0.0013491516103866,0.0013491543794521,-0.0014437427180805,0.0014437413790425,-0.0014437410079619,0.0014437435541875,-3.0110280678248e-09,2.9571776151361e-09,-0.0010635505541777,0.0010635504990874,1.3236876823492e-09,-1.422597686972e-09,-0.0011528508157874,0.0011528499293345,-0.0011528518819492,0.0011528484569166,-0.0011528489552698,0.0011528515005924,-0.0011528495160537,0.0011528510801863,-0.0011400700704248,0.0011400766212402,-0.0011400774065957,0.0011400690241505,0.76896221349525,125803,2834,0.0061086513296815,0.0061086513640971,0.0044231963892065,23.22265672911,-5.1818746167121e-05,-5.1818746167121e-05,-5.1818746167121e-05,2272356.7594898,0.016780460436641
28819200,0.99501713187372,0.016628116641664,0.0059752517811907,0.0059752518081228,0.0046776130523503,-0.0014723492909618,0.0014723498141194,3.2976996331281e-09,-2.7710757761254e-09,6.6241690891225e-11,4.5870829754109e-10,-0.0015478543804878,0.0015478569925968,-0.0015478566365237,0.0015478547200364,-0.0015478546618375,0.0015478567449622,-0.0015478560635217,0.001547855365944,-0.0013508029664567,0.0013508083661971,-0.0013508076274872,0.0013508036903727,-3.0264834812424e-10,5.9705557120692e-10,-5.8760783465295e-10,9.13374127279e-10,-0.0014723494166842,0.0014723497097362,-0.0015478557300798,0.0015478556805004,-0.0015478556922755,0.0015478556911629,-0.0015478558471374,0.0015478555639082,-0.0015478549710587,0.0015478564842021,-0.0013508065632122,0.0013508046520829,-0.0013508041130923,0.0013508073361967,-0.0014454057234461,0.0014454044003411,-0.0014454039703643,0.0014454067577098,3.1046119117502e-10,-3.6349782344983e-10,-0.0010649125713905,0.0010649125192022,1.2122238026743e-09,-1.3095572623731e-09,-0.0011543423000153,0.0011543436159354,-0.0011543433960175,0.0011543423009864,-0.0011543427598762,0.0011543429788707,-0.0011543432349775,0.0011543426237246,-0.0011415092690869,0.0011415095066583,-0.0011415102113086,0.0011415083340622,0.74978587423614,125803,2834,0.0061154887150451,0.0061154887592191,0.0044288520169671,23.908989044895,-4.6328087640843e-05,-4.6328087640843e-05,-4.6328087640843e-05,2269044.931088,0.016800115998321
29019200,0.99517890480715,0.016630822425885,0.0059762331024755,0.0059762331294018,0.0046783561940077,-0.0014719710204203,0.001471971534855,1.4290375703537e-09,-9.0833856505682e-10,2.1069410655732e-10,3.1091264953786e-10,-0.0015474784818947,0.0015474798381497,-0.001547479427624,0.0015474788971247,-0.0015474788309967,0.0015474795410192,-0.0015474789380009,0.0015474794210579,-0.0013504188082547,0.0013504204311845,-0.0013504197935188,0.001350419337851,-2.3059214427416e-10,6.0352033905484e-10,-3.8304977177801e-10,7.662932401462e-10,-0.0014719711222632,0.0014719714592666,-0.0015474791371986,0.00154747920602,-0.0015474792259146,0.0015474791384552,-0.0015474792657347,0.0015474791338984,-0.0015474784996526,0.0015474798713392,-0.0013504203632536,0.0013504188440468,-0.0013504182238651,0.0013504210776659,-0.0014450189300646,0.0014450177220416,-0.001445017301748,0.0014450199612269,-1.6126229751873e-09,1.5414528415561e-09,-0.0010643615627263,0.0010643614932406,1.2654306485175e-09,-1.3857950417896e-09,-0.0011538792541724,0.0011538793008605,-0.0011538803782432,0.0011538779624922,-0.0011538784151092,0.001153879969378,-0.0011538789475683,0.0011538795371542,-0.0011409698484854,0.0011409736809036,-0.0011409745214786,0.0011409688607443,0.7113044432042,125803,2834,0.0061139211355782,0.0061139211898986,0.0044265687008571,23.568349389884,-4.9053204880929e-05,-4.9053204880929e-05,-4.9053204880929e-05,2265178.2574191,0.016794607121296
29219200,0.99533924815583,0.016633440798265,0.0059771839356044,0.0059771839625283,0.0046790729001319,-0.001472981370892,0.0014729818661409,4.6226154763879e-10,3.1376642465111e-11,1.4401600270409e-10,3.5372579562563e-10,-0.0015484937144951,0.0015484943638056,-0.0015484939917086,0.0015484940431995,-0.0015484939541217,0.0015484940326925,-0.0015484934078927,0.0015484946128943,-0.0013514009411975,0.0013514007737093,-0.0013514001567966,0.0013514015344873,-2.8303898941198e-10,4.9308408785763e-10,-4.5156237027952e-10,6.7784885524159e-10,-0.001472981519868,0.0014729817336467,-0.0015484940407095,0.0015484940429534,-0.0015484940823045,0.0015484939058855,-0.0015484941256015,0.0015484938920947,-0.0015484934033081,0.001548494715402,-0.0013514016150149,0.0013513999836802,-0.0013513995555373,0.0013514022256855,-0.001446032847584,0.0014460316138549,-0.0014460312595713,0.0014460336712524,-2.5890997505722e-09,2.5383606450012e-09,-0.0010651880395332,0.00106518798713,1.3086122140856e-09,-1.4045265442673e-09,-0.0011547514477922,0.0011547508220497,-0.0011547524888805,0.0011547493516635,-0.0011547498475206,0.0011547521169164,-0.001154750404752,0.0011547517071044,-0.0011418438629678,0.0011418496095958,-0.0011418503888199,0.0011418428280127,0.69517196300573,125803,2834,0.0061181045413356,0.0061181045754177,0.0044299989546748,23.973576090579,-4.5811391275368e-05,-4.5811391275368e-05,-4.5811391275368e-05,2269912.4501839,0.016806602292339
29419200,0.99549875613469,0.016635870734368,0.0059780704268732,0.0059780704537983,0.0046797298536964,-0.0014741190616316,0.0014741195665709,4.5412300285399e-10,5.1133580551273e-11,1.1557919254677e-10,3.9254298019905e-10,-0.0015496515721983,0.0015496522118642,-0.0015496518524154,0.0015496518976259,-0.0015496518083011,0.0015496519182728,-0.0015496512664172,0.0015496524872557,-0.0013524932751657,0.0013524931121602,-0.0013524924516711,0.0013524939010056,-2.17377733083e-10,4.5163202024913e-10,-4.4593540557499e-10,6.9914586925375e-10,-0.0014741192075147,0.0014741194395737,-0.0015496518743802,0.0015496519206223,-0.0015496519212858,0.0015496518054728,-0.0015496520098343,0.0015496517457489,-0.0015496512746993,0.0015496525538941,-0.0013524939726593,0.0013524923141877,-0.0013524918947777,0.0013524945702713,-0.0014471626042063,0.0014471614727165,-0.0014471611208268,0.001447163462081,-2.6393532371109e-09,2.5823319617076e-09,-0.0010661722701006,0.0010661722121693,1.3341862923886e-09,-1.4374877625462e-09,-0.0011557676743056,0.0011557670333125,-0.0011557687602235,0.0011557655727432,-0.0011557660588245,0.0011557683774922,-0.0011557666352639,0.0011557679368573,-0.0011428687718342,0.0011428745870109,-0.0011428753976553,0.0011428677193367,0.65090115318548,125803,2834,0.006122815588318,0.0061228156273876,0.0044340827782112,24.456152076712,-4.1950783386305e-05,-4.1950783386305e-05,-4.1950783386305e-05,2276683.7585137,0.016820335404968
29619200,0.99565779583499,0.016638257843492,0.00597894194778,0.0059789419747039,0.0046803739210079,-0.0014753182441433,0.0014753187507872,4.0839787431351e-10,9.772316527144e-11,8.9740719776729e-11,4.1963860844621e-10,-0.0015508908210087,0.0015508914119999,-0.0015508910645593,0.0015508911293446,-0.0015508910363879,0.0015508911309548,-0.0015508904614505,0.0015508917374109,-0.0013536249318646,0.0013536247087414,-0.0013536240334345,0.001353625586023,-1.8296188763992e-10,3.944651419758e-10,-4.67842885069e-10,7.0026770323617e-10,-0.0014753183986846,0.0014753186136761,-0.0015508910938107,0.0015508911513474,-0.0015508911263135,0.0015508910379859,-0.0015508912538698,0.0015508909386522,-0.0015508905167941,0.0015508917633198,-0.0013536256257332,0.0013536238986977,-0.0013536235357649,0.0013536261773846,-0.0014483521128692,0.001448351065896,-0.0014483507157022,0.0014483529410076,-2.7208379355938e-09,2.6615880574295e-09,-0.0010672811523315,0.0010672810922014,1.3660242208793e-09,-1.4710614489649e-09,-0.00115685401525,0.0011568533367508,-0.001156855116047,0.0011568518494061,-0.001156852339749,0.0011568547327072,-0.0011568529407244,0.0011568542735897,-0.0011440161408545,0.0011440220903348,-0.0011440229145103,0.001144015063538,0.64191649183815,125803,2834,0.0061277820619357,0.0061277820979936,0.0044386815817545,24.996782668036,-3.7625738655713e-05,-3.7625738655713e-05,-3.7625738655713e-05,2288982.3085886,0.016835111405644
29819200,0.99581705167794,0.016640790505596,0.0059798627993401,0.0059798628262632,0.0046810648799928,-0.0014767036833821,0.0014767041974724,3.3892957605175e-10,1.7451687139408e-10,3.4538652103181e-11,4.8196932369741e-10,-0.0015523177520288,0.0015523182654167,-0.0015523179436727,0.0015523180294306,-0.0015523179274597,0.001552318018574,-0.0015523173053109,0.0015523186750959,-0.0013549419444288,0.0013549416350737,-0.0013549409123015,0.0013549426566983,-1.8668992104518e-10,3.8827410768509e-10,-5.1442769109066e-10,7.3978030519007e-10,-0.0014767038445973,0.0014767040532398,-0.0015523180014548,0.0015523180299688,-0.0015523179994862,0.0015523179396017,-0.0015523181591781,0.0015523178096406,-0.0015523173990234,0.0015523186673961,-0.0013549426310747,0.0013549408229208,-0.0013549404725946,0.0013549431906409,-0.0014497339857461,0.0014497329574328,-0.0014497325993725,0.001449734837918,-2.8284444243306e-09,2.7681182467112e-09,-0.0010685874754421,0.0010685874140979,1.3758108730987e-09,-1.481667913872e-09,-0.0011581271704398,0.001158126425404,-0.0011581282758198,0.0011581249303717,-0.0011581254231072,0.001158127892468,-0.0011581260316736,0.0011581274252227,-0.0011453698367594,0.0011453759907051,-0.0011453768103726,0.0011453687474377,0.67837951425527,125803,2834,0.0061335199154615,0.0061335199505956,0.0044440993684345,25.63343189456,-3.2532544843521e-05,-3.2532544843521e-05,-3.2532544843521e-05,2301373.9961836,0.016852289056099
30019200,0.99597300777633,0.016643309359926,0.0059807777413395,0.0059807777682612,0.0046817538503256,-0.0014774472001177,0.0014774476878119,8.3075261066623e-10,-3.3158765581296e-10,4.8712343371348e-10,8.9324601782966e-12,-0.0015530883094912,0.0015530894789462,-0.0015530889204801,0.001553088902673,-0.001553088896895,0.0015530890330624,-0.0015530886335634,0.0015530892348352,-0.0013556399273511,0.0013556401349696,-0.0013556396992606,0.0013556402279914,3.1723201766197e-10,8.0105374590618e-11,-1.8401147969802e-10,5.9582761234602e-10,-0.0014774472910954,0.0014774476302399,-0.0015530886399868,0.0015530891657426,-0.0015530889098444,0.0015530890208256,-0.0015530891815591,0.0015530887930082,-0.0015530884814229,0.0015530893304764,-0.0013556408071916,0.0013556392782827,-0.0013556389935625,0.0013556412021373,-0.0014504740938343,0.0014504737619324,-0.0014504735305105,0.001450475136842,-2.3954947330733e-09,2.2733706909683e-09,-0.0010692310739309,0.0010692309574123,1.5655530494547e-09,-1.7427704634015e-09,-0.0011587791574114,0.0011587788877752,-0.0011587805686299,0.0011587773809172,-0.0011587778572756,0.0011587800957678,-0.0011587785979093,0.0011587794155922,-0.0011460500881045,0.0011460551916421,-0.0011460563122981,0.0011460488813138,0.68873328033742,125803,2834,0.0061365987731211,0.0061365988422395,0.0044467694758552,25.913787410287,-3.0289700717704e-05,-3.0289700717704e-05,-3.0289700717704e-05,2305734.4293098,0.016861265799018
30219200,0.99612383659114,0.01664563859546,0.0059816262481568,0.0059816262750726,0.0046823860722302,-0.0014777966556861,0.0014777971495586,4.2323687963914e-10,7.0103514032826e-11,1.6944388542914e-10,3.2705335668563e-10,-0.0015534604072976,0.0015534610533712,-0.0015534606654213,0.0015534607541917,-0.0015534606702024,0.0015534607125368,-0.0015534601055439,0.0015534613033152,-0.0013559507286202,0.0013559504705648,-0.0013559498679922,0.0013559512989097,-2.0222402137143e-10,4.1532339284409e-10,-4.376281617438e-10,6.6907290667168e-10,-0.0014777968044225,0.0014777970186878,-0.0015534607039337,0.0015534607593276,-0.0015534607580931,0.0015534606234154,-0.0015534608486196,0.0015534605648741,-0.0015534601275513,0.0015534613664803,-0.0013559513757411,0.0013559497238684,-0.0013559493392104,0.0013559519400308,-0.0014508203344071,0.0014508192468996,-0.0014508189086268,0.0014508211652302,-2.8037343827682e-09,2.741622545372e-09,-0.0010694864920089,0.0010694864287895,1.3915329328851e-09,-1.500426805775e-09,-0.0011590496260362,0.0011590489110357,-0.0011590507360933,0.0011590473942893,-0.0011590478933561,0.0011590503532742,-0.001159048511631,0.0011590498750089,-0.0011463322126197,0.0011463382905362,-0.0011463391459657,0.001146331111209,0.6600854322089,125803,2834,0.0061380457350156,0.0061380457719614,0.0044478298058612,25.990635299486,-2.9674917604109e-05,-2.9674917604109e-05,-2.9674917604109e-05,2307254.2643774,0.016865286855598
30419200,0.99626732280493,0.016647731488295,0.0059823914442331,0.0059823914711487,0.0046829485729136,-0.001477552946917,0.0014775534240719,4.5964621018262e-10,1.7631062618434e-11,2.7933849598893e-10,1.9893183859241e-10,-0.0015532528706373,0.0015532536119121,-0.0015532531593672,0.0015532532837328,-0.0015532532193859,0.0015532531945153,-0.0015532526863393,0.0015532537539138,-0.001355656080364,0.0013556558172803,-0.0013556553047957,0.0013556565623982,-2.2350018351693e-10,4.4794021429287e-10,-3.6567828163837e-10,6.1002242902765e-10,-0.0014775530820552,0.001477553307028,-0.0015532531976156,0.0015532532933502,-0.0015532532957956,0.0015532531156597,-0.0015532533280838,0.0015532531156931,-0.0015532526504075,0.001553253871508,-0.0013556566433066,0.0013556551488363,-0.0013556547370101,0.0013556572381607,-0.0014505679043567,0.0014505667137461,-0.001450566420395,0.0014505686965101,-2.7930279936409e-09,2.7306394453687e-09,-0.0010692225871472,0.0010692225242074,1.3750043480573e-09,-1.4836353246376e-09,-0.0011587531952204,0.001158752477332,-0.0011587543023639,0.001158750981452,-0.0011587514758827,0.0011587539176087,-0.0011587520818493,0.0011587534476309,-0.0011460766004074,0.0011460826753495,-0.0011460835142002,0.0011460755120684,0.62526765442183,125803,2834,0.0061370370406665,0.006137037078094,0.0044467336774439,25.787280942126,-3.1301752462992e-05,-3.1301752462992e-05,-3.1301752462992e-05,2311320.3027793,0.016862120676367
30619200,0.99640285515569,0.016649834935097,0.0059831569161459,0.0059831569430609,0.0046835210758898,-0.0014770105117416,0.0014770110084171,3.2186725235285e-10,1.802389747054e-10,2.7892899220487e-10,2.2613020223049e-10,-0.001552757852336,0.0015527584842903,-0.0015527580617593,0.0015527582841404,-0.0015527582127552,0.001552758150205,-0.0015527576002416,0.0015527587517587,-0.0013550541231561,0.0013550535507216,-0.0013550529924278,0.0013550545504064,-2.8567389168223e-10,6.7091691367631e-10,-3.0208300324693e-10,6.9484282856531e-10,-0.0014770106015523,0.001477010945738,-0.0015527581477985,0.0015527581930371,-0.0015527582818084,0.0015527580994728,-0.0015527582141024,0.0015527581932938,-0.0015527574959092,0.0015527588711757,-0.0013550544891364,0.0013550531908011,-0.0013550524987215,0.0013550552270155,-0.0014500215414578,0.0014500202003262,-0.0014500197794656,0.0014500225234847,-2.9783987446254e-09,2.9170527176301e-09,-0.0010687355421753,0.0010687354836029,1.272644520032e-09,-1.383942633145e-09,-0.0011581776996008,0.00115817680223,-0.0011581787803276,0.0011581754466326,-0.0011581758842364,0.001158178403674,-0.0011581764330466,0.0011581779677266,-0.0011455921735093,0.0011455986352927,-0.0011455994928508,0.0011455911862062,0.66318499882131,125803,2834,0.0061347921682752,0.0061347922243959,0.004444709863124,25.454561674365,-3.396350660508e-05,-3.396350660508e-05,-3.396350660508e-05,2318588.6878232,0.016855496639258
30819200,0.99653836907405,0.016652034967114,0.0059839550238342,0.0059839550507492,0.0046841248925309,-0.0014783938664332,0.0014783943559597,4.1056731815614e-10,7.9151794319957e-11,2.0125776747806e-10,2.9056075803888e-10,-0.0015541583510777,0.0015541590091937,-0.0015541586035413,0.0015541587199819,-0.0015541586450827,0.0015541586507583,-0.0015541580735839,0.0015541592482019,-0.0013563959873426,0.0013563956771947,-0.0013563950992264,0.0013563965322686,-2.7625121524441e-10,5.1803582409371e-10,-3.8663628736402e-10,6.4638826546601e-10,-0.0014783940005256,0.001478394240158,-0.0015541586602881,0.0015541587077758,-0.0015541587425755,0.0015541585520394,-0.0015541587517838,0.0015541585737838,-0.0015541580529043,0.0015541593475054,-0.0013563965337216,0.0013563950306003,-0.0013563945624323,0.0013563971741371,-0.0014514165561779,0.0014514152772722,-0.0014514149412174,0.0014514173769247,-2.9143785185307e-09,2.8582748908994e-09,-0.0010700300439208,0.0010700299874062,1.3427800108453e-09,-1.4449411765803e-09,-0.0011594608451164,0.0011594600276788,-0.0011594619294904,0.0011594585567838,-0.0011594590430575,0.001159461550523,-0.0011594596266335,0.0011594611054262,-0.0011469427590305,0.001146949109441,-0.001146949923053,0.0011469417025826,0.69236588995433,125803,2834,0.0061405207385732,0.0061405207764069,0.0044500805146505,26.085924071542,-2.8912607427661e-05,-2.8912607427661e-05,-2.8912607427661e-05,2323367.093348,0.016872607923206
31019200,0.99667821559171,0.016654373368057,0.0059848019610878,0.0059848019880021,0.0046847694189666,-0.0014809451909851,0.0014809456669735,6.5288048059653e-10,-1.7877011040172e-10,2.3976720010015e-10,2.3732258301682e-10,-0.0015567120639343,0.0015567129090224,-0.0015567124849051,0.0015567124391703,-0.0015567123804963,0.0015567124896862,-0.0015567119527939,0.001556712953508,-0.001358920323172,0.0013589204264204,-0.0013589199042453,0.0013589208264797,-9.8518769142758e-12,1.6442460993081e-10,-4.1412531642112e-10,5.8953544484683e-10,-0.0014809453547082,0.0014809455188353,-0.0015567123852414,0.001556712591393,-0.0015567124768083,0.0015567123958955,-0.0015567126760123,0.0015567122232408,-0.0015567119825424,0.0015567130250623,-0.0013589212134405,0.0013589194144216,-0.0013589192389419,0.0013589215710637,-0.0014539763148864,0.0014539755438806,-0.0014539752643896,0.0014539770244443,-2.7055936985875e-09,2.6352349587927e-09,-0.0010724241154021,0.001072424043618,1.5157294192567e-09,-1.6333321787919e-09,-0.0011619087610007,0.0011619081972456,-0.0011619099502857,0.0011619065619409,-0.0011619070927823,0.0011619095483819,-0.0011619077834831,0.0011619090087251,-0.001149417234536,0.0011494230613921,-0.0011494240014809,0.0011494160340741,0.71216091358782,125803,2834,0.006151084896641,0.006151084928871,0.0044600150244726,27.294363706423,-1.9245090348619e-05,-1.9245090348619e-05,-1.9245090348619e-05,2323970.4671808,0.016904195715617
31219200,0.99682281155796,0.016656909965682,0.0059857184137793,0.0059857184406933,0.0046854731112098,-0.001483723845319,0.0014837243757782,2.80546800429e-10,2.4906851348082e-10,-7.3404676890449e-11,6.0895648226806e-10,-0.0015594868687194,0.0015594872521891,-0.0015594870012505,0.0015594870754816,-0.0015594869404494,0.0015594870956648,-0.0015594862783374,0.0015594877869995,-0.0013616827474489,0.0013616824257049,-0.0013616816138048,0.0013616835292365,-1.2238068041304e-10,3.1845787785031e-10,-6.1255299101593e-10,8.2794512057651e-10,-0.0014837240198222,0.0014837242185924,-0.0015594870743737,0.0015594870505813,-0.0015594870011978,0.0015594870357429,-0.0015594872593491,0.0015594868070724,-0.0015594864440692,0.0015594877128218,-0.0013616835409805,0.0013616815253123,-0.001361681217029,0.0013616840300311,-0.0014567620856448,0.0014567613069301,-0.0014567608644405,0.0014567630012013,-3.1425848789885e-09,3.0695253649895e-09,-0.0010750097901449,0.0010750097159497,1.4525291480845e-09,-1.5731204482106e-09,-0.001164581060041,0.0011645801408047,-0.0011645821936636,0.0011645785867099,-0.0011645790871329,0.0011645818159339,-0.0011645797626165,0.0011645812817426,-0.0011520892495593,0.0011520958851909,-0.0011520967901967,0.0011520880868453,0.74546452789766,125803,2834,0.0061625899286931,0.0061625899645061,0.0044707455821922,28.600134015151,-8.7989278787894e-06,-8.7989278787894e-06,-8.7989278787894e-06,2321970.6125449,0.016938507981559
31419200,0.99696606808948,0.016659306340987,0.0059865870343402,0.0059865870612544,0.0046861322453925,-0.0014852097873515,0.001485210380847,-4.4276165452361e-10,1.0352677371636e-09,-4.607565770852e-10,1.0612633320749e-09,-0.0015609644973523,0.0015609641124479,-0.001560964063379,0.0015609644960368,-0.001560964238688,0.001560964288351,-0.0015609631384951,0.001560965424587,-0.0013631658256406,0.0013631645760291,-0.0013631634119646,0.0013631669921305,-5.53228916354e-10,8.0042260976405e-10,-8.4293148064412e-10,1.112982262222e-09,-0.0014852099649211,0.0014852102204419,-0.0015609645525723,0.0015609640674589,-0.0015609642392819,0.0015609642756546,-0.0015609643766863,0.0015609641743947,-0.0015609634613357,0.0015609651994059,-0.001363166113747,0.0013631641618391,-0.00136316350123,0.0013631670150232,-0.0014582476449591,0.0014582463539805,-0.0014582457242298,0.0014582487954933,-3.9232687692043e-09,3.8705591986028e-09,-0.0010762836141381,0.0010762835599073,1.2272269493238e-09,-1.324080124909e-09,-0.0011659748436802,0.0011659731948509,-0.0011659757680374,0.0011659718692381,-0.0011659722903411,0.001165975468663,-0.0011659728648078,0.0011659750274498,-0.0011534190410778,0.001153427234026,-0.0011534279268681,0.0011534180512193,0.71243066431629,125803,2834,0.0061687414388421,0.006168741474343,0.0044760348737643,29.220601533659,-3.8351877307295e-06,-3.8351877307295e-06,-3.8351877307295e-06,2315149.9524535,0.016956399577763
31619200,0.99710127453344,0.016661462620559,0.0059873710650052,0.0059873710919188,0.0046867204636353,-0.0014850267232443,0.0014850272411407,4.8899980139173e-11,4.6609734575191e-10,-3.5401294867683e-11,5.5742090940914e-10,-0.0015607915347362,0.001560791763424,-0.0015607914953281,0.0015607917465841,-0.0015607915885252,0.0015607915786841,-0.0015607907973185,0.0015607924087098,-0.0013629662265225,0.0013629654972423,-0.0013629647425485,0.0013629669648489,-3.701577531112e-10,5.6467653287305e-10,-6.2423082684757e-10,8.3333561643733e-10,-0.0014850268885683,0.0014850270905669,-0.0015607917490988,0.0015607915425827,-0.0015607916380276,0.0015607915348563,-0.0015607917311976,0.0015607914727601,-0.0015607909413865,0.0015607923849662,-0.0013629667037765,0.0013629649005972,-0.0013629644327083,0.0013629673577036,-0.0014580587443554,0.0014580575838151,-0.0014580571027838,0.0014580596628314,-3.4233959744762e-09,3.3733455407269e-09,-0.0010759967047298,0.0010759966524786,1.351112949879e-09,-1.4469084631078e-09,-0.0011657359137209,0.0011657347136321,-0.001165736917321,0.0011657332212635,-0.0011657336990345,0.0011657365911772,-0.001165734317731,0.0011657361214468,-0.001153148795995,0.0011531560244923,-0.0011531568230336,0.0011531477200116,0.68058193996481,125803,2834,0.0061679825147263,0.0061679825452207,0.004474846579574,29.011933362713,-5.504533098293e-06,-5.504533098293e-06,-5.504533098293e-06,2311473.0991241,0.016953648113305
31819200,0.99722770519238,0.016663409214266,0.0059880803326174,0.0059880803595328,0.0046872485221156,-0.0014844468198642,0.0014844473266341,1.0447677595327e-10,4.0147113180309e-10,7.038426775011e-11,4.3881074951517e-10,-0.001560230281015,0.0015602306240164,-0.0015602302882192,0.0015602305745047,-0.0015602304442396,0.0015602303868142,-0.0015602297053729,0.0015602311618349,-0.0013623586117485,0.0013623579197379,-0.0013623572373643,0.0013623592814368,-4.7859295078446e-10,7.3229404998102e-10,-5.1792021336519e-10,7.899614347241e-10,-0.0014844469534063,0.0014844472096805,-0.0015602305532837,0.0015602303621268,-0.0015602305010209,0.001560230325231,-0.0015602304641955,0.0015602303906203,-0.0015602297211043,0.0015602312335372,-0.001362358962028,0.001362357451115,-0.0013623568401833,0.0013623597592669,-0.0014574745719897,0.0014574730951832,-0.0014574726474262,0.0014574754735868,-3.3987647593425e-09,3.3494809123044e-09,-0.0010753894223665,0.0010753893723769,1.2751740573483e-09,-1.3687862821133e-09,-0.0011651176194139,0.0011651163954654,-0.0011651186125368,0.0011651150015639,-0.0011651154483317,0.0011651182760403,-0.0011651160240389,0.0011651178499982,-0.0011525480327019,0.0011525552827016,-0.0011525560228609,0.0011525470222369,0.65806100674252,125803,2834,0.0061655813053971,0.0061655813397174,0.0044723270412872,28.630460171961,-8.5563186243149e-06,-8.5563186243149e-06,-8.5563186243149e-06,2310953.3192831,0.016946201997554
32019200,0.99734814507432,0.016665440524787,0.005988815945276,0.0059888159721895,0.0046878086073213,-0.0014844407678145,0.0014844412689415,3.8193031934974e-11,4.6341379067385e-10,1.4871630158378e-10,3.5932375855289e-10,-0.0015602454911414,0.0015602457827932,-0.0015602454281723,0.0015602458163991,-0.0015602456372939,0.0015602455535474,-0.0015602449009405,0.0015602462974534,-0.0013623187705309,0.0013623179733485,-0.001362317357551,0.0013623193013617,-4.7500308615824e-10,7.8108722440176e-10,-4.7437646697991e-10,7.808725322478e-10,-0.0014844408872462,0.0014844411700926,-0.0015602457525053,0.0015602455045457,-0.0015602456966555,0.0015602455134711,-0.00156024560881,0.0015602456381607,-0.0015602449026937,0.0015602463805146,-0.0013623189982132,0.0013623176997827,-0.0013623170084204,0.0013623198019111,-0.001457473872271,0.0014574725732565,-0.0014574720850897,0.0014574749117417,-3.4968750103248e-09,3.4511051775175e-09,-0.0010753647644104,0.0010753647178788,1.2167237073524e-09,-1.3103890402312e-09,-0.0011650546213676,0.0011650532589405,-0.001165055515937,0.0011650519302431,-0.0011650523381751,0.0011650552407371,-0.0011650529122843,0.0011650547939328,-0.001152545436462,0.0011525527511648,-0.0011525535213157,0.0011525444785297,0.7176672994997,125803,2834,0.0061655567615331,0.0061655568040819,0.0044722236280549,28.559547527743,-9.1236197780585e-06,-9.1236197780585e-06,-9.1236197780585e-06,2314808.6567711,0.016946046453184
32219200,0.99746424203957,0.016667443155367,0.005989540310539,0.0059895403374575,0.0046883625073704,-0.0014849059307036,0.0014849064072287,9.7850045812973e-10,-5.0069756068027e-10,3.0450174726887e-10,1.7312919896299e-10,-0.0015607049945561,0.0015607062869943,-0.0015607058183065,0.0015607054338128,-0.0015607055562127,0.0015607056933511,-0.0015607052070132,0.0015607060611428,-0.0013627773706456,0.0013627775882061,-0.0013627770859812,0.0013627778361593,-3.0904639319777e-10,5.8138531688268e-10,-2.0058032569602e-10,4.9402286735963e-10,-0.0014849060455573,0.0014849063124671,-0.0015607054824701,0.0015607058148815,-0.0015607058601444,0.0015607053822002,-0.0015607057306555,0.0015607055445545,-0.0015607049648367,0.0015607063623187,-0.0013627782463126,0.0013627766247265,-0.0013627760904362,0.0013627789491661,-0.0014579483883322,0.0014579463917466,-0.0014579461691535,0.0014579491267332,-2.5944796832011e-09,2.5169981457873e-09,-0.001075705368792,0.0010757052914675,1.4474432218053e-09,-1.572598304102e-09,-0.001165443743457,0.0011654433853106,-0.0011654451051902,0.0011654416892016,-0.0011654423560848,0.00116544452397,-0.001165442843497,0.0011654441677293,-0.0011529222718154,0.0011529283966213,-0.0011529293051916,0.0011529211248988,0.73341163600906,125803,2834,0.0061674820970273,0.0061674821385965,0.0044736390008579,28.69382980833,-8.0493615333615e-06,-8.0493615333615e-06,-8.0493615333615e-06,2310981.4560606,0.016951402044983
32419200,0.99757702127166,0.016669437903848,0.0059902609630066,0.0059902609899237,0.0046889159509173,-0.0014856624805363,0.0014856629732845,7.470976084456e-11,4.1746836739264e-10,1.7005527651627e-10,3.2528630878538e-10,-0.0015614504587556,0.0015614507854293,-0.0015614503991849,0.0015614508038199,-0.0015614506346859,0.0015614505281779,-0.0015614499220421,0.0015614512689843,-0.0013635351801879,0.0013635344841054,-0.0013635338838042,0.0013635357473389,-3.8026779772687e-10,6.2808043544596e-10,-4.4407010073628e-10,7.0721950653982e-10,-0.0014856626131376,0.0014856628585886,-0.0015614506958034,0.001561450551518,-0.0015614506489402,0.0015614505151836,-0.0015614506245775,0.001561450572274,-0.0015614499731066,0.0015614513068364,-0.0013635354313328,0.0013635341377787,-0.0013635335880862,0.001363536148211,-0.0014587145882563,0.0014587134080722,-0.0014587130136132,0.0014587154611815,-3.5284322423137e-09,3.4817640173816e-09,-0.0010762977174277,0.001076297669802,1.2414987088166e-09,-1.3332909278599e-09,-0.0011661110300028,0.0011661096509889,-0.0011661119487589,0.0011661083216789,-0.0011661087239497,0.0011661116656481,-0.0011661093178391,0.0011661112103259,-0.0011535566489887,0.0011535640329059,-0.0011535647649905,0.0011535556649014,0.75109665683708,125803,2834,0.0061706137547236,0.0061706137917534,0.0044760997436601,28.971156471524,-5.8307482278041e-06,-5.8307482278041e-06,-5.8307482278041e-06,2306688.2203244,0.016960274503781
32619200,0.99768943551172,0.016671275280051,0.0059909281487806,0.0059909281756978,0.0046894189555731,-0.0014873375006485,0.0014873379952165,2.3818971940875e-10,2.5341749744588e-10,9.5114527022371e-11,3.9999586610674e-10,-0.0015631045607797,0.0015631050009021,-0.0015631046486639,0.0015631048541473,-0.0015631047241321,0.0015631047188601,-0.0015631040686968,0.001563105422743,-0.0013652141413581,0.0013652137056397,-0.001365213063204,0.0013652147973322,-2.998751294324e-10,4.6512758883022e-10,-4.8118823962189e-10,6.7201508265419e-10,-0.0014873376623719,0.0014873378472477,-0.0015631048099598,0.0015631047588729,-0.0015631047899365,0.0015631046476239,-0.0015631048490094,0.0015631046173178,-0.0015631041678397,0.0015631054388947,-0.0013652146367177,0.0013652130667614,-0.0013652126846431,0.0013652152387679,-0.0014603948704229,0.0014603937030084,-0.0014603933769472,0.0014603956295734,-3.3974733467911e-09,3.3504432412e-09,-0.0010777622520535,0.0010777622033646,1.3265017836597e-09,-1.4169543981775e-09,-0.001167685416993,0.0011676842150484,-0.0011676864154894,0.0011676827571138,-0.0011676832223136,0.0011676860855151,-0.0011676838268743,0.0011676856374609,-0.0011550825586552,0.0011550897823629,-0.0011550905308876,0.0011550815054285,0.6965411420146,125803,2834,0.0061775481147834,0.0061775481432305,0.0044821798955478,29.71976695145,1.581356115994e-07,1.581356115994e-07,1.581356115994e-07,2301445.2041227,0.01698056269489
32819200,0.99779161528383,0.016672814754924,0.0059914902263222,0.0059914902532397,0.0046898342753622,-0.0014858299851341,0.0014858304496339,3.5502203226179e-10,1.0955887005172e-10,3.4722606824667e-10,1.1698625073858e-10,-0.0015616200443709,0.0015616207309684,-0.0015616202390513,0.0015616204966672,-0.0015616204137919,0.0015616202988245,-0.0015616198577374,0.0015616208867373,-0.0013636884824673,0.0013636880755831,-0.0013636876271336,0.0013636889127131,-1.9942675059084e-10,4.1856900396886e-10,-3.1258317992365e-10,5.5480946191501e-10,-0.0014858301146517,0.0014858303374662,-0.0015616203360039,0.0015616204530871,-0.0015616204334513,0.0015616202736264,-0.0015616204494721,0.0015616202868371,-0.0015616198442562,0.0015616209776457,-0.001363688878632,0.001363687565043,-0.0013636871779399,0.0013636894491787,-0.0014588689723283,0.0014588678732949,-0.0014588676189138,0.0014588696929657,-3.306828441848e-09,3.2516866913801e-09,-0.0010762604587432,0.0010762604034042,1.3181214816869e-09,-1.4179527904935e-09,-0.0011661876551083,0.0011661865217727,-0.0011661886901767,0.0011661851063631,-0.0011661855542474,0.0011661883438903,-0.0011661861567637,0.0011661878854858,-0.0011535555504364,0.0011535625883301,-0.0011535633665178,0.0011535545101405,0.64446383848887,125803,2834,0.0061713056397552,0.0061713056756544,0.0044759494514598,28.867980325925,-6.6561573925966e-06,-6.6561573925966e-06,-6.6561573925966e-06,2298184.5021346,0.016961530003207
33019200,0.99788758773685,0.016674380971508,0.0059920586786856,0.005992058705601,0.0046902635872212,-0.0014852977295196,0.0014852982388464,3.2121104169375e-10,1.8847016518935e-10,7.6780821575076e-11,4.3623262215754e-10,-0.0015611132505073,0.001561113779699,-0.001561113441858,0.0015611135505159,-0.0015611134513918,0.0015611135143526,-0.001561112828251,0.0015611141618112,-0.0013631200151823,0.0013631196413394,-0.0013631189540325,0.0013631206664213,-4.7669589891456e-10,7.5309414377819e-10,-3.7705525502219e-10,6.7088595620705e-10,-0.0014852978572112,0.0014852981293949,-0.0015611135543273,0.0015611134813663,-0.0015611136279316,0.0015611133354922,-0.001561113500413,0.0015611134977932,-0.0015611127997156,0.0015611142687321,-0.0013631204442818,0.0013631191194248,-0.0013631184685729,0.0013631212607801,-0.0014583390643818,0.0014583374027228,-0.0014583370365244,0.0014583399345819,-3.3941950047248e-09,3.3503822261228e-09,-0.0010757707061027,0.001075770662231,1.201498405883e-09,-1.2897032067906e-09,-0.0011656248314415,0.0011656235990512,-0.0011656258105759,0.0011656222290352,-0.0011656226986185,0.0011656254504357,-0.00116562318971,0.0011656250988431,-0.0011530714115401,0.0011530788005325,-0.0011530794984682,0.0011530704603465,0.69524389912288,125803,2834,0.0061691027782835,0.0061691028160124,0.0044739151211344,28.559181538146,-9.1265476948313e-06,-9.1265476948313e-06,-9.1265476948313e-06,2303690.5953894,0.016954979924788
33219200,0.99798026736756,0.016675970612147,0.0059926338368719,0.0059926338637868,0.0046907029114883,-0.0014857559726692,0.0014857565423874,1.8134518920542e-10,3.8508553266602e-10,-3.6212297874451e-10,9.3889993348681e-10,-0.0015615737856215,0.0015615739970975,-0.0015615739106932,0.0015615738148753,-0.0015615736978575,0.0015615739505865,-0.0015615728861354,0.0015615748083088,-0.0013635645493568,0.0013635640456682,-0.0013635630097857,0.0013635655798767,-8.3091556721743e-10,1.0959958799255e-09,-6.0347504903068e-10,8.7721052991972e-10,-0.0014857561293643,0.0014857563993411,-0.001561574077041,0.00156157369758,-0.0015615740478943,0.0015615736037402,-0.001561573824752,0.001561573861329,-0.0015615729348959,0.0015615748835003,-0.0013635650903282,0.001363563378684,-0.0013635625195892,0.0013635661371473,-0.0014588059526583,0.0014588036225608,-0.0014588030555913,0.0014588069404981,-3.5842622060523e-09,3.5699459711305e-09,-0.0010761521410193,0.0010761521246562,1.064332254564e-09,-1.1202443779494e-09,-0.0011660179587931,0.0011660165616487,-0.0011660188443627,0.0011660151715737,-0.0011660157103744,0.0011660184610176,-0.0011660160367675,0.0011660182975596,-0.0011534826551795,0.0011534907469292,-0.0011534912978423,0.0011534818114542,0.72923012536493,125803,2834,0.0061710002165832,0.0061710002447999,0.0044754983865944,28.725986519389,-7.7921078448877e-06,-7.7921078448877e-06,-7.7921078448877e-06,2304127.8754693,0.0169604491729
33419200,0.99807116801658,0.016677560016556,0.0059932083974042,0.0059932084243195,0.0046911431948322,-0.0014868056690677,0.0014868061711797,4.5159490620325e-10,4.8520702255264e-11,7.7981916647152e-11,4.2661956912383e-10,-0.0015626123571425,0.0015626129506892,-0.0015626126144839,0.0015626126420471,-0.0015626125267936,0.0015626126751044,-0.0015626119971113,0.0015626132437025,-0.0013646125433499,0.0013646124725143,-0.0013646118060588,0.0013646131958213,-2.3237465234917e-10,4.2007696561777e-10,-4.3323951142831e-10,6.4042690391975e-10,-0.0014868058295039,0.0014868060259306,-0.0015626126404999,0.0015626126698053,-0.0015626126769929,0.0015626125256525,-0.0015626127435346,0.0015626124888336,-0.0015626120576656,0.0015626132865638,-0.0013646132394601,0.001364611655156,-0.0013646112854722,0.0013646137929963,-0.0014598640802046,0.0014598629763607,-0.0014598626460398,0.0014598648471055,-3.3364802999521e-09,3.2835939854577e-09,-0.0010770429844744,0.0010770429301313,1.3576779508742e-09,-1.4555651805362e-09,-0.0011669778152317,0.0011669766979074,-0.0011669788595404,0.0011669752011628,-0.0011669756870377,0.0011669785062453,-0.0011669762963154,0.0011669780495832,-0.0011544168317574,0.001154423943014,-0.0011544247443079,0.0011544157531282,0.7427885606269,125803,2834,0.0061753456853353,0.006175345716745,0.0044791969368058,29.175601046422,-4.195191628625e-06,-4.195191628625e-06,-4.195191628625e-06,2302022.5231445,0.016973049299872
33619200,0.99815923972498,0.016679100520574,0.0059937654703473,0.0059937654972621,0.0046915695529646,-0.001487488168545,0.0014874886105652,8.0335392091269e-10,-3.6065189439101e-10,4.8575807118907e-10,-4.5666357394717e-11,-0.0015632827306915,0.001563283760209,-0.0015632831809834,0.0015632832685542,-0.0015632831540093,0.0015632832841821,-0.001563282969724,0.0015632834919514,-0.0013652990451335,0.001365299584043,-0.0013652992553973,0.0013652993535763,2.5619785280205e-10,-1.0786399911575e-10,-2.2081803736498e-10,3.9914121137027e-10,-0.0014874883211087,0.0014874884767112,-0.0015632830497496,0.0015632834583684,-0.001563283174701,0.0015632832543991,-0.0015632834402272,0.001563283020119,-0.0015632829728445,0.0015632835577929,-0.0013652999047241,0.0013652986151133,-0.0013652986253917,0.0013653000965464,-0.0014605506905038,0.0014605505640395,-0.001460550486521,0.0014605512902288,-3.0132832431669e-09,2.9182879780114e-09,-0.0010775642400548,0.0010775641444833,1.632922807296e-09,-1.7772499664945e-09,-0.0011675818689742,0.0011675810818049,-0.0011675830842691,0.0011675795086499,-0.0011675799345306,0.0011675827545278,-0.0011675808186882,0.0011675820014213,-0.0011549714968091,0.001154977490001,-0.0011549785348369,0.0011549701968914,0.7430322511405,125803,2834,0.006178170465734,0.0061781705044415,0.0044813625930277,29.430694096598,-2.1544472272143e-06,-2.1544472272143e-06,-2.1544472272143e-06,2297975.290497,0.016980997829389
33819200,0.9982449337174,0.016680604154799,0.0059943092434978,0.0059943092704115,0.0046919856408899,-0.0014883316758131,0.0014883322078235,3.5560147867774e-10,1.7484705736595e-10,-8.8292430844491e-11,6.2476761130774e-10,-0.001564112763511,0.0015641132196348,-0.0015641129743064,0.0015641129596019,-0.0015641128476374,0.0015641130406896,-0.0015641122135712,0.001564113711772,-0.0013661470851449,0.0013661468623718,-0.0013661460372582,0.0013661478940274,-2.9065066899804e-10,5.0154967432445e-10,-5.7932159682997e-10,8.0927355261612e-10,-0.0014883318417282,0.0014883320582417,-0.0015641130324293,0.0015641129546727,-0.0015641129939095,0.0015641128939756,-0.0015641131232236,0.0015641127946851,-0.0015641122985581,0.0015641137237937,-0.0013661478690085,0.0013661459634849,-0.0013661455215144,0.0013661485003538,-0.0014614004746618,0.0014613992731711,-0.0014613988258838,0.0014614013818753,-3.5250626692262e-09,3.4675071938001e-09,-0.00107824371532,0.0010782436563317,1.3412450504873e-09,-1.4442073480855e-09,-0.0011683437140871,0.0011683424932701,-0.0011683447863684,0.0011683409835531,-0.0011683414981892,0.0011683443981679,-0.0011683420721351,0.0011683439760124,-0.0011556895019932,0.001155697065215,-0.0011556978677374,0.0011556884290135,0.74517938125196,125803,2834,0.0061816622323878,0.0061816622661648,0.0044841848085633,29.774294914658,5.9435931726766e-07,5.9435931726766e-07,5.9435931726766e-07,2294563.8241758,0.016990970672599
34019200,0.99832862758958,0.016682029672739,0.0059948258071469,0.0059948258340603,0.0046923780315317,-0.0014893321492368,0.0014893326645281,5.3044361554695e-10,-1.6823427879356e-11,9.3542182938757e-12,5.0967380969732e-10,-0.0015650988526984,0.0015650994670677,-0.0015650991705107,0.0015650991002971,-0.0015650989771187,0.0015650992434161,-0.0015650984991572,0.0015650997543518,-0.0013671512622434,0.001367151383259,-0.0013671506507717,0.0013671519721018,-1.7947703433509e-10,3.7214372015359e-10,-5.3362993624013e-10,7.442098054785e-10,-0.0014893323162872,0.0014893325137389,-0.0015650991624878,0.0015650991574355,-0.0015650991410724,0.0015650990827456,-0.0015650993067243,0.0015650989474239,-0.0015650985453304,0.0015650998062371,-0.0013671521807971,0.0013671503541259,-0.0013671500118592,0.0013671527022938,-0.0014624030544115,0.001462402117338,-0.0014624017200308,0.0014624039106155,-3.3823324413589e-09,3.3130766560765e-09,-0.0010790803248285,0.0010790802537682,1.4558305778862e-09,-1.5721962753617e-09,-0.0011692665046819,0.0011692654241522,-0.0011692676300432,0.0011692638562147,-0.0011692643617598,0.0011692672552959,-0.0011692650361411,0.0011692667270099,-0.0011565676268214,0.0011565747285329,-0.0011565756247796,0.001156566463048,0.72426716365825,125803,2834,0.0061858036835496,0.006185803717178,0.0044876588330983,30.202871697793,4.0229735823404e-06,4.0229735823404e-06,4.0229735823404e-06,2291134.2008853,0.017002928012154
34219200,0.99840890202329,0.016683360823427,0.0059953090222898,0.0059953090492035,0.0046927427519336,-0.0014897178789372,0.0014897183795774,6.1380160784103e-10,-1.1490589858603e-10,9.5865664663867e-11,4.0696842004118e-10,-0.0015654841756992,0.001565484893674,-0.001565484543936,0.0015654844745887,-0.0015654843558627,0.0015654846141559,-0.0015654839501792,0.0015654850540391,-0.0013675294373424,0.0013675296930253,-0.0013675290380275,0.0013675300806101,-1.8083736277799e-10,3.6602584454888e-10,-5.0005486190458e-10,7.0539398873829e-10,-0.0014897180406864,0.0014897182337894,-0.0015654845295342,0.0015654845413414,-0.0015654845195872,0.001565484451184,-0.0015654846669949,0.0015654843351912,-0.0015654839409368,0.0015654851618141,-0.0013675303690155,0.001367528641497,-0.001367528312873,0.0013675308974401,-0.0014627862987689,0.0014627853612426,-0.0014627850021486,0.0014627871266389,-3.3301778729641e-09,3.2577750088568e-09,-0.0010793505882059,0.0010793505141249,1.4882106146836e-09,-1.6077299599809e-09,-0.0011695894573891,0.001169588425741,-0.0011695905979978,0.0011695868464199,-0.001169587344831,0.0011695902293284,-0.0011695880528146,0.0011695896667587,-0.0011568611612373,0.0011568681082206,-0.0011568690223042,0.0011568599731952,0.70594538085319,125803,2834,0.0061874001399328,0.0061874001729443,0.0044887818734238,30.329910701181,5.0392856094516e-06,5.0392856094516e-06,5.0392856094516e-06,2290543.4909389,0.01700731771105
34419200,0.99848675146686,0.016684657049072,0.0059957794059406,0.0059957794328543,0.0046930982102772,-0.0014904712305853,0.0014904717575065,-1.5671889493357e-10,6.7532704951632e-10,-2.2876987923722e-10,7.5411928517349e-10,-0.0015662409342513,0.0015662410169107,-0.0015662408338203,0.0015662410176595,-0.0015662409388847,0.0015662407906914,-0.0015662398916573,0.0015662419305038,-0.0013682679724497,0.0013682667246068,-0.0013682658495289,0.001368268937872,-6.1482041342311e-10,6.9799686977264e-10,-8.7038036330502e-10,9.8477515123628e-10,-0.0014904714297799,0.0014904715643248,-0.0015662411613999,0.0015662407909241,-0.0015662409711695,0.0015662407491028,-0.0015662410840852,0.0015662406615419,-0.0015662400970163,0.0015662419087521,-0.0013682684572116,0.0013682660185917,-0.0013682655509939,0.0013682692279114,-0.0014635405082156,0.0014635386892744,-0.0014635381442176,0.0014635413748921,-4.1233344718843e-09,4.1005813646423e-09,-0.0010800097441387,0.001080009715638,1.2082047727177e-09,-1.2698508867791e-09,-0.0011702760713195,0.0011702743968396,-0.0011702770262321,0.0011702728435973,-0.0011702734432902,0.0011702766158289,-0.0011702738508148,0.0011702763991438,-0.00115755104589,0.001157560138918,-0.0011575607219067,0.0011575500647213,0.70868166441565,125803,2834,0.0061905192979439,0.0061905193103759,0.0044915174159986,30.661788002807,7.6943040224587e-06,7.6943040224587e-06,7.6943040224587e-06,2292580.2645924,0.017016444264575
34619200,0.9985668471462,0.016686044877286,0.0059962817882697,0.0059962818151813,0.004693481273835,-0.0014933389783894,0.0014933394202903,2.1200469123162e-09,-1.6800313296667e-09,4.4138225525155e-10,-1.111487868338e-12,-0.0015690990119563,0.0015691007729724,-0.0015691002289542,0.0015690995006011,-0.0015690992543976,0.0015691004188509,-0.0015691000591891,0.0015690996438272,-0.0013711177543113,0.0013711212443892,-0.0013711208968174,0.0013711180864345,2.9251406689605e-10,-2.0236375551809e-10,-1.3412557725479e-10,2.5006799634437e-10,-0.0014933391540328,0.0014933392597162,-0.0015690997088573,0.0015691000762051,-0.0015690997884182,0.0015690998876496,-0.0015691000062156,0.0015690997022199,-0.0015690997341537,0.0015691000715746,-0.0013711198478715,0.0013711190252143,-0.0013711191307005,0.0013711199465152,-0.0014664133006282,0.0014664135593888,-0.0014664135624698,0.0014664137617361,-1.8914538003066e-09,1.7647079839707e-09,-0.0010827218708012,0.0010827217417626,2.0404988898802e-09,-2.2207655722731e-09,-0.0011730410972656,0.0011730411896697,-0.0011730424384333,0.0011730393974907,-0.0011730397753303,0.0011730421977679,-0.0011730410452288,0.0011730410659645,-0.001160347270646,0.0011603503791898,-0.001160351730295,0.0011603456427427,0.73613944228298,125803,2834,0.0062023930092946,0.0062023930404695,0.0045027704279203,32.083074543023,1.9064596344186e-05,1.9064596344186e-05,1.9064596344186e-05,2296133.9012297,0.017052041098744
34819200,0.99864911751117,0.016687482737913,0.0059968021803701,0.0059968022072822,0.0046938783502609,-0.0014963800883335,0.0014963805892211,1.1943804119689e-09,-6.9815082838319e-10,2.4013469699102e-11,4.7899997358549e-10,-0.0015721290750209,0.0015721300533261,-0.0015721297379843,0.0015721292972394,-0.0015721291120707,0.0015721298190372,-0.0015721290977942,0.0015721298826434,-0.0013741523550886,0.0013741539375235,-0.0013741532471879,0.0013741530529644,-2.9708828827437e-11,9.0540915145189e-11,-5.8313027845834e-10,6.6760868637687e-10,-0.001496380297716,0.001496380388283,-0.0015721295590379,0.0015721295582906,-0.0015721294398249,0.0015721294821325,-0.0015721297488708,0.0015721292151213,-0.0015721290695634,0.0015721300758005,-0.0013741539995332,0.0013741521202835,-0.0013741520472413,0.0013741542968031,-0.0014694537217059,0.0014694532916623,-0.0014694529752928,0.0014694544352955,-2.8756876060801e-09,2.7771418699869e-09,-0.0010855571692785,0.0010855570684201,1.7535758821002e-09,-1.9005693054077e-09,-0.0011759814698296,0.0011759808524067,-0.0011759826830682,0.0011759790609699,-0.0011759795784556,0.0011759823556575,-0.0011759805208466,0.0011759815783094,-0.0011632626068185,0.0011632682769032,-0.0011632693847763,0.0011632611645539,0.74236295419278,125803,2834,0.0062149840177347,0.0062149840351789,0.0045145362077378,33.571369853992,3.0970958831936e-05,3.0970958831936e-05,3.0970958831936e-05,2296931.3145542,0.017089620434467
35019200,0.99873100351526,0.016688871334573,0.0059973058258917,0.0059973058528052,0.004694259655876,-0.0014985019156069,0.0014985024441243,5.3010419097496e-10,-4.3495451832038e-12,-1.0103465181368e-10,6.3242790229111e-10,-0.0015742441304736,0.0015742446999517,-0.0015742444527238,0.0015742443145319,-0.0015742442003934,0.0015742445108878,-0.0015742436823706,0.0015742450714106,-0.0013762680219682,0.0013762681601001,-0.0013762673418693,0.0013762688543511,-1.8117841182977e-10,3.3596771250076e-10,-7.5870287430366e-10,9.3689101322192e-10,-0.0014985021011846,0.0014985022723124,-0.0015742444755952,0.0015742443573147,-0.0015742443236074,0.0015742443824453,-0.0015742446493658,0.0015742440886512,-0.0015742437327826,0.0015742451354038,-0.0013762691854918,0.0013762668488839,-0.0013762665700736,0.0013762697085837,-0.001471569985039,0.0014715691219317,-0.0014715686264022,0.0014715709539316,-3.5849850038037e-09,3.5011578897356e-09,-0.0010874857560724,0.0010874856699125,1.5466936787022e-09,-1.6778698532185e-09,-0.0011780167432095,0.0011780156102279,-0.0011780179507071,0.0011780139388961,-0.00117801449436,0.0011780175367898,-0.0011780152115661,0.0011780169705721,-0.0011652515391423,0.0011652590274709,-0.0011652599775716,0.0011652502871774,0.72136732156834,125803,2834,0.0062237683457323,0.0062237683742146,0.0045225404824673,34.581484859311,3.9051878874489e-05,3.9051878874489e-05,3.9051878874489e-05,2296477.8709986,0.017115631660007
35219200,0.99881112184426,0.016690192025754,0.0059977857465293,0.0059977857734427,0.0046946205057817,-0.0015001093826518,0.0015001097824494,3.1741175020068e-09,-2.7777568781988e-09,6.4904778850617e-10,-2.528225067989e-10,-0.0015758518966275,0.0015758543476488,-0.0015758536893538,0.0015758524685393,-0.0015758521100815,0.0015758539251411,-0.0015758537419712,0.0015758523256373,-0.0013778567592307,0.0013778625123958,-0.0013778623667551,0.0013778568807891,4.1690941599764e-10,-4.0672452853717e-10,9.9737532676224e-11,-6.930318798959e-11,-0.0015001095747808,0.0015001096039264,-0.0015758528852024,0.0015758533373013,-0.0015758529941985,0.0015758530514794,-0.0015758531320559,0.0015758529602649,-0.001575853176782,0.0015758530506246,-0.0013778596148856,0.0013778595284076,-0.0013778598161925,0.0013778595612322,-0.001473171010929,0.001473171763525,-0.0014731720159672,0.0014731712941528,-9.4004573656851e-10,7.8698067586879e-10,-0.0010889453808617,0.0010889452238599,2.3774574887211e-09,-2.5893465549773e-09,-0.0011795444424269,0.0011795452589501,-0.001179545831328,0.001179543284044,-0.0011795436059593,0.0011795457111088,-0.0011795452287231,0.0011795442205498,-0.0011667668106859,0.001166767376765,-0.0011667689957364,0.0011667648819625,0.7021446136411,125803,2834,0.0062304230343398,0.0062304230624522,0.0045285977588458,35.343363397946,4.5146907183566e-05,4.5146907183566e-05,4.5146907183566e-05,2298260.1967762,0.017135330512879
35419200,0.99888855146261,0.016691429166515,0.0059982362134652,0.0059982362403804,0.0046949567126698,-0.0015013481267386,0.0015013486195575,1.0636435041269e-09,-5.7359707459134e-10,1.0650781914159e-10,3.8484704054002e-10,-0.0015771012147327,0.0015771021857653,-0.0015771018039352,0.0015771015199222,-0.0015771013724812,0.0015771018988614,-0.0015771012678587,0.0015771020559442,-0.0013790727554413,0.0013790739977174,-0.0013790733626334,0.0013790734510681,-2.8815356128297e-10,4.2907970783225e-10,-5.5256141382824e-10,7.2490641480515e-10,-0.0015013482950436,0.0015013484637231,-0.001577101758915,0.0015771016547248,-0.0015771016508786,0.0015771015987697,-0.0015771017930615,0.0015771014950016,-0.0015771010893698,0.0015771023601476,-0.0013790741053238,0.0013790724640818,-0.0013790721442974,0.0013790747466253,-0.0014744043840068,0.0014744033562629,-0.0014744030412618,0.0014744052149048,-3.1140348243971e-09,3.0292959529116e-09,-0.0010900786381394,0.0010900785518639,1.5841831875006e-09,-1.7147899730649e-09,-0.0011807139985256,0.0011807131447718,-0.0011807151642704,0.0011807115185326,-0.0011807120038034,0.0011807148197557,-0.0011807128230053,0.0011807141538317,-0.0011679392318673,0.0011679456002919,-0.0011679465451916,0.0011679379473401,0.68162528863241,125803,2834,0.0062355519084747,0.0062355519342831,0.0045333001317235,35.928850632415,4.9830805059318e-05,4.9830805059318e-05,4.9830805059318e-05,2301995.7518085,0.01715054734712
35619200,0.9989640854698,0.016692590629989,0.0059986601511672,0.0059986601780816,0.0046952703007401,-0.001502986410731,0.0015029868529663,1.7876392797294e-09,-1.3476524432018e-09,4.344698967723e-10,5.6322830552659e-12,-0.0015787542456798,0.0015787557968862,-0.0015787552551,0.0015787547244865,-0.0015787545199693,0.0015787553957669,-0.0015787550328965,0.0015787549221469,-0.0013806758817773,0.0013806785947663,-0.0013806782408865,0.0013806762313726,-2.3919186461743e-11,1.5461781410636e-10,-1.9833273141391e-10,3.5224901228814e-10,-0.0015029865656321,0.0015029867120697,-0.0015787549387038,0.0015787551056574,-0.0015787549887391,0.0015787549245939,-0.001578755046739,0.0015787549007278,-0.0015787546762108,0.0015787553943788,-0.0013806775923056,0.0013806767445534,-0.0013806765901626,0.0013806779668946,-0.0014760365237657,0.0014760360980314,-0.0014760359957272,0.0014760370791782,-2.4061671982351e-09,2.3022107215722e-09,-0.0010916352410362,0.001091635134998,1.8531281858273e-09,-2.0077378807405e-09,-0.0011822811316437,0.0011822807994312,-0.0011822823717754,0.001182279089653,-0.0011822794915254,0.0011822821124658,-0.0011822805873445,0.0011822811636686,-0.0011695450799326,0.0011695494997552,-0.0011695506943496,0.0011695435956084,0.65730117988378,125803,2834,0.0062423351775744,0.0062423352065431,0.0045397574761168,36.736630568119,5.6293044544951e-05,5.6293044544951e-05,5.6293044544951e-05,2308310.8601095,0.017170914879286
35819200,0.99903820149045,0.016693801158952,0.0059991001417412,0.0059991001686555,0.004695600848555,-0.0015049447239056,0.0015049452253099,4.4040266617732e-10,6.016230449466e-11,9.0700091939156e-11,4.1411306436544e-10,-0.0015807365278388,0.001580737179217,-0.0015807368367124,0.0015807368183901,-0.0015807367643852,0.0015807368334691,-0.0015807361605247,0.0015807374690342,-0.0013825925519175,0.0013825922472711,-0.0013825915829511,0.0013825931842943,-3.5686003758258e-10,5.8146650833317e-10,-5.9872831495455e-10,8.3864521373277e-10,-0.001504944870507,0.0015049450952595,-0.0015807369061007,0.0015807367969874,-0.0015807368832455,0.001580736719491,-0.0015807369803322,0.0015807366563666,-0.0015807361017307,0.0015807376322534,-0.0013825933437659,0.0013825913532694,-0.0013825908495637,0.0013825940365209,-0.0014779906603314,0.0014779892531181,-0.0014779887860846,0.0014779916396798,-3.8047146762579e-09,3.7413535412763e-09,-0.0010935416827434,0.0010935416183836,1.3737089663105e-09,-1.4840139743329e-09,-0.0011841728507594,0.0011841715001735,-0.0011841739723229,0.001184169925378,-0.0011841704850415,0.0011841735504443,-0.0011841710435347,0.0011841731321743,-0.0011715024785571,0.0011715106424666,-0.0011715114891543,0.0011715013628938,0.69619440945807,125803,2834,0.0062504441596308,0.0062504441938592,0.004547665005053,37.721988211421,6.417590569137e-05,6.417590569137e-05,6.417590569137e-05,2317479.235916,0.017195454745082
36019200,0.999107993106,0.016695008771953,0.0059995375501152,0.0059995375770304,0.0046959336448078,-0.0015055741791762,0.0015055746364874,1.2006059538417e-09,-7.4517351404889e-10,3.4166813944934e-10,1.1477376421088e-10,-0.0015813805640603,0.00158138174719,-0.0015813812589654,0.0015813809912282,-0.0015813808511785,0.0015813813347971,-0.0015813808927037,0.0015813813368354,-0.0013831982401815,0.0013831996358296,-0.0013831991996026,0.0013831986676704,-2.5240584082188e-10,4.2927448593201e-10,-2.8876205688445e-10,4.8558065391787e-10,-0.0015055743210925,0.0015055745088949,-0.0015813811350058,0.0015813811787232,-0.0015813811906712,0.0015813809940006,-0.0015813811557172,0.0015813810619818,-0.0015813806335815,0.0015813817108395,-0.0013831994167188,0.0013831983252506,-0.0013831979580087,0.0013831999909677,-0.0014786151500797,0.001478614105683,-0.0014786138890567,0.0014786158244102,-3.0593006870833e-09,2.989742545241e-09,-0.0010941023904704,0.0010941023191056,1.5434301142805e-09,-1.6601087100317e-09,-0.0011847560217799,0.0011847551389781,-0.0011847571242864,0.001184753571943,-0.0011847540158652,0.001184756820561,-0.0011847548149572,0.0011847561694162,-0.0011720923805058,0.0011720985951601,-0.0011720995397009,0.001172091144597,0.73586528503774,125803,2834,0.0062530500459564,0.0062530500755842,0.0045499917404697,37.993679180622,6.6349433444975e-05,6.6349433444975e-05,6.6349433444975e-05,2319078.2482827,0.017203123209555
36219200,0.99917230145431,0.016696086139852,0.0059999286216779,0.0059999286485929,0.0046962288695812,-0.0015054644130718,0.0015054648487603,1.61537473794e-09,-1.181148718541e-09,4.8183925990606e-10,-4.8469599816408e-11,-0.0015812669427867,0.0015812684356197,-0.0015812678667881,0.0015812674477609,-0.0015812672698054,0.0015812679741259,-0.001581267650885,0.0015812676319803,-0.0013830875005797,0.0013830897644646,-0.0013830894489175,0.0013830878023075,-2.8198147771824e-10,4.4796113079359e-10,-8.7459484375108e-11,2.7356665191407e-10,-0.0015054645504603,0.0015054647272132,-0.0015812676404595,0.0015812677368285,-0.0015812677752364,0.0015812674666217,-0.001581267588996,0.0015812676919543,-0.0015812672579786,0.0015812681445961,-0.001383088834477,0.0013830883311675,-0.001383087944558,0.001383089431721,-0.0014785046994434,0.0014785036209959,-0.0014785035672146,0.0014785052421698,-2.6743257736331e-09,2.5990560378574e-09,-0.0010938994554111,0.0010938993783,1.5521467600996e-09,-1.6751836628487e-09,-0.0011846092593525,0.0011846085852349,-0.0011846103109223,0.0011846070603533,-0.0011846074578547,0.0011846100589971,-0.0011846083186608,0.0011846093410603,-0.0011719098427748,0.0011719151160716,-0.0011719160813298,0.0011719085899151,0.71361272879176,125803,2834,0.0062525945532049,0.0062525945859614,0.0045491525295402,37.867524845135,6.5340198761078e-05,6.5340198761078e-05,6.5340198761078e-05,2313467.7530124,0.017201343470976
36419200,0.99922905444338,0.01669702417725,0.006000269392613,0.0060002694195275,0.0046964853651099,-0.001503684841933,0.0015036852993985,-1.9366036673226e-09,2.3881862766662e-09,2.6950113439593e-10,1.8608971255761e-10,-0.0015794975033765,0.0015794969589846,-0.0015794965174932,0.0015794978644878,-0.0015794981311755,0.0015794961166198,-0.0015794956226611,0.0015794986986753,-0.0013813095306666,0.0013813035674222,-0.0013813031210084,0.0013813100240335,-7.6607415225462e-10,9.3167866376754e-10,-7.926084438977e-10,9.6895279169042e-10,-0.0015036849794179,0.0015036851700776,-0.0015794973067967,0.0015794971373808,-0.0015794974458356,0.0015794968130694,-0.0015794973935454,0.0015794968945365,-0.0015794961287416,0.0015794983655864,-0.001381307966427,0.0013813049571275,-0.0013813042824526,0.0013813088843783,-0.0014767186286411,0.0014767157082743,-0.0014767150867526,0.0014767196003294,-6.2200860141149e-09,6.2647651848416e-09,-0.0010921571379416,0.0010921571794289,6.4341481643887e-10,-6.3287709165968e-10,-0.0011828629355553,0.0011828597930256,-0.0011828637660702,0.00118285835634,-0.0011828591674007,0.0011828631512688,-0.0011828588887956,0.001182863608221,-0.0011701429497737,0.0011701574855976,-0.0011701576528222,0.001170142445613,0.70434245807939,125803,2834,0.0062452261583393,0.0062452261752145,0.0045419253791989,36.903491045076,5.762792836061e-05,5.762792836061e-05,5.762792836061e-05,2306214.2535854,0.017179002057786
36619200,0.99928053090353,0.016697827595358,0.0060005622320365,0.0060005622589519,0.0046967031043695,-0.0015027631274771,0.0015027635536789,1.7931862172743e-09,-1.3683109606276e-09,5.3771509023192e-10,-1.1499991753734e-10,-0.0015785769500745,0.0015785785951097,-0.0015785779934061,0.0015785774845737,-0.0015785772931834,0.0015785781046569,-0.0015785778270829,0.0015785776063191,-0.0013803764994636,0.0013803791327576,-0.0013803788659664,0.0013803767603295,-4.7922477448268e-10,6.7926427490602e-10,9.9642061565112e-11,1.174586166868e-10,-0.0015027632435424,0.0015027634523848,-0.0015785777245247,0.001578577811688,-0.0015785779594174,0.0015785774401123,-0.001578577516524,0.0015785779304644,-0.0015785773145686,0.0015785782436824,-0.0013803777248448,0.0013803777793074,-0.0013803772331993,0.0013803785155945,-0.0014757978032655,0.0014757962795638,-0.0014757963262306,0.0014757983064576,-2.5541966362577e-09,2.5000638898819e-09,-0.001091252146606,0.0010912520906455,1.3218121594319e-09,-1.4210574192264e-09,-0.001181938966353,0.0011819382020848,-0.001181939835705,0.001181936841775,-0.0011819372162162,0.0011819396196266,-0.0011819379211394,0.001181939049595,-0.0011692435430222,0.0011692487482489,-0.0011692495153384,0.0011692424725078,0.66675552763633,125803,2834,0.0062414097679074,0.0062414097984559,0.0045381709895788,36.396805362113,5.3574442896906e-05,5.3574442896906e-05,5.3574442896906e-05,2302508.3806482,0.017167419104669
36819200,0.99932865451563,0.016698558453894,0.0060008289998344,0.0060008290267502,0.0046969004273095,-0.0015028449133736,0.0015028453447497,2.1211666403446e-09,-1.6904335164753e-09,4.6839600335303e-10,-4.3312640887375e-11,-0.0015786761238909,0.001578677868438,-0.0015786772950529,0.0015786766357368,-0.0015786763826676,0.0015786775000426,-0.0015786771945588,0.0015786767451408,-0.0013804282332157,0.0013804318070764,-0.0013804315023746,0.0013804286014715,-3.6538014447563e-10,5.1373722085104e-10,1.2967244836973e-10,5.0885755026584e-11,-0.0015028450439459,0.0015028452242519,-0.0015786769300429,0.0015786770752201,-0.0015786771198332,0.0015786767495239,-0.0015786767504437,0.001578677150023,-0.0015786766626662,0.0015786773837433,-0.0013804298173324,0.0013804300292391,-0.0013804296501905,0.0013804304581023,-0.001475880842003,0.0014758797277515,-0.0014758797837635,0.0014758811167286,-2.2735847531049e-09,2.21727512012e-09,-0.0010913505272073,0.0010913504655197,1.3839330258916e-09,-1.4811967308141e-09,-0.0011819901788383,0.0011819895595446,-0.0011819910362134,0.0011819882568314,-0.0011819885429912,0.0011819908738562,-0.0011819893790995,0.0011819902102492,-0.0011693561492882,0.0011693605951702,-0.0011693613573596,0.0011693550656541,0.64958125316809,125803,2834,0.0062417490814831,0.0062417491023475,0.0045385775049205,36.429626673482,5.3837013387856e-05,5.3837013387856e-05,5.3837013387856e-05,2307606.0257793,0.017168522342045
37019200,0.99937424022719,0.016699295635531,0.0060010968872608,0.0060010969141754,0.0046971018340946,-0.0015034038058375,0.0015034042643437,1.5778634887065e-09,-1.1190894624086e-09,3.1284951901488e-10,1.4416917796587e-10,-0.0015792614621518,0.0015792627879624,-0.0015792623215075,0.0015792618781387,-0.0015792616467534,0.0015792624899285,-0.00157926203241,0.001579262155338,-0.0013809486223388,0.0013809510554631,-0.001380950608728,0.0013809490741159,-2.415303217674e-10,4.003480887487e-10,-3.90050367022e-11,2.2077148536943e-10,-0.0015034039524972,0.0015034041296472,-0.0015792620582608,0.0015792621933371,-0.0015792622010728,0.0015792619411562,-0.0015792620084867,0.0015792621579998,-0.0015792617440852,0.0015792625475369,-0.0013809499515242,0.0013809495763707,-0.0013809492420025,0.0013809504617638,-0.0014764406611483,0.0014764397657871,-0.0014764396605883,0.0014764410563483,-2.8653355992285e-09,2.8187204377902e-09,-0.0010919237112106,0.0010919236599706,1.3239048793316e-09,-1.4131074075856e-09,-0.0011825084069559,0.0011825074114208,-0.0011825092640844,0.0011825060885822,-0.0011825064197895,0.0011825090658458,-0.0011825071552221,0.0011825084977367,-0.0011699485414831,0.0011699543309643,-0.0011699550970619,0.0011699475056128,0.68962107836463,125803,2834,0.0062440641146516,0.0062440641394074,0.004540953162168,36.715814277223,5.6126514217786e-05,5.6126514217786e-05,5.6126514217786e-05,2316296.3692003,0.017175647834816
37219200,0.99941849583163,0.016700059043285,0.0060013732260663,0.0060013732529805,0.0046973125642379,-0.0015049750067349,0.0015049755383552,1.0534949381587e-09,-5.1977541321791e-10,-1.3267065812011e-10,6.6770916770797e-10,-0.0015808379612228,0.0015808389676822,-0.0015808387449972,0.0015808381276164,-0.0015808381156075,0.0015808386951418,-0.0015808378419636,0.001580839014414,-0.0013824984150154,0.0013824992816575,-0.001382498424366,0.0013824992675539,-3.6205562791968e-10,5.4454971059061e-10,-2.6420003819556e-10,4.732233149408e-10,-0.0015049751803774,0.0015049753782385,-0.0015808383643121,0.0015808385645617,-0.0015808386396171,0.0015808381731005,-0.0015808385204696,0.0015808383241969,-0.0015808378057241,0.0015808391594435,-0.0013824995620174,0.0013824979987148,-0.0013824975387687,0.0013825002236668,-0.0014780201294865,0.0014780182526398,-0.0014780180282389,0.0014780207683667,-3.4660359151989e-09,3.4186125103815e-09,-0.0010933950847325,0.001093395033351,1.2958267144973e-09,-1.3867001905101e-09,-0.0011839982547313,0.0011839971401113,-0.0011839993877168,0.0011839955415673,-0.0011839961697361,0.0011839989005666,-0.0011839965882708,0.0011839986339896,-0.001171466325471,0.001171474175489,-0.0011714749119696,0.001171465290677,0.73362848711537,125803,2834,0.0062505695938654,0.0062505696218497,0.0045470578358911,37.494926543685,6.235941234948e-05,6.235941234948e-05,6.235941234948e-05,2321319.5347583,0.017195092028792
37419200,0.99946058720444,0.016700736283403,0.0060016195455586,0.0060016195724728,0.0046974971653715,-0.0015059521128446,0.0015059527289469,2.8868796183975e-10,3.3143927222833e-10,-6.2724866916019e-10,1.2519189217951e-09,-0.0015818086526503,0.0015818093224111,-0.0015818093756821,0.0015818085466584,-0.0015818089380686,0.0015818089444944,-0.001581807651278,0.0015818102767582,-0.001383475549276,0.001383473869055,-0.0013834725557906,0.0013834768603548,-6.8866131975175e-10,9.498005923714e-10,-4.9644201993125e-10,7.8163633235173e-10,-0.0015059522939249,0.00150595256268,-0.0015818088304311,0.00158180915089,-0.0015818094066196,0.001581808469129,-0.0015818092257189,0.0015818086831553,-0.0015818078534704,0.0015818101708002,-0.0013834762304168,0.0013834730479077,-0.0013834722682082,0.0013834772214677,-0.0014789986501611,0.0014789948980437,-0.0014789944455371,0.0014789995448531,-4.3100780072086e-09,4.2701432419375e-09,-0.0010942413741778,0.0010942413311558,1.1924372100493e-09,-1.27482843704e-09,-0.0011849193877885,0.0011849181213525,-0.0011849209441327,0.0011849161340719,-0.0011849172228074,0.0011849199794399,-0.0011849170925292,0.0011849202668281,-0.0011723448296191,0.0011723558373653,-0.0011723564825502,0.0011723438722969,0.68665851829401,125803,2834,0.0062546143242861,0.0062546143549432,0.0045505716527041,37.941795526847,6.5934364214777e-05,6.5934364214777e-05,6.5934364214777e-05,2318230.2336621,0.017206895655269
37619200,0.99949958206566,0.016701342265816,0.0060018404519973,0.0060018404789105,0.0046976613349083,-0.0015059491816389,0.0015059497022765,9.4992107662199e-10,-4.3019447144243e-10,-5.0736298393852e-11,5.7367640481491e-10,-0.001581820606686,0.0015818215398772,-0.0015818212702914,0.0015818208229701,-0.0015818207610601,0.001581821283899,-0.0015818205023602,0.0015818215850826,-0.0013834517709041,0.0013834525699093,-0.0013834517869505,0.0013834525508978,-1.6293191571829e-10,3.2793426476553e-10,-3.9946985850197e-10,5.8859192625891e-10,-0.0015059493593233,0.0015059495387704,-0.0015818209902848,0.0015818211609181,-0.0015818211227372,0.0015818209231936,-0.0015818212216052,0.0015818208532194,-0.0015818204918927,0.0015818216938868,-0.0013834529927198,0.0013834512113193,-0.0013834509158279,0.0013834534872829,-0.0014789899917852,0.0014789887784766,-0.00147898849897,0.0014789906978872,-3.641093956103e-09,3.5810830758408e-09,-0.0010942210207568,0.0010942209597954,1.402904057597e-09,-1.5078812965473e-09,-0.0011848944510297,0.0011848932301382,-0.0011848956102195,0.0011848916316997,-0.001184892201702,0.001184895168458,-0.0011848927622775,0.001184894758564,-0.0011723333775077,0.0011723412812033,-0.001172342104587,0.0011723322580392,0.66415579432932,125803,2834,0.0062546020412363,0.0062546020705744,0.0045504870643448,37.916699153301,6.5733593226407e-05,6.5733593226407e-05,6.5733593226407e-05,2319755.4398201,0.017206784696788
37819200,0.99953468587138,0.016701867092003,0.0060020322322044,0.0060020322591175,0.0046978026006816,-0.00150483372644,0.0015048341566433,1.7339443631899e-09,-1.3047667744471e-09,4.7990618496018e-10,-5.5501719813499e-11,-0.0015807299952953,0.0015807309668785,-0.0015807303903252,0.0015807305019252,-0.0015807297166486,0.0015807311098637,-0.0015807308035596,0.001580730075112,-0.0013823108470001,0.0013823151851038,-0.0013823148682063,0.0013823111895531,1.3468452283322e-10,-7.027706315726e-11,-2.9182868698053e-10,3.9253530367621e-10,-0.0015048338990515,0.0015048339958187,-0.0015807306685105,0.0015807302997578,-0.0015807300777861,0.0015807307439257,-0.0015807303102647,0.0015807305421645,-0.0015807304966342,0.0015807305017397,-0.0013823126412145,0.0013823132235517,-0.0013823132488874,0.0013823128605743,-0.0014778661306125,0.0014778678112064,-0.0014778677318964,0.0014778666337492,-2.855922117343e-09,2.7845524724216e-09,-0.0010931878139083,0.0010931877406398,1.5258835309048e-09,-1.6418681432869e-09,-0.0011838039799712,0.0011838025424471,-0.0011838044026313,0.00118380164987,-0.0011838014371082,0.0011838047581813,-0.0011838028876586,0.001183803458183,-0.0011712836450053,0.0011712875415678,-0.001171288434381,0.0011712824209481,0.6401645226118,125803,2834,0.0062499840774668,0.0062499841018619,0.0045461989981076,37.337002713566,6.1096021708528e-05,6.1096021708528e-05,6.1096021708528e-05,2320485.9796506,0.017193027753794
38019200,0.9995656178936,0.016702348997354,0.0060022077500445,0.0060022077769574,0.0046979334703523,-0.0015028126701516,0.0015028131330116,1.2135234455741e-09,-7.4981274608824e-10,3.1070426813906e-10,1.5261231997485e-10,-0.0015787417635885,0.001578742744612,-0.0015787422838789,0.0015787421688156,-0.0015787418174135,0.0015787425592049,-0.0015787420781547,0.0015787423317515,-0.0013802645594825,0.0013802665685935,-0.0013802660954649,0.0013802649867615,-2.9908552714245e-10,4.9388713252749e-10,-2.9233202554242e-10,5.0494273724672e-10,-0.0015028128101637,0.0015028130087153,-0.0015787423495617,0.0015787421465296,-0.0015787422105815,0.0015787421787146,-0.0015787421387566,0.0015787422868416,-0.0015787417978439,0.0015787427249796,-0.0013802657601368,0.0013802652700394,-0.0013802648203442,0.0013802663706199,-0.00147583983491,0.0014758393090857,-0.0014758390681518,0.0014758405629248,-3.4257994557875e-09,3.3684470444903e-09,-0.0010913438509128,0.0010913437929347,1.3810775981303e-09,-1.4850355236271e-09,-0.0011818494662113,0.0011818480351256,-0.0011818502518802,0.0011818467680461,-0.0011818470095317,0.0011818501616115,-0.0011818478851385,0.0011818494240149,-0.0011694004139886,0.0011694069061524,-0.0011694077465677,0.001169399304273,0.66570160171832,125803,2834,0.0062416173745325,0.0062416174070326,0.0045385458993448,36.309484097704,5.2875872781632e-05,5.2875872781632e-05,5.2875872781632e-05,2320863.3881737,0.017168221499063
38219200,0.99959383068634,0.016702792014867,0.0060023689407718,0.006002368967685,0.00469805410641,-0.0015019596637226,0.0015019601283646,1.1902774156655e-09,-7.2381481342489e-10,3.2763208071189e-10,1.3667412758157e-10,-0.0015778993969262,0.001577900488525,-0.0015779000101301,0.0015778998306456,-0.0015778995916675,0.0015779002109294,-0.0015778997487315,0.001577900080489,-0.001379398110168,0.0013793997823461,-0.0013793993154156,0.0013793985480408,-3.4000156036219e-10,5.7285537813649e-10,-2.9576665617874e-10,5.5029584254196e-10,-0.0015019597871809,0.0015019600217005,-0.0015779000008598,0.0015778998838064,-0.0015778999567514,0.0015778998492261,-0.001577899869662,0.0015778999716805,-0.0015778994094694,0.0015779005045829,-0.0013793992709278,0.0013793985191493,-0.0013793980071041,0.0013793999595711,-0.0014749918066061,0.0014749908872581,-0.0014749906158431,0.0014749925706707,-3.4916173499102e-09,3.4291003205743e-09,-0.0010905766674367,0.0010905766051786,1.3672768996844e-09,-1.4759014177827e-09,-0.0011810193959163,0.0011810180203189,-0.0011810203076356,0.0011810166993554,-0.0011810170223456,0.0011810201034433,-0.001181017798498,0.001181019464207,-0.0011686277827082,0.0011686347132065,-0.0011686355370194,0.0011686266960936,0.67076547175844,125803,2834,0.0062380861485724,0.006238086183319,0.004535361848691,35.868941222082,4.9351529776659e-05,4.9351529776659e-05,4.9351529776659e-05,2319581.2063428,0.017157798580527
38419200,0.99962593083808,0.016703329239844,0.0060025635597562,0.0060025635866694,0.0046982020934183,-0.001509306421397,0.0015093070050314,8.3476964988962e-10,-2.5152205223278e-10,-4.5699770438677e-10,1.0473163423811e-09,-0.001585219571874,0.0015852200790402,-0.001585220036733,0.0015852195579254,-0.0015852193320227,0.0015852202099685,-0.0015852190742004,0.0015852205108901,-0.001386717004394,0.0013867181542775,-0.0013867170203498,0.0013867181329373,-2.9146651925085e-10,4.7464539976673e-10,-8.2748795355506e-10,1.0342755660694e-09,-0.0015093066225525,0.0015093068180018,-0.0015852199724123,0.0015852196781223,-0.0015852197156581,0.0015852198285356,-0.0015852200122865,0.0015852195596157,-0.0015852190953044,0.0015852205945056,-0.0013867186324674,0.0013867163916646,-0.0013867159892957,0.0013867192373708,-0.0014823730312173,0.0014823721554796,-0.0014823715684285,0.0014823740625523,-3.9595947626913e-09,3.8704117372841e-09,-0.0010976507566211,0.0010976506662338,1.530267789454e-09,-1.6668925977886e-09,-0.0011881521074038,0.0011881506491657,-0.0011881532516147,0.0011881490493412,-0.0011881495505104,0.0011881528875442,-0.001188150310955,0.0011881522789615,-0.0011758771515498,0.0011758852252069,-0.00117588617585,0.001175875900395,0.71254269136359,125803,2834,0.006268504770606,0.0062685047998317,0.0045647100304001,39.652934764912,7.9623478119296e-05,7.9623478119296e-05,7.9623478119296e-05,2334351.3443875,0.01724953532564
38619200,0.99965564342896,0.016703828886014,0.0060027447238579,0.006002744750771,0.004698339411385,-0.0015096063674786,0.0015096068390988,1.32498490815e-09,-8.5210843043707e-10,2.4086678262631e-10,2.2708489030071e-10,-0.0015855446241554,0.0015855458318187,-0.0015855453796611,0.0015855450115082,-0.0015855448332148,0.0015855455234795,-0.0015855450113742,0.0015855453879622,-0.0013870042263081,0.0013870060479254,-0.0013870055006849,0.0013870047701608,1.8730353982896e-10,-9.7928567554216e-11,-6.0443133609353e-10,7.3551917396765e-10,-0.0015096065527514,0.0015096066687654,-0.0015855451887971,0.0015855452832442,-0.0015855450231205,0.0015855453199022,-0.0015855455092204,0.0015855448663364,-0.0015855448387472,0.0015855456603149,-0.0013870060234791,0.0013870040977694,-0.0013870041204605,0.0013870062417348,-0.0014826460742552,0.0014826460998093,-0.0014826458446112,0.0014826468354634,-3.4659001509226e-09,3.3566855291494e-09,-0.0010978759081352,0.0010978757987615,1.8154717730909e-09,-1.9740601076423e-09,-0.001188458212928,0.0011884571897353,-0.0011884595005634,0.0011884554858558,-0.0011884559293948,0.0011884591788912,-0.0011884569478753,0.0011884582952306,-0.0011760923679008,0.0011760990699456,-0.0011761002024381,0.0011760908925493,0.71626665189832,125803,2834,0.0062697454743524,0.0062697455052761,0.0045656460773734,39.751770798203,8.0414166385627e-05,8.0414166385627e-05,8.0414166385627e-05,2332477.7185056,0.0172530132577
38819200,0.99968300197676,0.016704290482059,0.0060029120635107,0.006002912090423,0.0046984663281255,-0.0015096910894093,0.0015096915706153,1.2290461301903e-09,-7.4760550898841e-10,1.8971842976161e-10,2.9131795496586e-10,-0.0015856228252847,0.0015856239525267,-0.0015856235490329,0.0015856231743208,-0.0015856230114235,0.0015856236563061,-0.0015856230850644,0.0015856236242995,-0.0013870929478246,0.0013870944736305,-0.0013870938987455,0.0013870935105964,-1.1406332103207e-10,2.6790246516306e-10,-6.3383497676115e-10,8.1429618687662e-10,-0.0015096912530383,0.001509691421504,-0.0015856234370412,0.0015856233406015,-0.0015856232800865,0.0015856233932129,-0.0015856235663129,0.0015856231332929,-0.0015856228197668,0.0015856239926153,-0.0013870946033104,0.0013870926882799,-0.0013870924304962,0.0013870950532506,-0.0014827332047255,0.0014827326296473,-0.0014827322099742,0.0014827340613506,-3.6061902399441e-09,3.4991600392392e-09,-0.0010978978686455,0.0010978977609939,1.7267735358457e-09,-1.8832367134387e-09,-0.0011885213379944,0.0011885202115334,-0.0011885225948475,0.001188518505815,-0.001188518994573,0.0011885222390979,-0.0011885199154185,0.0011885214650301,-0.0011761302001115,0.0011761372811623,-0.0011761383904274,0.0011761288007857,0.71845445281127,125803,2834,0.0062700955060437,0.0062700955360826,0.0045657393579723,39.755817699792,8.0446541598336e-05,8.0446541598336e-05,8.0446541598336e-05,2327604.2622082,0.017253820731304
38880000,0.999691106452,0.016704427381029,0.006002961689455,0.0060029617163672,0.0046985039752068,-0.0015097148471691,0.0015097154013965,-6.392598286981e-10,1.1937425038095e-09,-2.4848422162465e-10,8.0729477840455e-10,-0.0015856439998006,0.0015856439182173,-0.0015856437590979,0.001585644106402,-0.0015856441785842,0.001585643634561,-0.0015856426783281,0.0015856451824676,-0.0013871212491668,0.0013871185914053,-0.0013871176282896,0.0013871222091069,-6.2815113588457e-10,8.6882891261725e-10,-1.1667537770547e-09,1.4294984841151e-09,-0.0015097150051924,0.0015097152568003,-0.0015856441861545,0.0015856437299445,-0.0015856439567977,0.0015856438602315,-0.0015856442539919,0.0015856435877095,-0.0015856428262521,0.0015856451388885,-0.0013871215682526,0.0013871181310943,-0.0013871174256696,0.0013871224750304,-0.0014827588226651,0.0014827567529072,-0.0014827558690383,0.0014827601496915,-5.502146476502e-09,5.4439654352399e-09,-0.0010978995525317,0.0010978994952295,1.1398291014592e-09,-1.2396417276574e-09,-0.0011885378840171,0.0011885354130982,-0.001188539028416,0.0011885338224508,-0.0011885345563388,0.0011885384262417,-0.0011885347752211,0.001188538361222,-0.0011761355992352,0.0011761478024355,-0.0011761484415016,0.0011761346536425,0.71910518663055,125803,2834,0.0062701937571899,0.0062701937849774,0.0045657471773017,39.755978328256,8.044782662605e-05,8.044782662605e-05,8.044782662605e-05,2326006.0795662,0.017254028700164
