time,ASR_ext,ASR_strain,ASR_strain_xx,ASR_strain_yy,ASR_strain_zz,disp_x_101,disp_x_102,disp_x_103,disp_x_104,disp_x_105,disp_x_106,disp_x_p1_neg,disp_x_p1_pos,disp_x_p2_neg,disp_x_p2_pos,disp_x_p3_neg,disp_x_p3_pos,disp_x_p4_neg,disp_x_p4_pos,disp_x_p5_neg,disp_x_p5_pos,disp_x_p6_neg,disp_x_p6_pos,disp_y_101,disp_y_102,disp_y_103,disp_y_104,disp_y_105,disp_y_106,disp_y_p1_neg,disp_y_p1_pos,disp_y_p2_neg,disp_y_p2_pos,disp_y_p3_neg,disp_y_p3_pos,disp_y_p4_neg,disp_y_p4_pos,disp_y_p5_neg,disp_y_p5_pos,disp_y_p6_neg,disp_y_p6_pos,disp_y_p7_neg,disp_y_p7_pos,disp_y_p8_neg,disp_y_p8_pos,disp_z_101,disp_z_102,disp_z_103,disp_z_104,disp_z_105,disp_z_106,disp_z_p1_neg,disp_z_p1_pos,disp_z_p2_neg,disp_z_p2_pos,disp_z_p3_neg,disp_z_p3_pos,disp_z_p4_neg,disp_z_p4_pos,disp_z_p5_neg,disp_z_p5_pos,disp_z_p6_neg,disp_z_p6_pos,humidity,ndof,nelem,strain_xx,strain_yy,strain_zz,temp,thermal_strain_xx,thermal_strain_yy,thermal_strain_zz,vonmises,vstrain
2419200,0,0,0,0,0,0,0,0,0,0,0,0,0,0,0,0,0,0,0,0,0,0,0,0,0,0,0,0,0,0,0,0,0,0,0,0,0,0,0,0,0,0,0,0,0,0,0,0,0,0,0,0,0,0,0,0,0,0,0,0,0,0,0,0,0,0,0,0,0,0,0,0,0,0,0
2919200,0.076301709867707,0.0015936499818452,0.00053121666061507,0.00053121666061507,0.00053121666061507,-0.00017061411027378,0.0001706141102737,4.5182443236785e-17,9.4989745187312e-17,2.1955211636296e-16,-4.5873598593052e-16,-0.00016897602848742,0.00016897602848756,-0.00016897709918382,0.00016897709918414,-0.00016897603883525,0.00016897603883484,-0.00016897708883615,0.00016897708883564,-0.0001709058237327,0.00017090582373299,-0.00017090679462677,0.00017090679462738,-4.1943571593856e-16,2.5044614901908e-16,-9.2705151294064e-10,9.2705154244266e-10,-0.00017061411027366,0.00017061411027374,-0.00016897640937507,0.00016897573894348,-0.00016897671829646,0.00016897738872781,-0.00016897640937473,0.00016897573894389,-0.00016897671829614,0.000168977388728,-0.00017090678844298,0.00017090499240814,-0.00017090582991569,0.00017090762595041,-0.00017221646928381,0.00017221710585608,-0.00017221646928387,0.00017221710585731,-5.1610154416648e-09,-5.1610154914385e-09,-0.0001638309114186,0.00016381752339796,-4.1043418344592e-09,-6.0566214705515e-09,-0.00016317620281872,0.0001631657051943,-0.00016317686944409,0.000163165038569,-0.0001631762028188,0.00016316570519428,-0.0001631768694442,0.00016316503856899,-0.00016721190209498,0.0001672004730208,-0.00016721190209585,0.00016720047302198,0.83502648770561,120135,2834,0.00071063870387988,0.00071063870387974,0.00068236762493643,32.392147491037,0.0001743371799283,0.0001743371799283,0.0001743371799283,770490.25462877,0.0021058606547114
3419200,0.15586594325789,0.0031337212176547,0.0010526578050027,0.0010526578049995,0.0010284056076524,-0.00029649588468136,0.00029649588467786,-1.651331905885e-15,-1.5839957276649e-15,3.8400591594168e-15,-7.6697509884897e-15,-0.00029619845902012,0.00029619845902058,-0.00029619987238877,0.00029619987238949,-0.00029619846295428,0.0002961984629467,-0.00029619986839497,0.00029619986838735,-0.00029421817730321,0.00029421817729661,-0.00029422074344187,0.00029422074343569,3.1173312382587e-15,1.5111860579935e-14,3.2533435934163e-10,-3.2535331621766e-10,-0.00029649588468307,0.00029649588467467,-0.00029619833965199,0.00029619857082332,-0.00029619999175906,0.0002961997605026,-0.00029619833964803,0.00029619857082748,-0.00029619999175509,0.00029619976050668,-0.00029421788085158,0.00029421851849049,-0.00029422103991046,0.00029422040224049,-0.00029714154043145,0.00029714133963985,-0.00029714154042093,0.00029714133965222,-2.0707856816932e-09,-2.0707857224029e-09,-0.00027549289321764,0.00027548629839478,-2.3582442738481e-09,-1.7275448800716e-09,-0.00027947158522826,0.00027946695320107,-0.00027947136022501,0.00027946717821842,-0.00027947158522825,0.00027946695320098,-0.00027947136022517,0.00027946717821845,-0.0002813081317668,0.0002813038459657,-0.0002813081317678,0.00028130384596702,0.77960726241633,120135,2834,0.0012346350419895,0.0012346350419865,0.0011472177250825,31.910922788083,0.00017048738230467,0.00017048738230467,0.00017048738230467,1058920.045567,0.0036230366423682
3919200,0.24345687930553,0.0047491719609686,0.0016164949845176,0.0016164949845154,0.0015161819919356,-0.00043465346293851,0.00043465346293493,-1.6848602933805e-15,-1.6129801363287e-15,3.1293161662451e-15,-7.1199442552962e-15,-0.00043874266994191,0.00043874266994181,-0.00043874381948607,0.00043874381948624,-0.00043874266775263,0.00043874266774554,-0.00043874382163674,0.0004387438216296,-0.00042435634442949,0.00042435634442326,-0.00042435791105159,0.00042435791104582,-5.8561446282132e-16,1.0283502798025e-14,8.551349990114e-10,-8.5514674379975e-10,-0.00043465346293963,0.00043465346293275,-0.00043874235578103,0.00043874294774618,-0.00043874413365192,0.00043874354162254,-0.0004387423557775,0.00043874294774996,-0.00043874413364839,0.00043874354162629,-0.00042435551004089,0.00042435719052486,-0.0004243587454473,0.00042435706494156,-0.00043452396745247,0.00043452340520293,-0.0004345239674431,0.00043452340521447,-1.4858692655694e-09,-1.4858693104184e-09,-0.00038648121149953,0.00038647622973008,-2.3684587791191e-09,-6.1647465723452e-10,-0.00039462042842258,0.00039461642325157,-0.00039461982438197,0.00039461702729767,-0.00039462042842256,0.00039461642325144,-0.00039461982438211,0.00039461702729768,-0.00039816904623331,0.00039816635894704,-0.00039816904623432,0.00039816635894843,0.74640349119053,120135,2834,0.0018094126271516,0.0018094126271494,0.0016090469338036,32.495963683243,0.00017516770946594,0.00017516770946594,0.00017516770946594,1604569.1660861,0.0052415646155288
4419200,0.33929753407311,0.0064997626775706,0.0022361978930791,0.002236197893078,0.0020273668914135,-0.00058770486181689,0.00058770486181269,-2.0581724183631e-15,-1.9873510524954e-15,8.9135512265403e-16,-5.3591892216245e-15,-0.00059750899742144,0.00059750899741927,-0.00059750996857133,0.00059750996856945,-0.0005975089907226,0.00059750899071644,-0.00059750997526463,0.00059750997525835,-0.00056666415305319,0.00056666415304732,-0.00056666545301013,0.0005666654530048,-6.4575086098975e-15,2.0981910142967e-16,1.2199763665672e-09,-1.2199942263916e-09,-0.00058770486182083,0.00058770486180815,-0.00059750855347179,0.0005975093920939,-0.00059751041252662,0.00059750957387121,-0.00059750855346965,0.00059750939209619,-0.00059751041252439,0.00059750957387344,-0.00056666296855287,0.00056666536144901,-0.00056666663752856,0.00056666424459372,-0.00058741411068137,0.00058741329901961,-0.00058741411067562,0.0005874132990268,-9.3565604860262e-10,-9.356560846577e-10,-0.00050272075251428,0.00050271720162202,-2.2107582744276e-09,3.0669845054851e-10,-0.00051405385979363,0.00051405085728153,-0.00051405299774508,0.00051405171932718,-0.00051405385979361,0.00051405085728137,-0.00051405299774526,0.00051405171932718,-0.0005240587085319,0.00052405737040321,-0.00052405870853252,0.00052405737040425,0.74424082049435,120135,2834,0.0024457634556658,0.0024457634556646,0.0020925147798656,33.597313013784,0.00018397850411027,0.00018397850411027,0.00018397850411027,2037154.6442425,0.0070084956266244
4919200,0.44316872170811,0.0083987536050785,0.0029208495044757,0.0029208495044715,0.0025570545961313,-0.00075837243401505,0.00075837243401156,-1.7112712512497e-15,-1.6431850959409e-15,1.1765522924292e-15,-4.9282317988426e-15,-0.00077426237495806,0.00077426237495655,-0.00077426327193597,0.00077426327193474,-0.00077426236474315,0.00077426236473775,-0.00077426328214564,0.00077426328214014,-0.00072386670962892,0.00072386670962386,-0.00072386802757857,0.00072386802757406,-5.7266779950947e-15,7.0718594420851e-16,1.3767753162759e-09,-1.3767918785763e-09,-0.00075837243401773,0.00075837243400688,-0.00077426188141769,0.0007742628209403,-0.00077426376548244,0.00077426282592804,-0.00077426188141562,0.00077426282094243,-0.00077426376548032,0.00077426282593015,-0.00072386539324432,0.00072386808441189,-0.00072386934397969,0.00072386665277688,-0.0007592106757319,0.00075920974787223,-0.00075921067572649,0.00075920974787914,-5.9113755894201e-10,-5.9113759606398e-10,-0.0006222240344573,0.00062222129529193,-2.0291630053767e-09,8.1824641534462e-10,-0.00063717017683674,0.00063716784403928,-0.0006371692061644,0.00063716881470991,-0.00063717017683674,0.00063716784403911,-0.0006371692061646,0.00063716881470992,-0.00065670915487932,0.00065670850787671,-0.00065670915487995,0.0006567085078778,0.74696695512676,120135,2834,0.0031548736766574,0.0031548736766533,0.002589346603698,35.341419242199,0.00019793135393759,0.00019793135393759,0.00019793135393759,2397585.8557185,0.0089388257939295
5419200,0.5442195510258,0.010206122101927,0.0035852689669819,0.003585268966977,0.003035584167968,-0.00092316232276865,0.00092316232276506,-1.7215062326957e-15,-1.6647432608832e-15,1.0145572412668e-15,-4.929202357428e-15,-0.00094599154539136,0.00094599154538971,-0.00094599233696638,0.00094599233696504,-0.00094599153210199,0.00094599153209651,-0.0009459923502503,0.0009459923502447,-0.00087265965146004,0.00087265965145508,-0.00087266082313,0.00087266082312563,-5.3086907643177e-15,9.1272889525142e-16,1.5189642867828e-09,-1.5189795707774e-09,-0.00092316232277069,0.00092316232276067,-0.00094599100856191,0.0009459920363788,-0.00094599287380139,0.00094599184595333,-0.0009459910085599,0.00094599203638088,-0.00094599287379936,0.0009459918459554,-0.00087265820606647,0.00087266116924023,-0.00087266226853801,0.00087265930533198,-0.00092549038969861,0.00092548936024822,-0.00092549038969354,0.00092548936025509,-3.3810140632546e-11,-3.3810171328357e-11,-0.00072574624651305,0.00072574492689169,-1.6220626327103e-09,1.5219681788309e-09,-0.00074535946239991,0.00074535820924545,-0.00074535839361273,0.00074535927803071,-0.0007453594623999,0.00074535820924529,-0.00074535839361294,0.00074535927803072,-0.00077449052510107,0.00077449112199735,-0.00077449052510193,0.00077449112199867,0.73229095938567,120135,2834,0.0038390754966977,0.0038390754966928,0.0030195920765612,36.271728142712,0.0002053738251417,0.0002053738251417,0.0002053738251417,2688187.7813285,0.010755198463518
5919200,0.63557772566695,0.011619949422269,0.0041139741277587,0.0041139741277534,0.0033920011667572,-0.0010546376346111,0.0010546376346077,-1.6081273434018e-15,-1.5337178518548e-15,9.6467641215073e-16,-4.5903597676601e-15,-0.0010882248988074,0.0010882248988059,-0.0010882255587524,0.0010882255587512,-0.0010882248836351,0.00108822488363,-0.0010882255739184,0.0010882255739133,-0.0009845092769545,0.00098450927694988,-0.00098451040575314,0.00098451040574908,-4.6411229227629e-15,1.2209698233718e-15,1.8552818932509e-09,-1.8552961946365e-09,-0.0010546376346127,0.0010546376346035,-0.0010882242491654,0.0010882254999805,-0.0010882262083987,0.0010882249575539,-0.0010882242491635,0.0010882254999824,-0.0010882262083968,0.0010882249575559,-0.00098450750343513,0.00098451112341469,-0.0009845121792857,0.00098450855927595,-0.0010558222324328,0.0010558209754195,-0.001055822232428,0.0010558209754259,6.0290566555834e-10,6.0290562097066e-10,-0.00079798830180462,0.00079798852356935,-1.3318250170625e-09,2.4962560520948e-09,-0.00082358537693246,0.00082358530176171,-0.00082358407990521,0.00082358659878723,-0.00082358537693246,0.00082358530176155,-0.00082358407990541,0.00082358659878723,-0.0008581896364811,0.00085819174084631,-0.00085818963648186,0.00085819174084753,0.6360792580923,120135,2834,0.0043846115668723,0.0043846115668669,0.0033197862285982,36.778423420807,0.00020942738736646,0.00020942738736646,0.00020942738736646,2980709.4698602,0.012162434470335
6419200,0.71274086771962,0.012730055420246,0.0045308745696636,0.004530874569658,0.0036683062809242,-0.0011571382015115,0.0011571382015083,-1.5483056415019e-15,-1.4875427918829e-15,9.6308822537463e-16,-4.4775102739582e-15,-0.0012016443521015,0.0012016443521001,-0.0012016448604648,0.0012016448604637,-0.0012016443352909,0.001201644335286,-0.0012016448772685,0.0012016448772635,-0.0010687573049442,0.0010687573049397,-0.0010687583644499,0.001068758364446,-4.3372204420692e-15,1.418381991095e-15,2.2675792784917e-09,-2.2675931387148e-09,-0.001157138201513,0.0011571382015041,-0.0012016435606889,0.0012016450885608,-0.001201645651881,0.00120164412398,-0.0012016435606871,0.0012016450885628,-0.0012016456518792,0.0012016441239819,-0.0010687551268191,0.0010687595525962,-0.0010687605425878,0.0010687561167814,-0.0011571478269596,0.0011571462925,-0.0011571478269549,0.0011571462925063,1.3139500701839e-09,1.3139500385224e-09,-0.00085075499966253,0.00085075694076662,-1.0445729115991e-09,3.6202095457516e-09,-0.00087931055079161,0.00087931178092083,-0.00087930897409043,0.0008793133576204,-0.0008793105507916,0.00087931178092068,-0.00087930897409063,0.00087931335762041,-0.00092212921041304,0.0009221330495916,-0.00092212921041381,0.00092213304959281,0.59525943091212,120135,2834,0.0048097124545646,0.0048097124545589,0.0035390355683434,36.741547043095,0.00020913237634476,0.00020913237634476,0.00020913237634476,3199972.3723906,0.01324550512621
6919200,0.78206139943598,0.013807386550967,0.0049341698139302,0.0049341698139244,0.0039390469231123,-0.0012617816283408,0.0012617816283374,-1.7245355519168e-15,-1.6785957788747e-15,9.6273529497994e-16,-4.5268617074822e-15,-0.0013135526312215,0.0013135526312205,-0.0013135532414848,0.0013135532414834,-0.0013135526151326,0.0013135526151273,-0.001313553257567,0.0013135532575617,-0.0011585492498518,0.0011585492498467,-0.0011585503948945,0.0011585503948897,-4.4000420523239e-15,1.4003773136439e-15,2.2759837010633e-09,-2.2759974500534e-09,-0.0012617816283419,0.0012617816283337,-0.0013135518485744,0.0013135533729064,-0.001313554024135,0.0013135524997768,-0.0013135518485721,0.001313553372908,-0.0013135540241331,0.0013135524997784,-0.0011585470756465,0.0011585515197961,-0.0011585525691118,0.0011585481249337,-0.0012632290691981,0.0012632275301312,-0.0012632290691936,0.0012632275301366,7.4559284056671e-10,7.4559283562126e-10,-0.00090291516275334,0.00090291561361275,-1.602477735725e-09,3.0671133357203e-09,-0.0009336846046493,0.00093368459244857,-0.00093368302902824,0.00093368616806751,-0.00093368460464922,0.00093368459244816,-0.00093368302902889,0.00093368616806766,-0.00098772780202826,0.00098773043911727,-0.0009877278020289,0.0009877304391176,0.64378173705164,120135,2834,0.0052435061636722,0.005243506163667,0.0037557528927177,38.622030839912,0.00022417624671929,0.00022417624671929,0.00022417624671929,3183037.0070246,0.01434478741584
7419200,0.84167887277077,0.014609102309365,0.0052377975107076,0.0052377975107021,0.0041335072879554,-0.001344654667061,0.0013446546670579,-1.2976662395401e-15,-1.279549145946e-15,1.115495334148e-15,-4.9090853249307e-15,-0.0014041818175998,0.0014041818175983,-0.0014041824782858,0.0014041824782846,-0.0014041818019992,0.0014041818019936,-0.0014041824938801,0.001404182493875,-0.0012259950412745,0.001225995041271,-0.0012259962272725,0.001225996227269,-3.8777638899161e-15,2.4400184048847e-15,2.2381384801215e-09,-2.2381512753145e-09,-0.001344654667062,0.0013446546670541,-0.0014041810524094,0.0014041825479827,-0.0014041832434796,0.0014041817478783,-0.0014041810524073,0.0014041825479849,-0.0014041832434774,0.0014041817478804,-0.001225992908691,0.0012259972793247,-0.0012259983598692,0.001225993989207,-0.0013462410336404,0.0013462395203467,-0.0013462410336359,0.0013462395203547,5.1782412353941e-10,5.1782414635719e-10,-0.00093236190119395,0.00093236181455098,-1.7855436308218e-09,2.8040827693433e-09,-0.0009695875008547,0.00096958702667629,-0.00096958595268051,0.00096958857485048,-0.00096958750085472,0.00096958702667625,-0.00096958595268057,0.00096958857484992,-0.0010273729006281,0.0010273750389644,-0.0010273729006301,0.0010273750389666,0.55664260548471,120135,2834,0.0055868955919461,0.0055868955919404,0.0038781894585213,40.760342977763,0.00024128274382211,0.00024128274382211,0.00024128274382211,3095142.6773334,0.015165984058534
7919200,0.8864065968875,0.015157329379658,0.0054455432031175,0.005445543203112,0.0042662429734287,-0.001397714362419,0.0013977143624157,-1.5528937366329e-15,-1.5210711793784e-15,1.0586147188705e-15,-4.671974921432e-15,-0.0014645812357204,0.0014645812357191,-0.0014645816445777,0.0014645816445766,-0.0014645812177279,0.0014645812177227,-0.0014645816625631,0.0014645816625579,-0.0012656247087076,0.0012656247087031,-0.0012656257594955,0.0012656257594913,-4.0117009747007e-15,2.0203502741712e-15,2.5601912277571e-09,-2.5602041307308e-09,-0.00139771436242,0.001397714362412,-0.0014645803467485,0.0014645820691275,-0.0014645825335523,0.0014645808111459,-0.0014645803467465,0.0014645820691295,-0.0014645825335503,0.0014645808111478,-0.0012656222485473,0.0012656272456036,-0.0012656282196675,0.0012656232225839,-0.0013991920635029,0.0013991903310846,-0.001399192063498,0.0013991903310912,1.7920143144683e-09,1.7920143193397e-09,-0.00094754187982192,0.00094754501314562,-8.6394345287055e-10,4.3945491986231e-09,-0.00098630057343843,0.00098630267950158,-0.00098629879864751,0.00098630445429111,-0.00098630057343841,0.00098630267950141,-0.00098629879864776,0.00098630445429106,-0.0010512554839841,0.0010512605049674,-0.0010512554839851,0.0010512605049685,0.5070717593097,120135,2834,0.005806695036191,0.0058066950361854,0.0039413563675529,40.955786552745,0.00024284629242196,0.00024284629242196,0.00024284629242196,3089831.88994,0.015676532238637
8419200,0.91967635122271,0.015544515924388,0.0055918674411889,0.0055918674411833,0.0043607810420162,-0.0014371760005772,0.0014371760005735,-1.915647360641e-15,-1.8892364027718e-15,9.8608752276188e-16,-4.8399109675716e-15,-0.0015091535754066,0.001509153575405,-0.0015091539841013,0.0015091539840996,-0.0015091535575566,0.001509153557551,-0.0015091540019449,0.0015091540019395,-0.0012950360849751,0.0012950360849699,-0.0012950371471669,0.0012950371471617,-3.9132333945824e-15,2.205195385552e-15,2.6796955364247e-09,-2.6797088554931e-09,-0.0014371760005779,0.0014371760005699,-0.0015091526488224,0.0015091544490929,-0.0015091549106891,0.0015091531103915,-0.0015091526488201,0.0015091544490946,-0.0015091549106871,0.0015091531103938,-0.0012950335100893,0.0012950387418219,-0.0012950397220616,0.0012950344903025,-0.0014391760762719,0.0014391742644818,-0.0014391760762672,0.0014391742644879,1.7981566897413e-09,1.7981567070469e-09,-0.00095503383243992,0.00095503694969691,-9.7410282223736e-10,4.5221859449476e-09,-0.00099584402672907,0.00099584607047352,-0.00099584217313312,0.00099584792406959,-0.00099584402672929,0.00099584607047371,-0.00099584217313339,0.00099584792406951,-0.0010657220157131,0.0010657271214096,-0.0010657220157138,0.0010657271214098,0.48138031764921,120135,2834,0.005970125241157,0.0059701252411511,0.0039725945858018,41.431758169835,0.00024665406535868,0.00024665406535868,0.00024665406535868,3013400.0809761,0.016040333583822
8919200,0.94391468552334,0.015797014655829,0.0056872888024995,0.0056872888024939,0.0044224370508358,-0.0014643757982616,0.0014643757982582,-1.66118454607e-15,-1.6138918731817e-15,1.0335566608476e-15,-4.8485577622415e-15,-0.0015401496684328,0.0015401496684312,-0.001540150052014,0.001540150052013,-0.001540149650516,0.0015401496505106,-0.0015401500699239,0.0015401500699188,-0.0013145118116987,0.001314511811694,-0.0013145128634768,0.0013145128634724,-4.3437496543709e-15,1.8191433579449e-15,2.791640911664e-09,-2.7916548486603e-09,-0.0014643757982628,0.0014643757982543,-0.001540148704517,0.0015401505793745,-0.0015401510159324,0.001540149141047,-0.0015401487045148,0.0015401505793764,-0.0015401510159304,0.001540149141049,-0.0013145091273486,0.0013145145783787,-0.0013145155478409,0.001314510096781,-0.0014668250236994,0.0014668231371489,-0.0014668250236944,0.0014668231371554,1.9273039559314e-09,1.927303946805e-09,-0.00095601967484204,0.00095602310094189,-9.5759110494391e-10,4.7639416295528e-09,-0.00099941840924154,0.00099942065762789,-0.00099941648046657,0.00099942258640111,-0.00099941840924171,0.00099942065762778,-0.0009994164804671,0.00099942258640113,-0.0010718881603038,0.0010718936074501,-0.0010718881603048,0.001071893607451,0.43063171924148,120135,2834,0.0060827484419313,0.0060827484419258,0.0039768155189226,41.890791442358,0.00025032633153887,0.00025032633153887,0.00025032633153887,2915716.8080531,0.016273530556815
9419200,0.96049964348157,0.015960670923716,0.0057488978760024,0.0057488978759969,0.0044628751717167,-0.0014796562787685,0.0014796562787652,-1.5946571666711e-15,-1.5491291457562e-15,1.1280831848919e-15,-4.7403845962692e-15,-0.0015582394875612,0.0015582394875601,-0.0015582396501277,0.0015582396501267,-0.001558239467447,0.0015582394674417,-0.0015582396702352,0.0015582396702298,-0.0013241233869137,0.0013241233869091,-0.0013241243336789,0.001324124333675,-3.6715348959527e-15,2.4903302870089e-15,3.0519661762474e-09,-3.0519779013907e-09,-0.0014796562787689,0.0014796562787619,-0.0015582384216738,0.0015582404810196,-0.0015582407160172,0.0015582386566449,-0.0015582384216716,0.0015582404810217,-0.0015582407160149,0.001558238656647,-0.0013241204358122,0.0013241263930274,-0.0013241272847927,0.0013241213275524,-0.0014824773013211,0.0014824752375316,-0.0014824773013162,0.0014824752375379,2.9921290563518e-09,2.9921290460115e-09,-0.00095374321270281,0.00095374928948956,-1.8137316206594e-10,6.0836845882231e-09,-0.00099784158128149,0.00099784600012504,-0.00099783946769233,0.00099784811371222,-0.00099784158128155,0.00099784600012484,-0.00099783946769262,0.00099784811371236,-0.0010736667046393,0.0010736745492992,-0.0010736667046402,0.0010736745493007,0.40723906797413,120135,2834,0.0061460140480619,0.0061460140480562,0.0039674603534313,41.152076711289,0.00024441661369031,0.00024441661369031,0.00024441661369031,2860977.805466,0.016392631947963
9919200,0.97165221536344,0.016070087475046,0.0057899081214047,0.0057899081213991,0.0044902712322417,-0.0014890464958973,0.0014890464958938,-1.6928306381272e-15,-1.6468320433527e-15,1.0050281206102e-15,-4.7170323684873e-15,-0.0015691139625761,0.0015691139625747,-0.0015691140018596,0.0015691140018583,-0.0015691139417122,0.0015691139417068,-0.0015691140227162,0.0015691140227108,-0.0013299623208207,0.0013299623208161,-0.0013299632076615,0.0013299632076571,-4.0122303702928e-15,2.0028241551704e-15,3.3659133598926e-09,-3.3659261544668e-09,-0.0014890464958981,0.0014890464958903,-0.0015691127869856,0.001569115059238,-0.0015691151774528,0.0015691129051732,-0.0015691127869836,0.0015691150592399,-0.0015691151774507,0.001569112905175,-0.0013299590581703,0.0013299656291301,-0.001329966470324,0.0013299598993369,-0.0014924215541998,0.0014924192797636,-0.0014924215541948,0.0014924192797702,3.6180423733912e-09,3.6180423659951e-09,-0.00094920889966909,0.00094921651353844,1.2033784641029e-10,7.0223924160427e-09,-0.00099478822639704,0.00099479379680512,-0.00099478589920828,0.00099479612399281,-0.00099478822639715,0.00099479379680508,-0.00099478589920861,0.00099479612399291,-0.0010718931917833,0.0010719025492278,-0.0010718931917842,0.0010719025492286,0.40432824355073,120135,2834,0.006184882172523,0.0061848821725175,0.0039487197621302,39.829766776117,0.00023383813420893,0.00023383813420893,0.00023383813420893,2797808.5012512,0.016452605280407
10419200,0.97914505144435,0.016148122071718,0.0058190060325262,0.0058190060325206,0.004510110006671,-0.0014947531093725,0.0014947531093692,-1.637949961753e-15,-1.5929513364301e-15,9.8808746166512e-16,-4.6862686024169e-15,-0.0015754822779374,0.0015754822779361,-0.00157548223047,0.0015754822304688,-0.0015754822569094,0.001575482256904,-0.0015754822514911,0.0015754822514859,-0.0013334681932782,0.0013334681932735,-0.0013334690320214,0.001333469032017,-3.9858194124235e-15,1.9714260449677e-15,3.6961156859121e-09,-3.6961286191203e-09,-0.0014947531093734,0.0014947531093655,-0.00157548099119,0.0015754834843718,-0.0015754835172203,0.0015754810240111,-0.0015754809911881,0.0015754834843738,-0.0015754835172181,0.0015754810240129,-0.0013334646062182,0.0013334718237334,-0.0013334726190931,0.0013334654015507,-0.001498704636448,0.0014987021414131,-0.001498704636443,0.0014987021414196,4.0771500883457e-09,4.0771500812755e-09,-0.00094337296241797,0.00094338170252586,2.4611751683027e-10,7.8121533956194e-09,-0.00099093766098996,0.00099094399210617,-0.00099093511218566,0.00099094654090913,-0.00099093766099005,0.00099094399210609,-0.00099093511218598,0.00099094654090901,-0.0010680447570766,0.0010680552917534,-0.0010680447570776,0.0010680552917544,0.42845224819223,120135,2834,0.0062084936750829,0.0062084936750773,0.0039245685811897,38.10212501894,0.00022001700015152,0.00022001700015152,0.00022001700015152,2735604.3565548,0.016476063438556
10919200,0.98463798663182,0.016201007263194,0.0058387492923591,0.0058387492923535,0.0045235086784818,-0.001501458207144,0.0015014582071408,-1.5120126325814e-15,-1.4731314674331e-15,1.0013811731984e-15,-4.6233293486973e-15,-0.0015824838386017,0.0015824838386005,-0.0015824840560402,0.0015824840560392,-0.0015824838210729,0.0015824838210679,-0.0015824840735621,0.0015824840735569,-0.0013386546381681,0.0013386546381637,-0.0013386556015067,0.0013386556015026,-3.8597056180545e-15,2.0548463480972e-15,3.7651290065266e-09,-3.765141651224e-09,-0.0015014582071448,0.0015014582071371,-0.0015824825538173,0.0015824850748338,-0.001582485340827,0.0015824828197835,-0.0015824825538153,0.0015824850748356,-0.0015824853408251,0.0015824828197855,-0.0013386510030105,0.0013386583624631,-0.0013386592366764,0.0013386518771966,-0.0015058588541233,0.0015058563191017,-0.0015058588541186,0.0015058563191082,2.8366465680639e-09,2.8366465664534e-09,-0.00093920285920149,0.00093920848229926,-1.019517378363e-09,6.6522098818329e-09,-0.00098968642407875,0.00098968997248943,-0.00098968384597902,0.00098969255058762,-0.00098968642407867,0.00098968997248928,-0.00098968384597922,0.00098969255058757,-0.0010651948821107,0.0010652028650744,-0.0010651948821117,0.0010652028650757,0.39597081456719,120135,2834,0.0062362342877326,0.0062362342877269,0.0039073241354852,37.946481464521,0.00021877185171617,0.00021877185171617,0.00021877185171617,2659908.357679,0.016514939446357
11419200,0.98863984330631,0.016239449019414,0.0058530538171341,0.0058530538171286,0.0045333413851516,-0.0015045727727841,0.0015045727727809,-1.5190124187427e-15,-1.4828958750195e-15,9.8032299298196e-16,-4.5228030079433e-15,-0.0015864550018921,0.0015864550018909,-0.0015864551842111,0.00158645518421,-0.0015864549841235,0.0015864549841185,-0.0015864552019726,0.0015864552019676,-0.0013399215835555,0.0013399215835511,-0.0013399225325428,0.0013399225325389,-3.8007662421414e-15,1.9963082122243e-15,3.831911296599e-09,-3.8319237662122e-09,-0.001504572772785,0.0015045727727773,-0.0015864536931915,0.001586456259963,-0.0015864564929142,0.001586453926116,-0.0015864536931897,0.0015864562599648,-0.0015864564929124,0.0015864539261179,-0.0013399178819739,0.0013399253718813,-0.0013399262341358,0.0013399187442015,-0.0015091029535623,0.0015091003735582,-0.0015091029535577,0.0015091003735646,2.9942178047507e-09,2.9942178063778e-09,-0.00093741516471352,0.00093742118482637,-9.313628957216e-10,6.8758294219508e-09,-0.00098750823035023,0.00098751209036926,-0.00098750560676673,0.00098751471395116,-0.00098750823035023,0.00098751209036904,-0.0009875056067669,0.00098751471395111,-0.001064979825972,0.0010649881835997,-0.0010649798259728,0.0010649881836008,0.39457194111806,120135,2834,0.0062491290909365,0.006249129090931,0.003899931408518,37.628928304722,0.00021623142643777,0.00021623142643777,0.00021623142643777,2647564.3224305,0.016533639696568
11919200,0.99153991043047,0.016269493689145,0.0058641908856618,0.0058641908856563,0.0045411119178266,-0.0015073122152794,0.0015073122152762,-1.4963660517501e-15,-1.4517791785544e-15,9.8573459236719e-16,-4.4797454997912e-15,-0.0015893895711361,0.0015893895711349,-0.001589389711596,0.0015893897115949,-0.0015893895531241,0.0015893895531191,-0.0015893897296008,0.0015893897295958,-0.0013417489144517,0.0013417489144473,-0.0013417498408113,0.0013417498408074,-3.7508265912929e-15,2.0058073475837e-15,3.9190180757004e-09,-3.9190304948416e-09,-0.0015073122152802,0.0015073122152726,-0.0015893882315976,0.0015893908577455,-0.0015893910511369,0.0015893884249622,-0.0015893882315956,0.0015893908577473,-0.0015893910511351,0.0015893884249641,-0.0013417451260217,0.0013417527861147,-0.0013417536292527,0.001341745969133,-0.0015121769357801,0.0015121742972645,-0.0015121769357756,0.0015121742972708,3.1962865232329e-09,3.196286517288e-09,-0.00093458939361926,0.00093459591914127,-8.2000882433557e-10,7.1644540450426e-09,-0.00098579534068451,0.00098579957757345,-0.00098579265754115,0.00098580226071521,-0.00098579534068449,0.00098579957757332,-0.00098579265754139,0.0009858022607152,-0.0010630054812446,0.0010630143205455,-0.0010630054812455,0.0010630143205467,0.42516298576731,120135,2834,0.0062604618191486,0.006260461819143,0.0038882385048651,37.105745136137,0.0002120459610891,0.0002120459610891,0.0002120459610891,2613128.9839765,0.016544796616787
12419200,0.99367480150114,0.016292744266744,0.0058727938258706,0.0058727938258651,0.0045471566150086,-0.0015104587097114,0.0015104587097081,-1.585186867747e-15,-1.5355413255607e-15,8.8103190860937e-16,-4.5055094186035e-15,-0.0015923591493695,0.0015923591493682,-0.0015923593259989,0.0015923593259978,-0.001592359131953,0.001592359131948,-0.0015923593434083,0.0015923593434033,-0.0013444627930812,0.0013444627930768,-0.0013444637312044,0.0013444637312004,-3.8301771083655e-15,1.8437651356378e-15,3.9601195266538e-09,-3.9601321727944e-09,-0.0015104587097123,0.0015104587097045,-0.0015923578003305,0.0015923604507837,-0.0015923606750404,0.0015923580245603,-0.0015923578003286,0.0015923604507855,-0.0015923606750386,0.0015923580245622,-0.001344458967492,0.0013444667092475,-0.0013444675568052,0.0013444598150224,-0.0015156791762431,0.001515676511398,-0.0015156791762386,0.0015156765114042,3.0273388633257e-09,3.027338851435e-09,-0.0009308070304136,0.000930813135204,-1.0230260388082e-09,7.0386610156428e-09,-0.00098447529762482,0.00098447912148744,-0.00098447258964196,0.00098448182946887,-0.00098447529762485,0.00098447912148737,-0.0009844725896422,0.00098448182946884,-0.0010597535886735,0.0010597621034498,-0.0010597535886744,0.0010597621034509,0.44663644431852,120135,2834,0.0062734709616814,0.0062734709616757,0.0038725874055975,36.802856690792,0.00020962285352634,0.00020962285352634,0.00020962285352634,2557882.1402922,0.016555341020906
12919200,0.99522793402996,0.016308605476407,0.0058786701420342,0.0058786701420286,0.004551265192344,-0.0015117340975716,0.0015117340975685,-1.5078362895776e-15,-1.4564849171503e-15,9.6008831701977e-16,-4.4218060933297e-15,-0.0015937183938837,0.0015937183938824,-0.0015937185008702,0.0015937185008692,-0.0015937183759183,0.0015937183759134,-0.0015937185188284,0.0015937185188234,-0.0013450353071801,0.0013450353071757,-0.001345036205977,0.0013450362059733,-3.7600027815548e-15,1.9109826364172e-15,4.0414717854998e-09,-4.0414843480229e-09,-0.0015117340975725,0.0015117340975648,-0.0015937170137111,0.0015937197213453,-0.0015937198810451,0.0015937171733841,-0.0015937170137092,0.0015937197213472,-0.0015937198810432,0.0015937171733859,-0.0013450313987131,0.0013450392987478,-0.0013450401144559,0.0013450322143942,-0.0015171595327067,0.0015171568126193,-0.001517159532702,0.0015171568126254,3.3506019694133e-09,3.3506019570866e-09,-0.00092640855590103,0.00092641548051277,-7.8854951079858e-10,7.4416665354538e-09,-0.00098169345122134,0.00098169791720169,-0.00098169068609077,0.00098170068233084,-0.00098169345122134,0.00098169791720148,-0.000981690686091,0.00098170068233088,-0.0010560624913145,0.0010560717414896,-0.0010560624913155,0.0010560717414907,0.41875849256559,120135,2834,0.006278737998996,0.0062787379989904,0.0038543726088574,36.137721867558,0.00020430177494046,0.00020430177494046,0.00020430177494046,2518627.2077901,0.016547536682714
13419200,0.99633448883166,0.016319647592002,0.0058827568040772,0.0058827568040716,0.0045541339838529,-0.001509914608671,0.0015099146086679,-1.4575437083343e-15,-1.4030159623548e-15,9.6708810318111e-16,-4.3925716923029e-15,-0.0015925289190124,0.0015925289190111,-0.0015925288957646,0.0015925288957636,-0.001592528899934,0.0015925288999292,-0.0015925289148358,0.0015925289148309,-0.0013419956302484,0.0013419956302442,-0.0013419964700608,0.001341996470057,-3.755297042959e-15,1.8960562197068e-15,4.2080592608325e-09,-4.2080718559661e-09,-0.001509914608672,0.0015099146086642,-0.0015925274753234,0.001592530299878,-0.001592530339456,0.0015925275148745,-0.0015925274753215,0.0015925302998798,-0.0015925303394542,0.0015925275148764,-0.0013419915524232,0.0013419997767891,-0.0013420005478979,0.001341992323505,-0.0015153776340916,0.0015153748009063,-0.0015153776340872,0.0015153748009125,3.9596858265913e-09,3.9596858107577e-09,-0.00092301237462241,0.00092302082775938,-3.6075043216751e-10,8.2144183843546e-09,-0.00097725641484436,0.00097726211476153,-0.00097725353296794,0.00097726499663636,-0.00097725641484439,0.00097726211476134,-0.00097725353296817,0.0009772649966363,-0.0010537126355416,0.001053723273462,-0.0010537126355426,0.0010537232734632,0.40900439415344,120135,2834,0.0062712087842909,0.0062712087842852,0.0038402848916763,34.797782573748,0.00019358226058998,0.00019358226058998,0.00019358226058998,2525311.0388577,0.016517905817178
13919200,0.99714927417495,0.016327607980293,0.0058857029778926,0.005885702977887,0.0045562020245137,-0.0015090510183704,0.0015090510183672,-1.5301885479079e-15,-1.4813076882434e-15,9.3461850686969e-16,-4.4392761478668e-15,-0.001591879975797,0.0015918799757956,-0.0015918800167822,0.0015918800167811,-0.0015918799577089,0.0015918799577039,-0.0015918800348631,0.0015918800348581,-0.0013405477423026,0.0013405477422982,-0.0013405486173215,0.0013405486173176,-3.7568264080026e-15,1.9067420720297e-15,4.3010458688852e-09,-4.3010583948537e-09,-0.0015090510183713,0.0015090510183636,-0.0015918785082576,0.0015918813895655,-0.0015918814843239,0.0015918786029892,-0.0015918785082557,0.0015918813895673,-0.0015918814843221,0.001591878602991,-0.0013405435789616,0.0013405519875012,-0.0013405527806742,0.0013405443721076,-0.0015146671421681,0.0015146642487484,-0.0015146671421636,0.0015146642487546,3.6760582127059e-09,3.6760582018865e-09,-0.00092015163670802,0.00092015936444113,-7.2505012689095e-10,8.0273920422936e-09,-0.00097438159093421,0.00097438661086395,-0.00097437865166345,0.00097438955013317,-0.00097438159093422,0.00097438661086379,-0.00097437865166371,0.00097438955013317,-0.0010513367483676,0.001051346849805,-0.0010513367483684,0.001051346849806,0.40047476240274,120135,2834,0.0062676315804856,0.00626763158048,0.0038284195306629,33.830418703716,0.00018584334962973,0.00018584334962973,0.00018584334962973,2517115.4814385,0.016498572288954
14419200,0.99775016487121,0.016333208875875,0.0058877772595915,0.0058877772595859,0.0045576543566977,-0.0015075219761904,0.0015075219761873,-1.514189036682e-15,-1.466955185526e-15,9.5250031353395e-16,-4.4300999576049e-15,-0.0015905090590443,0.001590509059043,-0.0015905090594213,0.0015905090594202,-0.0015905090407607,0.0015905090407557,-0.0015905090776977,0.0015905090776927,-0.0013385690146168,0.0013385690146124,-0.0013385698698813,0.0013385698698774,-3.776296401443e-15,1.8946301373535e-15,4.4104133175567e-09,-4.4104259165212e-09,-0.0015075219761913,0.0015075219761836,-0.0015905075536279,0.0015905105088874,-0.00159051056484,0.0015905076095536,-0.001590507553626,0.0015905105088892,-0.0015905105648382,0.0015905076095554,-0.0013385647430419,0.001338573365507,-0.001338574141468,0.0013385655189758,-0.0015132434005702,0.0015132404338669,-0.0015132434005657,0.0015132404338731,3.8767274008989e-09,3.8767273925804e-09,-0.00091691767208181,0.00091692589980525,-6.3660398340404e-10,8.3371531425574e-09,-0.00097120681005874,0.00097121219460137,-0.00097120379669665,0.00097121520796196,-0.00097120681005876,0.00097121219460123,-0.00097120379669691,0.00097121520796192,-0.0010484983813232,0.0010485089751605,-0.0010484983813241,0.0010485089751616,0.38210045494667,120135,2834,0.0062612986224624,0.0062612986224568,0.0038150065533882,32.644566513696,0.00017635653210956,0.00017635653210956,0.00017635653210956,2510810.8712179,0.016472063781037
14919200,0.99818118186593,0.016337382826423,0.0058893197031306,0.0058893197031251,0.004558743420167,-0.0015038924473584,0.0015038924473552,-1.4880133657425e-15,-1.4358973107934e-15,9.5308853085843e-16,-4.4265118319255e-15,-0.0015871161464888,0.0015871161464875,-0.0015871159872808,0.0015871159872797,-0.0015871161268167,0.0015871161268118,-0.0015871160069457,0.0015871160069407,-0.0013344449049662,0.0013344449049618,-0.001334445683702,0.0013344456836982,-3.8119423713066e-15,1.8571989508873e-15,4.6116244512339e-09,-4.6116371760395e-09,-0.0015038924473593,0.0015038924473515,-0.0015871145639995,0.001587117660708,-0.0015871175697725,0.0015871144730369,-0.0015871145639976,0.0015871176607099,-0.0015871175697706,0.0015871144730387,-0.0013344404284166,0.0013344494424719,-0.0013344501602636,0.001334441146181,-0.0015096659701659,0.0015096628668207,-0.0015096659701614,0.001509662866827,4.6381031483731e-09,4.6381031353094e-09,-0.00091248722943292,0.000912497363906,-9.4902948041111e-11,9.2959398420493e-09,-0.00096634848134833,0.0009663553997145,-0.00096634532665085,0.00096635855441053,-0.0009663484813484,0.00096635539971439,-0.00096634532665106,0.00096635855441047,-0.0010445132266545,0.0010445255492997,-0.0010445132266554,0.0010445255493009,0.39678962402156,120135,2834,0.0062462715851958,0.0062462715851902,0.003796623102125,30.582526235683,0.00015986020988547,0.00015986020988547,0.00015986020988547,2516943.7006202,0.01642282866861
15419200,0.99847488375477,0.016340873377326,0.005890603038935,0.0058906030389295,0.0045596672994615,-0.0014983160416898,0.0014983160416867,-1.5033658379115e-15,-1.4440147098712e-15,9.6338233403687e-16,-4.4316293226485e-15,-0.0015813602786633,0.0015813602786621,-0.0015813598668861,0.001581359866885,-0.0015813602570851,0.0015813602570801,-0.0015813598884571,0.0015813598884521,-0.0013288138602367,0.0013288138602324,-0.0013288145048556,0.0013288145048517,-3.8045308330181e-15,1.8789139354874e-15,5.0006829003727e-09,-5.0006955454778e-09,-0.0014983160416908,0.001498316041683,-0.001581358552573,0.0015813619188693,-0.0015813615929788,0.0015813582266555,-0.0015813585525711,0.0015813619188712,-0.0015813615929769,0.0015813582266573,-0.0013288089913721,0.0013288187638314,-0.0013288193737319,0.0013288096012456,-0.0015042794086948,0.0015042760424169,-0.0015042794086902,0.0015042760424232,5.8703198852941e-09,5.8703198647283e-09,-0.0009036541502765,0.00090366737345955,7.217892707211e-10,1.0912371546814e-08,-0.00095885306966591,0.00095886239031916,-0.00095884964512541,0.00095886581485816,-0.00095885306966589,0.00095886239031901,-0.00095884964512567,0.0009588658148581,-0.0010358288750401,0.0010358440411621,-0.0010358288750411,0.0010358440411632,0.48651353790675,120135,2834,0.0062231706701543,0.0062231706701487,0.0037599877509031,27.076094703398,0.00013180875762718,0.00013180875762718,0.00013180875762718,2499269.5932163,0.016338638060865
15919200,0.99870053616532,0.016344160104226,0.0058918079898183,0.0058918079898127,0.0045605441245956,-0.0014977423250361,0.001497742325033,-1.5346589995739e-15,-1.4554849476986e-15,9.7267616776369e-16,-4.4275118013772e-15,-0.0015799483111735,0.0015799483111723,-0.0015799482185331,0.001579948218532,-0.0015799482935631,0.0015799482935582,-0.0015799482361364,0.0015799482361315,-0.0013288320110933,0.0013288320110887,-0.0013288327980489,0.0013288327980451,-3.8225891048797e-15,1.8567230348196e-15,5.070173956501e-09,-5.0701866157038e-09,-0.0014977423250371,0.0014977423250293,-0.0015799465905256,0.0015799499821126,-0.0015799499391836,0.0015799465475694,-0.0015799465905237,0.0015799499821145,-0.0015799499391817,0.0015799465475713,-0.0013288270962976,0.001328837012761,-0.001328837712856,0.0013288277963656,-0.0015040455383936,0.001504042133006,-0.0015040455383891,0.0015040421330122,4.4087686240127e-09,4.4087685840578e-09,-0.0008948186457408,0.00089482819403268,-7.5717755247898e-10,9.5314894204021e-09,-0.000954603153931,0.00095460918840131,-0.0009545997032643,0.00095461263906643,-0.00095460315393099,0.0009546091884012,-0.00095459970326463,0.00095461263906641,-0.0010267551787746,0.0010267673279646,-0.0010267551787753,0.0010267673279656,0.59571470761932,120135,2834,0.0062207613671407,0.0062207613671351,0.0037233715024669,25.356673867491,0.00011805339093993,0.00011805339093993,0.00011805339093993,2422639.3114598,0.016296537877287
16419200,0.99888361878156,0.016346406412484,0.0058926361571087,0.0058926361571031,0.0045611340982723,-0.001498546783667,0.0014985467836638,-1.5727754822004e-15,-1.4717197458543e-15,9.5655901307288e-16,-4.4523933942028e-15,-0.0015801998472985,0.0015801998472972,-0.0015801998890985,0.0015801998890973,-0.0015801998310633,0.0015801998310583,-0.0015801999053267,0.0015801999053216,-0.0013296756701869,0.0013296756701824,-0.0013296765154725,0.0013296765154686,-3.8105306497278e-15,1.9112669797528e-15,4.9961445481285e-09,-4.9961571778461e-09,-0.0014985467836679,0.0014985467836601,-0.0015801981614558,0.0015802014960702,-0.0015802015749435,0.0015801982403024,-0.0015801981614539,0.0015802014960721,-0.0015802015749416,0.0015801982403042,-0.0013296708357465,0.0013296806102117,-0.0013296813499245,0.0013296715754321,-0.0015051109594178,0.0015051076062423,-0.0015051109594132,0.0015051076062484,3.7397410608346e-09,3.7397409991266e-09,-0.00088600698656253,0.00088601487805263,-1.3351060098874e-09,8.793891351753e-09,-0.0009502868269746,0.00095029143771736,-0.00095028343169466,0.00095029483299576,-0.00095028682697469,0.00095029143771719,-0.00095028343169488,0.00095029483299574,-0.0010182041865457,0.0010182148920193,-0.0010182041865465,0.0010182148920204,0.50210013400473,120135,2834,0.0062240572173677,0.0062240572173622,0.0036868688766433,24.413557052752,0.00011050845642202,0.00011050845642202,0.00011050845642202,2340415.2285939,0.016266149812966
16919200,0.99903576872549,0.016348834707024,0.0058935225873966,0.005893522587391,0.0045617895322361,-0.0014954615534515,0.0014954615534484,-1.4456617183798e-15,-1.3411354998193e-15,9.3444204167235e-16,-4.3636902216709e-15,-0.0015788326570787,0.0015788326570776,-0.0015788327403224,0.0015788327403214,-0.0015788326411755,0.0015788326411708,-0.0015788327562181,0.0015788327562134,-0.0013238809844198,0.0013238809844157,-0.001323881875825,0.0013238818758214,-3.8432943547015e-15,1.7466052476476e-15,4.9012256850713e-09,-4.9012385692283e-09,-0.0014954615534525,0.0014954615534445,-0.0015788310053306,0.0015788342750877,-0.001578834392073,0.0015788311222885,-0.0015788310053288,0.0015788342750894,-0.0015788343920712,0.0015788311222905,-0.0013238762456812,0.0013238858346393,-0.0013238866145753,0.00132387702559,-0.0015018690809125,0.0015018657912443,-0.0015018690809082,0.0015018657912504,3.512844281438e-09,3.5128442156676e-09,-0.00088602184672472,0.00088602915909156,-1.4622934476558e-09,8.4736726989695e-09,-0.00094514165166279,0.00094514589695643,-0.00094513832157373,0.00094514922704426,-0.00094514165166274,0.00094514589695628,-0.00094513832157403,0.00094514922704418,-0.0010204388061361,0.0010204489665931,-0.0010204388061372,0.0010204489665945,0.65164127745866,120135,2834,0.0062113146667401,0.0062113146667343,0.0036868912656787,23.780779109271,0.00010544623287417,0.00010544623287417,0.00010544623287417,2397235.462961,0.016240258771353
17419200,0.99915513385759,0.016350550035636,0.0058941530597546,0.005894153059749,0.0045622439161328,-0.0014957038297988,0.0014957038297957,-1.5264239570312e-15,-1.3737227395956e-15,8.6762055361118e-16,-4.256222916488e-15,-0.0015778166362396,0.0015778166362382,-0.001577816517037,0.0015778165170358,-0.0015778166183979,0.0015778166183931,-0.0015778165348714,0.0015778165348666,-0.0013251737386,0.0013251737385959,-0.0013251744992579,0.0013251744992544,-3.7256508898051e-15,1.6893108122915e-15,4.9699168146979e-09,-4.9699296188962e-09,-0.0014957038297998,0.0014957038297919,-0.001577814947079,0.0015778182732306,-0.0015778182061999,0.0015778148800214,-0.0015778149470772,0.0015778182732323,-0.0015778182061981,0.0015778148800232,-0.0013251689203854,0.0013251786398567,-0.0013251793174852,0.0013251695979859,-0.0015027408101951,0.0015027374713005,-0.0015027408101908,0.0015027374713064,4.4448720617322e-09,4.4448719535364e-09,-0.00087485662959088,0.00087486632966321,-6.2625173109574e-10,9.4682834760154e-09,-0.00094044304446581,0.00094044919890337,-0.00094043965784889,0.00094045258551861,-0.0009404430444659,0.00094044919890324,-0.00094043965784908,0.00094045258551854,-0.0010085186976273,0.0010085308781693,-0.0010085186976283,0.0010085308781708,0.58772740813402,120135,2834,0.0062122700867224,0.006212270086717,0.0036406377712609,21.985675046707,9.1085400373656e-05,9.1085400373656e-05,9.1085400373656e-05,2287979.1049781,0.01619521411123
17919200,0.99924633145248,0.016351646312185,0.0058945570008321,0.0058945570008265,0.0045625323105262,-0.0014897567422865,0.0014897567422834,-1.5434822594412e-15,-1.4105451441082e-15,8.8603175586747e-16,-4.2661637892717e-15,-0.001573262606031,0.0015732626060296,-0.0015732623435929,0.0015732623435918,-0.0015732625869633,0.0015732625869586,-0.0015732623626531,0.0015732623626482,-0.0013168264022294,0.0013168264022251,-0.0013168271122079,0.0013168271122041,-3.8116482626444e-15,1.6302419021922e-15,5.1335442238388e-09,-5.133557289435e-09,-0.0014897567422876,0.0014897567422795,-0.0015732608535109,0.0015732642953113,-0.0015732640961154,0.0015732606542878,-0.0015732608535091,0.0015732642953131,-0.0015732640961136,0.0015732606542895,-0.0013168214171367,0.0013168314550136,-0.001316832097313,0.0013168220594081,-0.0014967217412403,0.0014967182908568,-0.0014967217412362,0.0014967182908627,5.0761632610402e-09,5.0761631656997e-09,-0.00086956442948493,0.00086957571762897,-1.7397165504823e-10,1.0259458386209e-08,-0.0009314867581625,0.00093149423826761,-0.00093148325686382,0.0009314977395647,-0.00093148675816258,0.00093149423826749,-0.00093148325686419,0.00093149773956478,-0.0010052892496261,0.00100530286212,-0.0010052892496269,0.0010053028621209,0.4915601615792,120135,2834,0.006187665544336,0.0061876655443304,0.0036186530451176,19.506539265841,7.1252314126725e-05,7.1252314126725e-05,7.1252314126725e-05,2324419.2643074,0.016122859208182
18419200,0.99931882173932,0.016352558047823,0.005894892030057,0.0058948920300514,0.0045627739877149,-0.0014840697528169,0.0014840697528139,-1.4954837257634e-15,-1.3713698702977e-15,8.5644442444602e-16,-4.2439879961387e-15,-0.0015688244855247,0.0015688244855234,-0.0015688242933653,0.0015688242933643,-0.0015688244673658,0.001568824467361,-0.0015688243115168,0.001568824311512,-0.001309368367905,0.0013093683679008,-0.0013093691442461,0.0013093691442424,-3.6652409705807e-15,1.7260321743945e-15,5.2441904911422e-09,-5.2442031275398e-09,-0.0014840697528179,0.0014840697528101,-0.0015688227029602,0.0015688262134993,-0.0015688260759322,0.0015688225653661,-0.0015688227029583,0.001568826213501,-0.0015688260759304,0.0015688225653679,-0.001309363280137,0.0013093735369015,-0.0013093742320263,0.0013093639752345,-0.0014909798037642,0.0014909762812491,-0.00149097980376,0.001490976281255,4.7718234066708e-09,4.7718233215142e-09,-0.00086833353455036,0.00086834400976765,-5.7683926195651e-10,1.0069509138283e-08,-0.00092538174927854,0.00092538855794099,-0.00092537817879988,0.00092539212841809,-0.00092538174927857,0.0009253885579408,-0.00092537817880017,0.00092539212841803,-0.0010054170450811,0.00100543007371,-0.001005417045082,0.0010054300737112,0.51421839069127,120135,2834,0.0061641486527328,0.0061641486527271,0.0036134900912958,17.482598154057,5.5060785232459e-05,5.5060785232459e-05,5.5060785232459e-05,2388094.6255992,0.016069811036035
18919200,0.99938207716875,0.016353467541884,0.0058952256478485,0.0058952256478429,0.0045630162461928,-0.0014840200841815,0.0014840200841784,-1.5166007277123e-15,-1.3926045157115e-15,8.7809082198696e-16,-4.2897513039834e-15,-0.0015682996777817,0.0015682996777804,-0.0015682997517799,0.0015682997517788,-0.0015682996622887,0.0015682996622839,-0.0015682997672656,0.0015682997672608,-0.0013098301005848,0.0013098301005806,-0.0013098309987792,0.0013098309987755,-3.6957106279889e-15,1.7645388105432e-15,5.1028602776213e-09,-5.1028728783613e-09,-0.0014840200841824,0.0014840200841746,-0.0015682979616132,0.0015683013637416,-0.0015683014679507,0.0015682980657955,-0.0015682979616114,0.0015683013637434,-0.0015683014679489,0.0015682980657972,-0.0013098251662082,0.0013098351512087,-0.0013098359331678,0.00130982594814,-0.0014912669651285,0.0014912635416858,-0.0014912669651242,0.0014912635416918,3.5832056033999e-09,3.5832055177075e-09,-0.0008657710363596,0.00086577850145766,-1.5886855918872e-09,8.7467149720096e-09,-0.00092444025958597,0.00092444453017316,-0.00092443679708102,0.00092444799267657,-0.000924440259586,0.00092444453017299,-0.0009244367970813,0.00092444799267651,-0.0010023667418724,0.0010023771766957,-0.0010023667418732,0.0010023771766968,0.5877987766322,120135,2834,0.0061639316823799,0.0061639316823743,0.0036028621380358,16.87600887506,5.0208071000484e-05,5.0208071000484e-05,5.0208071000484e-05,2357946.5423657,0.016058576545018
19419200,0.99944173044668,0.016354426362075,0.0058955766939177,0.0058955766939121,0.0045632729742452,-0.0014871665747958,0.0014871665747927,-1.530070904443e-15,-1.3932515547684e-15,8.9750199369487e-16,-4.3052802413498e-15,-0.0015707279043039,0.0015707279043025,-0.0015707282111356,0.0015707282111345,-0.0015707278905803,0.0015707278905754,-0.0015707282248519,0.0015707282248471,-0.0013136474430626,0.0013136474430582,-0.0013136484489873,0.0013136484489836,-3.7082984787328e-15,1.7892944306547e-15,4.7984555101486e-09,-4.7984680064547e-09,-0.0014871665747967,0.001487166574789,-0.0015707263026579,0.0015707294920537,-0.0015707298127837,0.0015707266233613,-0.0015707263026561,0.0015707294920555,-0.0015707298127819,0.0015707266233631,-0.0013136428169439,0.0013136522093856,-0.0013136530751177,0.0013136436826491,-0.0014946435557309,0.0014946403388948,-0.0014946435557266,0.0014946403389007,2.4676453379636e-09,2.4676452407494e-09,-0.00086313117050703,0.00086313584172346,-2.3761060800498e-09,7.3319504192839e-09,-0.00092531398920033,0.00092531601793336,-0.00092531073863671,0.00092531926849541,-0.00092531398920037,0.0009253160179332,-0.00092531073863697,0.00092531926849534,-0.00099932174547115,0.00099932964029844,-0.00099932174547193,0.00099932964029967,0.65664642788028,120135,2834,0.0061769349833033,0.0061769349832977,0.0035919469091962,17.544789883193,5.5558319065548e-05,5.5558319065548e-05,5.5558319065548e-05,2295843.6352384,0.01607391862878
19919200,0.99949925067867,0.016355326899209,0.0058959065790468,0.0058959065790412,0.0045635137411213,-0.0014908307439722,0.0014908307439689,-1.6949482204953e-15,-1.5644227961927e-15,8.0662241706238e-16,-4.3367498682096e-15,-0.0015740930923066,0.001574093092305,-0.0015740934826189,0.0015740934826177,-0.0015740930787636,0.0015740930787585,-0.0015740934961546,0.0015740934961496,-0.0013172768130701,0.0013172768130655,-0.0013172778600948,0.0013172778600909,-3.7149453344995e-15,1.7205418779649e-15,4.509371521474e-09,-4.5093843532306e-09,-0.0014908307439732,0.0014908307439652,-0.0015740915884975,0.0015740945839648,-0.0015740949864304,0.0015740919909359,-0.0015740915884956,0.0015740945839664,-0.0015740949864286,0.0015740919909377,-0.0013172724713191,0.0013172812978416,-0.0013172822018579,0.0013172733753071,-0.0014984603884006,0.0014984573649102,-0.0014984603883965,0.001498457364916,2.0298984177158e-09,2.0298983237643e-09,-0.00086103920978311,0.00086104279710787,-2.52210202988e-09,6.6058319142794e-09,-0.00092583218295685,0.00092583345719459,-0.0009258291259045,0.00092583651424536,-0.00092583218295702,0.00092583345719457,-0.0009258291259049,0.00092583651424552,-0.00099742653972414,0.00099743332798206,-0.00099742653972472,0.00099743332798299,0.63949909152815,120135,2834,0.0061920867941225,0.006192086794117,0.0035833088856979,18.680112935612,6.4640903484894e-05,6.4640903484894e-05,6.4640903484894e-05,2241299.4473492,0.016095938055399
20419200,0.99955061776703,0.016356195339056,0.0058962236847339,0.0058962236847283,0.0045637479695937,-0.0014904644511628,0.0014904644511597,-1.5621287486273e-15,-1.422191847133e-15,8.6385596273449e-16,-4.3603373829213e-15,-0.0015744236646841,0.0015744236646827,-0.0015744238309361,0.001574423830935,-0.0015744236485904,0.0015744236485854,-0.0015744238470225,0.0015744238470176,-0.0013155553083523,0.001315555308348,-0.0013155562419894,0.0013155562419856,-3.6807110862146e-15,1.8352809049355e-15,4.4228545686848e-09,-4.4228670848987e-09,-0.0014904644511637,0.001490464451156,-0.0015744221709115,0.001574425122782,-0.001574425324711,0.0015744223728137,-0.0015744221709097,0.0015744251227838,-0.0015744253247091,0.0015744223728155,-0.0013155510369063,0.0013155596882733,-0.0013155605134474,0.0013155518620534,-0.0014981346625637,0.0014981316916952,-0.0014981346625594,0.0014981316917014,3.0397396282888e-09,3.039739526544e-09,-0.00085955604162791,0.00085956219649024,-1.4581511990884e-09,7.5197767347436e-09,-0.00092298934934135,0.00092299288179616,-0.00092298633802371,0.00092299589311221,-0.00092298934934148,0.00092299288179603,-0.00092298633802399,0.00092299589311214,-0.00099710274663482,0.00099711160624339,-0.00099710274663571,0.00099711160624456,0.69004788769245,120135,2834,0.0061905769518303,0.0061905769518248,0.0035771591208473,18.601988088262,6.4015904706096e-05,6.4015904706096e-05,6.4015904706096e-05,2243343.0558989,0.016086616758786
20919200,0.99959334518436,0.016356869801854,0.0058964706446943,0.0058964706446887,0.0045639285124708,-0.001489164551189,0.0014891645511858,-1.5727754822004e-15,-1.4478969442128e-15,8.9320800722615e-16,-4.3852777974794e-15,-0.0015729930672877,0.0015729930672863,-0.0015729930009886,0.0015729930009875,-0.001572993048982,0.001572993048977,-0.0015729930192872,0.0015729930192823,-0.0013139925516163,0.0013139925516119,-0.0013139933625244,0.0013139933625205,-3.7659437765321e-15,1.8085093767395e-15,4.5353986079492e-09,-4.5354110816503e-09,-0.0014891645511899,0.0014891645511821,-0.0015729915195914,0.001572994558612,-0.0015729945486874,0.0015729915096398,-0.0015729915195895,0.0015729945586137,-0.0015729945486855,0.0015729915096417,-0.0013139881567011,0.0013139970239594,-0.0013139977574515,0.0013139888901661,-0.0014971119822335,0.00149710893217,-0.0014971119822291,0.0014971089321761,4.1093284299121e-09,4.1093283448692e-09,-0.00085336568652026,0.00085337455254427,-5.3167267679961e-10,8.6954742676178e-09,-0.00091855798316385,0.00091856374969173,-0.00091855488492921,0.00091856684792479,-0.00091855798316392,0.00091856374969154,-0.00091855488492949,0.00091856684792473,-0.00099116744591193,0.00099117863534251,-0.0009911674459128,0.00099117863534357,0.64466974006305,120135,2834,0.0061851791942957,0.0061851791942902,0.0035515000306737,17.279467778144,5.3435742225153e-05,5.3435742225153e-05,5.3435742225153e-05,2205522.9435428,0.016049581019245
21419200,0.99962763785632,0.016357408197256,0.0058966675549066,0.005896667554901,0.0045640730874483,-0.0014845483464699,0.0014845483464669,-1.4500733483134e-15,-1.3174891633751e-15,9.0503117544824e-16,-4.30504495442e-15,-0.0015692540062206,0.0015692540062193,-0.0015692537935103,0.0015692537935092,-0.0015692539867137,0.0015692539867089,-0.0015692538130096,0.0015692538130049,-0.0013078382204172,0.0013078382204132,-0.0013078389726485,0.001307838972645,-3.8559998489103e-15,1.6449928302379e-15,4.7357474682932e-09,-4.7357603392485e-09,-0.001484548346471,0.001484548346463,-0.0015692523830499,0.0015692555620326,-0.0015692554166834,0.0015692522376732,-0.001569252383048,0.0015692555620343,-0.0015692554166815,0.0015692522376752,-0.0013078336224956,0.0013078428801425,-0.0013078435705826,0.0013078343129081,-0.001492514594915,0.001492511409045,-0.0014925145949106,0.0014925114090513,4.7811435270178e-09,4.7811434329089e-09,-0.00084914203127953,0.00084915258231443,-7.5976896525979e-11,9.5642681696156e-09,-0.00091187871891517,0.0009118858484823,-0.00091187548114645,0.00091188908624946,-0.00091187871891531,0.00091188584848202,-0.00091187548114669,0.00091188908624919,-0.00098825196322444,0.00098826469390752,-0.00098825196322545,0.00098826469390885,0.64095610021346,120135,2834,0.0061660784482887,0.006166078448283,0.0035339541526329,15.234642705972,3.707714164778e-05,3.707714164778e-05,3.707714164778e-05,2229126.9294976,0.015992934024055
21919200,0.99965679700985,0.016357853094195,0.0058968304782067,0.0058968304782012,0.0045641921377871,-0.001482418462611,0.001482418462608,-1.4985424558507e-15,-1.36589944918e-15,9.1991307375764e-16,-4.3315147340217e-15,-0.0015672957619805,0.0015672957619792,-0.0015672956976612,0.0015672956976601,-0.0015672957442732,0.0015672957442684,-0.0015672957153612,0.0015672957153564,-0.0013052436373227,0.0013052436373185,-0.0013052444671689,0.0013052444671652,-3.6843580336264e-15,1.8527139661174e-15,4.7995538387463e-09,-4.7995663304954e-09,-0.0014824184626119,0.0014824184626043,-0.0015672941307036,0.0015672973425159,-0.0015672973289403,0.0015672941171014,-0.0015672941307018,0.0015672973425177,-0.0015672973289386,0.0015672941171033,-0.0013052389871728,0.0013052483734754,-0.0013052491173307,0.001305239731001,-0.0014905615513152,0.0014905583262011,-0.0014905615513107,0.0014905583262072,4.1311087488173e-09,4.1311086547016e-09,-0.00084572411219356,0.00084573300103257,-7.6669976350844e-10,8.9842432474614e-09,-0.00090819933939266,0.00090820500832564,-0.00090819606777686,0.00090820827993976,-0.00090819933939263,0.00090820500832542,-0.00090819606777716,0.0009082082799397,-0.00098519651706673,0.00098520791727847,-0.00098519651706755,0.00098520791727966,0.62311101531201,120135,2834,0.0061572590982341,0.0061572590982286,0.0035197635667233,13.998045017254,2.7184360138034e-05,2.7184360138034e-05,2.7184360138034e-05,2224200.5786518,0.015960596093926
22419200,0.99968508191081,0.016358304092511,0.0058969953945078,0.0058969953945022,0.0045643133035013,-0.0014839215208473,0.0014839215208441,-1.5371883340692e-15,-1.405133544723e-15,9.0785461860576e-16,-4.3530434880977e-15,-0.0015690452483413,0.00156904524834,-0.0015690455744362,0.0015690455744351,-0.0015690452343763,0.0015690452343714,-0.0015690455883939,0.0015690455883891,-0.0013062956009775,0.0013062956009732,-0.0013062966243707,0.001306296624367,-3.684299211894e-15,1.8640705240537e-15,4.5399539081312e-09,-4.5399663421336e-09,-0.0014839215208481,0.0014839215208405,-0.0015690437309527,0.0015690467496204,-0.0015690470918271,0.0015690440731327,-0.0015690437309508,0.0015690467496222,-0.0015690470918252,0.0015690440731345,-0.0013062912269078,0.0013063001120028,-0.0013063009984522,0.0013062921133302,-0.0014921235102991,0.0014921204650478,-0.0014921235102946,0.0014921204650539,2.3385487798463e-09,2.3385486859135e-09,-0.00084731236539386,0.00084731672371943,-2.2496284505292e-09,6.9432736107582e-09,-0.00090894598649439,0.00090894792141197,-0.00090894290726261,0.0009089510006422,-0.00090894598649444,0.00090894792141179,-0.00090894290726291,0.00090895100064213,-0.00098715338790974,0.00098716084436332,-0.00098715338791059,0.00098716084436455,0.65096373206224,120135,2834,0.0061634884263723,0.0061634884263667,0.0035263429729325,14.84869053451,3.398952427608e-05,3.398952427608e-05,3.398952427608e-05,2224704.9780384,0.015979936036997
22919200,0.99971183341876,0.016358688796513,0.0058971364920328,0.0058971364920272,0.0045644158124527,-0.0014856928370673,0.0014856928370642,-1.5324825954734e-15,-1.4021336363681e-15,9.2614817739715e-16,-4.372631125003e-15,-0.001570579246768,0.0015705792467667,-0.001570579510961,0.0015705795109599,-0.0015705792316444,0.0015705792316395,-0.0015705795260773,0.0015705795260725,-0.0013082186282106,0.0013082186282063,-0.0013082196175716,0.0013082196175678,-3.7078867266057e-15,1.8807609034204e-15,4.3642527156752e-09,-4.364265107443e-09,-0.0014856928370682,0.0014856928370606,-0.0015705777794938,0.0015705806871902,-0.0015705809782374,0.0015705780705144,-0.0015705777794919,0.001570580687192,-0.0015705809782356,0.0015705780705162,-0.0013082144195565,0.0013082229581425,-0.0013082238262373,0.0013082152876246,-0.0014940508797946,0.0014940479497254,-0.0014940508797901,0.0014940479497315,2.5844797507429e-09,2.5844796590675e-09,-0.00084647760529984,0.00084648260421723,-1.8428895593309e-09,7.0095159308011e-09,-0.00090942996831304,0.00090943255601222,-0.0009094270005062,0.00090943552381747,-0.00090942996831309,0.00090943255601206,-0.00090942700050647,0.00090943552381741,-0.00098620651537013,0.00098621437755893,-0.00098620651537097,0.00098621437756013,0.58748017292924,120135,2834,0.0061708131517022,0.0061708131516967,0.0035228990788311,15.356614185573,3.8052913484584e-05,3.8052913484584e-05,3.8052913484584e-05,2196888.5486508,0.015991324120122
23419200,0.99973682368907,0.016359058870205,0.0058972718777956,0.00589727187779,0.0045645151146195,-0.001485265160559,0.0014852651605559,-1.5288356480616e-15,-1.4030747840873e-15,9.4079478877676e-16,-4.4005126261834e-15,-0.0015708922508533,0.001570892250852,-0.0015708924819575,0.0015708924819564,-0.0015708922351045,0.0015708922350996,-0.001570892497699,0.0015708924976941,-0.0013067422520402,0.0013067422520359,-0.0013067432315686,0.0013067432315648,-3.7365917320404e-15,1.8971561975922e-15,4.2499089580829e-09,-4.2499213856443e-09,-0.0014852651605599,0.0014852651605522,-0.0015708908171062,0.0015708936520828,-0.0015708939157068,0.0015708910807035,-0.0015708908171043,0.0015708936520846,-0.0015708939157049,0.0015708910807054,-0.0013067381521005,0.0013067464652192,-0.0013067473315198,0.0013067390183745,-0.0014935033414059,0.0014935004862319,-0.0014935033414014,0.001493500486238,2.7245416053797e-09,2.7245415193327e-09,-0.00084875926015824,0.00084876461362353,-1.595874461627e-09,7.0327440421578e-09,-0.00090888282878106,0.00090888581358586,-0.00090887993462707,0.00090888870773826,-0.00090888282878105,0.00090888581358572,-0.00090887993462736,0.0009088887077382,-0.00098936153445366,0.00098936961494549,-0.00098936153445452,0.00098936961494669,0.60459639632209,120135,2834,0.0061690613797394,0.0061690613797338,0.003532344530671,15.705180879016,4.0841447032126e-05,4.0841447032126e-05,4.0841447032126e-05,2229555.6213636,0.015997353736748
23919200,0.99976145074935,0.016359488748646,0.0058974286682945,0.0058974286682889,0.0045646314120628,-0.0014884177477663,0.0014884177477631,-1.5475409589801e-15,-1.4261917249394e-15,9.2408941676146e-16,-4.4313940357188e-15,-0.0015737242158608,0.0015737242158595,-0.0015737246242128,0.0015737246242117,-0.0015737242015804,0.0015737242015754,-0.0015737246384861,0.0015737246384812,-0.0013102906879104,0.001310290687906,-0.0013102917506612,0.0013102917506573,-3.6947694802698e-15,1.9534445745283e-15,4.0384565353074e-09,-4.0384689196753e-09,-0.0014884177477671,0.0014884177477595,-0.0015737228632619,0.001573725549387,-0.0015737259768139,0.0015737232906622,-0.00157372286326,0.0015737255493888,-0.0015737259768121,0.001573723290664,-0.0013102868033,0.0013102947051006,-0.0013102956352834,0.0013102877334557,-0.0014968205986708,0.0014968178872426,-0.0014968205986663,0.0014968178872489,1.8889240626337e-09,1.8889239799043e-09,-0.00085041460884656,0.00085041786283225,-2.20056209639e-09,5.9897289348981e-09,-0.00091169905323145,0.00091170034922199,-0.00091169630759301,0.00091170309485876,-0.00091169905323146,0.00091170034922177,-0.0009116963075933,0.00091170309485867,-0.00099063091985062,0.0009906371061603,-0.00099063091985146,0.00099063710616155,0.71228945632067,120135,2834,0.0061821082299967,0.006182108229991,0.0035392247747803,17.002473573137,5.1219788585096e-05,5.1219788585096e-05,5.1219788585096e-05,2205817.0808301,0.01603085906625
24419200,0.99978493597199,0.016359879376747,0.005897571432604,0.0058975714325985,0.0045647365115447,-0.0014922862083453,0.0014922862083421,-1.5999511225915e-15,-1.4760725540555e-15,8.4303306944782e-16,-4.5874480919039e-15,-0.0015766504680508,0.0015766504680495,-0.0015766507987981,0.0015766507987969,-0.0015766504525304,0.0015766504525255,-0.0015766508143114,0.0015766508143062,-0.0013151603299672,0.0013151603299629,-0.0013151613491804,0.0013151613491765,-3.806354306724e-15,1.9198154892818e-15,3.916127489644e-09,-3.9161401373496e-09,-0.0014922862083461,0.0014922862083385,-0.0015766491472578,0.0015766517582519,-0.0015766521195935,0.0015766495085722,-0.0015766491472557,0.0015766517582539,-0.0015766521195915,0.0015766495085743,-0.0013151565578527,0.0013151642176462,-0.001315165121307,0.0013151574614852,-0.001500921897362,0.0015009192655817,-0.0015009218973576,0.0015009192655882,2.2101870086487e-09,2.2101869229831e-09,-0.00084726885500844,0.00084727293650324,-1.7728471785224e-09,6.1841961942967e-09,-0.00091317926503618,0.00091318133702498,-0.00091317659478761,0.00091318400727166,-0.00091317926503614,0.00091318133702462,-0.00091317659478799,0.00091318400727155,-0.00098678342739893,0.00098679021232951,-0.00098678342739978,0.00098679021233099,0.6789410524186,120135,2834,0.006198092428754,0.0061980924287484,0.0035262304081427,17.880398299845,5.8243186398757e-05,5.8243186398757e-05,5.8243186398757e-05,2131739.9566018,0.016050148597187
24919200,0.99980668845712,0.016360203366635,0.0058976899295121,0.0058976899295065,0.0045648235076166,-0.0014926187310667,0.0014926187310636,-1.5142478584144e-15,-1.3928986243737e-15,9.8249939708254e-16,-4.4469817948175e-15,-0.0015777139602004,0.0015777139601992,-0.001577714211967,0.0015777142119659,-0.0015777139437459,0.0015777139437409,-0.0015777142284143,0.0015777142284094,-0.0013141980130184,0.001314198013014,-0.0013141989968959,0.001314198996892,-3.7351211887292e-15,1.98503420002e-15,3.8731149404083e-09,-3.8731272226404e-09,-0.0014926187310675,0.00149261873106,-0.001577712646912,0.0015777152343883,-0.0015777155252575,0.0015777129377546,-0.0015777126469101,0.0015777152343902,-0.0015777155252555,0.0015777129377565,-0.0013141942779778,0.0013142018514102,-0.0013142027319481,0.0013141951584887,-0.0015011867591643,0.001501184154144,-0.0015011867591598,0.0015011841541504,2.5664955749933e-09,2.5664954926774e-09,-0.00084777034335181,0.00084777532799573,-1.3853156388725e-09,6.4943381220358e-09,-0.00091187090217175,0.00091187378715793,-0.0009118682562279,0.00091187643310002,-0.00091187090217166,0.00091187378715768,-0.00091186825622814,0.00091187643309996,-0.00098842616535338,0.00098843367234721,-0.00098842616535413,0.00098843367234854,0.60789483588396,120135,2834,0.0061994800481436,0.006199480048138,0.003528308893762,18.351207525709,6.2009660205673e-05,6.2009660205673e-05,6.2009660205673e-05,2143269.6686778,0.016055074424588
25419200,0.99982805138511,0.01636058966435,0.0058978304248173,0.0058978304248117,0.004564928814721,-0.0014944201954583,0.0014944201954552,-1.554481923409e-15,-1.4250741120229e-15,9.7497021532917e-16,-4.437982069753e-15,-0.001580322750251,0.0015803227502497,-0.0015803232071547,0.0015803232071536,-0.0015803227356643,0.0015803227356593,-0.0015803232217342,0.0015803232217293,-0.0013148853674326,0.0013148853674282,-0.0013148864558467,0.0013148864558428,-3.7384152057463e-15,1.9751126855603e-15,3.6707716757472e-09,-3.6707840190496e-09,-0.0014944201954591,0.0014944201954516,-0.0015803215179942,0.0015803239607353,-0.0015803244394138,0.001580321996646,-0.0015803215179922,0.0015803239607371,-0.0015803244394119,0.0015803219966478,-0.0013148818416293,0.0013148890221272,-0.0013148899816617,0.0013148828011372,-0.0015029299705367,0.0015029275036044,-0.0015029299705321,0.0015029275036106,1.620093711195e-09,1.6200936175756e-09,-0.00085295878014569,0.00085296137619238,-2.1040845852154e-09,5.3509503660805e-09,-0.00091381149449949,0.0009138124562134,-0.00091380899338299,0.00091381495732817,-0.00091381149449956,0.00091381245621317,-0.00091380899338334,0.00091381495732815,-0.00099443754077666,0.0009944429231842,-0.00099443754077742,0.00099444292318525,0.7372586897946,120135,2834,0.0062069628552503,0.0062069628552447,0.0035498087992859,19.917689000741,7.4541512005929e-05,7.4541512005929e-05,7.4541512005929e-05,2176844.2027524,0.016092118186584
25919200,0.99984793536991,0.016360945013194,0.0058979600171614,0.0058979600171558,0.0045650249788773,-0.0014986479524874,0.0014986479524842,-1.5069539635908e-15,-1.3908986854705e-15,9.4132418436879e-16,-4.5052741316737e-15,-0.0015832775743238,0.0015832775743224,-0.0015832778913558,0.0015832778913547,-0.0015832775579706,0.0015832775579655,-0.001583277907702,0.001583277907697,-0.0013206179682389,0.0013206179682344,-0.00132061898116,0.0013206189811561,-3.7611203944713e-15,1.9719478006277e-15,3.6186924812102e-09,-3.6187045066992e-09,-0.0014986479524883,0.0014986479524808,-0.0015832763465166,0.0015832787638192,-0.001583279119165,0.0015832767018363,-0.0015832763465145,0.0015832787638211,-0.0015832791191633,0.0015832767018381,-0.0013206144827272,0.0013206215578624,-0.0013206224666823,0.0013206153915199,-0.0015075510439106,0.0015075486088615,-0.001507551043906,0.001507548608868,2.2293957272997e-09,2.2293956481109e-09,-0.00084936696190288,0.00084937111027791,-1.4661503852739e-09,5.9021601401014e-09,-0.00091584528776513,0.00091584760495807,-0.00091584281224979,0.00091585008047175,-0.00091584528776515,0.00091584760495756,-0.00091584281224981,0.00091585008047149,-0.00098961099174843,0.00098961762447545,-0.00098961099174928,0.00098961762447675,0.72914636768882,120135,2834,0.006224428165161,0.0062244281651558,0.0035349697368712,20.733151333626,8.1065210669009e-05,8.1065210669009e-05,8.1065210669009e-05,2089731.3931926,0.016112547904373
26419200,0.99986519794183,0.016361280477703,0.0058980818726808,0.0058980818726752,0.0045651167323473,-0.0014979174315318,0.0014979174315286,-1.6291267018858e-15,-1.5134243541601e-15,9.3485379379949e-16,-4.4682164402313e-15,-0.0015830458520227,0.0015830458520213,-0.0015830459494558,0.0015830459494547,-0.0015830458335604,0.0015830458335553,-0.001583045967911,0.001583045967906,-0.0013188560240212,0.0013188560240166,-0.0013188569289638,0.0013188569289598,-3.7442385572587e-15,1.9481047790156e-15,3.7372191331532e-09,-3.7372314504e-09,-0.0014979174315326,0.001497917431525,-0.0015830445692301,0.00158304707704,-0.0015830472322507,0.0015830447244143,-0.0015830445692282,0.0015830470770418,-0.0015830472322488,0.0015830447244161,-0.001318852410357,0.0013188597133354,-0.0013188605426395,0.0013188532396342,-0.0015067979271751,0.0015067954090546,-0.0015067979271705,0.0015067954090607,3.2441194970954e-09,3.2441194189963e-09,-0.00084724392228762,0.00084725063500088,-5.9785547330251e-10,7.0288844588605e-09,-0.00091296796849406,0.00091297241591962,-0.0009129654033316,0.00091297498108034,-0.00091296796849417,0.00091297241591946,-0.00091296540333196,0.00091297498108028,-0.00098846414148205,0.00098847298912553,-0.00098846414148271,0.00098847298912653,0.7920419595447,120135,2834,0.0062214057582011,0.0062214057581954,0.003526169553161,20.399371768778,7.8394974150225e-05,7.8394974150225e-05,7.8394974150225e-05,2088174.299968,0.016097460613986
26919200,0.99988126849426,0.01636157486184,0.0058981890458431,0.0058981890458375,0.0045651967701592,-0.0015007996606587,0.0015007996606555,-1.5271298178206e-15,-1.4171919998749e-15,9.7961713219258e-16,-4.5075093575067e-15,-0.00158566514943,0.0015856651494286,-0.0015856654746954,0.0015856654746942,-0.0015856651333236,0.0015856651333186,-0.0015856654907944,0.0015856654907894,-0.0013217645335961,0.0013217645335916,-0.0013217655528979,0.0013217655528941,-3.7542970735073e-15,2.0203059855426e-15,3.6807209308997e-09,-3.6807330914578e-09,-0.0015007996606595,0.001500799660652,-0.0015856639027806,0.0015856663600625,-0.001585666721347,0.0015856642640384,-0.0015856639027788,0.0015856663600645,-0.001585666721345,0.0015856642640402,-0.001321760988647,0.0013217681858706,-0.0013217690978585,0.0013217619006083,-0.0015098974637894,0.0015098949878467,-0.0015098974637847,0.001509894987853,2.1989449672932e-09,2.1989448977134e-09,-0.00084564860676251,0.00084565267268432,-1.5558583724734e-09,5.934964832867e-09,-0.00091341292208534,0.0009134151322133,-0.00091341040616341,0.00091341764813347,-0.00091341292208535,0.00091341513221313,-0.0009134104061635,0.00091341764813345,-0.00098687238877471,0.00098687899823494,-0.00098687238877578,0.00098687899823624,0.74688297492095,120135,2834,0.0062333236921476,0.006233323692142,0.0035195774795389,21.285749347536,8.5485994780288e-05,8.5485994780288e-05,8.5485994780288e-05,2045079.2745219,0.016114987054964
27419200,0.9998961865433,0.016361840528596,0.00589828568331,0.0058982856833044,0.0045652691619817,-0.00150192834101,0.0015019283410068,-1.6157153468876e-15,-1.5002482860917e-15,9.5114741368764e-16,-4.4683929054287e-15,-0.0015875998344662,0.0015875998344647,-0.0015876001756859,0.0015876001756848,-0.0015875998184006,0.0015875998183955,-0.0015876001917445,0.0015876001917395,-0.0013215264213827,0.0013215264213782,-0.0013215274514702,0.0013215274514662,-3.6671820877515e-15,2.0408501074742e-15,3.6131400792346e-09,-3.6131521827049e-09,-0.0015019283410108,0.0015019283410033,-0.0015875986106564,0.0015876010227582,-0.0015876013994979,0.0015875989873697,-0.0015875986106546,0.00158760102276,-0.001587601399496,0.0015875989873715,-0.0013215229432967,0.0013215300080899,-0.0013215309295673,0.0013215238647477,-0.0015110188080934,0.0015110163771394,-0.0015110188080889,0.0015110163771455,2.1172059318115e-09,2.117205854138e-09,-0.00084775238548208,0.00084775625011518,-1.5688774271381e-09,5.7856537700346e-09,-0.0009131210585975,0.0009131231447287,-0.0009131185882818,0.00091312561504286,-0.00091312105859771,0.00091312314472856,-0.00091311858828222,0.00091312561504274,-0.00099010210070699,0.0009901084941111,-0.00099010210070766,0.00099010849411216,0.72588280929977,120135,2834,0.0062380128056508,0.0062380128056452,0.0035282956675142,22.249554709462,9.3196437675697e-05,9.3196437675697e-05,9.3196437675697e-05,2060644.6734328,0.0161333686041
27919200,0.99990970805867,0.016362094441534,0.0058983779402769,0.0058983779402714,0.004565338560986,-0.0015030353697077,0.0015030353697045,-1.5803634856862e-15,-1.4583083908562e-15,9.3150095504994e-16,-4.4396290782615e-15,-0.0015890215002396,0.0015890215002383,-0.0015890217841083,0.0015890217841071,-0.0015890214834985,0.0015890214834934,-0.0015890218008423,0.0015890218008373,-0.0013220820224302,0.0013220820224258,-0.0013220830258323,0.0013220830258285,-3.7235333074369e-15,1.9370587010246e-15,3.5980419202757e-09,-3.5980542577284e-09,-0.0015030353697085,0.0015030353697009,-0.001589020276485,0.0015890226822087,-0.001589023007865,0.0015890206021148,-0.0015890202764831,0.0015890226822105,-0.0015890230078631,0.0015890206021166,-0.0013220785552391,0.0013220855890882,-0.0013220864930352,0.0013220794591592,-0.0015122258399458,0.0015122234177882,-0.0015122258399412,0.0015122234177943,2.3729874502223e-09,2.372987366306e-09,-0.00084911113098571,0.00084911564432561,-1.3067522457041e-09,6.0240298877545e-09,-0.00091344188843585,0.00091344454590616,-0.00091343942490688,0.00091344700943346,-0.00091344188843589,0.00091344454590598,-0.00091343942490718,0.00091344700943343,-0.00099184007966102,0.00099184700167182,-0.00099184007966182,0.000991847001673,0.76533978020323,120135,2834,0.0062426037334954,0.0062426037334899,0.0035339292418638,22.91755791133,9.8540463290642e-05,9.8540463290642e-05,9.8540463290642e-05,2063409.8139892,0.016148421061233
28419200,0.99992180151015,0.016362339457025,0.0058984668690033,0.0058984668689977,0.0045654057190237,-0.0015049142660381,0.0015049142660348,-1.6630080197759e-15,-1.547658602445e-15,8.7991429569285e-16,-4.4816277952295e-15,-0.0015905999231239,0.0015905999231224,-0.0015906001789172,0.0015906001789159,-0.0015905999061014,0.0015905999060962,-0.0015906001959325,0.0015906001959274,-0.001324214140545,0.0013242141405405,-0.0013242151279057,0.0013242151279017,-3.6813581252716e-15,1.9703196334553e-15,3.6075551795946e-09,-3.6075674591875e-09,-0.0015049142660389,0.0015049142660313,-0.0015905986940844,0.0015906011076726,-0.0015906014079586,0.001590598994344,-0.0015905986940824,0.0015906011076743,-0.0015906014079567,0.0015905989943459,-0.0013242106621823,0.0013242177140917,-0.0013242186062801,0.0013242115543437,-0.0015142771381897,0.0015142747092233,-0.0015142771381851,0.0015142747092295,2.5020340354212e-09,2.5020339579918e-09,-0.00084810481289787,0.00084810965221363,-1.1912017808772e-09,6.1616217088729e-09,-0.00091399771722152,0.00091400064312136,-0.00091399524578016,0.00091400311456102,-0.00091399771722162,0.00091400064312129,-0.00091399524578049,0.00091400311456094,-0.00099062209083573,0.0009906292910895,-0.00099062209083641,0.00099062929109052,0.82558911402084,120135,2834,0.0062503714263434,0.0062503714263379,0.003529775028811,23.440666013745,0.00010272532810996,0.00010272532810996,0.00010272532810996,2032950.5147097,0.016159990185635
28919200,0.99993258036046,0.016362541514477,0.0058985403342785,0.0058985403342729,0.0045654608459254,-0.0015070386697119,0.0015070386697089,-1.4972483777369e-15,-1.3652524101231e-15,9.3879484987352e-16,-4.3761016072174e-15,-0.0015924233662841,0.0015924233662828,-0.001592423625367,0.001592423625366,-0.0015924233493256,0.0015924233493207,-0.0015924236423184,0.0015924236423136,-0.0013264770254794,0.0013264770254752,-0.001326478011762,0.0013264780117581,-3.7646496984182e-15,1.8421483996419e-15,3.6132107381412e-09,-3.6132231771923e-09,-0.0015070386697128,0.0015070386697052,-0.0015924221358,0.0015924245528037,-0.0015924248558534,0.001592422438823,-0.0015924221357981,0.0015924245528055,-0.0015924248558516,0.001592422438825,-0.0013264735417948,0.0013264806049098,-0.0013264814954581,0.0013264744323162,-0.0015165422847291,0.0015165398521585,-0.0015165422847247,0.0015165398521647,2.4866814453106e-09,2.4866813508858e-09,-0.00084606506363234,0.00084606986546571,-1.2116227555341e-09,6.1521451396109e-09,-0.00091401498046043,0.0009140178625916,-0.00091401250540915,0.00091402033764126,-0.00091401498046047,0.00091401786259145,-0.00091401250540941,0.0009140203376411,-0.00098854983641141,0.00098855700912012,-0.0009885498364123,0.00098855700912146,0.76400561131051,120135,2834,0.0062591507616139,0.0062591507616083,0.0035213427214687,23.98291485588,0.00010706331884704,0.00010706331884704,0.00010706331884704,1993719.3455004,0.016169268718451
29419200,0.99994226865159,0.016362689820932,0.0058985944483385,0.0058985944483329,0.0045655009242605,-0.0015075948559862,0.0015075948559831,-1.5201888533917e-15,-1.3881928857779e-15,9.5026508770092e-16,-4.343102615314e-15,-0.0015938489195249,0.0015938489195235,-0.0015938492260385,0.0015938492260375,-0.0015938489030126,0.0015938489030077,-0.0015938492425436,0.0015938492425387,-0.0013256325853844,0.0013256325853802,-0.0013256336003675,0.0013256336003638,-3.622889323218e-15,1.960612094536e-15,3.5843318866715e-09,-3.5843440917153e-09,-0.001507594855987,0.0015075948559795,-0.0015938477020036,0.001593850097365,-0.0015938504435622,0.0015938480481742,-0.0015938477020016,0.0015938500973667,-0.0015938504435604,0.0015938480481762,-0.0013256291329228,0.0013256361403773,-0.0013256370528403,0.0013256300453595,-0.0015170400160489,0.0015170376034484,-0.0015170400160446,0.0015170376034545,2.2678809556054e-09,2.2678808615023e-09,-0.00084850939541433,0.00084851364333427,-1.3952379487049e-09,5.9060073937249e-09,-0.0009136054090361,0.0009136078462677,-0.00091360295573482,0.00091361029956719,-0.00091360540903607,0.00091360784626747,-0.00091360295573512,0.00091361029956709,-0.00099216284863795,0.0009921695409563,-0.00099216284863864,0.00099216954095766,0.62417410960896,120135,2834,0.0062614729388075,0.0062614729388019,0.0035314668026795,24.777340611544,0.00011341872489235,0.00011341872489235,0.00011341872489235,2018182.1080295,0.016184268276019
29919200,0.99995086532987,0.016362834720095,0.0058986470977307,0.0058986470977251,0.0045655405246393,-0.0015065615677289,0.0015065615677259,-1.4217800950058e-15,-1.3134892855686e-15,9.3732430656231e-16,-4.369748860113e-15,-0.0015940811219566,0.0015940811219554,-0.0015940814065594,0.0015940814065584,-0.001594081105144,0.0015940811051392,-0.0015940814233647,0.0015940814233599,-0.0013230642101368,0.0013230642101326,-0.0013230652230578,0.0013230652230541,-3.6255951229106e-15,1.9761914094994e-15,3.575802342879e-09,-3.5758147185263e-09,-0.0015065615677298,0.0015065615677222,-0.0015940799051655,0.0015940822965065,-0.0015940826233527,0.0015940802319851,-0.0015940799051637,0.0015940822965083,-0.0015940826233508,0.0015940802319869,-0.0013230607647947,0.0013230677549732,-0.001323068668412,0.0013230616782064,-0.0015157735121258,0.0015157711045066,-0.0015157735121216,0.0015157711045128,2.3692676849774e-09,2.3692676183241e-09,-0.00085474623345843,0.00085475073410686,-1.2885388464124e-09,5.9979824339101e-09,-0.00091403173672445,0.00091403442021869,-0.00091402928807098,0.00091403686887048,-0.00091403173672443,0.00091403442021842,-0.00091402928807124,0.0009140368688704,-0.00099957893695428,0.00099958583492687,-0.00099957893695529,0.00099958583492804,0.68688558505508,120135,2834,0.0062572370907367,0.006257237090731,0.0035572876023842,25.464113983797,0.00011891291187037,0.00011891291187037,0.00011891291187037,2093488.8462886,0.016201884737327
30419200,0.99995843582495,0.016362939055398,0.0058986852747625,0.0058986852747569,0.004565568505879,-0.0015094552966366,0.0015094552966332,-1.6656549977361e-15,-1.5658345177715e-15,8.321510489449e-16,-4.4560403416146e-15,-0.0015959086275479,0.0015959086275462,-0.001595908910653,0.0015959089106517,-0.0015959086107198,0.0015959086107146,-0.0015959089274737,0.0015959089274686,-0.001327487918609,0.0013274879186045,-0.0013274889233693,0.0013274889233651,-3.7365917320404e-15,1.8452687087304e-15,3.5708046816076e-09,-3.5708171616081e-09,-0.0015094552966374,0.0015094552966297,-0.0015959074121664,0.0015959098002557,-0.0015959101260363,0.00159590773792,-0.0015959074121645,0.0015959098002576,-0.0015959101260344,0.0015959077379218,-0.0013274844774448,0.0013274914577686,-0.001327492364545,0.0013274853841938,-0.0015190109031147,0.0015190084989446,-0.0015190109031103,0.0015190084989504,2.3780485731166e-09,2.3780485118974e-09,-0.00085413612150013,0.00085414064402407,-1.2756554884056e-09,6.0014231710047e-09,-0.00091713070082042,0.00091713338874429,-0.00091712825503341,0.0009171358345298,-0.00091713070082068,0.00091713338874425,-0.00091712825503365,0.00091713583452976,-0.00099754123086687,0.0009975481443361,-0.00099754123086756,0.00099754814433721,0.56251928746541,120135,2834,0.0062691940623923,0.0062691940623867,0.0035547864077212,26.129456774596,0.00012423565419676,0.00012423565419676,0.00012423565419676,2042468.3042498,0.016223655106226
30919200,0.99996516841176,0.016363050763448,0.0058987258415962,0.0058987258415907,0.0045655990802616,-0.0015091263839946,0.0015091263839914,-1.5401294206916e-15,-1.4538379391901e-15,9.1573673075382e-16,-4.3882777058342e-15,-0.0015966041840296,0.0015966041840283,-0.0015966045302842,0.001596604530283,-0.0015966041677863,0.0015966041677814,-0.0015966045465201,0.0015966045465152,-0.0013260352781614,0.001326035278157,-0.0013260363184485,0.0013260363184445,-3.6474768073814e-15,1.945605085159e-15,3.5138829099656e-09,-3.513895262364e-09,-0.0015091263839954,0.0015091263839878,-0.0015966029919486,0.0015966053390716,-0.0015966057223674,0.0015966033752177,-0.0015966029919467,0.0015966053390734,-0.0015966057223655,0.0015966033752196,-0.001326031896684,0.0013260387665593,-0.0013260396999377,0.0013260328300354,-0.0015182813990384,0.0015182790336472,-0.0015182813990339,0.0015182790336532,2.0921881164212e-09,2.0921880675024e-09,-0.00086061476294906,0.0008606185641623,-1.4961041493614e-09,5.6604590622049e-09,-0.00091871794006113,0.00091872005239878,-0.00091871553571252,0.00091872245674582,-0.00091871794006115,0.00091872005239861,-0.0009187155357128,0.00091872245674577,-0.001005019951465,0.0010050262260503,-0.0010050199514659,0.0010050262260514,0.67617106509292,120135,2834,0.006267867307236,0.0062678673072304,0.0035816215407273,27.118126559937,0.0001321450124795,0.0001321450124795,0.0001321450124795,2112392.0278015,0.016248216669026
31419200,0.99997119163071,0.016363154084001,0.0058987634391119,0.0058987634391063,0.004565627205783,-0.0015141165525774,0.0015141165525742,-1.5438940115683e-15,-1.4619553382679e-15,9.2626582086205e-16,-4.4275118013772e-15,-0.0016000871951843,0.0016000871951829,-0.0016000876063453,0.0016000876063442,-0.0016000871794244,0.0016000871794194,-0.001600087622098,0.0016000876220931,-0.0013330718474964,0.0013330718474921,-0.0013330729110014,0.0013330729109975,-3.7314742413174e-15,1.907808043601e-15,3.4202659686449e-09,-3.4202783015185e-09,-0.0015141165525782,0.0015141165525707,-0.0016000860377484,0.0016000883197358,-0.0016000887637833,0.0016000864817695,-0.0016000860377465,0.0016000883197376,-0.0016000887637815,0.0016000864817713,-0.0013330685597861,0.0013330752473511,-0.0013330761987231,0.0013330695111314,-0.0015236424972065,0.0015236401954266,-0.0015236424972019,0.0015236401954327,1.7683452333254e-09,1.7683451897095e-09,-0.00085939082100578,0.0008593938150336,-1.7207236798852e-09,5.2442597496336e-09,-0.0009233524356726,0.00092335389169938,-0.00092335009569046,0.00092335623167983,-0.00092335243567264,0.00092335389169925,-0.00092335009569079,0.00092335623167982,-0.0010020144189975,0.001002019953355,-0.0010020144189985,0.0010020199533561,0.69952705654839,120135,2834,0.0062884888369631,0.0062884888369576,0.0035765991256072,28.434828162923,0.00014267862530338,0.00014267862530338,0.00014267862530338,2030730.7915207,0.016285041772503
31919200,0.99997637981212,0.016363245664667,0.0058987966860675,0.0058987966860619,0.0045656522925376,-0.0015161422801188,0.0015161422801156,-1.538600055648e-15,-1.4582495691237e-15,9.145014743724e-16,-4.4204531934834e-15,-0.0016020219499439,0.0016020219499426,-0.0016020222681818,0.0016020222681807,-0.0016020219331219,0.0016020219331169,-0.0016020222849966,0.0016020222849917,-0.0013350672738385,0.0013350672738342,-0.0013350682919091,0.0013350682919052,-3.6790640777061e-15,1.9452114850509e-15,3.4115423126009e-09,-3.4115546570455e-09,-0.0015161422801196,0.001516142280112,-0.0016020207877059,0.001602023069563,-0.0016020234304219,0.0016020211485384,-0.0016020207877041,0.0016020230695648,-0.0016020234304201,0.0016020211485402,-0.0013350639887483,0.0013350706569787,-0.001335071577011,0.0013350649087537,-0.0015256066607642,0.001525604362857,-0.0015256066607597,0.0015256043628632,2.1943872794025e-09,2.1943872368291e-09,-0.00085931496346263,0.00085931903395123,-1.2994568122584e-09,5.6579606620367e-09,-0.00092433516519067,0.00092433755494891,-0.00092433282587887,0.00092433989425907,-0.00092433516519069,0.00092433755494871,-0.00092433282587912,0.00092433989425901,-0.0010021094722482,0.0010021158970635,-0.001002109472249,0.0010021158970646,0.71926751588325,120135,2834,0.00629686706239,0.0062968670623844,0.0035763092694746,29.267834500674,0.00014934267600539,0.00014934267600539,0.00014934267600539,2011428.9954416,0.01630177792655
32419200,0.99998064008675,0.016363328204115,0.0058988265816892,0.0058988265816836,0.0045656750407424,-0.0015166192031267,0.0015166192031235,-1.5200712099268e-15,-1.4402501189946e-15,9.2726579031367e-16,-4.3943951660088e-15,-0.0016025115492627,0.0016025115492614,-0.0016025117107195,0.0016025117107184,-0.0016025115310086,0.0016025115310037,-0.0016025117289663,0.0016025117289614,-0.0013353199235762,0.0013353199235719,-0.0013353208638959,0.0013353208638921,-3.7094749133818e-15,1.9008345663786e-15,3.5381394855092e-09,-3.5381518377687e-09,-0.0015166192031276,0.0015166192031199,-0.0016025103343322,0.0016025127083135,-0.0016025129256523,0.0016025105516442,-0.0016025103343303,0.0016025127083153,-0.0016025129256504,0.0016025105516461,-0.0013353165060946,0.0013353234194491,-0.0013353242813892,0.0013353173680079,-0.001526135987786,0.001526133602812,-0.0015261359877815,0.0015261336028181,2.9299226596378e-09,2.9299226187575e-09,-0.00085773773596109,0.00085774365833856,-7.1134995588868e-10,6.5174098942632e-09,-0.00092348024989576,0.0009234841516295,-0.00092347781767798,0.00092348658384563,-0.00092348024989578,0.00092348415162935,-0.00092347781767826,0.00092348658384558,-0.0010007562307701,0.0010007642872899,-0.001000756230771,0.001000764287291,0.78912843059547,120135,2834,0.0062988352496093,0.0062988352496037,0.0035697829667521,29.299038827229,0.00014959231061783,0.00014959231061783,0.00014959231061783,1995724.9229391,0.016299147140406
32919200,0.99998411101345,0.016363387056242,0.0058988479731809,0.0058988479731753,0.0045656911098857,-0.0015175868309374,0.0015175868309343,-1.5277768568775e-15,-1.431779789522e-15,8.9773728062466e-16,-4.3749839943009e-15,-0.0016031205164332,0.001603120516432,-0.0016031206466138,0.0016031206466127,-0.0016031204981995,0.0016031204981946,-0.0016031206648403,0.0016031206648354,-0.0013364925351951,0.0013364925351908,-0.0013364934558352,0.0013364934558314,-3.6792405429034e-15,1.8856854427769e-15,3.6629396856063e-09,-3.6629519828717e-09,-0.0015175868309382,0.0015175868309306,-0.0016031192599321,0.0016031217170955,-0.0016031219031172,0.0016031194459272,-0.0016031192599302,0.0016031217170973,-0.0016031219031153,0.001603119445929,-0.0013364889953108,0.0013364961531358,-0.0013364969957312,0.0013364898378792,-0.0015272649788374,0.0015272625106676,-0.001527264978833,0.0015272625106738,3.0892891570601e-09,3.0892890967798e-09,-0.0008540884999767,0.0008540948219838,-6.7582120861311e-10,6.8003758985492e-09,-0.00092226152899061,0.00092226568128265,-0.0009222590142672,0.00092226819600439,-0.00092226152899063,0.00092226568128249,-0.00092225901426748,0.00092226819600432,-0.00099699685589324,0.00099700533012613,-0.00099699685589408,0.00099700533012737,0.69092321609739,120135,2834,0.0063028221127254,0.0063028221127198,0.0035546741352321,29.174807066933,0.00014859845653546,0.00014859845653546,0.00014859845653546,1954792.6075748,0.016291901529531
33419200,0.99998697919091,0.016363441702214,0.0058988677397198,0.0058988677397142,0.0045657062227801,-0.0015162640167866,0.0015162640167835,-1.5330708127978e-15,-1.4370737454423e-15,9.1367797011813e-16,-4.2770458097746e-15,-0.0016029869474863,0.001602986947485,-0.001602987123908,0.0016029871239069,-0.0016029869298407,0.0016029869298359,-0.0016029871415462,0.0016029871415414,-0.0013333844389939,0.0013333844389895,-0.0013333853945413,0.0013333853945374,-3.6127131635045e-15,1.8684092012528e-15,3.727881430568e-09,-3.7278937537154e-09,-0.0015162640167874,0.0015162640167799,-0.0016029856738394,0.0016029881709866,-0.0016029883975567,0.0016029859003832,-0.0016029856738377,0.0016029881709886,-0.0016029883975549,0.001602985900385,-0.0013333808393849,0.0013333881259441,-0.0013333889941619,0.0013333817075761,-0.0015258022089669,0.0015257996985743,-0.0015258022089623,0.0015257996985804,2.8742994022725e-09,2.8742993443045e-09,-0.000856548416683,0.00085655418884407,-9.4765586366092e-10,6.6528575725969e-09,-0.00092047245042,0.00092047612114175,-0.00092046989551743,0.00092047867604252,-0.00092047245041998,0.00092047612114168,-0.0009204698955178,0.00092047867604263,-0.0010009300910486,0.0010009381525484,-0.0010009300910493,0.0010009381525494,0.77567308772676,120135,2834,0.0062973746809936,0.006297374680988,0.0035648447141709,29.315883688071,0.00014972706950457,0.00014972706950457,0.00014972706950457,2002112.7337292,0.016291154197207
33919200,0.9999894161967,0.016363487349368,0.0058988842930995,0.005898884293094,0.0045657187631744,-0.0015193116045088,0.0015193116045057,-1.5224829009572e-15,-1.4335444414955e-15,8.4726823418409e-16,-4.2409880877839e-15,-0.0016052496456941,0.0016052496456926,-0.0016052499452473,0.0016052499452461,-0.001605249629358,0.0016052496293532,-0.0016052499615761,0.0016052499615714,-0.0013373835030535,0.0013373835030491,-0.0013373845118919,0.0013373845118878,-3.6713584307554e-15,1.704965147941e-15,3.6870855525618e-09,-3.6870980283461e-09,-0.0015193116045098,0.001519311604502,-0.0016052483951192,0.0016052508580243,-0.0016052511958245,0.0016052487328928,-0.0016052483951174,0.0016052508580259,-0.0016052511958224,0.0016052487328944,-0.0013373799505332,0.0013373871597584,-0.0013373880644248,0.001337380855172,-0.001529148842545,0.0015291463618622,-0.0015291488425406,0.0015291463618682,2.3124482775923e-09,2.3124482265293e-09,-0.00085488713759612,0.00085489149221287,-1.4520256870697e-09,6.0542349735834e-09,-0.00092221383748349,0.00092221629380086,-0.00092221131604002,0.00092221881524276,-0.00092221383748356,0.00092221629380072,-0.00092221131604037,0.0009222188152427,-0.00099840765813755,0.00099841451150432,-0.00099840765813817,0.00099841451150512,0.76303060755973,120135,2834,0.0063099683034319,0.0063099683034263,0.0035579854212535,30.068558569871,0.00015574846855897,0.00015574846855897,0.00015574846855897,1948565.0104329,0.01630979018719
34419200,0.99999153309949,0.016363525186964,0.005898898009752,0.0058988980097464,0.0045657291674659,-0.0015218171044626,0.0015218171044595,-1.5038952335035e-15,-1.4173096433397e-15,8.8026722608754e-16,-4.2683401933723e-15,-0.001608097641574,0.0016080976415727,-0.0016080980717389,0.0016080980717378,-0.0016080976263782,0.0016080976263734,-0.0016080980869273,0.0016080980869226,-0.001339248695909,0.0013392486959047,-0.0013392497702388,0.0013392497702351,-3.580361210658e-15,1.8586857505953e-15,3.5566765478245e-09,-3.5566887301889e-09,-0.0015218171044635,0.0015218171044559,-0.001608096442866,0.0016080988126884,-0.001608099270449,0.0016080969006001,-0.0016080964428642,0.0016080988126901,-0.0016080992704472,0.0016080969006019,-0.0013392452779886,0.0013392522339716,-0.0013392531881711,0.0013392462321614,-0.0015316326901103,0.0015316302984292,-0.001531632690106,0.0015316302984352,1.7016389574102e-09,1.7016389090111e-09,-0.00085719438599782,0.00085719720281451,-1.9168050770291e-09,5.3164073194747e-09,-0.00092370792455416,0.00092370914314314,-0.00092370549611635,0.00092371157157938,-0.00092370792455423,0.00092370914314302,-0.00092370549611667,0.00092371157157928,-0.001001294259554,0.0010012997421029,-0.0010012942595548,0.001001299742104,0.72790058071019,120135,2834,0.0063203464916225,0.006320346491617,0.0035675610785658,31.477079758121,0.00016701663806497,0.00016701663806497,0.00016701663806497,1947100.4322615,0.016340614463156
34919200,0.99999339636055,0.016363559879539,0.005898910567813,0.0058989105678074,0.0045657387439188,-0.0015253192054041,0.0015253192054009,-1.5011306120785e-15,-1.4245447164309e-15,8.7026753157135e-16,-4.3218091481677e-15,-0.001612003688097,0.0016120036880957,-0.001612004258656,0.0016120042586549,-0.0016120036739357,0.0016120036739308,-0.0016120042728101,0.0016120042728052,-0.0013421532863735,0.0013421532863693,-0.0013421544278829,0.0013421544278792,-3.6243010447968e-15,1.8554310246573e-15,3.3213957992185e-09,-3.3214080741897e-09,-0.0015253192054049,0.0015253192053973,-0.0016120025753397,0.0016120047828693,-0.0016120053714156,0.0016120031638594,-0.0016120025753378,0.0016120047828711,-0.0016120053714138,0.0016120031638611,-0.0013421501051153,0.0013421566020064,-0.0013421576091529,0.001342151112235,-0.0015351321455712,0.001535129912527,-0.0015351321455669,0.001535129912533,1.039726183611e-09,1.03972614558e-09,-0.0008621119675287,0.00086211312399648,-2.3289516068918e-09,4.4217395378657e-09,-0.00092707867233712,0.00092707860445416,-0.0009270764065251,0.00092708087026452,-0.00092707867233714,0.000927078604454,-0.00092707640652536,0.00092708087026447,-0.0010066450056637,0.001006648942508,-0.0010066450056646,0.0010066489425091,0.75808686568768,120135,2834,0.006334857603266,0.0063348576032604,0.0035879572675775,33.569296189239,0.00018375436951391,0.00018375436951391,0.00018375436951391,1955942.3023939,0.016390837725363
35419200,0.99999500734951,0.016363586525374,0.0058989202432983,0.0058989202432927,0.0045657460387836,-0.0015304250185352,0.0015304250185321,-1.447132261691e-15,-1.3649583014608e-15,8.9414915494532e-16,-4.3161034401202e-15,-0.001616826958639,0.0016168269586377,-0.0016168275844607,0.0016168275844597,-0.0016168269445155,0.0016168269445106,-0.0016168275985769,0.0016168275985722,-0.001347616191376,0.0013476161913717,-0.0013476173592474,0.0013476173592438,-3.5819493974341e-15,1.9205875819633e-15,3.1048965120522e-09,-3.1049086269705e-09,-0.0015304250185361,0.0015304250185285,-0.001616825918359,0.0016168279812608,-0.0016168286247429,0.0016168265618146,-0.0016168259183573,0.0016168279812625,-0.001616828624741,0.0016168265618164,-0.0013476132223363,0.0013476192952261,-0.0013476203282991,0.0013476142553828,-0.0015403540848244,0.0015403519963469,-0.0015403540848203,0.0015403519963531,7.4760952574989e-10,7.4760948160234e-10,-0.00086561891396615,0.00086561934691151,-2.4034219893782e-09,3.9125563174395e-09,-0.0009317614308885,0.00093176087820815,-0.00093175930995639,0.00093176299913867,-0.00093176143088851,0.00093176087820795,-0.0009317593099566,0.00093176299913855,-0.0010097973497308,0.0010098005314011,-0.0010097973497318,0.0010098005314025,0.67379056419234,120135,2834,0.0063559886851469,0.0063559886851414,0.0036025288255355,35.924768683775,0.0002025981494702,0.0002025981494702,0.0002025981494702,1929437.5052414,0.016448607710438
35919200,0.99999631053454,0.016363609631563,0.005898928604766,0.0058989286047604,0.0045657524220367,-0.0015321670265031,0.0015321670264999,-1.5271298178206e-15,-1.443720601209e-15,9.0120776283911e-16,-4.3401027069591e-15,-0.0016193551801253,0.001619355180124,-0.0016193556585733,0.0016193556585722,-0.0016193551641779,0.001619355164173,-0.0016193556745133,0.0016193556745084,-0.0013483381587253,0.001348338158721,-0.001348339255769,0.0013483392557652,-3.6444180772941e-15,1.8885902828044e-15,3.0169048712585e-09,-3.0169171019152e-09,-0.0015321670265039,0.0015321670264963,-0.0016193541558115,0.0016193561700266,-0.0016193566828892,0.0016193546686475,-0.0016193541558097,0.0016193561700284,-0.0016193566828873,0.0016193546686493,-0.0013483352657154,0.0013483411623145,-0.0013483421487905,0.0013483362521649,-0.0015419319905895,0.0015419299572561,-0.0015419319905852,0.0015419299572622,1.4105497559324e-09,1.4105497098217e-09,-0.00087131967775253,0.00087132179598115,-1.6756516541797e-09,4.4812436573856e-09,-0.00093413318617798,0.0009341341373364,-0.00093413111526152,0.00093413620825125,-0.00093413318617804,0.00093413413733629,-0.0009341311152618,0.00093413620825122,-0.0010163210912201,0.0010163256127066,-0.0010163210912209,0.0010163256127077,0.72183945217264,120135,2834,0.0063632250997326,0.006363225099727,0.0036261601545145,37.533099564298,0.00021546479651439,0.00021546479651439,0.00021546479651439,1966898.9719263,0.016487330848438
36419200,0.99999727178746,0.016363626257667,0.0058989346320801,0.0058989346320746,0.0045657569935128,-0.001533129664853,0.0015331296648499,-1.5148948974713e-15,-1.4279563769129e-15,8.9809021101935e-16,-4.3436908326385e-15,-0.0016197204297612,0.0016197204297599,-0.0016197205719168,0.0016197205719157,-0.0016197204104503,0.0016197204104455,-0.0016197205912204,0.0016197205912155,-0.001350100688902,0.0013501006888977,-0.0013501016248103,0.0013501016248065,-3.6568882845731e-15,1.8738549792814e-15,3.1962821034214e-09,-3.1962943978891e-09,-0.0015331296648539,0.0015331296648463,-0.0016197193210558,0.0016197214728535,-0.0016197216806243,0.0016197195288,-0.001619719321054,0.0016197214728553,-0.0016197216806225,0.0016197195288018,-0.0013500976005033,0.0013501038418161,-0.0013501047132209,0.0013500984718813,-0.0015430869139048,0.0015430847549944,-0.0015430869139005,0.0015430847550005,2.9587425584213e-09,2.9587425093591e-09,-0.00086948654315204,0.00086949256049949,-3.5357683863756e-10,6.2003258418935e-09,-0.00093466728439616,0.00093467149234858,-0.00093466507523421,0.0009346737015089,-0.00093466728439619,0.00093467149234846,-0.00093466507523446,0.00093467370150885,-0.0010137594007769,0.0010137672959666,-0.0010137594007778,0.0010137672959678,0.70447270805609,120135,2834,0.0063671939439226,0.006367193943917,0.0036185827408658,37.488431384644,0.00021510745107715,0.00021510745107715,0.00021510745107715,1934129.2985433,0.016487703719918
36919200,0.99999796431487,0.016363637264654,0.0058989386259779,0.0058989386259724,0.004565760012704,-0.0015317573225592,0.0015317573225561,-1.5253651658471e-15,-1.4377796062317e-15,9.0344298867214e-16,-4.3621020348948e-15,-0.0016185421932123,0.001618542193211,-0.0016185422147168,0.0016185422147157,-0.0016185421731168,0.0016185421731119,-0.001618542234805,0.0016185422348002,-0.0013483813554035,0.0013483813553992,-0.0013483822362061,0.0013483822362023,-3.6917695719149e-15,1.8630547577501e-15,3.452647682836e-09,-3.452660064708e-09,-0.0015317573225601,0.0015317573225524,-0.0016185409933949,0.0016185433202075,-0.0016185434145364,0.0016185410876972,-0.001618540993393,0.0016185433202092,-0.0016185434145346,0.001618541087699,-0.0013483780112232,0.0013483847534675,-0.0013483855803983,0.001348378838127,-0.0015416727161065,0.001541670384846,-0.0015416727161021,0.0015416703848521,3.5434369225021e-09,3.54343687323e-09,-0.00086814836513662,0.00086815584100613,-3.4381214850281e-11,7.0377203103835e-09,-0.00093281465824228,0.00093281997447324,-0.0009328122750988,0.00093282235761508,-0.0009328146582423,0.00093281997447309,-0.00093281227509908,0.00093282235761503,-0.0010127744004325,0.0010127836902161,-0.0010127744004333,0.0010127836902173,0.64727478642577,120135,2834,0.0063615149000314,0.0063615149000258,0.0036130293339982,36.862865654128,0.00021010292523302,0.00021010292523302,0.00021010292523302,1940008.6488655,0.016470511858311
37419200,0.99999849873711,0.016363645855663,0.0058989417398063,0.0058989417398007,0.0045657623760557,-0.0015324726637601,0.0015324726637571,-1.4776607408316e-15,-1.390310468146e-15,9.263246425945e-16,-4.3421026458624e-15,-0.0016196896768863,0.0016196896768851,-0.0016196899876183,0.0016196899876173,-0.0016196896601003,0.0016196896600955,-0.0016196900043971,0.0016196900043923,-0.0013485742115745,0.0013485742115703,-0.0013485752331345,0.0013485752331308,-3.7231803770422e-15,1.8360136490948e-15,3.4610443511658e-09,-3.4610568204042e-09,-0.0015324726637611,0.0015324726637533,-0.0016196884984147,0.0016196908131369,-0.0016196911660925,0.0016196888513433,-0.0016196884984128,0.0016196908131387,-0.0016196911660906,0.0016196888513451,-0.0013485708782941,0.0013485776436434,-0.001348578566427,0.0013485718010505,-0.0015423019308568,0.0015422995998979,-0.0015423019308524,0.001542299599904,2.2367901852391e-09,2.2367901367144e-09,-0.00087153930757091,0.00087154347814271,-1.30624169186e-09,5.7503559326461e-09,-0.00093417503702149,0.0009341774962074,-0.00093417266485201,0.00093417986837527,-0.00093417503702146,0.00093417749620722,-0.00093417266485224,0.00093417986837521,-0.0010165698954933,0.0010165764411586,-0.0010165698954942,0.0010165764411599,0.65462458225499,120135,2834,0.0063644916188061,0.0063644916188004,0.0036270739889127,37.672421602674,0.00021657937282139,0.00021657937282139,0.00021657937282139,1965016.5933543,0.016490834508972
37919200,0.99999889292508,0.016363651764974,0.0058989438858889,0.0058989438858833,0.0045657639932023,-0.0015328302137583,0.0015328302137552,-1.4992483166401e-15,-1.4137803393929e-15,9.2179536919598e-16,-4.3627490739517e-15,-0.0016197784348372,0.0016197784348359,-0.0016197785867936,0.0016197785867925,-0.0016197784165126,0.0016197784165077,-0.0016197786051109,0.0016197786051061,-0.0013493513484783,0.0013493513484741,-0.0013493522926956,0.0013493522926919,-3.6725348654043e-15,1.9024255678665e-15,3.5744697645042e-09,-3.5744821141206e-09,-0.0015328302137592,0.0015328302137516,-0.0016197772073513,0.0016197796058691,-0.0016197798142818,0.0016197774157372,-0.0016197772073494,0.0016197796058709,-0.0016197798142799,0.0016197774157391,-0.0013493478952323,0.0013493548797734,-0.0013493557459535,0.0013493487613855,-0.0015427352413679,0.0015427328320754,-0.0015427352413635,0.0015427328320815,2.9718653253745e-09,2.9718652782322e-09,-0.00087126201987114,0.00087126804230536,-7.0487334430906e-10,6.594092799257e-09,-0.0009347512677005,0.00093475525492719,-0.00093474881202802,0.00093475771059806,-0.00093475126770053,0.00093475525492702,-0.00093474881202829,0.00093475771059798,-0.0010158944767813,0.0010159026416221,-0.0010158944767823,0.0010159026416234,0.61069305856341,120135,2834,0.0063659664582042,0.0063659664581986,0.0036259323173487,37.676437463832,0.00021661149971065,0.00021661149971065,0.00021661149971065,1954788.7771915,0.016492674968529
38419200,0.99999917791751,0.01636365664523,0.0058989456513528,0.0058989456513472,0.0045657653425301,-0.0015313197750097,0.0015313197750066,-1.5024835119248e-15,-1.413662695928e-15,9.2714814684877e-16,-4.3582198005532e-15,-0.0016185344773315,0.0016185344773302,-0.0016185345309241,0.001618534530923,-0.0016185344582393,0.0016185344582344,-0.001618534550009,0.0016185345500041,-0.0013475513013979,0.0013475513013936,-0.0013475522035005,0.0013475522034967,-3.6743583391102e-15,1.900621050383e-15,3.7488114795318e-09,-3.7488238432255e-09,-0.0015313197750105,0.0015313197750029,-0.0016185331862766,0.0016185357049787,-0.0016185358219812,0.0016185333032525,-0.0016185331862747,0.0016185357049805,-0.0016185358219794,0.0016185333032543,-0.0013475476730653,0.0013475549978616,-0.0013475558318447,0.0013475485070215,-0.0015411259083978,0.0015411233815277,-0.0015411259083935,0.0015411233815339,3.4448587421906e-09,3.4448586917551e-09,-0.00087161887995385,0.00087162608065049,-4.1669383941607e-10,7.239803111195e-09,-0.00093380418336475,0.00093380909658755,-0.00093380160729814,0.00093381167265252,-0.00093380418336477,0.00093380909658736,-0.00093380160729839,0.0009338116726525,-0.00101650928197,0.0010165185525289,-0.0010165092819709,0.0010165185525301,0.69725492786578,120135,2834,0.0063597224388128,0.0063597224388072,0.0036273992911552,37.198919113069,0.00021279135290455,0.00021279135290455,0.00021279135290455,1976051.5851314,0.016481468934688
38880000,0.99999937692633,0.016363660183903,0.0058989469323034,0.0058989469322978,0.0045657663193018,-0.0015329148283543,0.0015329148283512,-1.510130337143e-15,-1.4253093989527e-15,9.0538410584293e-16,-4.3479848191072e-15,-0.0016192215370561,0.0016192215370548,-0.0016192216889608,0.0016192216889597,-0.0016192215193865,0.0016192215193816,-0.0016192217066232,0.0016192217066183,-0.0013503131843261,0.0013503131843218,-0.0013503141221914,0.0013503141221876,-3.6944753716075e-15,1.8492395777723e-15,3.8228261481245e-09,-3.8228385168982e-09,-0.0015329148283552,0.0015329148283475,-0.0016192202314602,0.0016192227920823,-0.001619222994559,0.0016192204339102,-0.0016192202314583,0.0016192227920841,-0.0016192229945572,0.001619220433912,-0.0013503094911303,0.0013503169635547,-0.001350317815399,0.0013503103429477,-0.0015429094185744,0.0015429068448641,-0.00154290941857,0.0015429068448701,3.0201752752563e-09,3.0201752277199e-09,-0.00086848512734285,0.0008684912548586,-8.9914117130478e-10,6.8950186788314e-09,-0.0009345273468819,0.00093453124967627,-0.00093452472720183,0.00093453386935468,-0.00093452734688193,0.00093453124967612,-0.0009345247272021,0.00093453386935463,-0.0010124362353765,0.0010124446648311,-0.0010124362353774,0.0010124446648322,0.72416034322609,120135,2834,0.0063662982439796,0.0063662982439741,0.0036144332912845,37.193706593391,0.00021274965274713,0.00021274965274713,0.00021274965274713,1923979.3954312,0.016481667357081
