time,ASR_ext,ASR_strain,ASR_strain_xx,ASR_strain_yy,ASR_strain_zz,disp_x_101,disp_x_102,disp_x_103,disp_x_104,disp_x_105,disp_x_106,disp_x_p1_neg,disp_x_p1_pos,disp_x_p2_neg,disp_x_p2_pos,disp_x_p3_neg,disp_x_p3_pos,disp_x_p4_neg,disp_x_p4_pos,disp_x_p5_neg,disp_x_p5_pos,disp_x_p6_neg,disp_x_p6_pos,disp_y_101,disp_y_102,disp_y_103,disp_y_104,disp_y_105,disp_y_106,disp_y_p1_neg,disp_y_p1_pos,disp_y_p2_neg,disp_y_p2_pos,disp_y_p3_neg,disp_y_p3_pos,disp_y_p4_neg,disp_y_p4_pos,disp_y_p5_neg,disp_y_p5_pos,disp_y_p6_neg,disp_y_p6_pos,disp_y_p7_neg,disp_y_p7_pos,disp_y_p8_neg,disp_y_p8_pos,disp_z_101,disp_z_102,disp_z_103,disp_z_104,disp_z_105,disp_z_106,disp_z_p1_neg,disp_z_p1_pos,disp_z_p2_neg,disp_z_p2_pos,disp_z_p3_neg,disp_z_p3_pos,disp_z_p4_neg,disp_z_p4_pos,disp_z_p5_neg,disp_z_p5_pos,disp_z_p6_neg,disp_z_p6_pos,humidity,ndof,nelem,strain_xx,strain_yy,strain_zz,temp,thermal_strain_xx,thermal_strain_yy,thermal_strain_zz,vonmises,vstrain
2419200,0,0,0,0,0,0,0,0,0,0,0,0,0,0,0,0,0,0,0,0,0,0,0,0,0,0,0,0,0,0,0,0,0,0,0,0,0,0,0,0,0,0,0,0,0,0,0,0,0,0,0,0,0,0,0,0,0,0,0,0,0,0,0,0,0,0,0,0,0,0,0,0,0,0,0
2919200,0.076371511252168,0.0015950749665026,0.00053169165550086,0.00053169165550086,0.00053169165550086,-0.00016512353721798,0.00016511171215432,-4.4443589594337e-09,-4.4443589081148e-09,-3.6596689518428e-09,-5.135791305748e-09,-0.00016471314404804,0.00016470393081238,-0.00016471409131574,0.00016470487808057,-0.00016471364377421,0.00016470343097209,-0.00016471457367039,0.00016470436086737,-0.00016734684185713,0.00016733704030306,-0.00016734767151648,0.00016733786996323,-4.4433048138379e-10,9.3112351430108e-10,-5.1436631908703e-10,9.8119197719244e-10,-0.00017200786948008,0.00017200833821206,-0.00017059706921896,0.00017059648620258,-0.00017059744721086,0.00017059795221689,-0.00017059748777727,0.00017059791026627,-0.00017059786576909,0.00017059937627952,-0.00017241993736035,0.00017241943146878,-0.00017241933446342,0.00017242172335922,-0.00017241985574683,0.00017241951449259,-0.00017241936211466,0.0001724216948289,-4.4568597994382e-09,-4.4568598065386e-09,-0.0001651235497717,0.00016511169960033,-3.6206372189594e-09,-5.2015228571814e-09,-0.00016471313050249,0.0001647039336591,-0.00016471368189647,0.00016470340342045,-0.00016471407916332,0.00016470488232083,-0.00016471461052792,0.00016470433205176,-0.00016734770345358,0.00016733783992494,-0.00016734687669768,0.00016733701316972,0.83502648770561,122718,2924,0.0006877529560077,0.00071644276126461,0.00068775295600712,32.40210200693,0.00017441681605544,0.00017441681605544,0.00017441681605544,859956.73033882,0.0020941398675954
3419200,0.15583018756414,0.0031289106212386,0.0010348280040139,0.0010592546132125,0.0010348280040123,-0.00027956203123466,0.00027955559812084,-1.959472227486e-09,-1.9595188432217e-09,-2.1155461471704e-09,-1.8065637723492e-09,-0.00028392565635187,0.00028392121869223,-0.0002839270568519,0.00028392261947226,-0.00028392554445394,0.00028392133440843,-0.00028392694342393,0.00028392273365317,-0.0002826469017942,0.00028264275535373,-0.00028264898253953,0.00028264483588399,-7.2690184394175e-11,-3.942048034315e-10,-5.0481329359452e-11,-4.1915003447475e-10,-0.0003009374460367,0.00030093698053546,-0.00030080712478361,0.00030080691951468,-0.0003008083733127,0.00030080789437628,-0.00030080835763677,0.00030080791151213,-0.00030080960601687,0.00030080888621119,-0.00029889834910564,0.00029889814025799,-0.00029890092232678,0.00029889999792128,-0.00029889838025795,0.00029889810827441,-0.00029890090676858,0.00029890001405025,-1.943874282691e-09,-1.9439209711721e-09,-0.00027956201568816,0.0002795556136666,-2.1225019052149e-09,-1.7678005503228e-09,-0.00028392564870574,0.00028392122591822,-0.00028392552143129,0.00028392135792605,-0.00028392704915772,0.00028392262664937,-0.00028392692037342,0.00028392275714501,-0.00028264895936731,0.00028264485912015,-0.00028264687899996,0.00028264277896891,0.77960726241633,122718,2924,0.001164151497125,0.0012531163816193,0.0011641514971234,31.910922993423,0.00017048738394739,0.00017048738394739,0.00017048738394739,1246212.1129436,0.0035878429067185
3919200,0.24314716150205,0.0047248307972903,0.0015388753645983,0.0016470800680955,0.0015388753645965,-0.00039578717798676,0.0003957825019214,-1.4043654660007e-09,-1.4042898648158e-09,-2.7749581748416e-09,1.0637076816664e-10,-0.00040634518885166,0.00040634108849244,-0.00040634633147829,0.00040634223137119,-0.00040634423790319,0.00040634206694418,-0.00040634538489436,0.00040634321417408,-0.00039846521546023,0.00039846296354962,-0.00039846667955651,0.00039846442730649,7.2079832094431e-10,-2.0986419567817e-09,1.0855398468999e-09,-2.4211918738679e-09,-0.00044662783647041,0.00044662649989337,-0.00045336187829309,0.00045336267343327,-0.00045336386687447,0.00045336231773675,-0.00045336364237235,0.00045336255333173,-0.00045336563037333,0.00045336219705367,-0.00043671201418441,0.00043671319178867,-0.00043671655491953,0.00043671084032431,-0.00043671247496609,0.00043671271912304,-0.00043671635830476,0.00043671104479342,-1.3128480071731e-09,-1.3127725079613e-09,-0.00039578708609586,0.00039578259381145,-3.0003740517058e-09,5.2769690998794e-10,-0.00040634522170106,0.00040634107669125,-0.00040634402589446,0.00040634225928121,-0.00040634636051845,0.0004063422157628,-0.00040634517531722,0.00040634340894195,-0.00039846647724774,0.00039846462666323,-0.0003984650069103,0.00039846315667027,0.74640349119053,122718,2924,0.0016477526429967,0.0018592073021146,0.0016477526429949,32.496230739941,0.00017516984591953,0.00017516984591953,0.00017516984591953,1810937.5911133,0.0051680272350661
4419200,0.33870245837803,0.0064485238507938,0.0020722869320938,0.0023039499866079,0.0020722869320921,-0.00051890551624851,0.00051890253300193,-7.0614299468112e-10,-7.0613901952898e-10,-2.5766005808341e-09,1.0908442480747e-09,-0.00053600244382414,0.00053599961149052,-0.00053600336999807,0.00053600053807471,-0.00053600121637657,0.00053600086069069,-0.00053600215214395,0.00053600179685645,-0.00052170357829049,0.00052170307187523,-0.00052170452844392,0.00052170402148048,6.9079945399204e-10,-2.8635696809413e-09,1.0516241789561e-09,-3.1699953445241e-09,-0.00061079373379235,0.00061079161232857,-0.00062750652234391,0.00062750704020903,-0.00062750858298479,0.00062750626005704,-0.00062750836401357,0.00062750649121413,-0.00062751042391358,0.00062750571032429,-0.00058999590174748,0.00058999674697121,-0.00059000114476528,0.00058999370347616,-0.00058999636043796,0.00058999627118622,-0.00059000095948796,0.00058999390003255,-5.8467193549172e-10,-5.8466801889216e-10,-0.00051890539455729,0.00051890265469233,-2.7489022465115e-09,1.5257939008373e-09,-0.00053600243718004,0.00053599963656508,-0.00053600098778081,0.00053600107332107,-0.00053600335891802,0.00053600055871494,-0.00053600192551804,0.00053600201145616,-0.00052170430371598,0.00052170424309228,-0.00052170334571908,0.00052170328564882,0.74424082049435,122718,2924,0.0021597905613977,0.0025417115674231,0.002159790561396,33.597824574608,0.00018398259659686,0.00018398259659686,0.00018398259659686,2352687.1770827,0.0068849007338973
4919200,0.44233822711575,0.0083122530830767,0.0026343567730762,0.0030435395369258,0.0026343567730746,-0.00064807030877498,0.00064806863791958,-1.1628821080954e-10,-1.1631219112438e-10,-2.0594724249594e-09,1.6420658941612e-09,-0.00067313958462665,0.00067313802613811,-0.00067314033463434,0.00067313877662371,-0.0006731383341778,0.00067313928671603,-0.00067313909646576,0.00067314004947934,-0.00065119384255811,0.00065119447283064,-0.00065119460027364,0.00065119522986362,6.7147987254493e-10,-2.9014988638484e-09,1.073713407616e-09,-3.2499680848529e-09,-0.0007975543882392,0.00079755220957847,-0.00082691535840229,0.00082691584455797,-0.00082691735733657,0.00082691495121412,-0.00082691710741021,0.00082691520970773,-0.00082691910560274,0.00082691431562145,-0.00076197613861563,0.00076197702830606,-0.00076198138082908,0.0007619737692287,-0.00076197665731705,0.00076197649535311,-0.0007619811675348,0.00076197399206397,-1.5081523523485e-11,-1.5105709009359e-11,-0.00064807020806298,0.00064806873863086,-2.2929739187502e-09,2.097468790345e-09,-0.00067313960790274,0.00067313801667137,-0.00067313811826563,0.00067313949128628,-0.00067314035373186,0.00067313876297922,-0.000673138882264,0.00067314025576006,-0.00065119438298428,0.00065119544515883,-0.00065119361696788,0.0006511946798293,0.74696695512676,122718,2924,0.0026967150213538,0.0033175744752205,0.0026967150213523,35.342236806961,0.00019793789445569,0.00019793789445569,0.00019793789445569,2845115.4552383,0.008749088301194
5419200,0.54324460133683,0.010078994323106,0.0031512066809331,0.0037765809612413,0.0031512066809316,-0.00076287902007666,0.00076287930290526,7.2433078441049e-10,7.2432362928693e-10,-1.5514141510428e-09,2.6801105799615e-09,-0.00079772667247634,0.00079772671053582,-0.00079772726480258,0.00079772730348302,-0.00079772524553499,0.00079772814868524,-0.0007977258516363,0.00079772875540618,-0.00076548859631125,0.00076549115510477,-0.00076548905989175,0.00076549161799797,7.9689452668393e-10,-3.2902066726211e-09,1.2754114673787e-09,-3.7069172049298e-09,-0.00098238318755721,0.00098238075303483,-0.0010267424642265,0.0010267430846811,-0.0010267445875999,0.0010267418800465,-0.0010267442884563,0.0010267421869153,-0.0010267464111798,0.001026740981633,-0.00092917660395872,0.00092917771084694,-0.00092918245964225,0.00092917377737033,-0.00092917722093493,0.0009291770799565,-0.00092918220364417,0.00092917404266061,8.2087479157756e-10,8.2086755263786e-10,-0.00076287892434323,0.00076287939863801,-1.8571583757629e-09,3.2001305816403e-09,-0.00079772672508182,0.00079772667395376,-0.000797725011411,0.00079772836983219,-0.00079772731236578,0.00079772726185914,-0.0007977256195075,0.00079772897854893,-0.00076548882361539,0.00076549185201312,-0.00076548834952965,0.00076549137861888,0.73229095938567,122718,2924,0.0031737590525035,0.0040848008510338,0.0031737590525021,36.272177953091,0.00020537742362473,0.00020537742362473,0.00020537742362473,3226247.1687622,0.010486984349775
5919200,0.63457201592839,0.011456742377252,0.0035414012242098,0.0043739399288333,0.0035414012242084,-0.0008453354035498,0.00084533757683901,1.5182168999809e-09,1.5182023037052e-09,-1.006357681982e-09,3.7121250548924e-09,-0.00089167774304087,0.00089167937020397,-0.0008916781872664,0.0008916798150338,-0.0008916761528275,0.00089168097266939,-0.00089167661319873,0.0008916814336456,-0.00084375439730334,0.00084375872287679,-0.0008437547644235,0.00084375908928756,9.0034073059105e-10,-3.6489432292891e-09,1.4544002408945e-09,-4.1327817717067e-09,-0.0011342552988828,0.0011342526168828,-0.0011985703179955,0.0011985710577364,-0.0011985724709301,0.0011985694711085,-0.0011985721237303,0.0011985698263232,-0.0011985742760334,0.0011985682390666,-0.0010595399301343,0.0010595412256062,-0.0010595462351512,0.0010595365585013,-0.001059540644231,0.0010595404964781,-0.0010595459376327,0.0010595368660885,1.6177346132132e-09,1.6177200007217e-09,-0.00084533530501526,0.00084533767537291,-1.3749669807614e-09,4.3034659737174e-09,-0.00089167781700424,0.00089167931445087,-0.000891675893067,0.00089168121782113,-0.00089167825555848,0.00089167975360984,-0.00089167635550731,0.00089168168086714,-0.00084375450229143,0.00084375934880377,-0.00084375412349274,0.00084375897071838,0.6360792580923,122718,2924,0.0035162802022129,0.004714774507181,0.0035162802022116,36.778668949508,0.00020942935159606,0.00020942935159606,0.00020942935159606,3485234.007034,0.011816701590523
6419200,0.71179744701443,0.012538274772414,0.0038434810098363,0.0048513127527428,0.0038434810098352,-0.00090614045212779,0.0009061445496034,2.3261499344993e-09,2.3261375021519e-09,-5.8011209194806e-10,4.8697605365995e-09,-0.00096101706584585,0.00096102026931665,-0.00096101735554977,0.00096102055964578,-0.00096101523362742,0.00096102211868252,-0.00096101554185147,0.0009610224275336,-0.00090067871190273,0.00090068493644082,-0.00090067899842826,0.00090068522226242,1.0680862536981e-09,-4.1841276929476e-09,1.7388257797131e-09,-4.7729598675876e-09,-0.0012548136407637,0.0012548106020311,-0.001339183471564,0.0013391844090721,-0.0013391857577127,0.0013391823311082,-0.0013391853376946,0.0013391827618353,-0.0013391876232338,0.0013391806832642,-0.0011598171583873,0.0011598187674066,-0.0011598242936253,0.0011598131198786,-0.0011598180208663,0.0011598178862471,-0.0011598239315487,0.0011598134945022,2.4438024845042e-09,2.4437898903081e-09,-0.00090614033549824,0.00090614466623241,-1.0331012296431e-09,5.58652570632e-09,-0.00096101716065359,0.00096102019743407,-0.00096101491898912,0.0009610224148352,-0.00096101744350723,0.00096102048091314,-0.00096101522962358,0.00096102272609738,-0.00090067868242896,0.00090068553501891,-0.00090067838253557,0.00090068523583364,0.59525943091212,122718,2924,0.0037688171199309,0.0052145787907699,0.0037688171199298,36.741535386849,0.0002091322830948,0.0002091322830948,0.0002091322830948,3696140.5858417,0.012834003347936
6919200,0.78125273349369,0.01358891501936,0.0041377392295936,0.0053134365601734,0.0041377392295926,-0.00096623904831064,0.00096624213234986,1.9792209397931e-09,1.9792086710691e-09,-9.909606003008e-10,4.5750367248861e-09,-0.0010287571871755,0.0010287595862784,-0.001028757547724,0.0010287599474649,-0.001028755315501,0.0010287614751121,-0.001028755693126,0.0010287618533775,-0.00095982111649812,0.00095982663244239,-0.00095982144697873,0.00095982696222396,1.0569575763186e-09,-4.3094211114961e-09,1.7934208344599e-09,-4.9611953953568e-09,-0.0013782105745032,0.0013782074018299,-0.0014782327498305,0.0014782336615783,-0.0014782351484371,0.0014782315467712,-0.0014782346863452,0.0014782320210881,-0.0014782370843612,0.0014782299056928,-0.0012664901861776,0.001266491866176,-0.0012664976118591,0.0012664860265624,-0.0012664911345743,0.0012664908959693,-0.0012664972101659,0.0012664864429933,2.1078123505296e-09,2.107800173408e-09,-0.00096623892080411,0.00096624225985591,-1.4927198634622e-09,5.3664992313096e-09,-0.0010287572913546,0.0010287595044061,-0.0010287549717019,0.0010287618018791,-0.0010287576445448,0.0010287598582346,-0.0010287553514101,0.0010287621822287,-0.00095982109961928,0.000959827306512,-0.00095982075556059,0.00095982696315604,0.64378173705164,122718,2924,0.004018380804626,0.0057258701767237,0.0040183808046251,38.622910830261,0.00022418328664209,0.00022418328664209,0.00022418328664209,3788210.0760965,0.0138579431305
7419200,0.8410382219922,0.014369558660271,0.0043516563762351,0.0056662459078019,0.0043516563762341,-0.0010030987128337,0.0010031014983531,1.8684725933805e-09,1.8684597576506e-09,-1.0887640761703e-09,4.436933471081e-09,-0.0010767210854159,0.0010767232466435,-0.0010767214703488,0.0010767236322201,-0.0010767192259308,0.0010767251221393,-0.0010767196267514,0.0010767255236065,-0.00099408394572832,0.00099408921013635,-0.00099408427842821,0.00099408954214505,1.0337733271109e-09,-4.2929463286718e-09,1.8121708937761e-09,-4.9867184327043e-09,-0.0014790573160424,0.0014790541367589,-0.0015942884893896,0.0015942893918614,-0.0015942909448124,0.0015942873091141,-0.0015942904547422,0.0015942878114688,-0.0015942929095852,0.0015942857281443,-0.0013504311616901,0.0013504328936866,-0.0013504386698742,0.0013504270473353,-0.0013504321658465,0.0013504318666894,-0.0013504382412064,0.0013504274915449,1.9950006068362e-09,1.9949879616214e-09,-0.0010030985874922,0.0010031016236942,-1.6328429171815e-09,5.2684719489124e-09,-0.0010767212046398,0.0010767231483889,-0.0010767188724402,0.0010767254604942,-0.0010767215820885,0.0010767235264818,-0.0010767192749109,0.0010767258636126,-0.00099408391965656,0.00099408989822709,-0.00099408357361063,0.00099408955287583,0.55664260548471,122718,2924,0.0041714910020475,0.0061434903693651,0.0041714910020466,40.761372595525,0.0002412909807642,0.0002412909807642,0.0002412909807642,3735935.0335176,0.01459213708214
7919200,0.88591783688344,0.014903422982466,0.0044972459643212,0.0059089310538241,0.0044972459643203,-0.001023268633032,0.0010232744300619,3.0462846848219e-09,3.0462726693936e-09,-2.1980521246745e-10,5.9024473908721e-09,-0.0011026592175911,0.0011026638114358,-0.0011026593796521,0.0011026639741477,-0.0011026571587526,0.0011026658886672,-0.0011026573402215,0.0011026660707899,-0.001011781327552,0.0010117892510824,-0.0010117815681407,0.0010117894909847,1.19333044128e-09,-4.697951583451e-09,2.0385410979688e-09,-5.4498887729331e-09,-0.0015451095627672,0.0015451061461361,-0.0016744184646022,0.0016744195726427,-0.0016744209439647,0.0016744170317409,-0.0016744204126493,0.0016744175768154,-0.001674422891444,0.0016744150353486,-0.0014018707013546,0.0014018726767527,-0.0014018787751031,0.001401866051936,-0.0014018717891048,0.0014018715641189,-0.0014018783112712,0.001401866532722,3.1808647147885e-09,3.1808528349915e-09,-0.0010232684997453,0.0010232745633482,-8.1269146818644e-10,6.8017368593202e-09,-0.0011026593516607,0.0011026637020466,-0.0011026567759733,0.0011026662531062,-0.0011026595054637,0.0011026638565008,-0.0011026569593597,0.0011026664371474,-0.0010117811813037,0.0010117898747671,-0.0010117809260518,0.0010117896202052,0.5070717593097,122718,2924,0.0042553034180157,0.0064169497896537,0.0042553034180148,40.955902218408,0.00024284721774727,0.00024284721774727,0.00024284721774727,3732419.0564466,0.015039788844414
8419200,0.91931617637573,0.015280823926966,0.0046005974333859,0.0060796290601951,0.004600597433385,-0.0010346425390212,0.0010346484692962,3.1218741449908e-09,3.1218619515627e-09,-3.1054674091648e-10,6.1480203967853e-09,-0.0011193672594365,0.0011193719108838,-0.0011193674180501,0.0011193720701519,-0.0011193650919737,0.0011193741009245,-0.0011193652689097,0.0011193742785181,-0.0010215443807284,0.0010215525613821,-0.0010215446296753,0.0010215528096463,1.2843173634567e-09,-4.9391724618482e-09,2.2216393159145e-09,-5.7782032780326e-09,-0.0015949789458134,0.001594975383607,-0.0017343922924605,0.0017343935325783,-0.0017343949201443,0.0017343908046209,-0.0017343943306508,0.0017343914103231,-0.0017343969577737,0.0017343886818076,-0.0014410719282078,0.0014410741510627,-0.0014410805011166,0.0014410670202931,-0.001441073133828,0.0014410729174031,-0.0014410799829878,0.0014410675576016,3.2668809969471e-09,3.2668689352329e-09,-0.0010346423953411,0.0010346486129758,-9.7785018470102e-10,7.1463318142645e-09,-0.0011193674141793,0.0011193717829986,-0.0011193646694365,0.0011193745036263,-0.0011193675638328,0.0011193719333069,-0.0011193648483099,0.0011193746831584,-0.0010215442032649,0.0010215532329556,-0.001021543938966,0.0010215529693429,0.48138031764921,122718,2924,0.0043026021710014,0.0066233425786632,0.0043026021710005,41.431986132041,0.00024665588905633,0.00024665588905633,0.00024665588905633,3670452.8644782,0.015345383019605
8919200,0.94365608180835,0.015527010343038,0.0046679323159315,0.0061911457111759,0.0046679323159306,-0.0010385035181383,0.0010385098020105,3.2708287590976e-09,3.2708161245058e-09,-2.341426638358e-10,6.3699621249708e-09,-0.0011283209866954,0.0011283259185416,-0.0011283211220858,0.0011283260545878,-0.0011283187709928,0.0011283281575857,-0.0011283189245769,0.0011283283118296,-0.0010241635073079,0.0010241720424759,-0.0010241637508561,0.0010241722853438,1.3238512990751e-09,-5.0400276460268e-09,2.3085607834645e-09,-5.924564525797e-09,-0.0016303055207231,0.0016303018990243,-0.0017771089575089,0.001777110264155,-0.00177711163132,0.0017771074262555,-0.0017771110115977,0.0017771080632725,-0.0017771136848514,0.0017771052248195,-0.0014683944874919,0.0014683968327389,-0.0014684032726775,0.0014683894568291,-0.001468395754072,0.0014683955365249,-0.0014684027259974,0.0014683900238567,3.4187320690416e-09,3.4187197504455e-09,-0.0010385033716103,0.0010385099485381,-9.4274542177449e-10,7.4173209740083e-09,-0.0011283211543439,0.0011283257782477,-0.0011283183307978,0.0011283285778525,-0.0011283212804882,0.0011283259050503,-0.0011283184862014,0.0011283287339167,-0.0010241633064762,0.0010241727267261,-0.0010241630473796,0.001024172468314,0.43063171924148,122718,2924,0.004318719120042,0.0067695021997074,0.0043187191200413,41.891014398801,0.00025032811519041,0.00025032811519041,0.00025032811519041,3580702.0530513,0.015526559394342
9419200,0.96031371570571,0.015686705723568,0.004711910878777,0.006262883966015,0.0047119108787761,-0.0010380795744862,0.0010380883013898,4.2341939376383e-09,4.234181284245e-09,5.1861852889633e-10,7.5393756969536e-09,-0.0011305003480537,0.0011305073093421,-0.0011305003034978,0.0011305072654461,-0.0011304979915534,0.0011305096898254,-0.0011304979684293,0.0011305096673638,-0.0010229614156781,0.0010229721021603,-0.001022961615892,0.0010229723016948,1.4327720234452e-09,-5.320521502132e-09,2.4749463187359e-09,-6.2570561654056e-09,-0.0016510013230469,0.0016509975349176,-0.0018033439042474,0.0018033453624188,-0.0018033465536895,0.0018033421474502,-0.00180334589832,0.0018033428217063,-0.0018033485472083,0.0018033396061887,-0.0014832195293509,0.0014832220608576,-0.0014832287045783,0.0014832141041702,-0.0014832208682505,0.0014832206903381,-0.0014832281259884,0.0014832147045109,4.3887843340004e-09,4.3887719875348e-09,-0.0010380794213163,0.0010380884545593,-2.3404076303887e-10,8.6465165022568e-09,-0.0011305005286604,0.0011305071585529,-0.0011304975262239,0.0011305101331743,-0.0011305004742993,0.00113050710485,-0.0011304975050697,0.0011305101126824,-0.0010229611471682,0.0010229727671791,-0.0010229609306169,0.0010229725513091,0.40723906797413,122718,2924,0.0043170313101118,0.0068551245393277,0.0043170313101111,41.151732284178,0.00024441385827343,0.00024441385827343,0.00024441385827343,3529090.5187153,0.015610101181204
9919200,0.97151671035472,0.015793568822523,0.0047415940781195,0.0063103806662847,0.0047415940781186,-0.0010349198956026,0.0010349301281665,4.8438355335097e-09,4.8438224806983e-09,5.9962720901912e-10,8.6979206996108e-09,-0.001130074756446,0.0011300827060109,-0.0011300746168749,0.0011300825670982,-0.0011300720526289,0.0011300854475887,-0.0011300719333269,0.0011300853289485,-0.001019449985374,0.0010194622971891,-0.0010194501661422,0.0010194624772795,1.7607450846816e-09,-6.0557995080701e-09,3.0438377783158e-09,-7.2180903370008e-09,-0.0016644755685295,0.001664471386861,-0.0018199346274094,0.0018199365559276,-0.0018199376563632,0.0018199327062003,-0.0018199368502338,0.0018199335385222,-0.001819939878637,0.0018199296882474,-0.0014931308543978,0.0014931341403297,-0.001493141448517,0.0014931246015014,-0.0014931324989259,0.0014931324557131,-0.0014931407299129,0.0014931253477552,5.0291001323365e-09,5.02908737182e-09,-0.0010349197116187,0.0010349303121499,-3.4355415165649e-10,1.0066116627039e-08,-0.0011300749892515,0.0011300825116031,-0.0011300714771374,0.0011300859939985,-0.001130074837805,0.0011300823608154,-0.0011300713603943,0.0011300858779183,-0.001019449590285,0.0010194630490881,-0.001019449391031,0.0010194628505151,0.40432824355073,122718,2924,0.0043039824402286,0.0069108455624515,0.0043039824402277,39.829136693578,0.00023383309354863,0.00023383309354863,0.00023383309354863,3471996.403891,0.015640202325208
10419200,0.97904417351035,0.015869849651445,0.004763002264185,0.0063438451230762,0.0047630022641841,-0.0010301624774837,0.0010301737105267,5.2390473627875e-09,5.2390338958983e-09,8.529572435009e-10,9.2437347587189e-09,-0.0011281405090297,0.0011281492289717,-0.0011281403019871,0.0011281490225873,-0.0011281377090256,0.0011281520689476,-0.001128137522668,0.0011281518832513,-0.001014690711751,0.0010147039491714,-0.0010146908778677,0.0010147041146109,1.8586408624445e-09,-6.2404418070217e-09,3.2392425203057e-09,-7.4965255444081e-09,-0.0016734347386371,0.0016734304736004,-0.0018304565616151,0.0018304586638765,-0.0018304596633214,0.001830454567667,-0.0018304587954887,0.0018304554643839,-0.0018304618966454,0.001830451367628,-0.0014999368350617,0.0014999404066657,-0.0014999478369524,0.0014999303482753,-0.0014999386042662,0.0014999385940676,-0.0014999470594583,0.0014999311557566,5.4330225138217e-09,5.4330093099779e-09,-0.0010301622847224,0.0010301739032877,-1.733096062752e-10,1.0716051412038e-08,-0.0011281407662009,0.0011281490121575,-0.0011281370929951,0.0011281526545519,-0.0011281405466466,0.0011281487932618,-0.0011281369092185,0.001128152471438,-0.0010146902618271,0.0010147047264524,-0.0010146900768287,0.0010147045421341,0.42845224819223,122718,2924,0.0042842979894095,0.0069478736529417,0.004284297989409,38.101303423852,0.00022001042739081,0.00022001042739081,0.00022001042739081,3415904.6620439,0.01563783919174
10919200,0.98456315267678,0.01592154197865,0.0047774720054694,0.0063665979677121,0.0047774720054685,-0.0010269052123412,0.0010269136076085,4.1331481066257e-09,4.1331341260918e-09,-1.6159968234357e-10,8.0542331399415e-09,-0.001128390489166,0.0011283967735365,-0.0011283904932812,0.00112839677831,-0.0011283877533678,0.0011283995523725,-0.0011283877729918,0.0011283995726578,-0.0010114957524955,0.0010115066144614,-0.0010114959640801,0.0010115068253698,1.8344536115837e-09,-6.1183361837941e-09,3.2965369010017e-09,-7.458041961761e-09,-0.0016831000112018,0.0016830958420173,-0.0018408236689106,0.0018408257938454,-0.0018408269870733,0.0018408219326393,-0.0018408260664842,0.0018408228843927,-0.0018408293840976,0.0018408190226406,-0.0015081715618044,0.0015081753072183,-0.001508182688121,0.0015081653243359,-0.0015081734375012,0.0015081733852644,-0.0015081818569493,0.0015081661875299,4.3318455591726e-09,4.3318318725199e-09,-0.0010269050147528,0.0010269138051966,-1.2646490910737e-09,9.6158242711452e-09,-0.0011283907687604,0.0011283965334324,-0.0011283871063018,0.0011284001703977,-0.0011283907601484,0.0011283965254785,-0.0011283871282037,0.0011284001929621,-0.0010114953158405,0.0010115074696865,-0.0010114950858618,0.0010115072403871,0.39597081456719,122718,2924,0.004270831327049,0.0069878090082301,0.0042708313270484,37.94639033596,0.00021877112268768,0.00021877112268768,0.00021877112268768,3342172.5179213,0.015651062014768
11419200,0.98858420609846,0.015959140234462,0.0047880624791653,0.006383015276132,0.0047880624791644,-0.0010255588406588,0.0010255675899331,4.2694019491441e-09,4.2693882103961e-09,8.1002008238368e-12,8.1518941641113e-09,-0.0011273085629011,0.001127315189676,-0.0011273085375772,0.0011273151650108,-0.0011273058490955,0.0011273179451247,-0.0011273058397928,0.001127317936484,-0.0010100732641516,0.0010100843898434,-0.0010100734700041,0.0010100845950194,1.7975433740485e-09,-6.0787939520762e-09,3.3163776098817e-09,-7.4758971811198e-09,-0.0016876805582609,0.0016876763912212,-0.0018471480479705,0.0018471501667053,-0.0018471513477492,0.0018471462584412,-0.001847150391289,0.0018471472484399,-0.0018471536905203,0.0018471433396316,-0.0015108151182212,0.001510818926592,-0.0015108262694302,0.0015108088958303,-0.0015108170677289,0.0015108169280851,-0.0015108254014973,0.0015108097977078,4.4774936860623e-09,4.4774802405264e-09,-0.001025558633664,0.0010255677969275,-1.1403897978156e-09,9.7806852847553e-09,-0.0011273088519021,0.0011273149399462,-0.0011273051751172,0.0011273185907542,-0.0011273088135349,0.0011273149022381,-0.0011273051679349,0.001127318584235,-0.0010100727937509,0.0010100852674153,-0.0010100725695524,0.0010100850438967,0.39457194111806,122718,2924,0.0042652653461078,0.007006760480548,0.0042652653461071,37.628778167978,0.00021623022534382,0.00021623022534382,0.00021623022534382,3329352.9340543,0.015659003114188
11919200,0.99149829722183,0.015988545783262,0.0047964103493862,0.0063957250844899,0.0047964103493853,-0.0010232046662321,0.0010232138608236,4.4411429790294e-09,4.4411289310002e-09,1.7930691983528e-10,8.3258835873245e-09,-0.0011264438569843,0.0011264508633701,-0.0011264437990168,0.0011264508060612,-0.001126441140975,0.0011264536201058,-0.0011264410995161,0.0011264535793088,-0.0010077243604335,0.0010077358491971,-0.0010077245594155,0.0010077360475026,1.8047895275659e-09,-6.0700899233313e-09,3.3693502827205e-09,-7.5131568247457e-09,-0.0016919359299921,0.0016919317787069,-0.0018519400713449,0.0018519422392781,-0.0018519433634439,0.0018519382598097,-0.0018519423776183,0.0018519392804335,-0.0018519456691704,0.0018519353004212,-0.0015142243862437,0.0015142282978907,-0.0015142356010097,0.0015142181550947,-0.001514226395066,0.0015142262385265,-0.0015142347036451,0.0015142190875108,4.6520769464264e-09,4.6520631769987e-09,-0.0010232044563507,0.0010232140707045,-1.0110727615388e-09,1.00039154257e-08,-0.0011264441583685,0.001126450601181,-0.0011264404494418,0.0011264542836462,-0.0011264440871905,0.0011264505306618,-0.0011264404099907,0.001126454244858,-0.0010077238651732,0.0010077367379165,-0.0010077236479797,0.0010077365214025,0.42516298576731,122718,2924,0.0042555251807675,0.0070243421594794,0.0042555251807665,37.105498234445,0.00021204398587556,0.00021204398587556,0.00021204398587556,3296340.9174269,0.015657082322828
12419200,0.9936435934487,0.016011309554276,0.0048028964746188,0.0064055166050393,0.0048028964746178,-0.0010199570936707,0.0010199658985004,4.2862769810885e-09,4.2862625142245e-09,5.3308305739911e-11,8.1463609649115e-09,-0.001125895118788,0.0011259017829923,-0.0011258950905116,0.0011259017553735,-0.0011258924210288,0.001125904521279,-0.0011258924084342,0.0011259045093457,-0.0010046515675448,0.0010046627164199,-0.0010046517704207,0.00100466291862,1.8081033591541e-09,-6.0177921403456e-09,3.4066917967276e-09,-7.4958571404744e-09,-0.0016968881809276,0.0016968840843321,-0.0018566528266473,0.0018566550348039,-0.0018566561524634,0.0018566510805336,-0.0018566551443467,0.0018566521240317,-0.0018566584696157,0.0018566481692172,-0.0015188541126115,0.0015188581164755,-0.0015188653527388,0.0015188479579373,-0.0015188561659064,0.0015188560118019,-0.0015188644327625,0.0015188489135695,4.4954379245675e-09,4.4954237093896e-09,-0.0010199568854889,0.0010199661066819,-1.1732612785557e-09,9.8579439245615e-09,-0.001125895433174,0.0011259015072785,-0.0011258917200481,0.0011259051949313,-0.0011258953916877,0.0011259014664503,-0.0011258917093194,0.0011259051848648,-0.0010046510663816,0.0010046636189025,-0.0010046508456198,0.0010046633988195,0.44663644431852,122718,2924,0.0042420875673243,0.0070447837197744,0.0042420875673237,36.802710341979,0.00020962168273583,0.00020962168273583,0.00020962168273583,3241309.9338111,0.015650561449248
12919200,0.99520432226667,0.016026836641331,0.0048073084581955,0.0064122197249408,0.0048073084581946,-0.0010159798426647,0.0010159893835997,4.5673304855068e-09,4.5673159220264e-09,3.1306131689387e-10,8.4525739467857e-09,-0.0011238315691413,0.0011238388407334,-0.0011238314869819,0.0011238387592318,-0.00112382885472,0.0011238415950506,-0.0011238287891178,0.0011238415301095,-0.0010008090548835,0.0010008208144266,-0.0010008092452206,0.0010008210040882,1.8297466779656e-09,-6.0357400885187e-09,3.4605273819109e-09,-7.5454248826845e-09,-0.0016996498515306,0.0016996457591762,-0.0018596025818428,0.0018596048483106,-0.0018596058810531,0.0018596007925902,-0.0018596048525054,0.0018596018574334,-0.0018596081511687,0.001859597801169,-0.0015209579191027,0.0015209620131266,-0.0015209692196705,0.0015209517146478,-0.0015209600137513,0.0015209598659862,-0.0015209682796157,0.0015209526911292,4.7771671135316e-09,4.7771527528159e-09,-0.0010159796337572,0.0010159895925065,-9.4363008504275e-10,1.019686369708e-08,-0.0011238318936031,0.0011238385551724,-0.00112382814259,0.0011238422797888,-0.0011238317981097,0.0011238384603371,-0.001123828078812,0.0011238422166731,-0.0010008085299762,0.0010008217155165,-0.0010008083217864,0.0010008215080058,0.41875849256559,122718,2924,0.0042256174785906,0.0070561761661949,0.0042256174785895,36.137410176131,0.00020429928140905,0.00020429928140905,0.00020429928140905,3200935.2188793,0.015628685083362
13419200,0.99631629576649,0.016037648746714,0.0048103863931981,0.0064168759603189,0.0048103863931972,-0.0010127216081348,0.001012732526807,5.1021059735691e-09,5.1020917243154e-09,7.410137801884e-10,9.0949426167461e-09,-0.001119944805626,0.0011199532194753,-0.0011199446204276,0.0011199530349354,-0.0011199420191366,0.0011199560467724,-0.0011199418522261,0.0011199558805237,-0.00099747291456243,0.0009974858699359,-0.0009974730885789,0.00099748604327605,1.8813116696905e-09,-6.1836433898802e-09,3.5479934818816e-09,-7.7259116069978e-09,-0.0016982943638124,0.0016982901782222,-0.0018595199660291,0.0018595223075804,-0.0018595232421685,0.0018595180389847,-0.0018595221919524,0.0018595191272111,-0.0018595254675459,0.0018595148580727,-0.001518326076075,0.0015183302692185,-0.0015183375831753,0.0015183196560942,-0.0015183282157,0.0015183280752536,-0.0015183366232172,0.0015183206537418,5.3194203567235e-09,5.3194063142251e-09,-0.0010127213917631,0.0010127327431782,-5.395208203034e-10,1.0880074433504e-08,-0.0011199451350277,0.0011199529307177,-0.0011199412880947,0.0011199567489728,-0.0011199449360638,0.0011199527324126,-0.0011199411231462,0.0011199565846873,-0.00099747235485035,0.0009974867729794,-0.00099747216242052,0.00099748658122917,0.40900439415344,122718,2924,0.0042121048660842,0.0070505813504715,0.0042121048660832,34.797157664455,0.00019357726131564,0.00019357726131564,0.00019357726131564,3207870.9361747,0.015595550609997
13919200,0.99713509305556,0.016045443557504,0.0048126053110636,0.0064202329353776,0.0048126053110627,-0.0010100283657684,0.0010100386194604,4.8482383960512e-09,4.8482240522827e-09,4.5573711927545e-10,8.8737367629625e-09,-0.001117461128176,0.0011174689541614,-0.0011174609930052,0.001117468819649,-0.0011174583231928,0.0011174718022742,-0.0011174582048717,0.0011174716846148,-0.00099470826124306,0.00099472070159559,-0.0009947084480814,0.00099472088775751,1.904316600788e-09,-6.2308702677198e-09,3.6068096290299e-09,-7.8079181268137e-09,-0.0016979561973019,0.0016979519884096,-0.0018596856370775,0.0018596880172875,-0.0018596890099847,0.001859683760559,-0.0018596879371249,0.0018596848725802,-0.0018596913094866,0.0018596806153092,-0.0015174468521392,0.001517451139877,-0.001517458527811,0.00151744041576,-0.0015174490377612,0.0015174488986059,-0.0015174575460086,0.0015174414361764,5.0695774352128e-09,5.0695632884501e-09,-0.0010100281453561,0.0010100388398722,-8.5476754579115e-10,1.0698295185928e-08,-0.0011174614657946,0.0011174686578822,-0.0011174575764313,0.0011174725197291,-0.001117461316618,0.0011174685093644,-0.0011174574600825,0.001117472404043,-0.00099470769870406,0.00099472163310834,-0.00099470749329492,0.00099472142837885,0.40047476240274,122718,2924,0.0042009365253645,0.0070491792340253,0.0042009365253635,33.829960467994,0.00018583968374395,0.00018583968374395,0.00018583968374395,3200232.7997483,0.015571443196639
14419200,0.99773894850808,0.016050927478941,0.0048141642147219,0.0064225990494978,0.004814164214721,-0.0010069374205552,0.0010069481179971,5.0208373251051e-09,5.0208229398304e-09,5.8053041701411e-10,9.0963865108126e-09,-0.0011146009902705,0.0011146091708344,-0.0011146008233162,0.0011146090045386,-0.0011145981528611,0.0011146120520222,-0.0011145980031209,0.0011146119029437,-0.00099159637265484,0.00099160920821394,-0.00099159655430971,0.00099160938919253,1.933964979815e-09,-6.2947094401828e-09,3.6707038459878e-09,-7.9047196163594e-09,-0.0016968681898688,0.0016968639479703,-0.0018589612382162,0.0018589636732637,-0.0018589646277487,0.0018589593235578,-0.0018589635333228,0.0018589604582288,-0.00185896692231,0.0018589561079806,-0.00151593854578,0.001515942925981,-0.0015159503577985,0.0015159320241434,-0.0015159407751788,0.0015159406396742,-0.0015159493552911,0.0015159330661521,5.2460706846747e-09,5.246056509037e-09,-0.0010069371962298,0.0010069483423221,-7.5821417825378e-10,1.0958323355143e-08,-0.0011146013356396,0.0011146088675608,-0.0011145973910648,0.0011146127839752,-0.0011146011544369,0.0011146086870169,-0.0011145972433204,0.0011146126368935,-0.00099159579001222,0.00099161014939413,-0.00099159558961315,0.00099160994967473,0.38210045494667,122718,2924,0.0041881194867692,0.0070446738377599,0.0041881194867685,32.644014297192,0.00017635211437754,0.00017635211437754,0.00017635211437754,3194405.2817186,0.015540836107102
14919200,0.99817208931446,0.016055015675232,0.0048153314230434,0.0064243528291458,0.0048153314230424,-0.0010025991680698,0.0010026115823619,5.6883530761042e-09,5.6883387722323e-09,1.106063326089e-09,9.9102122395834e-09,-0.0011100032330138,0.001110012818504,-0.0011100029409145,0.0011100125270633,-0.0011100002988828,0.0011100157974922,-0.0011100000261079,0.0011100155253793,-0.00098723171006119,0.000987246043844,-0.00098723186966577,0.00098724620277228,2.0150747133213e-09,-6.4843728921533e-09,3.7945223632406e-09,-8.1332054813907e-09,-0.0016934465521514,0.0016934422052868,-0.0018560478499911,0.001856050402475,-0.0018560512192187,0.0018560457841223,-0.0018560500984928,0.0018560469465267,-0.0018560534671755,0.0018560423276322,-0.0015120237148502,0.0015120282405669,-0.0015120357966423,0.0015120169230344,-0.0015120259978085,0.0015120258990862,-0.0015120347703131,0.0015120179899852,5.9199222408509e-09,5.9199081344216e-09,-0.0010025989373995,0.0010026118130317,-2.6431115859318e-10,1.1818212009181e-08,-0.0011100035868352,0.001110012508852,-0.001109999516697,0.0011100165480354,-0.0011100032800377,0.0011100122027134,-0.0011099992460931,0.0011100162780943,-0.00098723108577549,0.00098724698230473,-0.00098723090684598,0.00098724680405506,0.39678962402156,122718,2924,0.0041701239805735,0.007030521925721,0.0041701239805727,30.581579402706,0.00015985263522165,0.00015985263522165,0.00015985263522165,3201852.3429813,0.015489913835864
15419200,0.99846723255333,0.01605843711315,0.0048163184018589,0.0064258003094334,0.0048163184018579,-0.00099404153601576,0.0009940567331278,6.7679620162039e-09,6.7679474521066e-09,1.8873877872273e-09,1.1307060064312e-08,-0.0011028387442916,0.0011028505180523,-0.0011028382565999,0.0011028500310189,-0.001102835606574,0.0011028537044728,-0.0011028351409524,0.0011028532395126,-0.00097878271586419,0.0009787995259544,-0.00097878283596251,0.00097879964537668,2.2195686519366e-09,-6.8699936038229e-09,4.078747054489e-09,-8.5905676925244e-09,-0.0016886371492583,0.0016886326285082,-0.0018509295668174,0.0018509324092113,-0.0018509329601141,0.0018509273025308,-0.0018509317897794,0.0018509285163545,-0.0018509351825307,0.0018509234091318,-0.001507263588115,0.0015072684640818,-0.0015072762564198,0.0015072562867105,-0.0015072659707173,0.0015072660208261,-0.0015072751862206,0.0015072573990025,7.0047961501646e-09,7.0047817565105e-09,-0.00099404129999523,0.00099405696914789,4.5099325064224e-10,1.3293958826735e-08,-0.0011028391205667,0.0011028501901038,-0.0011028347919789,0.001102854483618,-0.0011028386174499,0.0011028496876455,-0.0011028343289053,0.001102854021207,-0.00097878202190577,0.00097880045452108,-0.00097878188148792,0.00097880031478268,0.48651353790675,122718,2924,0.0041346389450869,0.0070105966100634,0.0041346389450861,27.074507513686,0.00013179606010948,0.00013179606010948,0.00013179606010948,3185789.0129425,0.015397622903277
15919200,0.99869400536975,0.016061660445975,0.004817253585981,0.0064271532740135,0.0048172535859801,-0.00098578910251756,0.00098580095706205,5.4684784417814e-09,5.4684631870358e-09,6.3608949486947e-10,9.9705823926696e-09,-0.0010990992766633,0.0010991081264044,-0.0010990990426111,0.0010991078930092,-0.0010990961757178,0.0010991112806813,-0.0010990959577513,0.0010991110633747,-0.0009709540974653,0.00097096815271509,-0.00097095426222851,0.00097096831680349,2.2542150875117e-09,-6.7844681482728e-09,4.1853612708508e-09,-8.5784549116792e-09,-0.0016900944222409,0.0016900900201031,-0.001850723974959,0.0018507269125178,-0.001850727658402,0.0018507220707537,-0.0018507264407418,0.0018507233328173,-0.001850730123638,0.0018507184905091,-0.0015095074171446,0.0015095125348031,-0.0015095203005552,0.0015095003727512,-0.0015095098935858,0.0015095099963706,-0.0015095191832269,0.0015095015331166,5.7009281458617e-09,5.700913083866e-09,-0.00098578887069273,0.0009858011888865,-8.7777441018253e-10,1.2027622514549e-08,-0.0010990996814322,0.0010991077693726,-0.0010990953410325,0.0010991120807023,-0.0010990994319517,0.0010991075205499,-0.0010990951254203,0.0010991118657518,-0.0009709534279342,0.00097096914634938,-0.00097095324342948,0.00097096896252332,0.59571470761932,122718,2924,0.0041004413107256,0.0070165403195457,0.004100441310725,25.355876863656,0.00011804701490925,0.00011804701490925,0.00011804701490925,3106246.8332678,0.015334236067592
16419200,0.99887800229788,0.016063861825962,0.0048178851092612,0.0064280916074406,0.0048178851092603,-0.00097761388213595,0.00097762423841683,4.8763006786078e-09,4.8762851150457e-09,1.7256883421778e-10,9.2509578728224e-09,-0.0010955543211629,0.0010955619223759,-0.0010955541945108,0.0010955617963799,-0.0010955513059911,0.0010955649895459,-0.0010955511933178,0.0010955648775324,-0.00096325684812759,0.00096326958186267,-0.00096325703058105,0.00096326976364117,2.2092671986389e-09,-6.5885988192993e-09,4.1894905245285e-09,-8.435336190152e-09,-0.0016933466434529,0.0016933423888454,-0.0018527855908773,0.0018527885352692,-0.0018527893396174,0.0018527838652876,-0.0018527880893641,0.0018527851607764,-0.0018527918375566,0.0018527804902501,-0.0015129206885304,0.0015129259025072,-0.0015129334871029,0.0015129139223826,-0.0015129232301061,0.0015129232977749,-0.0015129323350798,0.0015129151182507,5.1038070797523e-09,5.1037916710493e-09,-0.0009776136550978,0.00097762446545431,-1.3977915859559e-09,1.1355903137457e-08,-0.0010955547466592,0.0010955615426459,-0.0010955504601987,0.0010955658027632,-0.0010955546047831,0.0010955614014266,-0.001095550349557,0.0010955656927825,-0.00096325618406028,0.00096327060561071,-0.00096325598272967,0.00096327040495852,0.50210013400473,122718,2924,0.0040665753696164,0.0070299074797389,0.0040665753696152,24.413123215431,0.00011050498572345,0.00011050498572345,0.00011050498572345,3017381.7773284,0.015279061826303
16919200,0.99903091420039,0.016066246127007,0.0048185820734166,0.0064290819801746,0.0048185820734156,-0.00097736418797907,0.0009773740177078,4.677763441876e-09,4.6777491426941e-09,7.8627018241212e-11,8.9274218868012e-09,-0.0010909467219558,0.001090954017941,-0.0010909466224407,0.0010909539190841,-0.0010909437823677,0.0010909570093182,-0.0010909436964211,0.0010909569240333,-0.00096264715981955,0.00096265939397624,-0.00096264735854895,0.0009626595920288,2.0733473136628e-09,-6.4959496975487e-09,4.0751982351971e-09,-8.3651988966217e-09,-0.0016895181903578,0.001689513891889,-0.0018524006813626,0.0018524034437873,-0.0018524044063935,0.0018523988753438,-0.0018524031447699,0.0018524001861805,-0.0018524068692559,0.0018523956171947,-0.0015061614431368,0.0015061665088067,-0.0015061741177493,0.0015061547651401,-0.0015061640128975,0.0015061638718195,-0.0015061729516448,0.0015061559778492,4.9250505250669e-09,4.9250364010545e-09,-0.00097736394125619,0.00097737426443014,-1.4904249845986e-09,1.1074906240609e-08,-0.0010909471349481,0.0010909536507631,-0.0010909429120719,0.0010909578476141,-0.0010909470196803,0.0010909535361539,-0.0010909428280625,0.0010909577642674,-0.00096264648571072,0.00096266046039157,-0.00096264626775555,0.00096266024311659,0.65164127745866,122718,2924,0.0040655060932467,0.0070141548777011,0.0040655060932458,23.780490984549,0.0001054439278764,0.0001054439278764,0.0001054439278764,3077111.3647854,0.015260867775973
17419200,0.99915087433498,0.016067928110264,0.0048190674889912,0.0064297931322825,0.0048190674889903,-0.00096698971642784,0.00096700170884026,5.4931900552428e-09,5.4931744942709e-09,8.6869953413068e-10,9.7964182473236e-09,-0.0010869325451072,0.0010869415750101,-0.0010869322955158,0.0010869413260746,-0.0010869295741365,0.0010869445933047,-0.00108692934094,0.0010869443607676,-0.00095259200061641,0.00095260599620817,-0.00095259216597806,0.00095260616089548,2.1568963174745e-09,-6.4765995228009e-09,4.1759791840554e-09,-8.3645764376374e-09,-0.001692579611141,0.0016925754141604,-0.0018530448895943,0.0018530478260258,-0.0018530484730961,0.0018530430301543,-0.001853047197821,0.0018530443521546,-0.0018530507807748,0.0018530395557384,-0.0015106701044962,0.0015106753412292,-0.0015106827359353,0.0015106633661458,-0.0015106726974388,0.001510672683494,-0.0015106815568039,0.0015106645903047,5.7216388785289e-09,5.7216233323494e-09,-0.00096698948841423,0.00096700193685358,-7.400671843967e-10,1.194341707866e-08,-0.0010869329821631,0.0010869411824454,-0.0010869287155048,0.0010869454208763,-0.0010869327173617,0.0010869409183006,-0.0010869284840874,0.0010869451901192,-0.00095259130538975,0.00095260701703431,-0.00095259112161724,0.00095260683394163,0.58772740813402,122718,2924,0.0040225319709977,0.0070266975548131,0.0040225319709973,21.984883790089,9.1079070320715e-05,9.1079070320715e-05,9.1079070320715e-05,2960729.5593759,0.015186383425351
17919200,0.99924252556269,0.016069002802155,0.0048193758981336,0.0064302510058884,0.0048193758981327,-0.00096161777168608,0.00096163120025119,6.0501521183587e-09,6.0501376190459e-09,1.2933379036152e-09,1.0481071120589e-08,-0.0010786240998967,0.001078634346899,-0.0010786237366435,0.0010786339843035,-0.0010786210426892,0.0010786374539616,-0.0010786206976674,0.001078637109601,-0.00094704115600768,0.00094705640921565,-0.00094704131383992,0.00094705656637088,2.1945216278707e-09,-6.6799355294372e-09,4.2403323996971e-09,-8.5893028394589e-09,-0.0016864700967278,0.00168646573905,-0.0018497351753388,0.0018497381424532,-0.0018497387315826,0.001849733114304,-0.0018497374424104,0.0018497344534225,-0.0018497409981087,0.0018497294247313,-0.0015020044972439,0.0015020097723903,-0.0015020173679746,0.0015019974739392,-0.0015020071220587,0.0015020070794366,-0.0015020161769814,0.0015019987121915,6.2940225906913e-09,6.294008075563e-09,-0.00096161752833101,0.00096163144360563,-3.1899772589727e-10,1.2666077119615e-08,-0.001078624531272,0.0010786339629042,-0.0010786201609732,0.0010786383022305,-0.0010786241520558,0.0010786335843456,-0.0010786198179807,0.0010786379598996,-0.00094704043059528,0.00094705744485023,-0.00094704025324232,0.00094705726817728,0.4915601615792,122718,2924,0.0040002256535533,0.0070014783986335,0.0040002256535522,19.50544743577,7.1243579486159e-05,7.1243579486159e-05,7.1243579486159e-05,2999936.9944075,0.015115471991029
18419200,0.9993153777418,0.016069896971189,0.0048196338762187,0.006430629218752,0.0048196338762178,-0.00096013871695727,0.00096015140054123,5.782748457357e-09,5.7827345229861e-09,9.5243914165822e-10,1.0271261594538e-08,-0.0010727585639571,0.00107276822566,-0.0010727582500075,0.0010727679123693,-0.0010727554666605,0.0010727713767815,-0.0010727551697049,0.0010727710804879,-0.00094511786469642,0.00094513258013305,-0.00094511804560661,0.00094513276036587,2.189527999952e-09,-6.8188344542881e-09,4.2657138640754e-09,-8.7556811078935e-09,-0.0016796883352303,0.0016796838364308,-0.0018456054879882,0.0018456084157521,-0.0018456091667707,0.0018456033907972,-0.0018456078601136,0.0018456047501307,-0.0018456115383526,0.0018455997246354,-0.0014933252185057,0.0014933304993105,-0.0014933383487224,0.0014933180805471,-0.0014933278815157,0.0014933277654042,-0.001493337141342,0.0014933193371302,6.0444338438201e-09,6.0444199657101e-09,-0.00096013845594544,0.0009601516615526,-6.6730475353313e-10,1.2502246810565e-08,-0.0010727589884201,0.0010727678505596,-0.0010727545584091,0.001072772250122,-0.001072758657843,0.0010727675206416,-0.0010727542636285,0.0010727719560048,-0.00094511713564754,0.00094513366558234,-0.00094511693431899,0.00094513346493497,0.51421839069127,122718,2924,0.0039940452870306,0.0069735037009263,0.0039940452870298,17.481697339551,5.5053578716408e-05,5.5053578716408e-05,5.5053578716408e-05,3070021.3553539,0.015074504737666
18919200,0.99937895162591,0.016070789073207,0.0048198922476602,0.0064310045778878,0.0048198922476593,-0.00095776218328078,0.00095777214580203,4.7370681480017e-09,4.737053562764e-09,4.6052852787915e-11,9.0844629040706e-09,-0.0010719222219547,0.0010719295949156,-0.0010719221160662,0.0010719294896851,-0.0010719192210636,0.0010719326496428,-0.0010719191281082,0.0010719325573489,-0.00094267934363704,0.00094269176036354,-0.00094267955547555,0.00094269197152563,2.1315439509719e-09,-6.625633490739e-09,4.2210663151451e-09,-8.5807731486822e-09,-0.0016801933245886,0.0016801889563501,-0.0018453275741272,0.0018453304478347,-0.0018453314043893,0.0018453257469888,-0.0018453300868579,0.00184532711621,-0.0018453339165753,0.0018453224148224,-0.0014945672262059,0.0014945725150234,-0.0014945802549444,0.0014945604153264,-0.0014945699089743,0.0014945697621791,-0.0014945790345362,0.0014945616844822,4.9925231835313e-09,4.9925086521452e-09,-0.00095776192844814,0.00095777240063431,-1.598840547107e-09,1.1327118606671e-08,-0.001071922656635,0.0010719292072418,-0.0010719183143139,0.0010719335238021,-0.001071922534475,0.00107192908574,-0.0010719182232139,0.001071933433364,-0.00094267864599402,0.00094269287667729,-0.00094267841462083,0.00094269264598411,0.5877987766322,122718,2924,0.003984191177242,0.0069755629015593,0.0039841911772415,16.875726688259,5.0205813506068e-05,5.0205813506068e-05,5.0205813506068e-05,3039263.8434613,0.015056601817513
19419200,0.99943890733545,0.016071729932436,0.0048201657296081,0.006431398473221,0.0048201657296072,-0.00095547326038267,0.00095548071151451,3.7615176235017e-09,3.7615025857465e-09,-6.7744784717042e-10,7.84689948396e-09,-0.0010730511602107,0.0010730565064792,-0.0010730512363654,0.0010730565832909,-0.0010730483293195,0.001073059387202,-0.0010730484156772,0.0010730594742202,-0.00094070744870898,0.00094071764310225,-0.00094070768575587,0.00094071787947413,1.9981549535613e-09,-6.269863767554e-09,4.0724589129992e-09,-8.21762074468e-09,-0.0016847791511106,0.001684774998045,-0.0018484813959229,0.0018484841306822,-0.0018484852588502,0.0018484798221632,-0.0018484839483197,0.0018484811826763,-0.0018484878107009,0.0018484768736143,-0.0014999720600235,0.0014999772318166,-0.0014999846936737,0.0014999657325784,-0.0014999747267248,0.0014999744965986,-0.001499983475768,0.0014999669982067,4.0048620987156e-09,4.0048470945131e-09,-0.00095547301757264,0.00095548095432398,-2.327632169435e-09,1.006888864658e-08,-0.0010730516007397,0.0010730561087985,-0.0010730474396664,0.0010730602481739,-0.0010730516613524,0.0010730561700683,-0.0010730475273992,0.0010730603365676,-0.0009407067915385,0.00094071876983506,-0.00094070653635707,0.0009407185153336,0.65664642788028,122718,2924,0.0039747265541268,0.0069944694980833,0.0039747265541258,17.545073911006,5.5560591288044e-05,5.5560591288044e-05,5.5560591288044e-05,2971394.8218906,0.015056597603906
19919200,0.99949671982634,0.016072613690975,0.0048204222753368,0.0064317691403023,0.0048204222753359,-0.00095369744719275,0.00095370393442354,3.383415092769e-09,3.3833999232102e-09,-8.258486861818e-10,7.2280821384052e-09,-0.0010740060643001,0.0010740107259886,-0.001074006204929,0.0010740108672746,-0.0010740033855819,0.0010740134489411,-0.0010740035361767,0.0010740136001957,-0.00093921653326342,0.00093922577771645,-0.00093921677879662,0.00093922602257396,1.8545361976039e-09,-5.952272285991e-09,3.8859603196385e-09,-7.8639024164733e-09,-0.0016899325411841,0.0016899285559977,-0.0018529857023815,0.0018529882675059,-0.0018529894644269,0.0018529842203815,-0.0018529881796338,0.0018529855535623,-0.0018529919411327,0.0018529815058945,-0.001505151486202,0.0015051564504029,-0.0015051636364781,0.0015051455257387,-0.0015051541003984,0.0015051537693376,-0.0015051624397426,0.0015051467690657,3.6164837559607e-09,3.6164686602546e-09,-0.0009536972146385,0.00095370416697744,-2.4504971739934e-09,9.4022124153288e-09,-0.0010740064996308,0.0010740103297656,-0.001074002520747,0.0010740142885233,-0.0010740066254193,0.0010740104562106,-0.0010740026723266,0.0010740144407643,-0.00093921590765103,0.00093922689023366,-0.00093921564510309,0.00093922662836511,0.63949909152815,122718,2924,0.0039673930465653,0.0070157378784782,0.0039673930465647,18.680611337702,6.4644890701617e-05,6.4644890701617e-05,6.4644890701617e-05,2910211.6346744,0.015063311093596
20419200,0.9995483462734,0.016073466505201,0.0048206713035476,0.0064321238981066,0.0048206713035467,-0.00095223533733356,0.00095224416266882,4.2777359322489e-09,4.2777212168363e-09,9.2673648940624e-11,8.1026163671613e-09,-0.0010716237704086,0.0010716304516388,-0.0010716237377339,0.0010716304196214,-0.0010716210997358,0.0010716331620792,-0.0010716210807984,0.0010716331438025,-0.00093766528166866,0.00093767640362971,-0.00093766549951465,0.00093767662079952,1.8178593342922e-09,-5.9237105200628e-09,3.7979470555009e-09,-7.7845318689538e-09,-0.0016898719555447,0.0016898679619197,-0.0018543372036454,0.0018543397083548,-0.0018543407239524,0.0018543355054326,-0.0018543394727964,0.0018543368045004,-0.0018543429925578,0.0018543326010356,-0.0015036788037003,0.0015036836073194,-0.001503690683864,0.0015036727511324,-0.0015036813512611,0.0015036809936036,-0.0015036895194895,0.0015036739615754,4.5101554415089e-09,4.5101408137499e-09,-0.0009522351055324,0.00095224439446957,-1.4817092873866e-09,1.0224431401113e-08,-0.0010716241889389,0.0010716300716231,-0.0010716202532071,0.0010716339838057,-0.0010716241415822,0.001071630024924,-0.001071620235239,0.0010716339664992,-0.00093766464622858,0.00093767747059952,-0.00093766441132342,0.00093767723637478,0.69004788769245,122718,2924,0.0039613307547261,0.0070155069634127,0.0039613307547254,18.601964825093,6.4015718600746e-05,6.4015718600746e-05,6.4015718600746e-05,2911800.3300814,0.015050761325425
20919200,0.99959128810704,0.016074128498824,0.0048208635885639,0.0064324013216966,0.004820863588563,-0.00094634987632458,0.00094636116158873,5.2198635209143e-09,5.2198485221112e-09,9.1677380189921e-10,9.1811498197046e-09,-0.0010676856419928,0.0010676943313193,-0.0010676854326606,0.001067694122644,-0.00106768288364,0.0010676971283255,-0.0010676826913127,0.0010676969366583,-0.00093182598033015,0.00093183918029639,-0.00093182617156386,0.00093183937085417,1.9061176898836e-09,-6.0669689434986e-09,3.8574465003632e-09,-7.8962363202241e-09,-0.0016897854554528,0.0016897814094186,-0.0018540424475537,0.0018540450561583,-0.0018540458256555,0.0018540405746311,-0.0018540445929234,0.0018540418535786,-0.0018540479704792,0.0018540373715086,-0.0015034717196828,0.001503476553773,-0.0015034836421793,0.0015034654132668,-0.0015034742287874,0.001503473980417,-0.0015034824984138,0.0015034666017946,5.4439720527436e-09,5.4439571096229e-09,-0.00094634965286816,0.00094636138504478,-6.3623931256103e-10,1.1263031016951e-08,-0.0010676860594112,0.0010676939533558,-0.001067682054059,0.001067697931844,-0.0010676858355494,0.0010676937301514,-0.0010676818628683,0.0010676977413148,-0.00093182533652876,0.0009318402022207,-0.00093182512796115,0.00093183999433299,0.64466974006305,122718,2924,0.0039369384491823,0.0070151107435247,0.0039369384491817,17.278893722497,5.3431149779979e-05,5.3431149779979e-05,5.3431149779979e-05,2870423.7695731,0.015000852881879
21419200,0.99962575232056,0.016074657073407,0.0048210174153227,0.0064326222427623,0.0048210174153218,-0.00094209951415378,0.00094211232983364,5.8149553268563e-09,5.8149408582936e-09,1.3164054821297e-09,9.9759816815486e-09,-0.0010614402522685,0.0010614501739139,-0.0010614399287248,0.0010614498510279,-0.0010614373637341,0.0010614531043266,-0.001061437058972,0.0010614528002255,-0.00092741577559001,0.0009274303573637,-0.00092741595909201,0.00092743054018909,2.0114567661412e-09,-6.3391295302383e-09,3.9596638329291e-09,-8.1591572588758e-09,-0.0016850723134616,0.0016850681062485,-0.0018511580304157,0.0018511607386107,-0.0018511614025571,0.0018511559958677,-0.0018511601739717,0.0018511572715379,-0.0018511635455682,0.0018511525282532,-0.0014971443400538,0.0014971492416149,-0.0014971565641624,0.0014971376910745,-0.0014971468422025,0.0014971466744342,-0.0014971554281035,0.0014971388723883,6.0451904019174e-09,6.0451759609794e-09,-0.00094209928467192,0.00094211255931499,-2.211301593313e-10,1.2055550084668e-08,-0.0010614406633758,0.0010614498052576,-0.0010614365291219,0.001061453910006,-0.0010614403248358,0.0010614494673756,-0.0010614362258374,0.0010614536073834,-0.00092741512043915,0.00092743137486735,-0.00092741491851078,0.00092743117361946,0.64095610021346,122718,2924,0.003919289571982,0.0069956501499633,0.0039192895719812,15.23374368653,3.7069949492244e-05,3.7069949492244e-05,3.7069949492244e-05,2897061.2510174,0.014945261739065
21919200,0.99965505807448,0.016075093747045,0.0048211441920548,0.006432805362936,0.0048211441920539,-0.00093877596543968,0.00093878727592705,5.2438130479454e-09,5.2437984772885e-09,7.0127523311308e-10,9.4464873918828e-09,-0.001058038703772,0.0010580473144804,-0.0010580384939446,0.0010580471053107,-0.0010580357919654,0.0010580502720463,-0.0010580355982706,0.0010580500790125,-0.00092398163240625,0.00092399503171548,-0.00092398183618189,0.0009239952348144,2.0447195485743e-09,-6.4060253821454e-09,4.0027320722828e-09,-8.2345129201062e-09,-0.0016832418031312,0.0016832375634538,-0.0018497808211513,0.0018497835524127,-0.001849784354796,0.0018497789097173,-0.0018497831200184,0.001849780191701,-0.0018497866531183,0.001849775548464,-0.0014949242319072,0.0014949291902748,-0.0014949366454377,0.0014949175901967,-0.0014949267463366,0.0014949266106756,-0.0014949355044706,0.0014949187765399,5.4747901665177e-09,5.4747756231844e-09,-0.00093877573524317,0.00093878750612293,-8.4421287555261e-10,1.1535640479911e-08,-0.0010580391177822,0.0010580469436944,-0.0010580349531453,0.0010580510812167,-0.0010580388928392,0.0010580467194093,-0.0010580347609908,0.001058050889724,-0.00092398099377612,0.00092399607329695,-0.00092398077132885,0.00092399585153016,0.62311101531201,122718,2924,0.003905495571473,0.0069880779116505,0.0039054955714719,13.997489584508,2.7179916676061e-05,2.7179916676061e-05,2.7179916676061e-05,2892569.6236259,0.01490957756397
22419200,0.99968348681845,0.01607553653706,0.0048212731011935,0.006432990334674,0.0048212731011925,-0.00094034013384106,0.00094034735198316,3.6713666420578e-09,3.6713521689595e-09,-6.5679948823935e-10,7.6388920961488e-09,-0.0010589166441966,0.0010589218790201,-0.0010589167333032,0.0010589219687846,-0.0010589138867751,0.0010589246831819,-0.001058913986434,0.0010589247835019,-0.00092546417829242,0.00092547410843268,-0.00092546442361441,0.00092547435307789,1.9041223071353e-09,-6.1366291871907e-09,3.8519651264624e-09,-7.9606354516396e-09,-0.0016847400843198,0.0016847359681985,-0.0018518535884,0.0018518561271859,-0.0018518573142734,0.0018518519966987,-0.0018518560849199,0.0018518532733533,-0.0018518598102488,0.0018518491423246,-0.0014959658681123,0.001495970683269,-0.0014959780592978,0.0014959596787924,-0.0014959683720404,0.0014959681140193,-0.0014959769200198,0.0014959608635914,3.9033839299364e-09,3.9033694859318e-09,-0.0009403399026378,0.00094034758318596,-2.1960426934031e-09,9.723944149477e-09,-0.001058917053267,0.0010589215105551,-0.0010589130510418,0.0010589254919499,-0.0010589171275236,0.0010589215854698,-0.0010589131519102,0.0010589255934804,-0.00092546358245025,0.00092547519082367,-0.00092546331914618,0.00092547492819991,0.65096373206224,122718,2924,0.0039119745864373,0.0069942906891293,0.0039119745864365,14.849047630474,3.3992381043789e-05,3.3992381043789e-05,3.3992381043789e-05,2893091.0918072,0.01492903061124
22919200,0.99971037412419,0.016075914058633,0.0048213823632917,0.0064331493320508,0.0048213823632908,-0.00093964693018631,0.00093965474093217,3.8924916735954e-09,3.8924769670399e-09,-3.0644998304573e-10,7.7289768538272e-09,-0.0010595617108362,0.0010595675273031,-0.0010595617532386,0.001059567570363,-0.0010595590342582,0.0010595702451228,-0.0010595590889213,0.0010595703004466,-0.00092482602167118,0.00092483633604823,-0.00092482625814154,0.00092483657184218,1.8240504081003e-09,-5.9510906526773e-09,3.7385806842793e-09,-7.7461593522666e-09,-0.0016871556799652,0.0016871516653794,-0.001853830938751,0.0018538333911549,-0.0018538345093624,0.0018538293128254,-0.001853833299921,0.0018538305680082,-0.0018538368699874,0.0018538264891368,-0.0014986270654387,0.0014986317449844,-0.0014986389053224,0.0014986210361573,-0.0014986295281936,0.0014986292185357,-0.0014986377831511,0.0014986222027685,4.1170735024328e-09,4.1170588231009e-09,-0.00093964670642457,0.00093965496469346,-1.8248506506535e-09,9.7765283345644e-09,-0.0010595621154295,0.0010595671608563,-0.0010595582170801,0.0010595710375451,-0.0010595621434764,0.0010595671895608,-0.0010595582727079,0.0010595710938344,-0.00092482543450141,0.00092483739228693,-0.00092482518078318,0.00092483713924873,0.58748017292924,122718,2924,0.0039091153814357,0.0070042585126215,0.0039091153814349,15.356842100139,3.8054736801109e-05,3.8054736801109e-05,3.8054736801109e-05,2862147.41153,0.014933351541082
23419200,0.99973549112362,0.016076277388305,0.0048214880164342,0.0064333013554375,0.0048214880164333,-0.00094175130296128,0.00094175944541871,4.0216326478905e-09,4.0216184681359e-09,-1.1876871720824e-10,7.7927788624844e-09,-0.0010591040929953,0.0010591102545323,-0.0010591041081572,0.0010591102703527,-0.0010591014549101,0.0010591129316314,-0.0010591014832922,0.001059112960675,-0.00092677841159985,0.00092678895629689,-0.00092677864678012,0.00092678919080006,1.7621804485969e-09,-5.8850223273134e-09,3.6343236729065e-09,-7.6391027151852e-09,-0.0016860966531521,0.0016860926415811,-0.0018543037096134,0.0018543060582961,-0.0018543071863631,0.0018543020204098,-0.0018543060044915,0.0018543032477501,-0.0018543094806974,0.0018542992093231,-0.0014963759166586,0.0014963804321276,-0.0014963875471198,0.0014963699306518,-0.0014963783249425,0.0014963779605897,-0.0014963864509244,0.0014963710709732,4.2488857618812e-09,4.2488716080323e-09,-0.00094175107664879,0.00094175967173071,-1.5932763187962e-09,9.8013038223355e-09,-0.001059104480549,0.0010591099043271,-0.0010591006498588,0.0010591137126764,-0.0010591044814546,0.0010591099058912,-0.0010591006791547,0.0010591137426349,-0.00092677783449378,0.00092679000002052,-0.00092677758203693,0.00092678974824438,0.60459639632209,122718,2924,0.0039178266987377,0.0069999276473945,0.0039178266987369,15.705336884456,4.0842695075648e-05,4.0842695075648e-05,4.0842695075648e-05,2898198.526892,0.014946623421084
23919200,0.99976024363937,0.016076699599751,0.0048216115464931,0.0064334765067653,0.0048216115464922,-0.0009434792569595,0.00094348550774551,3.2897702772229e-09,3.2897557242378e-09,-6.9472989036292e-10,6.8974060365096e-09,-0.0010619242998564,0.0010619289191535,-0.0010619244522097,0.0010619290721647,-0.0010619217685116,0.0010619314878458,-0.0010619219319249,0.0010619316519203,-0.00092847985995939,0.0009284887568442,-0.00092848011302476,0.000928489009233,1.6734698711147e-09,-5.6733982296961e-09,3.4984380687655e-09,-7.38498822962e-09,-0.001689601833046,0.0016895979400715,-0.0018572290611731,0.0018572312823732,-0.0018572325625303,0.0018572275434154,-0.0018572314091574,0.0018572287401277,-0.0018572349099699,0.0018572250006283,-0.0015003930752708,0.0015003974321909,-0.0015004044068217,0.00150038739065,-0.0015003954247694,0.0015003950217451,-0.001500403336463,0.0015003885035793,3.5077194618007e-09,3.5077049666148e-09,-0.00094347903996754,0.000943485724737,-2.137420451743e-09,8.8529834781017e-09,-0.0010619246803049,0.001061928573528,-0.0010619209881071,0.0010619322464163,-0.0010619248189814,0.0010619287128624,-0.0010619211522079,0.0010619324111791,-0.00092847932455159,0.00092848979497792,-0.0009284790549443,0.00092848952605074,0.71228945632067,122718,2924,0.0039250044504658,0.0070144089446273,0.003925004450465,17.003039481322,5.1224315850579e-05,5.1224315850579e-05,5.1224315850579e-05,2872013.8045616,0.014975899367077
24419200,0.99978384818923,0.016077083167442,0.0048217233236511,0.0064336365201409,0.0048217233236501,-0.00094072855329153,0.00094073556825084,3.5782970116241e-09,3.5782818439873e-09,-3.4036204037734e-10,7.1240615366926e-09,-0.0010636453701623,0.0010636506708813,-0.0010636454647903,0.001063650766166,-0.001063642877003,0.0010636531973277,-0.0010636429844756,0.0010636533054604,-0.00092610098342868,0.00092611044983437,-0.00092610122518873,0.00092611069091887,1.648437725359e-09,-5.5640668421655e-09,3.4249972105098e-09,-7.2298648611207e-09,-0.0016952349993349,0.0016952311883008,-0.0018609072918949,0.0018609094839626,-0.0018609106562475,0.0018609057489817,-0.0018609095322265,0.001860906913516,-0.0018609128960328,0.0018609031779921,-0.0015072074360304,0.0015072116916426,-0.0015072185002102,0.0015072018352151,-0.0015072097241783,0.0015072093455366,-0.0015072174580156,0.0015072029179288,3.7811217766046e-09,3.781106710461e-09,-0.00094072835138704,0.00094073577015492,-1.7544390975016e-09,9.0176153164915e-09,-0.0010636457488796,0.0010636503251624,-0.0010636421268838,0.0010636539269055,-0.0010636458304808,0.0010636504074201,-0.0010636422349259,0.0010636540356088,-0.00092610046709055,0.00092611144637645,-0.00092610020944497,0.0009261111894098,0.6789410524186,122718,2924,0.0039136414205538,0.0070376251945608,0.0039136414205531,17.880791110804,5.8246328886432e-05,5.8246328886432e-05,5.8246328886432e-05,2788465.3611316,0.014976421873241
24919200,0.99980571092647,0.016077401315573,0.004821815859211,0.0064337695971518,0.0048218158592101,-0.00094116358227134,0.00094117142924415,3.8989694256678e-09,3.8989548530547e-09,-2.8436920883719e-11,7.4525685113829e-09,-0.0010626512753937,0.0010626572970251,-0.0010626513078975,0.0010626573301864,-0.0010626487747867,0.0010626598298387,-0.001062648821518,0.0010626598772309,-0.000926492093883,0.00092650224298718,-0.00092649232846563,0.00092650247689332,1.6391506005449e-09,-5.5811792383936e-09,3.3722434295133e-09,-7.2029072892442e-09,-0.0016955758991079,0.0016955720622955,-0.0018627050164951,0.00186270716833,-0.0018627082894488,0.0018627033856134,-0.0018627071941359,0.0018627045210683,-0.0018627104665446,0.00186270073781,-0.0015061245373202,0.001506128682952,-0.0015061354936017,0.0015061188786341,-0.0015061267686008,0.0015061263942908,-0.0015061344798766,0.0015061199324208,4.1019063557732e-09,4.1018918776185e-09,-0.00094116338034245,0.00094117163117265,-1.3985370578882e-09,9.3017921114016e-09,-0.0010626516394654,0.001062656966009,-0.001062648039287,0.0010626605446198,-0.0010626516590025,0.0010626569862038,-0.0010626480866477,0.0010626605926423,-0.00092649158495785,0.00092650321773889,-0.00092649133426117,0.00092650296772241,0.60789483588396,122718,2924,0.0039154428335764,0.0070390652346507,0.0039154428335757,18.351420059563,6.2011360476507e-05,6.2011360476507e-05,6.2011360476507e-05,2800523.0588898,0.014981528246203
25419200,0.99982718266561,0.016077780993653,0.0048219274935161,0.006433926006622,0.0048219274935152,-0.0009461228230705,0.00094612852353637,3.074500456866e-09,3.0744862966306e-09,-7.3025035396325e-10,6.4916877243373e-09,-0.0010646456459587,0.0010646499100728,-0.0010646458340703,0.0010646500988425,-0.0010646432338313,0.0010646523547025,-0.0010646434333952,0.0010646525549282,-0.00093114201566872,0.00093115033803422,-0.0009311422731815,0.00093115059487006,1.5490233660465e-09,-5.4329343619963e-09,3.2332321554476e-09,-7.0087763059302e-09,-0.0016965746460151,0.0016965708645789,-0.0018654267434286,0.0018654287412647,-0.0018654300825981,0.0018654252649683,-0.0018654290184108,0.0018654263686218,-0.0018654323570373,0.0018654228917846,-0.001505892682418,0.0015058966425931,-0.0015059034212642,0.0015058872668429,-0.0015058948517046,0.0015058944168675,-0.00150590243635,0.0015058882911639,3.2779120037553e-09,3.2778979213504e-09,-0.00094612262078482,0.00094612872582161,-2.0541756015219e-09,8.2946657795108e-09,-0.0010646459929619,0.0010646495946002,-0.0010646425146279,0.0010646530545883,-0.0010646461683513,0.0010646497706487,-0.0010646427146996,0.0010646532553227,-0.00093114154492977,0.00093115132077388,-0.00093114127149184,0.00093115104801679,0.7372586897946,122718,2924,0.0039359913090272,0.0070432581281269,0.0039359913090264,19.91837282854,7.4546982628317e-05,7.4546982628317e-05,7.4546982628317e-05,2838001.3103102,0.015027480989132
25919200,0.99984716748854,0.016078130062834,0.0048220296256941,0.006434070811447,0.0048220296256932,-0.00094298091734969,0.00094298803133929,3.6129604518765e-09,3.6129452803755e-09,-1.8390858027977e-10,7.0325030373301e-09,-0.0010668683559191,0.0010668738193539,-0.0010668684396877,0.0010668739037784,-0.0010668659412278,0.0010668762630139,-0.0010668660389898,0.001066876361435,-0.00092827587479974,0.00092828533419941,-0.0009282761148386,0.00092828557356237,1.564292283121e-09,-5.3993570117025e-09,3.2051443263351e-09,-6.9330717691812e-09,-0.0017027216602818,0.0017027179265957,-0.0018690138046819,0.0018690158247009,-0.001869016993909,0.001869012251109,-0.0018690159557754,0.0018690133255828,-0.0018690191444571,0.0018690097514487,-0.0015138649521144,0.0015138688587599,-0.0015138755108432,0.001513859512847,-0.0015138670661017,0.0015138666916303,-0.001513874552006,0.0015138605088591,3.8003046437356e-09,3.8002895489715e-09,-0.00094298073109158,0.00094298821759678,-1.4843336531552e-09,8.7763279842016e-09,-0.0010668687040232,0.0010668735016696,-0.001066865251177,0.0010668769342983,-0.0010668687756687,0.0010668735739725,-0.001066865349408,0.0010668770331893,-0.00092827541645747,0.00092828626960939,-0.00092827516099368,0.00092828601482531,0.72914636768882,122718,2924,0.0039230117759141,0.0070685818628442,0.0039230117759129,20.733520691252,8.1068165530015e-05,8.1068165530015e-05,8.1068165530015e-05,2740163.4605705,0.015026868816077
26419200,0.99986451708174,0.016078459887133,0.0048221268022294,0.0064342062826748,0.0048221268022284,-0.00094089572015563,0.000940905166458,4.5105522683567e-09,4.5105375685687e-09,5.7745568363811e-10,8.0779253416316e-09,-0.0010643599459314,0.0010643673260555,-0.0010643598611622,0.0010643672419436,-0.0010643574344885,0.0010643698664179,-0.0010643573667873,0.0010643697993773,-0.0009262589942485,0.00092627044407818,-0.00092625921278533,0.00092627066193862,1.6452129711672e-09,-5.5796406182797e-09,3.2628395543149e-09,-7.0861769507465e-09,-0.0017023830888138,0.0017023792594357,-0.0018696527982336,0.0018696549014179,-0.0018696558697794,0.0018696510486615,-0.0018696548477739,0.0018696521067114,-0.0018696579187747,0.001869648253413,-0.0015124068969006,0.0015124108201405,-0.0015124175561117,0.0015124011697465,-0.0015124089787738,0.0015124086855588,-0.0015124166156764,0.0015124021469987,4.6974954237908e-09,4.6974807837481e-09,-0.00094089553435532,0.00094090535225789,-6.967877741118e-10,9.7943917142015e-09,-0.001064360287037,0.001064367017029,-0.0010643567523283,0.0010643705280504,-0.0010643601900138,0.0010643669206633,-0.0010643566853294,0.001064370461713,-0.00092625852338483,0.00092627134874024,-0.00092625828881238,0.00092627111484808,0.7920419595447,122718,2924,0.0039143681519772,0.0070671894062406,0.0039143681519765,20.399234617189,7.8393876937511e-05,7.8393876937511e-05,7.8393876937511e-05,2737675.9685288,0.015007902343895
26919200,0.99988066912521,0.016078749223585,0.0048222116967033,0.0064343258301788,0.0048222116967024,-0.00093952249541998,0.00093952954691139,3.592332704165e-09,3.5923177294567e-09,-2.951958261797e-10,7.1053637747199e-09,-0.0010651380343961,0.0010651433904978,-0.0010651381238324,0.0010651434805911,-0.0010651355611399,0.001065145895246,-0.0010651356641857,0.0010651459989514,-0.00092496941215731,0.00092497888767032,-0.00092496965479741,0.00092497912963381,1.6287261201233e-09,-5.5187624243609e-09,3.2306448478999e-09,-7.0107751161032e-09,-0.0017064189901563,0.0017064152040207,-0.0018731763115847,0.0018731783724216,-0.0018731795401349,0.0018731747717114,-0.0018731785275517,0.0018731758194909,-0.0018731817555567,0.001873172218238,-0.0015165819337262,0.0015165858292484,-0.0015165925992414,0.0015165763867618,-0.0015165839959533,0.0015165837152364,-0.0015165916678965,0.0015165773542928,3.7744230276144e-09,3.7744080911861e-09,-0.00093952231447444,0.00093952972785655,-1.560544577552e-09,8.8022513054568e-09,-0.0010651383750605,0.0010651430812515,-0.0010651348886587,0.0010651465476946,-0.0010651384524687,0.0010651431593174,-0.0010651349923465,0.0010651466520436,-0.00092496897509191,0.00092497980693667,-0.00092496871663306,0.00092497954915779,0.74688297492095,122718,2924,0.0039086934049618,0.007083843377952,0.0039086934049611,21.286132917037,8.54890633363e-05,8.54890633363e-05,8.54890633363e-05,2688394.3759279,0.015013298418572
27419200,0.999895662816,0.016079010398986,0.0048222884249381,0.0064344335491105,0.0048222884249372,-0.00094151085881456,0.0009415177415663,3.5271447120656e-09,3.527130215541e-09,-3.2034289470586e-10,6.9942295790286e-09,-0.0010651246323005,0.0010651298795052,-0.0010651247321796,0.001065129980042,-0.0010651221869394,0.0010651323555872,-0.0010651223003922,0.0010651324697011,-0.00092678291964305,0.00092679222928808,-0.00092678316379011,0.00092679247275802,1.5892112772746e-09,-5.473397001714e-09,3.1706476378911e-09,-6.9457324514649e-09,-0.0017073399579296,0.0017073361769578,-0.0018757867824489,0.0018757887784473,-0.0018757899848093,0.0018757852349286,-0.0018757889857128,0.0018757862693245,-0.0018757921875287,0.0018757827252646,-0.0015160313183173,0.0015160351246106,-0.0015160418767675,0.0015160258200559,-0.0015160333542839,0.0015160330368592,-0.0015160409579089,0.0015160267750798,3.7109188713765e-09,3.7109044333553e-09,-0.00094151067624988,0.00094151792413044,-1.5640146550729e-09,8.6728167155184e-09,-0.0010651249643122,0.001065129578433,-0.001065121520095,0.0010651330028799,-0.0010651250522017,0.0010651296669805,-0.0010651216341492,0.001065133117596,-0.00092678248918094,0.00092679314503949,-0.00092678222918849,0.00092679288572786,0.72588280929977,122718,2924,0.0039169316525601,0.0070876954689172,0.0039169316525591,22.249984944971,9.3199879559769e-05,9.3199879559769e-05,9.3199879559769e-05,2705725.1450093,0.015033918699162
27919200,0.99990925275483,0.016079260050449,0.0048223619310177,0.0064345361884142,0.0048223619310168,-0.00094283603061433,0.00094284350826975,3.7557417707221e-09,3.7557272947013e-09,-9.8972301000907e-11,7.2314961495801e-09,-0.0010655907205898,0.0010655964784911,-0.0010655907764011,0.00106559653496,-0.0010655882683874,0.0010655989604178,-0.0010655883387643,0.0010655990314556,-0.00092792419999826,0.0009279339975623,-0.0009279244397595,0.00092793423664652,1.5889985528908e-09,-5.4836575704959e-09,3.1514078619472e-09,-6.9368902225889e-09,-0.0017083858894573,0.0017083820981163,-0.001877566458903,0.0018775684450996,-0.0018775696044314,0.0018775648567195,-0.0018775686175239,0.0018775658783684,-0.0018775717625077,0.0018775622894472,-0.0015165436565483,0.0015165474192309,-0.0015165541625836,0.0015165381198836,-0.0015165456678516,0.0015165453568141,-0.001516553255906,0.0015165390622727,3.9382465051605e-09,3.9382320955345e-09,-0.00094283584936774,0.0009428436895159,-1.3252322094186e-09,8.8894214091189e-09,-0.0010655910474699,0.0010655961824599,-0.0010655876091332,0.0010655996001196,-0.0010655910913671,0.0010655962270151,-0.0010655876801272,0.0010655996717754,-0.00092792377277961,0.00092793490130904,-0.00092792351711465,0.00092793464632495,0.76533978020323,122718,2924,0.0039224256999194,0.0070920409397565,0.0039224256999186,22.917860461914,9.854288369531e-05,9.854288369531e-05,9.854288369531e-05,2709189.175986,0.01504947902258
28419200,0.99992140733279,0.016079500989481,0.0048224330180788,0.0064346349533239,0.0048224330180779,-0.00094197689186443,0.00094198466655474,3.8697445807388e-09,3.8697298450373e-09,-4.9415397967042e-12,7.3699827579681e-09,-0.0010663040414477,0.0010663100336181,-0.0010663040767678,0.0010663100695954,-0.0010663015741814,0.0010663125304614,-0.0010663016244481,0.0010663125813887,-0.00092711777130987,0.00092712782463337,-0.00092711800815808,0.00092712806080457,1.6093313187976e-09,-5.5053820381813e-09,3.1589967362299e-09,-6.9455858750603e-09,-0.0017109829001504,0.0017109791076748,-0.0018795951948414,0.0018795972017044,-0.0018795983215909,0.0018795935810033,-0.0018795973425041,0.0018795945939578,-0.0018796004687086,0.0018795909727148,-0.0015195063626222,0.0015195101252611,-0.0015195168664372,0.0015195007929306,-0.0015195083573456,0.0015195080803412,-0.0015195159680736,0.0015195017263885,4.0481183069317e-09,4.0481035908432e-09,-0.00094197671475278,0.00094198484366595,-1.2231122874063e-09,9.010577161631e-09,-0.0010663043681894,0.0010663097377191,-0.0010663009228692,0.0010663131620774,-0.0010663043917253,0.0010663097619122,-0.001066300973773,0.0010663132136425,-0.00092711734950818,0.00092712871714367,-0.00092711709679056,0.00092712846510619,0.82558911402084,122718,2924,0.0039188796070678,0.0071027527227214,0.003918879607067,23.440902721259,0.00010272722177008,0.00010272722177008,0.00010272722177008,2674506.054351,0.015053162850891
28919200,0.99993224064918,0.016079699648718,0.0048224914270809,0.006434716794557,0.00482249142708,-0.00094013854641157,0.00094014628897877,3.8565907464709e-09,3.8565758708385e-09,-2.8258422625321e-11,7.369713983179e-09,-0.0010665886316205,0.0010665945804227,-0.0010665886701734,0.0010665946196325,-0.0010665861570793,0.0010665970847476,-0.0010665862104473,0.0010665971387755,-0.00092545637386538,0.00092546640807461,-0.00092545661004336,0.00092546664357637,1.6241098971457e-09,-5.5142042807855e-09,3.1664176770547e-09,-6.9469113243335e-09,-0.0017141851587389,0.0017141813723433,-0.0018821713789929,0.0018821734017802,-0.0018821745107393,0.0018821697809563,-0.0018821735361325,0.0018821707888757,-0.0018821766673337,0.0018821671675095,-0.0015229241460931,0.0015229279158659,-0.0015229346553427,0.0015229185716154,-0.0015229261312296,0.001522925881095,-0.0015229337617802,0.0015229194998875,4.0315948526917e-09,4.0315799288397e-09,-0.00094013837266337,0.00094014646272663,-1.242808800956e-09,8.9993622136195e-09,-0.0010665889592551,0.0010665942835599,-0.001066585511279,0.0010665977108136,-0.0010665889861333,0.0010665943110953,-0.0010665855652838,0.0010665977654796,-0.00092545595716816,0.00092546729416598,-0.00092545570518232,0.0009254670428606,0.76400561131051,122718,2924,0.0039112789030571,0.0071159563328796,0.0039112789030565,23.983159137147,0.00010706527309718,0.00010706527309718,0.00010706527309718,2629065.3004042,0.015051146126454
29419200,0.99994197793256,0.01607984538866,0.0048225339752818,0.0064347774380969,0.0048225339752808,-0.00094242581883272,0.00094243307080063,3.67024484151e-09,3.6702305148794e-09,-1.9935284750845e-10,7.1606843060686e-09,-0.0010663919396817,0.0010663974950177,-0.0010663920123334,0.0010663975683274,-0.0010663894785592,0.0010663999864362,-0.0010663895654079,0.0010664000739462,-0.0009275694013019,0.00092757902781602,-0.0009275696433792,0.00092757926921584,1.6000923452184e-09,-5.5039926305679e-09,3.134061817504e-09,-6.9283490437514e-09,-0.0017143094082643,0.0017143056081015,-0.0018841143974237,0.0018841163741961,-0.0018841175534681,0.0018841128157387,-0.0018841165847594,0.0018841138182306,-0.0018841197402594,0.001884110259232,-0.0015215048651218,0.0015215085841497,-0.0015215153576698,0.0015214993211197,-0.001521506839415,0.001521506559808,-0.0015215144695949,0.0015215002441642,3.8484678037095e-09,3.8484534306624e-09,-0.0009424256419205,0.00094243324771233,-1.4018504950767e-09,8.7851841278869e-09,-0.0010663922613363,0.0010663972041369,-0.0010663888328093,0.001066400612524,-0.0010663923222392,0.0010663972656978,-0.0010663889202951,0.0010664007006716,-0.00092756899019351,0.00092757992014276,-0.00092756873214949,0.00092757966277989,0.62417410960896,122718,2924,0.00392075103887,0.0071165219988925,0.003920751038869,24.777697463943,0.00011342157971154,0.00011342157971154,0.00011342157971154,2656869.9241636,0.015070933505558
29919200,0.9999506180362,0.016079987868468,0.0048225759034113,0.0064348360616467,0.0048225759034104,-0.00094827951979674,0.00094828701453416,3.7675388055587e-09,3.7675251922271e-09,-1.1338729348205e-10,7.2626923164409e-09,-0.0010667307854311,0.0010667365719224,-0.0010667308386133,0.0010667366257642,-0.0010667283182941,0.0010667390692589,-0.0010667283861902,0.0010667391378169,-0.00093300253729963,0.00093301237169069,-0.00093300278074385,0.00093301261445667,1.5808959081858e-09,-5.5356160309065e-09,3.1045683592736e-09,-6.9490311438686e-09,-0.0017115309584079,0.0017115271080767,-0.0018840346071123,0.0018840365387175,-0.0018840377434754,0.0018840329631089,-0.0018840367821614,0.0018840339587842,-0.0018840399179827,0.0018840303826364,-0.0015169283796089,0.0015169320345473,-0.0015169388686774,0.0015169227862567,-0.0015169303402935,0.0015169300233582,-0.001516937987864,0.0015169237023437,3.9523476204197e-09,3.9523339213032e-09,-0.00094827933641131,0.00094828719791886,-1.2977346918019e-09,8.8827538181125e-09,-0.0010667310971734,0.0010667362913272,-0.0010667276701353,0.0010667396975081,-0.0010667311384231,0.0010667363332356,-0.0010667277387258,0.0010667397667622,-0.0009330021247563,0.00093301326816957,-0.0009330018649623,0.00093301300905712,0.68688558505508,122718,2924,0.0039449865817632,0.0071051391931105,0.0039449865817619,25.464426498653,0.00011891541198922,0.00011891541198922,0.00011891541198922,2743110.7358983,0.015108551867707
30419200,0.99995822674764,0.016080090341186,0.0048226056645591,0.0064348790120691,0.0048226056645581,-0.0009478616464594,0.00094786915232913,3.7700977857586e-09,3.7700832735085e-09,-1.0824175049287e-10,7.2703502359673e-09,-0.0010696871622494,0.0010696929354565,-0.0010696872172241,0.0010696929910888,-0.0010696846941923,0.0010696954333123,-0.0010696847638466,0.0010696955036278,-0.00093258716646469,0.00093259700774197,-0.00093258740793189,0.00093259724853292,1.6012708492159e-09,-5.5193354291501e-09,3.1181967849933e-09,-6.9267651450795e-09,-0.0017151701462172,0.0017151663317819,-0.0018855888989353,0.0018855908639429,-0.0018855920303006,0.0018855872892611,-0.0018855910721663,0.0018855882803722,-0.0018855942029872,0.0018855847051493,-0.001522434552494,0.0015224382335795,-0.0015224450181053,0.0015224289790722,-0.0015224365048985,0.0015224362320318,-0.0015224441407405,0.0015224298908242,3.9472354883179e-09,3.9472208239768e-09,-0.00094786147068786,0.00094786932810032,-1.2955755630559e-09,8.8765086155573e-09,-0.0010696874793024,0.0010696926491184,-0.0010696840550458,0.0010696960527724,-0.0010696875225903,0.001069692693064,-0.0010696841253582,0.001069696123747,-0.00093258676144542,0.00093259789279683,-0.00093258650395465,0.00093259763598606,0.56251928746541,122718,2924,0.0039432798172203,0.0071201272127415,0.0039432798172197,26.129759669402,0.00012423807735522,0.00012423807735522,0.00012423807735522,2685948.8180942,0.015120324276721
30919200,0.99996499335024,0.016080200184323,0.0048226380218582,0.006434924140607,0.0048226380218573,-0.00095396889260323,0.00095397575978035,3.5264568316056e-09,3.5264432024643e-09,-3.2112942791678e-10,6.9866696048041e-09,-0.0010710775508642,0.0010710828110465,-0.0010710776516602,0.0010710829125021,-0.0010710751071676,0.0010710852849885,-0.0010710752218274,0.0010710854003107,-0.00093856465561838,0.0009385739587321,-0.00093856490414303,0.00093857420657924,1.5585501248341e-09,-5.4967436323728e-09,3.0654484261842e-09,-6.8944449829677e-09,-0.0017132574647314,0.0017132536299247,-0.0018857595625571,0.0018857614520214,-0.0018857627207747,0.0018857579662507,-0.0018857617697214,0.001885758950946,-0.0018857649273971,0.0018857554646357,-0.0015190562923625,0.0015190598932552,-0.0015190667167408,0.0015190507619582,-0.0015190582318748,0.001519057903984,-0.0015190658456888,0.0015190516677909,3.710136402262e-09,3.7101226582076e-09,-0.00095396871037698,0.00095397594200613,-1.4913873992563e-09,8.5895402602316e-09,-0.0010710778580288,0.0010710825345272,-0.0010710744656209,0.00107108590705,-0.0010710779470017,0.0010710826241599,-0.0010710745809432,0.0010710860230358,-0.00093856425459082,0.00093857485394964,-0.00093856398981482,0.00093857458985498,0.67617106509292,122718,2924,0.0039685750443735,0.0071123071485558,0.0039685750443726,27.118574950211,0.00013214859960169,0.00013214859960169,0.00013214859960169,2764420.2968858,0.01516371426631
31419200,0.99997104701764,0.016080301729717,0.0048226678373217,0.006434966055074,0.0048226678373208,-0.00095306412619796,0.00095307025298028,3.2352522041226e-09,3.235237436572e-09,-5.3470177490061e-10,6.6209523456859e-09,-0.0010755813488427,0.0010755859937221,-0.0010755815028233,0.0010755861483604,-0.0010755789555333,0.0010755884159251,-0.0010755791225925,0.001075588583645,-0.00093787564571457,0.00093788428679125,-0.0009378758974665,0.00093788453786709,1.5374815184067e-09,-5.3738352786092e-09,3.0298343337585e-09,-6.7598485131504e-09,-0.0017196723043708,0.0017196685687247,-0.0018891098389597,0.0018891117161892,-0.0018891129966659,0.0018891083487569,-0.0018891120532311,0.001889109324091,-0.0018891152103926,0.0018891059561165,-0.0015278971794352,0.0015279007626097,-0.0015279074533974,0.0015278918126235,-0.001527899101499,0.0015278987925193,-0.0015279065888833,0.0015278927107755,3.4081097382671e-09,3.4080948488065e-09,-0.00095306395470436,0.00095307042447341,-1.7054784637448e-09,8.2007426380179e-09,-0.0010755816615718,0.0010755857101185,-0.0010755783286994,0.0010755890244928,-0.0010755818041847,0.0010755858533894,-0.0010755784962661,0.0010755891927204,-0.00093787526267335,0.0009378851706545,-0.00093787499538093,0.00093788490404252,0.69952705654839,122718,2924,0.0039648690043257,0.0071387371426324,0.0039648690043248,28.435429630717,0.00014268343704574,0.00014268343704574,0.00014268343704574,2672144.9378289,0.01518305408454
31919200,0.99997626133937,0.016080391789759,0.0048226943860916,0.0064350030175769,0.0048226943860907,-0.00095306458827483,0.00095307169556504,3.6128712316499e-09,3.612856632675e-09,-1.6478014892331e-10,7.0089703067095e-09,-0.0010766822845458,0.001076687768523,-0.0010766823671775,0.0010766878518123,-0.0010766798827995,0.0010766901976187,-0.0010766799800558,0.0010766902955359,-0.00093811894713694,0.00093812839141179,-0.00093811918884497,0.00093812863244348,1.5405798185793e-09,-5.3792834264073e-09,3.018450793459e-09,-6.7506584438419e-09,-0.0017222773779244,0.0017222736401156,-0.001891429752844,0.001891431634135,-0.0018914328263563,0.0018914281859196,-0.0018914318923171,0.0018914291514823,-0.0018914349652846,0.0018914257027253,-0.0015304184212521,0.0015304219754555,-0.0015304286314474,0.0015304130062051,-0.0015304203243727,0.0015304200247267,-0.0015304277762668,0.0015304138947091,3.7837201476876e-09,3.7837054394558e-09,-0.00095306441879168,0.00095307186504783,-1.3231638988394e-09,8.5719331154772e-09,-0.0010766825943326,0.0010766874877572,-0.0010766792627317,0.001076690799426,-0.0010766826656834,0.0010766875597656,-0.0010766793605085,0.0010766908978644,-0.00093811856090545,0.00093812925832946,-0.00093811830367518,0.0009381290017795,0.71926751588325,122718,2924,0.0039648903327689,0.007149490863687,0.0039648903327683,29.268223300986,0.00014934578640789,0.00014934578640789,0.00014934578640789,2648931.4714889,0.015194017293996
32419200,0.99998054298652,0.0160804729926,0.0048227184272735,0.0064350361380543,0.0048227184272726,-0.00095157868490184,0.00095158746541904,4.2582550550877e-09,4.2582404781019e-09,3.7522405583178e-10,7.7697831324587e-09,-0.0010760261974357,0.0010760330501864,-0.0010760261603647,0.0010760330137728,-0.0010760237207929,0.001076035554304,-0.001076023700476,0.0010760355346479,-0.00093669451596956,0.00093670539548425,-0.00093669474271285,0.00093670562155114,1.6093307193453e-09,-5.5156603265396e-09,3.0861557910002e-09,-6.8831336721087e-09,-0.0017232935415226,0.0017232897387289,-0.001892437702328,0.0018924396685641,-0.0018924407075805,0.0018924360042419,-0.001892439774827,0.0018924369683996,-0.0018924427795347,0.0018924333035359,-0.001531220951857,0.0015312245639054,-0.0015312312797588,0.0015312153257339,-0.0015312228522702,0.0015312226160569,-0.001531230427735,0.0015312162109402,4.4282395374964e-09,4.4282248298685e-09,-0.00095157851628861,0.00095158763403189,-7.8049179074684e-10,9.3282237077645e-09,-0.0010760265079916,0.0010760327699041,-0.0010760231016283,0.0010760361539037,-0.0010760264595335,0.0010760327221037,-0.0010760230819895,0.0010760361349266,-0.00093669411657573,0.00093670624543465,-0.00093669387394666,0.00093670600348616,0.78912843059547,122718,2924,0.0039587410131015,0.0071536782056483,0.0039587410131008,29.299061395874,0.00014959249116699,0.00014959249116699,0.00014959249116699,2630647.664938,0.015185786101196
32919200,0.99998403131206,0.016080530861543,0.004822735446799,0.006435059967946,0.0048227354467981,-0.00094816856468063,0.00094817769883601,4.3937126381151e-09,4.3936977780002e-09,4.2223458688534e-10,8.0031221479943e-09,-0.0010750998792707,0.001075106961544,-0.0010750998196379,0.0010751069025683,-0.001075097342492,0.0010751095278336,-0.0010750972995552,0.001075109485557,-0.00093344938358605,0.00093346061252919,-0.00093344960718294,0.00093346083544943,1.6803047206089e-09,-5.6279761760146e-09,3.1704360190618e-09,-7.0063528808465e-09,-0.0017254460821697,0.0017254422402021,-0.0018938257618802,0.0018938278196119,-0.0018938288050967,0.0018938240548428,-0.0018938278641063,0.0018938250272816,-0.0018938309067772,0.0018938212619699,-0.001533679424843,0.0015336831401717,-0.0015336899306987,0.0015336736734587,-0.0015336813413865,0.0015336811761115,-0.0015336890723444,0.0015336745650488,4.5623312824882e-09,4.5623163474114e-09,-0.00094816839740819,0.00094817786610773,-7.4613928713342e-10,9.5716181181579e-09,-0.001075100195987,0.0010751066762242,-0.0010750967197845,0.0010751101298395,-0.0010751001248677,0.0010751066057623,-0.0010750966776385,0.0010751100883546,-0.00093344897839795,0.00093346146187831,-0.00093344873867583,0.00093346122283648,0.69092321609739,122718,2924,0.0039446218466128,0.0071625319925174,0.0039446218466114,29.174751538293,0.00014859801230634,0.00014859801230634,0.00014859801230634,2583351.0663289,0.015166120808403
33419200,0.99998691388508,0.016080584643427,0.0048227514036951,0.0064350818360381,0.0048227514036942,-0.00095038467006441,0.00095039331521849,4.210725559537e-09,4.2107114656174e-09,1.8984962856424e-10,7.8603670145362e-09,-0.0010734968232318,0.0010735034931503,-0.0010734967958302,0.0010735034664069,-0.0010734942591512,0.0010735060892594,-0.0010734942476373,0.0010735060784072,-0.00093540078774862,0.00093541165573385,-0.00093540102021122,0.00093541188751877,1.6895626979017e-09,-5.7105184546399e-09,3.1984644011081e-09,-7.1054983194332e-09,-0.0017232203144971,0.0017232164012527,-0.0018940764983105,0.0018940785530712,-0.0018940796222127,0.001894074789954,-0.00189407867044,0.0018940757746715,-0.0018940817937983,0.0018940720110134,-0.001529451584323,0.0015294553249254,-0.0015294622545586,0.0015294457703238,-0.0015294535242836,0.001529453335924,-0.0015294613863285,0.0015294466727993,4.3869783453578e-09,4.3869641507234e-09,-0.00095038449520158,0.00095039349008084,-9.8641806060535e-10,9.453712966412e-09,-0.0010734971389365,0.0010735032100593,-0.001073493623195,0.0010735067035545,-0.001073497099685,0.001073503171466,-0.0010734936125783,0.0010735066936002,-0.00093540037820207,0.00093541252704796,-0.00093540012908733,0.00093541227861462,0.77567308772676,122718,2924,0.0039537836201735,0.0071534035748483,0.0039537836201726,29.315946102457,0.00014972756881966,0.00014972756881966,0.00014972756881966,2637597.1944578,0.015175431112838
33919200,0.99998936315316,0.016080629544638,0.0048227646677595,0.0064351002091198,0.0048227646677586,-0.00094897346053045,0.00094898081333128,3.7111063886884e-09,3.7110916314141e-09,-2.54189379336e-10,7.3052577233911e-09,-0.0010753524796225,0.0010753580503329,-0.0010753525481183,0.0010753581194862,-0.0010753499544285,0.00107536060797,-0.0010753500368364,0.0010753606910388,-0.00093405553406603,0.00093406531194154,-0.00093405577575595,0.00093406555295511,1.6766200635844e-09,-5.6262958592883e-09,3.1981050162635e-09,-7.0358984974247e-09,-0.0017274170633339,0.0017274132194406,-0.0018967181195116,0.0018967201742575,-0.0018967213231594,0.0018967165505768,-0.0018967203622843,0.0018967175440746,-0.0018967235653872,0.0018967139198517,-0.0015348447434788,0.0015348485217775,-0.001534855392395,0.0015348390781727,-0.0015348467006892,0.0015348465157467,-0.0015348545143111,0.0015348399904043,3.8836794039439e-09,3.8836644653699e-09,-0.00094897328929325,0.00094898098456791,-1.4489620384985e-09,8.9094459560969e-09,-0.0010753528030581,0.0010753577585644,-0.001075349317664,0.0010753612239845,-0.0010753528598814,0.0010753578160445,-0.0010753494008274,0.0010753613078093,-0.00093405513269171,0.00093406619373992,-0.00093405487480735,0.00093406593653597,0.76303060755973,122718,2924,0.0039479582313022,0.007170698675006,0.0039479582313011,30.068900505296,0.00015575120404237,0.00015575120404237,0.00015575120404237,2576372.4295534,0.015181182259134
34419200,0.999991490729,0.016080666771792,0.0048227756678602,0.0064351154360729,0.0048227756678592,-0.00095123621133502,0.00095124217893671,3.1773511497063e-09,3.1773366952154e-09,-6.7168593425357e-10,6.6435581912694e-09,-0.0010770016323156,0.00107700609338,-0.0010770017991783,0.0010770062609006,-0.0010769991887645,0.0010770085684994,-0.0010769993678836,0.0010770087482792,-0.00093632146319296,0.0009363300334553,-0.0009363217160343,0.00093633028561972,1.5947290120057e-09,-5.4769960395894e-09,3.1136919707888e-09,-6.8870624256763e-09,-0.0017300215392824,0.0017300177600869,-0.0019000262125951,0.0019000281658561,-0.0019000294520997,0.0019000247446247,-0.0019000284925144,0.0019000257372048,-0.0019000317314744,0.0019000223154322,-0.0015367339222381,0.0015367376173403,-0.0015367444115797,0.001536728466922,-0.0015367358775195,0.001536735612822,-0.0015367435325316,0.0015367293804055,3.351282952825e-09,3.3512682987497e-09,-0.0009512360387478,0.00095124235152352,-1.8648120708595e-09,8.2492305890697e-09,-0.0010770019531903,0.001077005802744,-0.0010769985520946,0.0010770091859155,-0.0010770021084964,0.0010770059587077,-0.0010769987317854,0.001077009366268,-0.00093632107192923,0.00093633092764838,-0.00093632080325661,0.00093633065965653,0.72790058071019,122718,2924,0.0039573452616892,0.0071814853588759,0.0039573452616885,31.477728303767,0.00016702182643013,0.00016702182643013,0.00016702182643013,2574039.3479825,0.015211186320066
34919200,0.99999336339531,0.016080700913081,0.004822785783446,0.0064351293461898,0.0048227857834451,-0.00095602761704031,0.00095603209614506,2.6017800602176e-09,2.6017658039187e-09,-1.0744272267063e-09,5.882640515135e-09,-0.001080403284383,0.001080406573334,-0.0010804035574787,0.0010804068470876,-0.0010804009590677,0.0010804089277964,-0.001080401242849,0.0010804092122388,-0.00094094811926663,0.00094095535757801,-0.00094094838303484,0.00094095562066935,1.4770440553768e-09,-5.2513623148977e-09,2.9718981581395e-09,-6.6420875052566e-09,-0.0017332023263411,0.0017331986507592,-0.0019040906116743,0.0019040924139947,-0.0019040938463609,0.001904089256132,-0.0019040929014051,0.001904090233752,-0.0019040961355475,0.0019040870753485,-0.0015392588206209,0.0015392623578088,-0.0015392690028607,0.0015392536544614,-0.0015392607468086,0.0015392603827867,-0.0015392681350074,0.0015392545564877,2.7750624422583e-09,2.7750479675884e-09,-0.00095602744513819,0.00095603226804672,-2.2484865433972e-09,7.4674632706138e-09,-0.001080403597247,0.0010804062883439,-0.0010804003317063,0.0010804095382199,-0.0010804038590923,0.0010804065508469,-0.0010804006158016,0.0010804098229772,-0.00094094774667862,0.00094095625526354,-0.00094094746767529,0.00094095597694137,0.75808686568768,122718,2924,0.0039772137387898,0.0071946730472812,0.0039772137387889,33.570270894952,0.00018376216715962,0.00018376216715962,0.00018376216715962,2583985.8828553,0.015264909190192
35419200,0.99999498250274,0.016080727121974,0.0048227935036299,0.0064351401147156,0.004822793503629,-0.00095957447544331,0.00095957830618745,2.3474113984063e-09,2.3473968879159e-09,-1.1589233189124e-09,5.4492002094388e-09,-0.001085086973109,0.0010850898138693,-0.0010850872884138,0.0010850901298316,-0.001085084760416,0.0010850920514535,-0.001085085086418,0.0010850923781162,-0.00094449101951839,0.00094449760708212,-0.00094449128650712,0.00094449787339426,1.3668205202772e-09,-5.0186451431888e-09,2.8157351464594e-09,-6.3685531287794e-09,-0.001738720508546,0.0017387169508196,-0.0019090638214763,0.0019090654825092,-0.0019090669670887,0.0019090625222197,-0.0019090660501582,0.0019090634701858,-0.0019090691952261,0.0019090605093549,-0.0015452186839721,0.0015452220319449,-0.0015452284760445,0.0015452137805312,-0.0015452205530029,0.0015452201158589,-0.0015452276328211,0.00154521465673,2.5139846876001e-09,2.5139699692437e-09,-0.0009595743102729,0.0009595784713574,-2.2995457842783e-09,6.9852022695411e-09,-0.0010850872765474,0.0010850895355663,-0.0010850841551337,0.00108509264225,-0.0010850875811463,0.0010850898408227,-0.0010850844811919,0.0010850929689697,-0.00094449067102045,0.00094449848742895,-0.00094449038956869,0.00094449820665822,0.67379056419234,122718,2924,0.0039919436991914,0.0072174772108018,0.0039919436991905,35.925882069664,0.00020260705655732,0.00020260705655732,0.00020260705655732,2553054.9056065,0.015317979602043
35919200,0.99999629221496,0.016080749862212,0.0048228002435648,0.0064351493750831,0.0048228002435639,-0.00096502857804338,0.00096503395525392,2.9400653996562e-09,2.9400513896882e-09,-5.4708395593127e-10,6.0252101627301e-09,-0.0010874167262968,0.0010874209094076,-0.0010874169283372,0.0010874211121066,-0.0010874145206386,0.001087423136455,-0.0010874147360378,0.0010874233525157,-0.00094975229793119,0.00094976012728506,-0.00094975255277462,0.00094976038145095,1.3442690841493e-09,-4.9907487781094e-09,2.7465689892027e-09,-6.2947110497806e-09,-0.0017395253526994,0.0017395217997725,-0.0019115173953897,0.0019115190143249,-0.0019115203725562,0.0019115159629109,-0.0019115194856248,0.0019115168798652,-0.001911522462248,0.0019115138279111,-0.0015448167156199,0.0015448199383497,-0.0015448263035903,0.0015448117702751,-0.0015448185243827,0.0015448180837928,-0.001544825489484,0.0015448126164568,3.1049402681583e-09,3.1049261132874e-09,-0.00096502841465627,0.00096503411864084,-1.6440469385534e-09,7.5128491353246e-09,-0.0010874170155806,0.0010874206446256,-0.0010874139327667,0.001087423710282,-0.001087417207102,0.0010874208368055,-0.0010874141482284,0.0010874239264061,-0.00094975195438049,0.00094976097838135,-0.00094975168505738,0.00094976070973982,0.72183945217264,122718,2924,0.0040145493577431,0.0072208705417321,0.0040145493577428,37.533874778289,0.00021547099822631,0.00021547099822631,0.00021547099822631,2595838.3732718,0.01536731119099
36419200,0.99999725824072,0.016080766218153,0.0048228050762179,0.0064351560657181,0.004822805076217,-0.00096335071539058,0.00096335962150155,4.3018457111436e-09,4.301831188305e-09,6.1325384600677e-10,7.6096553759576e-09,-0.0010879552655863,0.0010879623615981,-0.0010879552127044,0.0010879623093739,-0.0010879529149194,0.0010879647331054,-0.001087952880219,0.0010879646990659,-0.00094811623379826,0.000948127075173,-0.00094811646080267,0.00094812730150054,1.4748853643822e-09,-5.2504567762672e-09,2.8568143478709e-09,-6.5289095407069e-09,-0.0017411326393785,0.001741128962114,-0.0019119286947684,0.0019119304667438,-0.0019119314995989,0.0019119269812123,-0.0019119306262621,0.0019119278831528,-0.0019119334305483,0.0019119243970801,-0.0015474098233947,0.0015474131182964,-0.0015474195841435,0.0015474044606547,-0.0015474116035227,0.0015474112939446,-0.0015474187873459,0.0015474052884383,4.4609570229317e-09,4.4609423487449e-09,-0.00096335055777927,0.00096335977911267,-4.6570742848715e-10,9.0661448808749e-09,-0.0010879555542508,0.0010879620996548,-0.0010879523384632,0.0010879652930237,-0.0010879554908038,0.0010879620368658,-0.0010879523041449,0.0010879652593672,-0.00094811587588938,0.00094812788457335,-0.00094811563379938,0.00094812764316445,0.70447270805609,122718,2924,0.004007614575357,0.0072274740720071,0.0040076145753567,37.488427894549,0.00021510742315639,0.00021510742315639,0.00021510742315639,2558522.3397387,0.015359948303111
36919200,0.99999795419837,0.016080777045398,0.0048228082691184,0.0064351605071619,0.0048228082691175,-0.00096201077126239,0.000962020997001,4.8171190039221e-09,4.8171046720264e-09,9.0434328529553e-10,8.3598561200163e-09,-0.0010861924120246,0.0010862005129035,-0.0010861922666954,0.0010862003682322,-0.0010861899113545,0.0010862030385817,-0.0010861897853536,0.0010862029132418,-0.00094681941711241,0.00094683149416636,-0.00094681963555983,0.00094683171193682,1.6176051318618e-09,-5.5526364384154e-09,3.0132373138449e-09,-6.8383457944065e-09,-0.0017397664703391,0.0017397626394856,-0.0019109471626447,0.0019109490932786,-0.0019109500146541,0.0019109453368152,-0.00191094913393,0.0019109462464572,-0.0019109519853953,0.001910942489453,-0.0015456433053069,0.0015456467530738,-0.0015456534648224,0.0015456375836979,-0.0015456451003218,0.0015456449135376,-0.0015456526650776,0.0015456384145917,4.9780728624419e-09,4.9780583826269e-09,-0.00096201061182254,0.00096202115644041,-1.806645505867e-10,9.826500192032e-09,-0.0010861927042783,0.0010862002505084,-0.0010861893278424,0.0010862036024554,-0.0010861925479808,0.0010862000948688,-0.0010861892025892,0.0010862034778643,-0.00094681904552974,0.00094683229974714,-0.00094681881105186,0.0009468320659503,0.64727478642577,122718,2924,0.0040020552198789,0.0072218303972054,0.0040020552198781,36.862574468396,0.00021010059574717,0.00021010059574717,0.00021010059574717,2565209.4940574,0.015342925075503
37419200,0.99999849128463,0.016080785497728,0.00482281076677,0.0064351639641887,0.0048228107667691,-0.00096525021210798,0.00096525744502928,3.668033742973e-09,3.6680196570835e-09,-2.242957955902e-10,7.1792868256567e-09,-0.0010874934638637,0.0010874990029767,-0.0010874935381777,0.0010874990779492,-0.0010874909882801,0.0010875015086411,-0.0010874910771235,0.001087501598146,-0.00094991687407305,0.00094992650735102,-0.00094991711893619,0.00094992675153678,1.6036783259632e-09,-5.5436429480427e-09,3.0191692673925e-09,-6.8490676326264e-09,-0.0017398405751313,0.0017398367393823,-0.0019119465078307,0.0019119483999601,-0.001911949606653,0.0019119449110464,-0.0019119487134476,0.0019119458341128,-0.0019119518117268,0.0019119423446588,-0.001545095215812,0.0015450986942069,-0.0015451055299864,0.001545089634229,-0.0015450970366753,0.0015450968278061,-0.0015451047179579,0.0015450904780971,3.8333881178394e-09,3.8333738992867e-09,-0.0009652500482728,0.00096525760886406,-1.3240203386757e-09,8.6705408825592e-09,-0.0010874937586306,0.0010874987384239,-0.0010874903939878,0.0010875020831233,-0.0010874938217896,0.0010874988022412,-0.001087490483582,0.00108750217338,-0.00094991651796129,0.00094992735038577,-0.00094991625691721,0.00094992709002296,0.65462458225499,122718,2924,0.0040154714838561,0.0072221766000234,0.0040154714838553,37.672792941329,0.00021658234353063,0.00021658234353063,0.00021658234353063,2593980.8706048,0.015370510207281
37919200,0.99999888742957,0.016080791309443,0.0048228124779509,0.0064351663535418,0.00482281247795,-0.00096501419136615,0.00096502309494336,4.3119620701326e-09,4.3119477341683e-09,3.3521999793931e-10,7.9164199838036e-09,-0.0010880118815217,0.001088018805647,-0.0010880118350993,0.0010880187598825,-0.0010880093445639,0.0010880213720588,-0.0010880093149146,0.0010880213430708,-0.00094966983430129,0.00094968088408202,-0.00094967006403435,0.00094968111313815,1.6597599506493e-09,-5.649253505595e-09,3.0977211760386e-09,-6.9751866950109e-09,-0.0017403211588506,0.0017403172753857,-0.0019118980029822,0.0019118999847935,-0.0019119010338199,0.0019118962766546,-0.0019119001265265,0.0019118972142472,-0.0019119031568203,0.0019118935055675,-0.0015460802223622,0.0015460837945383,-0.0015460906578193,0.001546074460527,-0.0015460820713783,0.0015460818994412,-0.0015460898330962,0.0015460753174833,4.4785611027936e-09,4.4785466425404e-09,-0.00096501402625929,0.00096502326004978,-7.8357255233757e-10,9.4298039818822e-09,-0.0010880121827636,0.0010880185356285,-0.0010880087414166,0.0010880219544804,-0.0010880121250062,0.0010880184785291,-0.0010880087126044,0.0010880219263302,-0.00094966945477079,0.00094968172011638,-0.00094966920864841,0.00094968147467492,0.61069305856341,122718,2924,0.0040145006504202,0.007224149329156,0.0040145006504194,37.676447689493,0.00021661158151594,0.00021661158151594,0.00021661158151594,2582516.1682374,0.015370547457765
38419200,0.99999917383406,0.016080796111979,0.0048228139022676,0.0064351683074449,0.0048228139022667,-0.000965285792434,0.00096529575765291,4.7272470618527e-09,4.7272329394337e-09,6.1927962312194e-10,8.466741100283e-09,-0.0010870135507931,0.0010870213266994,-0.0010870134280527,0.0010870212046174,-0.0010870109259187,0.0010870239830106,-0.0010870108211027,0.0010870238788562,-0.00094990184824493,0.00094991385794676,-0.00094990207061906,0.00094991407964376,1.7336611361953e-09,-5.8299319584629e-09,3.2054122038575e-09,-7.1858671722787e-09,-0.0017383549715688,0.0017383509848034,-0.0019104780485852,0.0019104801264778,-0.0019104810992626,0.0019104762186535,-0.0019104801713609,0.0019104771780437,-0.0019104832214949,0.001910473269679,-0.0015437442600827,0.0015437479539367,-0.0015437549654787,0.0015437382683618,-0.0015437461512055,0.0015437460154203,-0.0015437541225658,0.0015437391444017,4.899331085587e-09,4.89931684517e-09,-0.0009652856218368,0.00096529592824964,-5.2346058216794e-10,1.0016492337448e-08,-0.0010870138583638,0.0010870210523689,-0.001087010306093,0.0010870245803179,-0.0010870137238737,0.0010870209185372,-0.0010870102023047,0.0010870244771922,-0.00094990144550374,0.0009499147022146,-0.00094990120614421,0.00094991446353607,0.69725492786578,122718,2924,0.0040156160833635,0.0072160410377707,0.0040156160833626,37.19869684599,0.00021278957476792,0.00021278957476792,0.00021278957476792,2606936.2676095,0.015364572342726
38880000,0.99999937383133,0.016080799593795,0.0048228149339233,0.0064351697259494,0.0048228149339224,-0.00096240694189559,0.0009624159147819,4.3418616974511e-09,4.3418469706372e-09,2.1863452212646e-10,8.1042937158606e-09,-0.0010877674485823,0.0010877743181587,-0.001087767403751,0.0010877742739845,-0.0010877648146836,0.0010877769858705,-0.0010877647856429,0.0010877769574904,-0.00094726139144717,0.00094727260462362,-0.00094726161972746,0.00094727283222772,1.773501689329e-09,-5.840867378805e-09,3.2805676750271e-09,-7.2319531368547e-09,-0.0017410932237683,0.0017410892659531,-0.0019113216259802,0.0019113237766891,-0.001911324794516,0.001911319919361,-0.0019113238435766,0.0019113209022588,-0.0019113270115675,0.0019113170443891,-0.0015478494977759,0.0015478533271219,-0.0015478603476519,0.0015478435436621,-0.0015478514344713,0.0015478513423532,-0.0015478594824273,0.0015478444425187,4.5130809566217e-09,4.5130661242486e-09,-0.00096240677208094,0.00096241608459604,-9.5991250327311e-10,9.6887980671289e-09,-0.0010877677689904,0.0010877740312263,-0.0010877641836094,0.0010877775942889,-0.0010877677123482,0.0010877739752415,-0.0010877641555593,0.0010877775669002,-0.00094726098366088,0.00094727346581205,-0.00094726073856101,0.00094727322139305,0.7241603432261,122718,2924,0.004003704694397,0.0072272936114308,0.0040037046943961,37.193698564209,0.00021274958851367,0.00021274958851367,0.00021274958851367,2547084.119051,0.015351830773245
