time,ASR_ext,ASR_strain,ASR_strain_xx,ASR_strain_yy,ASR_strain_zz,disp_x_101,disp_x_102,disp_x_103,disp_x_104,disp_x_105,disp_x_106,disp_x_p1_neg,disp_x_p1_pos,disp_x_p2_neg,disp_x_p2_pos,disp_x_p3_neg,disp_x_p3_pos,disp_x_p4_neg,disp_x_p4_pos,disp_x_p5_neg,disp_x_p5_pos,disp_x_p6_neg,disp_x_p6_pos,disp_y_101,disp_y_102,disp_y_103,disp_y_104,disp_y_105,disp_y_106,disp_y_p1_neg,disp_y_p1_pos,disp_y_p2_neg,disp_y_p2_pos,disp_y_p3_neg,disp_y_p3_pos,disp_y_p4_neg,disp_y_p4_pos,disp_y_p5_neg,disp_y_p5_pos,disp_y_p6_neg,disp_y_p6_pos,disp_y_p7_neg,disp_y_p7_pos,disp_y_p8_neg,disp_y_p8_pos,disp_z_101,disp_z_102,disp_z_103,disp_z_104,disp_z_105,disp_z_106,disp_z_p1_neg,disp_z_p1_pos,disp_z_p2_neg,disp_z_p2_pos,disp_z_p3_neg,disp_z_p3_pos,disp_z_p4_neg,disp_z_p4_pos,disp_z_p5_neg,disp_z_p5_pos,disp_z_p6_neg,disp_z_p6_pos,humidity,ndof,nelem,strain_xx,strain_yy,strain_zz,temp,thermal_strain_xx,thermal_strain_yy,thermal_strain_zz,vonmises,vstrain
2419200,0,0,0,0,0,0,0,0,0,0,0,0,0,0,0,0,0,0,0,0,0,0,0,0,0,0,0,0,0,0,0,0,0,0,0,0,0,0,0,0,0,0,0,0,0,0,0,0,0,0,0,0,0,0,0,0,0,0,0,0,0,0,0,0,0,0,0,0,0,0,0,0,0,0,0
2619200,0.021287338126039,0.00043640173637237,0.00014546724545746,0.00014546724545746,0.00014546724545746,-3.9766678247864e-05,3.9766182919396e-05,-2.4767244598772e-10,-2.5008873061964e-10,6.3548067499826e-10,-1.1547245518013e-09,-3.972874390438e-05,3.9728835139815e-05,-3.9728733630394e-05,3.9728823991536e-05,-3.9729292870466e-05,3.9728221864624e-05,-3.9729306559842e-05,3.9728233215701e-05,-4.0275037700936e-05,4.0273930332919e-05,-4.0275063700158e-05,4.0273948882552e-05,1.1993679389544e-09,-2.4580108094423e-09,-5.7362932763232e-09,4.5267461517146e-09,-4.1153459199881e-05,4.1152247828231e-05,-4.090782580565e-05,4.0904451225952e-05,-4.0904545005681e-05,4.0907898006415e-05,-4.0908978786515e-05,4.0903225008417e-05,-4.0905698787649e-05,4.0906671111474e-05,-4.1291013889733e-05,4.1278503076857e-05,-4.1281090875865e-05,4.1288720097886e-05,-4.1281975024457e-05,4.128776031973e-05,-4.128552813308e-05,4.128408199341e-05,-9.0112196855249e-10,-9.0661138094481e-10,-3.9767342891188e-05,3.9765518276087e-05,2.5522224155189e-09,-4.4874590103764e-09,-3.9728513777832e-05,3.9729058623765e-05,-3.9730840306156e-05,3.9726714055922e-05,-3.972850698548e-05,3.9729048925828e-05,-3.9730819470194e-05,3.972668883192e-05,-4.0276541550251e-05,4.027238547639e-05,-4.0276601360991e-05,4.0272458765547e-05,0.81993057347638,128566,2924,0.00016567972250001,0.00017145549536039,0.00016567972250017,32.688145987144,2.3905167897149e-05,2.3905167897149e-05,2.3905167897149e-05,325540.07436449,0.00050294143863277
2819200,0.043239062997008,0.00088244094250045,0.00029334097247936,0.00029575899671919,0.0002933409733019,-7.489719030946e-05,7.4896838830572e-05,-1.5482452485445e-10,-1.9315777782627e-10,7.5320429153435e-10,-1.1300454765592e-09,-7.5140190570884e-05,7.5140348964716e-05,-7.5140188807481e-05,7.5140307674716e-05,-7.5140661294812e-05,7.5139825258496e-05,-7.5140653742872e-05,7.5139806028826e-05,-7.5958493235691e-05,7.5957606873031e-05,-7.5958439050525e-05,7.5957518426704e-05,2.5443098262063e-10,4.5207019273137e-10,-4.6347378714247e-10,1.1653437466073e-09,-7.8191156797535e-05,7.8191859279494e-05,-7.7815432618087e-05,7.7815516869064e-05,-7.7814921246478e-05,7.781599032285e-05,-7.7815335264992e-05,7.7815647787217e-05,-7.7814809643396e-05,7.7816135469881e-05,-7.8343832538016e-05,7.8343105285348e-05,-7.8342229598397e-05,7.8344670148923e-05,-7.8343016258171e-05,7.8343915905196e-05,-7.8342741577973e-05,7.8344202631579e-05,-7.7659710123256e-10,-8.128939143595e-10,-7.4897810551822e-05,7.489621896885e-05,3.2464482110371e-09,-4.9433746720869e-09,-7.5139630800482e-05,7.5140883734972e-05,-7.5142435091856e-05,7.5138075862446e-05,-7.5139644920366e-05,7.5140859597936e-05,-7.5142412169412e-05,7.5138042609817e-05,-7.5960219241147e-05,7.5955826572737e-05,-7.5960199002669e-05,7.595583667057e-05,0.82138593344011,128566,2924,0.00031202220373499,0.00032574477887816,0.00031202220452784,32.940280006345,2.5922240050759e-05,2.5922240050759e-05,2.5922240050759e-05,511819.28304305,0.00095024062598535
3019200,0.065309277762135,0.0013270900926779,0.00043962851385929,0.00044783306514905,0.00043962851366957,-0.00010897736507121,0.00010897703647627,-1.3548596333552e-10,-1.8999444808387e-10,8.3079744645531e-10,-1.1888571202899e-09,-0.00010966241233235,0.00010966267297272,-0.0001096624401025,0.00010966264142947,-0.00010966299323958,0.00010966211844031,-0.00010966293029686,0.00010966203951373,-0.00011063601467892,0.00011063509289583,-0.00011063593409066,0.00011063496614708,-4.0707789579236e-10,1.4973751450444e-09,2.1079863707685e-09,-1.0467913294787e-09,-0.00011503644765147,0.00011503751278033,-0.00011459151701442,0.00011459299625642,-0.00011459256391044,0.00011459185973784,-0.00011459088676631,0.00011459368696219,-0.00011459191619062,0.00011459256753818,-0.00011507705833801,0.00011508183640519,-0.00011507995782551,0.00011507875471616,-0.0001150803630851,0.00011507841834947,-0.00011507845402623,0.00011508039074808,-4.381904664768e-10,-4.8540657427822e-10,-0.00010897766659488,0.00010897673486268,2.6744823691973e-09,-3.6716340761941e-09,-0.00010966193014599,0.00010966314738765,-0.00010966406222136,0.00010966100858904,-0.0001096619469828,0.00010966310967893,-0.00010966405412957,0.00010966098932484,-0.00011063705694181,0.00011063397735296,-0.00011063702256109,0.00011063397501908,0.82013448912345,128566,2924,0.0004539686643122,0.00047920562342868,0.00045396866412495,32.85692899991,2.5255431999279e-05,2.5255431999279e-05,2.5255431999279e-05,687687.90042614,0.0013881060854383
3219200,0.086720093917352,0.0017485857829903,0.00057721133242386,0.00059416311865682,0.0005772113319096,-0.00014006250105471,0.00014006134281137,-5.4455819647843e-10,-6.1480094477421e-10,2.0082680395098e-09,-3.2435353611623e-09,-0.00014147379361157,0.00014147430868557,-0.00014147386531477,0.00014147430507304,-0.00014147542814736,0.00014147268006855,-0.00014147536313038,0.00014147259133724,-0.00014212903569391,0.00014212618589399,-0.00014212900413311,0.0001421260925837,2.5702563138898e-10,-6.0121790408808e-11,8.6216436252936e-10,-6.6818610010124e-10,-0.0001495776597226,0.00014957785820734,-0.00014932173271255,0.00014932259109616,-0.00014932234864063,0.00014932196891248,-0.00014932178930214,0.00014932253443264,-0.00014932238655625,0.00014932193071799,-0.00014918203820589,0.00014918356826736,-0.00014918336673433,0.00014918216507539,-0.00014918280239866,0.00014918275241125,-0.00014918304733587,0.00014918247936535,6.3948671839729e-10,5.82477897066e-10,-0.00014006131958892,0.0001400625240343,-7.6034375724073e-11,1.3274001026019e-09,-0.00014147368727728,0.0001414744398991,-0.00014147324046763,0.0001414748509582,-0.00014147369633062,0.00014147438247376,-0.00014147322117749,0.0001414748167619,-0.00014212674306265,0.00014212839681595,-0.00014212676249823,0.00014212845244588,0.8067603229901,128566,2924,0.00058342136023726,0.00062304597735379,0.00058342135973154,32.291921253837,2.0735370030698e-05,2.0735370030698e-05,2.0735370030698e-05,808269.82927918,0.0017914925128869
3419200,0.10556943667181,0.0021078124732211,0.00069335703929475,0.00072109839531101,0.00069335703861538,-0.00016356420564471,0.00016356301149388,-5.6578654223083e-10,-6.2166801034715e-10,2.2535961030789e-09,-3.5367493266696e-09,-0.00016591889892581,0.00016591955111394,-0.00016591896720732,0.00016591957376247,-0.00016592069274651,0.00016591772553162,-0.00016592065956156,0.00016591765792636,-0.00016571316010037,0.0001657101203802,-0.00016571320268231,0.00016571006834055,-1.9211542121899e-10,8.9738397676344e-10,2.8746514701061e-09,-2.1911507723406e-09,-0.00017683686923738,0.00017683756145346,-0.00017712846265304,0.00017713047248066,-0.0001771300878383,0.00017712879252631,-0.00017712815207087,0.00017713082190874,-0.0001771297783114,0.00017712914013852,-0.0001756161543543,0.00017562210374601,-0.00017562092317108,0.00017561716290348,-0.000175620062181,0.00017561805203839,-0.00017561900393368,0.00017561914634017,1.3543674891607e-09,1.3245817488063e-09,-0.00016356227097375,0.00016356494584074,-2.3067595312709e-09,5.1216301435477e-09,-0.00016591915062108,0.00016591932603627,-0.00016591668840057,0.00016592175830747,-0.00016591914411001,0.00016591929125746,-0.0001659166574868,0.00016592171032433,-0.00016570906226329,0.00016571417237262,-0.00016570910271824,0.00016571425665213,0.78590062443987,128566,2924,0.00068128348378539,0.00073654957726977,0.00068128348311068,30.393998504047,5.5519880323795e-06,5.5519880323795e-06,5.5519880323795e-06,897468.01072484,0.002101322537152
3619200,0.12360529168413,0.0024421012649361,0.00080070703751903,0.00084068719061974,0.0008007070367973,-0.00018720519273096,0.0001872042317844,-4.6210912276218e-10,-4.9467476909585e-10,2.1262429133699e-09,-3.1712625454811e-09,-0.00019053966707355,0.00019054042607821,-0.00019053974965075,0.00019054041707064,-0.00019054133785073,0.00019053871287717,-0.00019054127312001,0.00019053869174467,-0.00018927030004598,0.00018926753865535,-0.00018927027389429,0.00018926765080418,1.3818663395642e-10,2.5019260857431e-10,2.4464697107429e-09,-2.0649967939713e-09,-0.00020463084083518,0.00020463122947733,-0.00020581137323777,0.00020581315478669,-0.00020581273522523,0.00020581175356189,-0.00020581142793198,0.0002058131209105,-0.00020581272829472,0.00020581178022279,-0.00020221469009642,0.00020221928844278,-0.00020221874475037,0.00020221506342882,-0.00020221753966733,0.00020221632013304,-0.00020221736056214,0.00020221651025362,1.0343409772829e-09,1.0428584432274e-09,-0.00018720367765538,0.00018720574652474,-1.8670008182816e-09,4.0611939506506e-09,-0.00019054005074053,0.00019054006369747,-0.00019053804500004,0.00019054204017896,-0.00019054006424955,0.00019054001283537,-0.00019053796605063,0.00019054203206333,-0.00018926683604758,0.00018927098463408,-0.00018926702447877,0.00018927095447142,0.77012034607112,128566,2924,0.00077971662222032,0.00085226483466156,0.00077971662152247,29.684247398164,-1.2602081468929e-07,-1.2602081468929e-07,-1.2602081468929e-07,1027726.4067777,0.0024146101866237
3819200,0.1411676365293,0.0027650739452625,0.0009039076311219,0.00095725868382354,0.00090390763031705,-0.0002103356685176,0.00021033462599793,-5.9329865862221e-10,-4.4688598677637e-10,2.3278958474317e-09,-3.4645759199441e-09,-0.00021463524376917,0.00021463626663349,-0.00021463547903619,0.00021463607289466,-0.00021463730623044,0.00021463414217678,-0.00021463694479367,0.00021463440142457,-0.00021238467975791,0.00021238081079095,-0.00021238378272782,0.00021238175759642,6.9995803019647e-10,-8.6305940271591e-10,2.1725265191885e-09,-2.3214936482567e-09,-0.00023220527462305,0.00023220513195378,-0.00023439008037757,0.00023439208159221,-0.00023439161625225,0.00023439049030812,-0.00023439091507106,0.00023439123596492,-0.00023439192541492,0.00023439017040284,-0.00022852743301265,0.00022853021108176,-0.00022853074741736,0.00022852669137871,-0.00022852915690468,0.00022852838493602,-0.00022852994706815,0.00022852756135529,3.9622674836881e-10,5.9890221541246e-10,-0.00021033465619637,0.0002103356379406,-4.3846516382257e-10,1.4999800214346e-09,-0.00021463556527192,0.00021463595183617,-0.00021463507704025,0.00021463640854057,-0.00021463574144263,0.00021463573657732,-0.00021463469269901,0.00021463668237204,-0.00021238140927979,0.00021238400706993,-0.00021238250363884,0.00021238314771565,0.77140879328972,128566,2924,0.00087601428227846,0.00096705219878763,0.00087601428149042,29.234647164924,-3.722822680607e-06,-3.722822680607e-06,-3.722822680607e-06,1154234.841127,0.0027227829171691
4019200,0.16053435177194,0.0031196372331631,0.0010167117996309,0.0010862136347314,0.0010167117988007,-0.000238988794594,0.00023898819323725,-3.2392431971857e-10,-2.7751262865127e-10,1.702207128072e-09,-2.3802774940976e-09,-0.00024434063046321,0.00024434150258968,-0.00024434077912636,0.0002443413813117,-0.00024434207918615,0.00024434000503128,-0.00024434185707896,0.00024434012856251,-0.00024111999815834,0.00024111758333184,-0.00024111954498071,0.00024111807657068,8.4656484712062e-10,-1.3653847512125e-09,-8.4342555200922e-10,3.5175076784373e-10,-0.00026620740988955,0.00026620692421762,-0.00026956852708916,0.00026956855977137,-0.00026956821228108,0.00026956891260321,-0.00026956954380035,0.00026956752253399,-0.00026956885740676,0.00026956825175196,-0.00026107293235702,0.00026106989415083,-0.00026107108497426,0.00026107173335469,-0.00026107055620735,0.00026107227903444,-0.00026107231843276,0.00026107049328091,-2.9700160230308e-10,-1.7227606088974e-10,-0.00023898874117107,0.00023898824626543,1.0899422143591e-09,-1.5879601542623e-09,-0.000244340853296,0.00024434128249181,-0.00024434184158719,0.00024434027398094,-0.0002443409495807,0.00024434116110217,-0.0002443415849971,0.00024434041520855,-0.0002411191722754,0.0002411183165482,-0.00024111984745104,0.00024111789216952,0.77300335226051,128566,2924,0.00099529245900841,0.001108579232683,0.00099529245818679,30.534618334701,6.6769466776067e-06,6.6769466776067e-06,6.6769466776067e-06,1301595.7657982,0.0031039743890342
4219200,0.18172123234408,0.0035062750891826,0.0011390455422309,0.0012281840055829,0.0011390455413688,-0.00026974257381328,0.00026974215375686,-2.6306379916883e-10,-1.5921174341371e-10,1.6528354671815e-09,-2.1425684926944e-09,-0.00027627449983185,0.00027627557536465,-0.00027627474615666,0.00027627533667156,-0.00027627598911879,0.00027627403291946,-0.00027627561954435,0.00027627430365274,-0.00027201516323973,0.00027201258588643,-0.00027201426578986,0.00027201351931363,9.6898835901195e-10,-1.7436491269072e-09,-1.9971532466186e-09,1.2551677788536e-09,-0.00030328607173035,0.00030328533600325,-0.00030806613007273,0.00030806555179613,-0.00030806529877843,0.00030806646408631,-0.00030806744779373,0.00030806419996049,-0.00030806597896895,0.0003080657563449,-0.00029643274150059,0.0002964268912249,-0.00029642855449405,0.00029643118414762,-0.00029642873179878,0.00029643099185819,-0.00029643059892972,0.00029642908288411,-9.1691424110705e-10,-7.1269848146536e-10,-0.00026974319396879,0.00026974153319347,1.820777537849e-09,-3.5557778351765e-09,-0.00027627489211583,0.00027627517708781,-0.00027627690869945,0.00027627314426461,-0.00027627509036039,0.00027627495736797,-0.000276276494684,0.00027627343750833,-0.00027201505125234,0.00027201258930281,-0.00027201620159317,0.00027201171253884,0.77489564978612,128566,2924,0.0011232992449406,0.0012628887861148,0.0011232992440918,31.777696779069,1.6621574232552e-05,1.6621574232552e-05,1.6621574232552e-05,1454135.2205004,0.0035156567268102
4419200,0.20324435244267,0.0038977528468354,0.0012621697867364,0.0013734132742588,0.0012621697858401,-0.00029868056994096,0.00029868001170449,-2.6625140510031e-10,-2.9400780990441e-10,1.9184742351464e-09,-2.556883240178e-09,-0.00030648474174062,0.00030648581953826,-0.00030648489274618,0.00030648568153622,-0.00030648632885152,0.00030648418309135,-0.00030648613533886,0.00030648426869864,-0.00030111462461455,0.00030111224597404,-0.00030111427359397,0.00030111261448261,5.9240408555007e-10,-1.2951462245101e-09,-5.2149922688012e-10,-1.5658523542854e-10,-0.00033918413425402,0.00033918346452542,-0.00034554059960023,0.00034554065366677,-0.00034554056827677,0.00034554071675829,-0.00034554153957461,0.0003455396912017,-0.00034554112066131,0.00034554014743741,-0.00033042050231557,0.00033041824338348,-0.00033041954245782,0.00033041926644522,-0.00033041891243772,0.00033041988712284,-0.00033042039171901,0.00033041838855861,-6.4733877265523e-10,-5.5143495229372e-10,-0.00029868090274885,0.00029867967847796,1.0717729377342e-09,-2.3552290433584e-09,-0.00030648528530046,0.00030648527309488,-0.00030648653102161,0.00030648400814436,-0.00030648537608234,0.00030648515716033,-0.00030648629064245,0.00030648412916341,-0.00030111433278612,0.00030111240860822,-0.00030111495936548,0.00030111207312295,0.77613009890489,128566,2924,0.0012437331777479,0.0014122625866815,0.001243733176877,31.980344590427,1.8242756723417e-05,1.8242756723417e-05,1.8242756723417e-05,1589944.8133551,0.0039073482502376
4619200,0.22630894956108,0.004316095742628,0.0013929510485187,0.0015301936466366,0.0013929510474726,-0.00033093093904686,0.00033093038003348,-1.1216065355708e-10,-4.5050227351607e-10,1.9468091202226e-09,-2.5882347586459e-09,-0.0003402034726615,0.00034020446953161,-0.0003402035098893,0.00034020442381474,-0.00034020487726268,0.0003402030190728,-0.0003402049776196,0.00034020277904601,-0.00033357383036277,0.0003335723347928,-0.00033357432996255,0.00033357174512611,7.5149527304114e-10,-1.5235337635599e-09,2.9159522045147e-10,-1.036516136717e-09,-0.00037956903488329,0.00037956829878304,-0.00038767340596088,0.0003876738745529,-0.0003876737037273,0.00038767356606394,-0.00038767424938078,0.0003876729996285,-0.00038767460418349,0.00038767263904102,-0.00036863040379821,0.00036863025190908,-0.00036863171422929,0.00036862895209935,-0.0003686296725162,0.0003686310261246,-0.00036863215670273,0.00036862851002315,-7.5812986197941e-10,-9.4893755302848e-10,-0.00033093152544228,0.00033092979318196,1.8979215161828e-09,-3.7288834117318e-09,-0.00034020389826155,0.00034020403196928,-0.00034020568636645,0.00034020222072115,-0.00034020387624227,0.00034020402559191,-0.00034020574760598,0.00034020203999251,-0.00033357501418197,0.00033357095614327,-0.00033357477124778,0.00033357151358412,0.77694609242195,128566,2924,0.0013779363514658,0.0015802790621784,0.0013779363505171,33.010266217546,2.6482129740371e-05,2.6482129740371e-05,2.6482129740371e-05,1736995.5361239,0.0043455739362295
4819200,0.25166846355013,0.0047747864387079,0.0015352563242611,0.0017042737912583,0.0015352563231884,-0.00036670449100354,0.00036670401746505,6.8413013211392e-11,-5.4777829899329e-10,1.8754753726269e-09,-2.4288346369455e-09,-0.00037770666921739,0.00037770760647438,-0.00037770661344017,0.00037770763070215,-0.00037770783359726,0.00037770639857412,-0.0003777081977711,0.00037770587341316,-0.00036959194992276,0.00036959140938411,-0.00036959316266309,0.00036958993744032,9.1860876214758e-10,-1.8054575330411e-09,2.5838195724092e-10,-1.1132630412547e-09,-0.00042508939432232,0.00042508854853536,-0.00043519448074912,0.00043519491584623,-0.00043519468531883,0.00043519469011554,-0.00043519528688092,0.00043519406944429,-0.0004351959372734,0.0004351934005869,-0.00041159513381325,0.00041159526012514,-0.00041159697301753,0.00041159343147668,-0.00041159415528207,0.00041159629339774,-0.00041159753217896,0.00041159287093472,-8.3388981127544e-10,-1.2784824963786e-09,-0.00036670532215204,0.00036670318585605,2.9192609372293e-09,-5.1984327790147e-09,-0.00037770684409926,0.00037770741209248,-0.00037770936150726,0.00037770486712246,-0.00037770673124896,0.00037770749398051,-0.00037770968999839,0.00037770442082565,-0.00036959457989969,0.0003695884855241,-0.0003695935753228,0.00036958982960575,0.77793123111217,128566,2924,0.0015267805553075,0.0017696265670895,0.0015267805543498,34.497146737858,3.8377173902864e-05,3.8377173902864e-05,3.8377173902864e-05,1896098.3620427,0.0048348481326136
5019200,0.27908610088803,0.0052674871894718,0.0016867625265469,0.0018939621374719,0.001686762525453,-0.00040425980860024,0.00040425944413859,-4.1387409938073e-10,4.2513717301813e-11,1.7581428800145e-09,-2.1982359622091e-09,-0.00041729899784461,0.00041730044678203,-0.00041729946085019,0.00041729997950536,-0.0004173009144902,0.00041729848544453,-0.00041730009666201,0.00041729918595509,-0.00040738922127206,0.00040738531035877,-0.00040738685781044,0.00040738745350356,7.6205613426702e-10,-1.6574658512913e-09,-1.5178016119085e-09,6.5405543211433e-10,-0.00047410457583523,0.00047410372140765,-0.00048645931660746,0.00048645946548115,-0.00048645936106233,0.00048645947030851,-0.00048646089265913,0.00048645785756382,-0.0004864596831949,0.00048645911377061,-0.00045770088352417,0.00045769497953745,-0.00045769666709355,0.00045769935956326,-0.00045769780925812,0.00045769815801823,-0.00045769820335308,0.0004576977415149,-8.0437845240072e-10,-1.5223173489443e-10,-0.00040426011468188,0.00040425913759081,1.9254246216583e-09,-3.0072556029327e-09,-0.00041729909267748,0.00041730034830768,-0.00041730149966893,0.00041729791230997,-0.00041729947824374,0.00041729993442783,-0.00041730061928803,0.00041729868095332,-0.00040738726328344,0.00040738699256648,-0.00040738987722172,0.00040738471650889,0.77678229402974,128566,2924,0.0016830158074796,0.0019734705528972,0.0016830158065103,35.807225249723,4.8857801997784e-05,4.8857801997784e-05,4.8857801997784e-05,2056401.3546236,0.0053537964495768
5219200,0.30792800202352,0.0057840679171389,0.0018442142189823,0.0020956394802251,0.0018442142179315,-0.00044247614474835,0.00044247568924046,1.1813039293288e-10,-5.8097298532535e-10,1.8908484806397e-09,-2.4271516130813e-09,-0.00045777591493017,0.00045777682162881,-0.00045777580790293,0.00045777690745053,-0.00045777700805714,0.00045777568930404,-0.00045777748548847,0.00045777506646979,-0.0004458854369052,0.00044588529144295,-0.00044588706300969,0.0004458834834338,7.3026714392826e-10,-1.6285562687827e-09,1.1103894396883e-10,-9.7815519591255e-10,-0.00052538123613618,0.00052538037858629,-0.00054020641636164,0.00054020660522706,-0.00054020649054958,0.00054020649580959,-0.00054020710100645,0.0005402058794732,-0.0005402076443805,0.00054020531322464,-0.00050580992433786,0.00050581042515406,-0.00050581200102431,0.00050580832645145,-0.00050580900585252,0.0005058113782307,-0.00050581252049039,0.00050580780941064,-3.5706980550519e-10,-8.3604721072085e-10,-0.00044247652108198,0.00044247531246147,2.4950330155717e-09,-3.8191779737703e-09,-0.00045777596955133,0.00045777675565725,-0.00045777777099927,0.00045777492528223,-0.00045777578475864,0.00045777691084166,-0.00045777819108567,0.00045777439204689,-0.00044588767972595,0.00044588279295588,-0.00044588634589361,0.00044588446219736,0.7785640030301,128566,2924,0.0018419773805119,0.002186674000701,0.0018419773795859,36.760628147362,5.6485025178893e-05,5.6485025178893e-05,5.6485025178893e-05,2217042.8260332,0.0058879130135583
5419200,0.33786930191279,0.0063110081610405,0.0020032745320835,0.0023044590978311,0.0020032745311258,-0.00048076940057754,0.00048076891893942,1.4231287700731e-11,-5.0356670026526e-10,1.9569997189587e-09,-2.5234218249307e-09,-0.00049872029918616,0.00049872131096201,-0.00049872026513496,0.0004987213312187,-0.00049872157842316,0.00049871999798515,-0.00049872187883756,0.0004987195500893,-0.00048432289514218,0.00048432203289779,-0.00048432382339,0.00048432080759164,6.1436400463079e-10,-1.4896825326918e-09,5.814822782626e-10,-1.427015188342e-09,-0.00057821894976916,0.00057821811408341,-0.00059583508264924,0.0005958356211375,-0.00059583555952871,0.00059583511018382,-0.00059583569515491,0.00059583497843841,-0.00059583663943602,0.00059583399630449,-0.00055512814800335,0.00055512902059477,-0.00055513049113196,0.00055512666834889,-0.00055512799217458,0.00055512920071532,-0.00055513061118853,0.00055512654832252,-2.4496082324919e-10,-5.181118110026e-10,-0.00048076954707478,0.00048076877206126,2.092069558711e-09,-2.973034404104e-09,-0.0004987203226812,0.00049872128093998,-0.00049872192336888,0.0004987196491976,-0.00049872019851885,0.0004987213742697,-0.00049872216083947,0.00049871930159833,-0.00048432399511598,0.00048432061549028,-0.0004843233293845,0.00048432162422201,0.76958753949663,128566,2924,0.0020012359070191,0.002406319241706,0.0020012359062273,37.572229868756,6.2977838950044e-05,6.2977838950044e-05,6.2977838950044e-05,2367772.9621061,0.0064293953433909
5619200,0.3676479019542,0.0068080152026091,0.0021516318223132,0.0025047515589116,0.0021516318213843,-0.00051536957785193,0.00051536901923584,1.4060696194813e-10,-7.0689116700853e-10,2.0995952792089e-09,-2.7496804974424e-09,-0.00053677665955221,0.00053677772753933,-0.00053677663037462,0.00053677773564965,-0.00053677795720546,0.00053677639235227,-0.00053677847157829,0.00053677573037745,-0.00051850398210667,0.00051850359520522,-0.0005185055696043,0.00051850168999826,4.9015800950927e-10,-1.3213629446808e-09,1.9778988322542e-09,-2.7821044846471e-09,-0.00062811476478577,0.00062811397081701,-0.00064912575870315,0.00064912709705184,-0.00064912706387667,0.00064912570737636,-0.00064912621608828,0.00064912661290292,-0.00064912811300912,0.00064912462730187,-0.00060085606997671,0.00060085996294926,-0.00060086124094909,0.00060085468714812,-0.00060085789226542,0.00060085810763011,-0.00060086038613263,0.00060085559049762,1.3071845791106e-10,-4.4541185047325e-10,-0.00051536945865899,0.00051536913806195,1.5932707192908e-09,-1.9935776478682e-09,-0.00053677673336596,0.00053677764587067,-0.00053677773766293,0.0005367766059284,-0.00053677660659131,0.0005367777372331,-0.00053677818243741,0.00053677605540467,-0.00051850516524807,0.0005185020816363,-0.00051850385950946,0.00051850373719014,0.73637638074505,128566,2924,0.0021451161756352,0.002613688723733,0.002145116174873,37.741081751693,6.4328654013545e-05,6.4328654013545e-05,6.4328654013545e-05,2510202.5630418,0.0069278388810054
5819200,0.39488489075265,0.0072417467284966,0.0022798333932287,0.0026820799429399,0.0022798333923279,-0.0005427762052072,0.00054277551759998,1.1732182523333e-10,-8.1136308628038e-10,2.2315666206642e-09,-3.02178242418e-09,-0.00056828228291513,0.00056828310553792,-0.00056828200362363,0.00056828338472504,-0.00056828342688846,0.00056828192477869,-0.0005682842770837,0.00056828094275743,-0.00054540823965651,0.00054540857189252,-0.00054541080918268,0.00054540568965312,2.5678650255449e-10,-1.0203550554123e-09,3.6013433840787e-09,-4.3417006878184e-09,-0.00067034691256211,0.0006703461826904,-0.00069474334005457,0.00069474532483963,-0.00069474537311883,0.00069474315787298,-0.00069474330382251,0.00069474535240691,-0.00069474658647839,0.00069474191693644,-0.00063915989800626,0.00063916809003713,-0.00063916905052087,0.00063915868822176,-0.00063916411546529,0.0006391637452126,-0.00063916699755407,0.00063916083921949,8.0597457368075e-10,1.7861523138087e-10,-0.00054277536715124,0.00054277635529487,4.6860635763273e-11,9.4560203911893e-10,-0.0005682824466009,0.00056828294477846,-0.00056828173034043,0.00056828362386524,-0.00056828204796763,0.00056828330538216,-0.00056828249361379,0.00056828275594195,-0.00054540887520638,0.00054540760790553,-0.00054540662065633,0.00054541021500699,0.71318193334207,128566,2924,0.0022590718199429,0.0027891702242686,0.0022590718191927,36.557540275351,5.4860322202805e-05,5.4860322202805e-05,5.4860322202805e-05,2624630.4993042,0.0073341167403731
6019200,0.42056285102932,0.0076401305971746,0.0023966994353136,0.0028467317274263,0.0023966994344347,-0.00056867608535104,0.00056867528956916,7.0054939559942e-11,-8.7277575030866e-10,2.1318488019926e-09,-3.0335194102114e-09,-0.00059857740322043,0.00059857800360387,-0.00059857703186458,0.00059857836568056,-0.00059857841617979,0.00059857694567163,-0.00059857937638743,0.00059857585804247,-0.00057104685080829,0.00057104742974054,-0.00057104974797786,0.00057104422679717,2.9196365368138e-10,-1.0320693744596e-09,3.5230843086339e-09,-4.2402390390492e-09,-0.00071082286272446,0.00071082215597241,-0.00073818081526155,0.00073818253455031,-0.00073818254152592,0.00073818066790921,-0.00073818057134654,0.00073818277632036,-0.00073818399358354,0.00073817918407865,-0.00067629194572793,0.00067630053451712,-0.00067630142947657,0.00067629069333967,-0.00067629599536044,0.00067629631015912,-0.00067629946353843,0.00067629278717812,1.212062959827e-09,6.0093068307939e-10,-0.00056867477945051,0.00056867659512115,5.8360175369056e-10,1.2656825392787e-09,-0.0005985770674402,0.00059857833612654,-0.00059857631138257,0.00059857905586141,-0.00059857657203966,0.00059857879516907,-0.00059857717229986,0.00059857809021844,-0.00057104738245752,0.0005710465749489,-0.00057104483230039,0.00057104947529786,0.70262235192365,128566,2924,0.0023667527080906,0.0029573217198931,0.0023667527073666,35.892455550251,4.953964440201e-05,4.953964440201e-05,4.953964440201e-05,2692021.2648719,0.0077205277091708
6219200,0.44554802138763,0.0080289574698011,0.0025104704039313,0.0030080166628263,0.0025104704030435,-0.00059494804621742,0.00059494735233283,7.2785060867088e-11,-7.7556073673665e-10,1.9349305059356e-09,-2.729372714743e-09,-0.00062907869152336,0.00062907950093765,-0.0006290785891458,0.00062907958538095,-0.00062907983543723,0.00062907830466492,-0.00062908046950958,0.00062907754641794,-0.00059732145902389,0.00059732135633678,-0.00059732340515619,0.00059731909873944,5.3524609821675e-10,-1.2796233723843e-09,2.2051698628685e-09,-2.9244794542189e-09,-0.00075147048835846,0.00075146977887324,-0.00078147512419711,0.00078147633850877,-0.00078147620935063,0.00078147515722466,-0.00078147523913608,0.0007814762160211,-0.00078147761668499,0.00078147370800934,-0.00071396025440473,0.00071396543597232,-0.00071396651172638,0.00071395885585591,-0.00071396227185227,0.00071396328232145,-0.00071396554605991,0.0007139599145464,1.0448034926635e-09,5.5903828218839e-10,-0.00059494689980446,0.00059494849838992,1.4384352955538e-09,1.7918743828637e-10,-0.00062907811098905,0.00062908007078086,-0.00062907830337932,0.0006290798449127,-0.00062907788107092,0.0006290802692007,-0.00062907882539443,0.00062907921643304,-0.00059732158556153,0.00059732090405276,-0.00059732001362536,0.00059732282572383,0.70746296514723,128566,2924,0.0024759709693369,0.0031261552255871,0.0024759709685978,35.771415708028,4.8571325664221e-05,4.8571325664221e-05,4.8571325664221e-05,2709229.7413433,0.0081108759356989
6419200,0.4702633403858,0.0084105620507876,0.0026219690745897,0.0031666239025431,0.0026219690736547,-0.00062131416285267,0.0006213136494125,1.5181643862304e-10,-6.7611669275597e-10,1.7736888394573e-09,-2.3789238906258e-09,-0.00065959536546233,0.00065959647009329,-0.00065959554168314,0.00065959626320703,-0.0006595966306829,0.0006595951474394,-0.00065959696548382,0.00065959468614277,-0.00062358564665704,0.00062358500583827,-0.0006235867056939,0.00062358363620942,7.5948974337438e-10,-1.5193973054553e-09,1.0554383948756e-09,-1.7880640507824e-09,-0.00079202351989126,0.00079202279688443,-0.00082464365061668,0.00082464457115598,-0.00082464432133179,0.0008246438427264,-0.00082464424480928,0.0008246439578645,-0.00082464554693565,0.00082464256937079,-0.00075155290532062,0.00075155476888171,-0.00075155604154652,0.00075155137000915,-0.00075155313748679,0.0007515544520202,-0.00075155596422999,0.00075155150800538,6.6954403474411e-10,2.3505990651733e-10,-0.00062131346036634,0.00062131435151461,2.2577213076638e-09,-1.3820370334296e-09,-0.00065959475543713,0.00065959706114565,-0.00065959601048202,0.00065959577459569,-0.00065959480203368,0.00065959698683103,-0.00065959622409194,0.00065959545452447,-0.00062358578633017,0.00062358454389687,-0.00062358512903768,0.00062358554470861,0.70211760739531,128566,2924,0.0025855706248791,0.0032945648141771,0.0025855706240813,35.957151131265,5.0057209050121e-05,5.0057209050121e-05,5.0057209050121e-05,2729947.3586181,0.0085017189581242
6619200,0.4954995803455,0.0088236346182698,0.0027434113528683,0.0033368119134992,0.0027434113519022,-0.00065078225559486,0.00065078196715239,2.717641257778e-10,-5.7291485157907e-10,1.653703147754e-09,-2.023500832115e-09,-0.0006924647210305,0.00069246562013379,-0.00069246462105894,0.00069246567888998,-0.00069246555167563,0.00069246472780404,-0.00069246616809491,0.00069246398498354,-0.00065345237560911,0.00065345299584573,-0.00065345431111664,0.00065345074033234,9.7196318625067e-10,-1.7562273285783e-09,-1.6729985889827e-10,-5.8721051941583e-10,-0.00083568848369964,0.0008356877387478,-0.00087106683753675,0.00087106687834051,-0.00087106652764939,0.00087106718006742,-0.00087106736583547,0.00087106632115245,-0.0008710681040695,0.00087106554704032,-0.00079216330699914,0.00079216327247556,-0.00079216477038464,0.00079216165597143,-0.000792161686085,0.00079216488811474,-0.00079216560938182,0.00079216082469905,1.6928380797013e-10,-2.4960417350372e-10,-0.0006507821620689,0.00065078206027644,2.8543527770702e-09,-3.0182639931546e-09,-0.00069246426895078,0.0006924660465924,-0.00069246598139808,0.00069246430468314,-0.00069246403556307,0.00069246625573036,-0.00069246646579735,0.00069246371384023,-0.00065345442787346,0.00065345061573723,-0.00065345292167275,0.00065345246663957,0.74071517851377,128566,2924,0.0027080518205283,0.0034758655639461,0.0027080518196939,36.728280524206,5.6226244193651e-05,5.6226244193651e-05,5.6226244193651e-05,2699704.8596267,0.0089317113672438
6819200,0.5221488630136,0.0092954267372417,0.002883263866428,0.0035288990053736,0.00288326386544,-0.00068533134259485,0.00068533130663772,3.2550122651023e-10,-3.7535636538666e-10,1.5542558879208e-09,-1.6606468201737e-09,-0.00072935336456143,0.00072935463907523,-0.00072935353911,0.00072935441615882,-0.00072935436569226,0.00072935356975024,-0.00072935461539301,0.00072935320356907,-0.00068890807634263,0.00068890796998672,-0.00068890889317577,0.00068890685136888,1.1586695031479e-09,-1.9764926595354e-09,-1.5268136550968e-09,7.4140086885943e-10,-0.00088468936916062,0.00088468859336015,-0.00092329449630131,0.00092329404664889,-0.00092329362133952,0.00092329497037754,-0.0009232954450259,0.00092329306373193,-0.00092329503587058,0.00092329348884658,-0.0008377059794226,0.00083770220700656,-0.00083770393898632,0.00083770423104742,-0.00083770236577659,0.00083770590388362,-0.00083770575783022,0.00083770235643378,-4.6728324808315e-10,-7.0706415627832e-10,-0.00068533192562167,0.00068533072319504,3.2164851980263e-09,-4.5268594584668e-09,-0.00072935320278873,0.00072935477156803,-0.00072935585003479,0.00072935209586796,-0.00072935323652752,0.00072935471514424,-0.00072935595135102,0.00072935188881567,-0.00068891004069204,0.00068890568419049,-0.00068890969916437,0.00068890637511132,0.7922227891876,128566,2924,0.0028516334161167,0.0036792844770339,0.0028516334152536,38.158758246748,6.7670065973986e-05,6.7670065973986e-05,6.7670065973986e-05,2707646.5502589,0.009426807648279
7019200,0.55055361935273,0.0097620311554754,0.0030205257603485,0.0037209796357708,0.0030205257593562,-0.00072059738935403,0.00072059748562756,4.0207119358559e-10,-3.1937033803438e-10,1.4551813328066e-09,-1.424714740325e-09,-0.00076791884769557,0.00076792030345762,-0.00076791918251657,0.00076791991819559,-0.00076791989403862,0.00076791918810036,-0.00076791999469714,0.00076791897434087,-0.00072429214041976,0.00072429188206425,-0.00072429257302745,0.00072429117084547,1.2974997358325e-09,-2.1498469560336e-09,-2.391735531033e-09,1.5742143263623e-09,-0.00093565388478201,0.0009356530766535,-0.0009774979573554,0.00097749719825891,-0.00097749670641001,0.00097749850611959,-0.00097749921531339,0.0009774959005095,-0.00097749801474746,0.00097749713241828,-0.00088448637301752,0.0008844803586926,-0.0008844822393169,0.00088448450148298,-0.00088448144306715,0.0008844853897868,-0.00088448471413408,0.00088448196533606,-8.2610069714481e-10,-1.0519006887415e-09,-0.00072059838994139,0.0007205964846196,3.7816946197664e-09,-5.8197083995255e-09,-0.00076791875256052,0.00076792036943875,-0.00076792214879747,0.00076791694472874,-0.00076791893582893,0.00076792016295327,-0.00076792208770007,0.00076791689975902,-0.000724294476048,0.00072428923467288,-0.00072429456594578,0.00072428949769269,0.73336567992326,128566,2924,0.0029981757724087,0.0038908068255379,0.0029981757715358,39.88535026275,8.1482802101998e-05,8.1482802101998e-05,8.1482802101998e-05,2692425.2883186,0.0099363171657702
7219200,0.57915187512137,0.01021349773796,0.0031529703546985,0.0039075570295614,0.0031529703536997,-0.00075336503014899,0.0007533650192514,3.0068327006228e-10,-3.2296018946339e-10,1.5802292044594e-09,-1.6632749100932e-09,-0.00080451031674027,0.00080451179707394,-0.00080451066951686,0.00080451141107796,-0.00080451152717546,0.0008045105194531,-0.00080451156089905,0.00080451038851372,-0.00075690750181161,0.00075690680264425,-0.00075690774028934,0.00075690633087373,1.0698561183947e-09,-1.9359225636004e-09,-2.0200649231973e-09,1.188041516206e-09,-0.00098402788913589,0.00098402706632401,-0.0010292438963891,0.0010292432939623,-0.0010292429512021,0.0010292442765733,-0.0010292450843758,0.0010292420732445,-0.0010292440498966,0.0010292431242803,-0.00092868855651509,0.00092868333609328,-0.00092868506322456,0.00092868679543041,-0.00092868439176526,0.00092868755764149,-0.00092868715282671,0.00092868466110948,-6.6865607552323e-10,-7.6013888215577e-10,-0.00075336574876769,0.00075336430020581,3.0792273464241e-09,-4.6268162518591e-09,-0.000804510327678,0.0008045117677856,-0.00080451314172831,0.00080450892388724,-0.00080451050636689,0.00080451156239648,-0.00080451299354476,0.00080450896592469,-0.00075690896302168,0.00075690504983051,-0.00075690930813197,0.00075690506297894,0.70719547685715,128566,2924,0.0031343203678041,0.0040915303470336,0.0031343203669181,40.739050327406,8.8312402619247e-05,8.8312402619247e-05,8.8312402619247e-05,2709047.3748166,0.010414163351217
7419200,0.60728202842859,0.010640653635306,0.0032780123333711,0.0040846289695637,0.0032780123323712,-0.00078390252324189,0.00078390232959445,3.1547119038234e-10,-5.1880937485599e-10,1.7030756635972e-09,-1.9775014044248e-09,-0.00083939519245459,0.00083939660990084,-0.00083939551945953,0.00083939624895478,-0.00083939645716517,0.00083939528420506,-0.00083939664527303,0.00083939498956281,-0.00078721410829012,0.0007872135425936,-0.00078721479707952,0.00078721260563781,8.4717548245877e-10,-1.7048378910197e-09,-8.6383545150815e-10,3.8524101791605e-11,-0.0010298355830273,0.0010298347673342,-0.0010783626114013,0.0010783625069838,-0.0010783622790396,0.0010783628195411,-0.0010783635802495,0.0010783615088634,-0.0010783633053504,0.0010783617543068,-0.00097062839650009,0.00097062585308638,-0.00097062735674756,0.00097062673047919,-0.00097062599663532,0.00097062822663212,-0.00097062859085791,0.00097062552209986,-3.2746265876629e-10,-5.9279762762505e-10,-0.00078390289308991,0.00078390195930853,2.9895345337427e-09,-3.9983747540048e-09,-0.00083939507999965,0.00083939670788851,-0.00083939751957143,0.00083939423355842,-0.00083939521771187,0.00083939653689285,-0.00083939752011117,0.00083939413079227,-0.00078721546076962,0.00078721189023648,-0.00078721538484162,0.00078721232578523,0.68502083969761,128566,2924,0.0032611852546993,0.0042815615749864,0.0032611852537906,41.271271470668,9.2570171765345e-05,9.2570171765345e-05,9.2570171765345e-05,2756560.5037861,0.010862669915207
7619200,0.63375928058356,0.0110323133267,0.003392436998744,0.0042474393301732,0.0033924369977831,-0.0008105045524435,0.00081050410445265,2.1080565491062e-10,-6.6667760578616e-10,1.8271130880376e-09,-2.3669635612703e-09,-0.00087074071279804,0.00087074195881032,-0.00087074095848281,0.00087074169634147,-0.00087074204484689,0.0008707405751458,-0.00087074235813721,0.00087074015570987,-0.00081364851709592,0.00081364785696687,-0.00081364952420002,0.00081364658715594,5.9703468317672e-10,-1.4256936865071e-09,1.6076967562618e-10,-9.5965599555042e-10,-0.0010710918205055,0.0010710910314419,-0.0011225920548711,0.0011225923862109,-0.0011225922869252,0.0011225920967998,-0.0011225927420579,0.0011225916802864,-0.0011225932577265,0.0011225910972747,-0.0010084545573092,0.0010084545736601,-0.0010084558248769,0.001008453043668,-0.0010084538114079,0.0010084552270145,-0.0010084562395574,0.0010084526913259,1.4028449315503e-10,-1.3003621269436e-10,-0.00081050432604371,0.00081050433043779,2.3264822582699e-09,-2.3557241451286e-09,-0.00087074047278244,0.00087074219718091,-0.00087074207163669,0.0008707405576342,-0.00087074050423221,0.00087074212514617,-0.00087074218659375,0.00087074034477222,-0.00081364912324117,0.00081364694233834,-0.00081364876045139,0.00081364766737235,0.67223853795219,128566,2924,0.0033716916698677,0.004452674309649,0.0033716916690073,41.07113919804,9.0969113584319e-05,9.0969113584319e-05,9.0969113584319e-05,2806654.2221362,0.011259161198541
7819200,0.6587645061191,0.011397342726832,0.0034989457124073,0.0043994513029679,0.0034989457114573,-0.00083543480533655,0.00083543422549883,1.1335436247887e-10,-7.0051851044941e-10,1.7793440716975e-09,-2.4563594101414e-09,-0.00090047028549821,0.00090047162814326,-0.00090047074564328,0.0009004711560318,-0.00090047186235401,0.00090047000038978,-0.00090047192709331,0.00090046982956286,-0.00083843641238479,0.00083843485181925,-0.00083843666428201,0.00083843434153694,5.6117489437454e-10,-1.3654299711105e-09,3.8803520055569e-10,-1.1634874227285e-09,-0.0011101761782237,0.0011101754125835,-0.0011643439556582,0.0011643446497802,-0.0011643445468827,0.001164343979438,-0.0011643448352301,0.0011643437491765,-0.0011643452684557,0.0011643432398478,-0.0010443795030517,0.0010443793350563,-0.0010443804997419,0.0010443780121413,-0.001044379084052,0.0010443796182736,-0.0010443807506568,0.001044377849602,3.5764752424966e-10,1.8913133020215e-10,-0.00083543424325582,0.00083543478717239,2.3985301746966e-09,-1.8660145047845e-09,-0.00090046979618064,0.00090047211752358,-0.00090047149233379,0.00090047038059168,-0.00090047002665545,0.00090047184587307,-0.00090047134598008,0.00090047042903346,-0.00083843583699073,0.00083843512076599,-0.00083843626940331,0.00083843505147373,0.6665568429928,128566,2924,0.0034752459741435,0.0046147483427671,0.0034752459732989,40.972199900617,9.0177599204938e-05,9.0177599204938e-05,9.0177599204938e-05,2820026.3106631,0.011632600931404
8019200,0.68245872966805,0.011739801025037,0.0035987849733072,0.0045422310793788,0.0035987849723513,-0.00085902898020458,0.00085902841500869,1.0676990656514e-10,-6.801934448283e-10,1.7169319662287e-09,-2.377421117358e-09,-0.00092825918274045,0.00092826080176264,-0.00092825995149452,0.00092826002642616,-0.000928261032872,0.00092825890572749,-0.00092826076725991,0.00092825905545747,-0.0008616853378337,0.00086168300981649,-0.00086168475950904,0.00086168332027793,6.2017953711732e-10,-1.4100810979904e-09,1.938583422313e-10,-9.5489999634294e-10,-0.0011471734257382,0.0011471726742864,-0.0012040828111474,0.0012040837082044,-0.0012040835580837,0.0012040828842166,-0.0012040840054907,0.0012040824857381,-0.0012040840306523,0.0012040823958043,-0.0010780627305639,0.0010780611141059,-0.0010780623062723,0.0010780612240523,-0.0010780619833895,0.0010780617301849,-0.0010780627180308,0.0010780608971472,3.4302939057729e-10,2.3952560976182e-10,-0.00085902840873874,0.00085902898606372,2.6443603105783e-09,-2.0807906508925e-09,-0.00092825858564567,0.00092826139555297,-0.00092826076544386,0.00092825918376574,-0.00092825911392497,0.00092826083532887,-0.00092826027686306,0.00092825956624327,-0.00086168400649482,0.00086168403048932,-0.00086168530149328,0.00086168309816902,0.66097842655762,128566,2924,0.0035732433724195,0.0047681415861889,0.0035732433715674,40.977142267044,9.0217138136349e-05,9.0217138136349e-05,9.0217138136349e-05,2821151.3649355,0.011986147497189
8219200,0.70496214076688,0.012062241397812,0.0036927895797203,0.0046766622393434,0.0036927895787478,-0.0008814697908859,0.0008814692656959,1.251928067251e-10,-6.5959928284455e-10,1.6563859693949e-09,-2.2740950360165e-09,-0.00095463716528814,0.00095463920858249,-0.00095463836980727,0.00095463799566414,-0.00095463940269029,0.00095463692717673,-0.0009546386947123,0.00095463751427149,-0.00088369470146093,0.00088369135637217,-0.00088369300962771,0.00088369276438271,6.9112494043101e-10,-1.4742236815961e-09,-1.2299043807948e-10,-6.3083817462091e-10,-0.0011822264258657,0.0011822256815022,-0.0012419858300132,0.0012419869393694,-0.0012419867440594,0.0012419859596986,-0.0012419874349278,0.0012419853016737,-0.0012419868903733,0.0012419857957922,-0.0011096688525148,0.0011096651435592,-0.0011096663917055,0.001109667323729,-0.0011096676057678,0.0011096662774491,-0.0011096670491778,0.0011096667392513,2.5545336176449e-10,1.921724405667e-10,-0.00088146930853984,0.00088146974762615,2.9099868518698e-09,-2.4946752306746e-09,-0.00095463651995617,0.00095463984828524,-0.0009546393701196,0.00095463696807114,-0.00095463747371897,0.00095463886555628,-0.00095463842865987,0.00095463780275236,-0.00088369247196056,0.00088369326864161,-0.00088369490858234,0.00088369119235292,0.65549730991849,128566,2924,0.0036664428133878,0.0049134521185908,0.0036664428125253,41.071046971005,9.0968375768037e-05,9.0968375768037e-05,9.0968375768037e-05,2819313.1710168,0.012321921442107
8419200,0.72635556309124,0.012368208646499,0.0037820802679177,0.0048040481116539,0.0037820802669277,-0.00090288951971727,0.00090288902673185,1.5463073650111e-10,-6.5752165868443e-10,1.6093241740857e-09,-2.1928151952069e-09,-0.00097981778427346,0.00097981998155692,-0.00097981915073084,0.00097981860341402,-0.00097982013594551,0.00097981758627524,-0.00097981927898916,0.00097981831958331,-0.00090469500690433,0.00090469151902959,-0.0009046930956977,0.00090469314441822,7.4880383367453e-10,-1.53044305178e-09,-4.4464458094268e-10,-3.0714498504919e-10,-0.0012155144775881,0.0012155137354094,-0.0012781969733574,0.0012781979521251,-0.001278197724,0.0012781971488388,-0.0012781986523207,0.0012781962378948,-0.0012781978674068,0.0012781969851237,-0.0011394782394478,0.0011394733591817,-0.001139474660111,0.0011394766907798,-0.001139476503348,0.0011394750006058,-0.0011394755582383,0.0011394758541349,1.7757765975307e-10,1.2495934240231e-10,-0.0009028891274169,0.00090288941860502,3.138048391511e-09,-2.8803509278372e-09,-0.00097981710942967,0.000979820648973,-0.00097982032188185,0.00097981740658907,-0.00097981821438842,0.00097981951563813,-0.00097981922069648,0.00097981840206663,-0.00090469275069454,0.00090469345769687,-0.00090469544229425,0.00090469112517855,0.65381528011031,128566,2924,0.0037553947685969,0.0050514250769315,0.0037553947677109,41.233694942381,9.2269559539046e-05,9.2269559539046e-05,9.2269559539046e-05,2812405.4589929,0.012641773723674
8619200,0.7471278246425,0.012665052670159,0.0038688063488756,0.0049274399734076,0.0038688063478758,-0.00092451369168358,0.00092451323455278,1.8838144457434e-10,-6.5592875749491e-10,1.5482331350589e-09,-2.0937639157143e-09,-0.0010049261032891,0.0010049279464714,-0.001004927133896,0.0010049268979782,-0.0010049280539341,0.0010049259481864,-0.0010049275493595,0.0010049263299481,-0.00092591747995147,0.00092591522181448,-0.00092591670606414,0.00092591570576,8.2575192419848e-10,-1.6114756295845e-09,-1.0799242805251e-09,3.2491042079791e-10,-0.0012485264580254,0.0012485257127487,-0.0013141662604909,0.0013141664450105,-0.0013141661779311,0.0013141664946299,-0.0013141675608897,0.0013141651071513,-0.0013141668003856,0.0013141658486251,-0.0011690813172908,0.0011690762699677,-0.0011690776489877,0.0011690797352168,-0.0011690786587316,0.0011690788611505,-0.0011690790022179,0.00116907842641,3.8363484569674e-11,-8.3401822260256e-12,-0.00092451345528229,0.0009245134705237,3.5932078530254e-09,-3.6277526282733e-09,-0.0010049253606425,0.0010049286791501,-0.0010049286240392,0.001004925383875,-0.0010049261192097,0.0010049278903302,-0.0010049278632543,0.0010049260412324,-0.00092591672172982,0.00092591565944912,-0.00092591831218009,0.00092591443001578,0.65261451547241,128566,2924,0.0038451873926708,0.0051882340320294,0.0038451873917782,41.85463180757,9.7237054460557e-05,9.7237054460557e-05,9.7237054460557e-05,2808643.0280459,0.01296225131969
8819200,0.76671063593304,0.01293427668353,0.0039472166021218,0.0050398434802982,0.0039472166011102,-0.00094348875117593,0.0009434882929788,1.9290878553924e-10,-6.6164774174187e-10,1.5492816004885e-09,-2.0958723130689e-09,-0.0010273793229297,0.0010273813035404,-0.0010273804897641,0.0010273801187238,-0.0010273814084667,0.0010273791711227,-0.0010273807742325,0.0010273796804517,-0.00094427850990355,0.00094427579821197,-0.00094427727904802,0.00094427672860549,8.1201413723138e-10,-1.5983079262606e-09,-9.6859285109445e-10,2.1326666361452e-10,-0.0012781777427828,0.0012781769971939,-0.0013467423326175,0.0013467426982432,-0.0013467424404631,0.0013467425580295,-0.0013467437401447,0.0013467412532903,-0.0013467429376744,0.0013467420368053,-0.0011954223417426,0.0011954171708789,-0.0011954185420017,0.0011954207675003,-0.0011954198452402,0.0011954195983714,-0.0011954198142017,0.0011954195407829,3.6604100516179e-11,1.8024807203777e-11,-0.00094348850237114,0.00094348854134211,3.5002182447941e-09,-3.5087467133995e-09,-0.0010273786098652,0.00102738200593,-0.0010273819372664,0.0010273786475825,-0.001027379492483,0.0010273810941957,-0.0010273810347323,0.0010273794459889,-0.00094427723000062,0.00094427675102093,-0.00094427931106087,0.00094427503364393,0.62942561415377,128566,2924,0.0039239752997758,0.0053110960384877,0.0039239752988601,41.9966040668,9.8372832534403e-05,9.8372832534403e-05,9.8372832534403e-05,2831842.5893478,0.013246399425639
9019200,0.78503616906074,0.013186290191092,0.0040207326272429,0.0051448249376222,0.0040207326262271,-0.000961042456623,0.00096104198727693,1.993567551115e-10,-6.79134687162e-10,1.5694505763696e-09,-2.1278286755593e-09,-0.0010480954234864,0.0010480974965574,-0.0010480966772247,0.0010480962260639,-0.0010480976050415,0.0010480952689553,-0.0010480968998546,0.0010480958488619,-0.00096126834711249,0.00096126544188787,-0.00096126695068757,0.00096126654155104,7.8408176572263e-10,-1.5686617425194e-09,-7.4454431432933e-10,-9.1284584848005e-12,-0.0013056435511384,0.001305642807604,-0.0013771071130961,0.0013771076825674,-0.001377107440581,0.0013771073204546,-0.0013771085755834,0.0013771061851235,-0.0013771078450611,0.0013771068910788,-0.0012197115072634,0.0012197065613172,-0.0012197079095885,0.0012197099529816,-0.0012197093388727,0.001219708656307,-0.0012197090190676,0.0012197088918686,5.7231007981256e-11,5.3068021026216e-11,-0.00096104217409754,0.00096104226934904,3.3008341668408e-09,-3.2500689801337e-09,-0.0010480947681572,0.0010480981418513,-0.0010480980227551,0.001048094856398,-0.0010480957241625,0.0010480971564766,-0.0010480970367358,0.0010480957384148,-0.00096126676271486,0.00096126669980951,-0.00096126905005391,0.00096126477873155,0.62978086432109,128566,2924,0.0039968569874622,0.0054248884755612,0.003996856986522,42.04663413423,9.8773073073838e-05,9.8773073073838e-05,9.8773073073838e-05,2835963.5743429,0.013509461368902
9219200,0.80197390744402,0.013416610309629,0.0040879254043471,0.0052407595019483,0.0040879254033341,-0.00097672292767043,0.00097672244211447,2.2156633773797e-10,-7.1733460799785e-10,1.6046210303371e-09,-2.179871012084e-09,-0.0010667163836248,0.0010667186755945,-0.001066717845005,0.0010667171997201,-0.0010667187809996,0.0010667162328126,-0.0010667179078683,0.0010667169804151,-0.00097638718251035,0.00097638377685627,-0.00097638533056394,0.00097638533730091,7.542717126934e-10,-1.5354958554792e-09,-3.7868027628338e-10,-3.7177596526416e-10,-0.0013304295744064,0.0013304288348658,-0.0014046330132231,0.0014046340058756,-0.0014046337788262,0.001404633201303,-0.0014046346555792,0.0014046323320721,-0.0014046339615124,0.0014046329918146,-0.0012415626878931,0.0012415579185064,-0.0012415592366545,0.0012415611572424,-0.0012415610378145,0.0012415594905168,-0.0012415600893384,0.0012415603547301,1.2018959090815e-10,9.3996501234277e-11,-0.00097672258437521,0.00097672278497676,2.9857069705839e-09,-2.8250339514966e-09,-0.0010667158120563,0.0010667192382991,-0.0010667190083018,0.0010667160108379,-0.0010667169615929,0.0010667180588904,-0.0010667178416583,0.0010667170733692,-0.00097638492356159,0.00097638571039784,-0.00097638770826445,0.0009763832951217,0.62301125467357,128566,2924,0.004061958004633,0.0055275657361644,0.0040619580037356,41.897022240723,9.7576177925782e-05,9.7576177925782e-05,9.7576177925782e-05,2840582.3522949,0.013745547166363
9419200,0.81734524544165,0.013623248412225,0.0041482108090463,0.0053268267951566,0.0041482108080223,-0.00099009799302454,0.00099009749016706,2.2624157815523e-10,-7.3924645030894e-10,1.6370902388607e-09,-2.2307813330439e-09,-0.001082806491298,0.0010828088134485,-0.0010828079735813,0.0010828073211152,-0.0010828089267831,0.0010828063351916,-0.0010828080540636,0.0010828070800555,-0.00098925079401115,0.00098924741960714,-0.0009892490160474,0.0009892489057514,7.1010041480211e-10,-1.4847986945367e-09,1.3475208859266e-10,-8.7909923571002e-10,-0.0013520379529047,0.0013520372192085,-0.0014287685979261,0.0014287699166463,-0.001428769709179,0.0014287687561663,-0.0014287702245463,0.0014287682602372,-0.0014287698477486,0.0014287685920993,-0.0012605172247822,0.001260513498927,-0.0012605147699419,0.0012605157184015,-0.001260516299719,0.0012605143320017,-0.0012605152656132,0.0012605152825245,1.9379218464208e-10,1.7941452817476e-10,-0.0009900975609925,0.00099009792173752,2.555830271669e-09,-2.2258230677738e-09,-0.0010828060245782,0.0010828092722609,-0.0010828088887183,0.001082806378608,-0.0010828071808468,0.0010828080879652,-0.0010828077098897,0.0010828074514826,-0.0009892483181306,0.00098924956840668,-0.00098925106792253,0.00098924719131046,0.6162135976489,128566,2924,0.00411748576546,0.0056170688768398,0.0041174857645033,41.415105911562,9.3720847292499e-05,9.3720847292499e-05,9.3720847292499e-05,2846306.8348171,0.013948914207013
9619200,0.83095252431072,0.013804025365234,0.0042009474699995,0.0054021304262597,0.0042009474689746,-0.0010007381707686,0.0010007376465993,2.3389465333698e-10,-7.6797277688449e-10,1.6798579723395e-09,-2.295959404075e-09,-0.001095852671119,0.0010958549382561,-0.0010958540857173,0.0010958535182546,-0.0010958550608219,0.0010958525076793,-0.001095854283001,0.0010958531571439,-0.00099942482252962,0.00099942167599652,-0.00099942332875489,0.00099942288141962,6.6006664618175e-10,-1.4269390974018e-09,8.0805067537124e-10,-1.5450818653978e-09,-0.0013699291631714,0.0013699284371173,-0.0014489444580136,0.001448946127749,-0.0014489459412517,0.0014489445823929,-0.0014489459876011,0.0014489445711831,-0.0014489461079593,0.0014489443903534,-0.0012760486592074,0.0012760465678967,-0.0012760477824969,0.0012760471830864,-0.0012760486757634,0.0012760464428884,-0.0012760478140772,0.0012760472217039,3.0300098893403e-10,2.9042084483427e-10,-0.0010007376167299,0.0010007382001858,1.9979671838858e-09,-1.4338618324023e-09,-0.0010958523335259,0.0010958552695696,-0.0010958546671683,0.0010958529073444,-0.0010958534073918,0.0010958541683516,-0.0010958535702113,0.0010958538972459,-0.00099942224858107,0.00099942392283062,-0.00099942475515902,0.00099942179273165,0.60938555881959,128566,2924,0.0041616595620862,0.0056911668482159,0.0041616595611485,40.448769378762,8.5990155030094e-05,8.5990155030094e-05,8.5990155030094e-05,2851382.9435398,0.014113667776786
9819200,0.84327216714603,0.013968570529195,0.0042490407650098,0.0054704890002031,0.0042490407639822,-0.001010934015855,0.0010109334922257,2.209866952508e-10,-7.5456588939619e-10,1.6609846824386e-09,-2.2766676841297e-09,-0.0011081763221855,0.0011081785134316,-0.0011081776729012,0.0011081771584241,-0.0011081786423062,0.0011081761529035,-0.0011081779148854,0.0011081767514359,-0.0010092823741426,0.0010092793800438,-0.001009281016712,0.0010092804464535,6.6239774408596e-10,-1.424117523599e-09,8.4646529871322e-10,-1.5783521247201e-09,-0.0013866366067484,0.0013866358851343,-0.0014677147306438,0.0014677163920353,-0.0014677161988561,0.00146771485841,-0.001467716224753,0.0014677148714546,-0.0014677164032785,0.0014677146295473,-0.0012906766885234,0.001290674883435,-0.0012906760929027,0.0012906752119415,-0.0012906767495644,0.0012906747100099,-0.0012906761037832,0.0012906752743627,2.8491533700262e-10,3.3706854309253e-10,-0.0010109334476688,0.0010109340599655,1.9792384907404e-09,-1.3850944152686e-09,-0.001108175982569,0.0011081788466176,-0.0011081782362708,0.0011081765650892,-0.0011081769796571,0.0011081778231045,-0.0011081771769061,0.0011081775168637,-0.0010092798997073,0.0010092815245299,-0.0010092823078206,0.0010092794961024,0.6121421722626,128566,2924,0.0042039861468972,0.0057603573554551,0.0042039861459721,39.874342442363,8.1394739538903e-05,8.1394739538903e-05,8.1394739538903e-05,2850754.5905076,0.014269720655013
10019200,0.8543104865751,0.014117059502452,0.0042925208592044,0.0055320177850725,0.0042925208581755,-0.0010195572878974,0.001019556763217,2.2826663371581e-10,-7.6280194729257e-10,1.6468365985628e-09,-2.2631932342943e-09,-0.0011186858081245,0.00111868802948,-0.0011186872002009,0.0011186866345362,-0.0011186881546818,0.0011186856434386,-0.0011186873964914,0.001118686271546,-0.0010176657638662,0.0010176626742112,-0.0010176643011434,0.0010176638441808,6.7207335973784e-10,-1.4300470301037e-09,9.0602771753398e-10,-1.6340835054e-09,-0.0014010624559205,0.001401061737573,-0.0014839579020583,0.0014839596586865,-0.0014839594554478,0.0014839580368148,-0.0014839594511412,0.0014839580838047,-0.0014839596159778,0.0014839578512906,-0.0013033159450296,0.0013033141560468,-0.0013033153683675,0.0013033144643948,-0.001303316069755,0.0013033139160013,-0.0013033153475473,0.0013033145594515,3.0012797361995e-10,3.7512471165252e-10,-0.0010195566923713,0.0010195573582817,1.9499214472971e-09,-1.2999104633004e-09,-0.001118685462506,0.0011186883691946,-0.0011186877137213,0.0011186860903635,-0.001118686487566,0.0011186873178889,-0.0011186866112218,0.0011186870848971,-0.0010176631246596,0.0010176649825118,-0.0010176656749767,0.0010176628122945,0.61575181247726,128566,2924,0.0042397843237139,0.0058200938688521,0.0042397843227571,39.084578429328,7.5076627434621e-05,7.5076627434621e-05,7.5076627434621e-05,2846896.2983168,0.014402959465486
10219200,0.86408718267559,0.014249694040645,0.0043314303644777,0.0055868333127189,0.0043314303634487,-0.0010265630826512,0.0010265625506812,3.3807927995602e-10,-8.7970866127545e-10,1.6687513477348e-09,-2.2926006935637e-09,-0.0011273450729726,0.0011273476574861,-0.0011273468216929,0.0011273459097544,-0.0011273477205971,0.0011273449720708,-0.0011273467490227,0.0011273458157069,-0.0010244872643229,0.0010244835329627,-0.0010244851922038,0.0010244853294919,6.9372225379075e-10,-1.4568086515545e-09,9.7547466856553e-10,-1.708425049611e-09,-0.0014131909915598,0.0014131902729282,-0.001497662300358,0.0014976644106972,-0.0014976641926619,0.001497662454414,-0.0014976641548017,0.0014976625354798,-0.0014976640774275,0.0014976625387525,-0.0013139005555552,0.0013138980150919,-0.0013138992300115,0.0013138990625137,-0.001313900746516,0.0013138977101488,-0.0013138991752797,0.0013138991851568,4.2759933684701e-10,3.1413209691022e-10,-0.0010265624490654,0.0010265631838007,1.8342018004529e-09,-1.1165003181559e-09,-0.0011273447525169,0.0011273479737196,-0.0011273471914697,0.0011273455090336,-0.0011273461195995,0.0011273465805534,-0.0011273458611735,0.0011273467302123,-0.001024483894489,0.0010244865828705,-0.0010244870979649,0.0010244837550174,0.62007541725161,128566,2924,0.0042688685239777,0.0058703130262053,0.0042688685230109,38.045348140901,6.6762785127209e-05,6.6762785127209e-05,6.6762785127209e-05,2840029.9121296,0.014512934271296
10419200,0.87310252540722,0.014373165110004,0.0043677178077345,0.0056377294955612,0.0043677178067078,-0.0010342707289207,0.001034270216733,2.9277717086024e-10,-8.1505381137929e-10,1.5974650350158e-09,-2.2010578695459e-09,-0.0011365507452319,0.0011365534676111,-0.0011365526615541,0.0011365515462043,-0.0011365535384332,0.0011365506333434,-0.0011365523361458,0.001136551705215,-0.0010320678430774,0.0010320635468767,-0.0010320651243497,0.0010320659714175,7.3720433073726e-10,-1.4973609643563e-09,4.51180186755e-10,-1.1807025577591e-09,-0.001425598888042,0.0014255981691341,-0.001511502341398,0.0015115043424723,-0.0015115041004502,0.0015115025253376,-0.0015115044375853,0.0015115022237643,-0.0015115038017419,0.0015115027943875,-0.0013249212673843,0.0013249170533414,-0.0013249183107776,0.0013249197454279,-0.0013249207146194,0.0013249175001682,-0.0013249186258387,0.001324919498085,2.7668722989138e-10,3.1152623329054e-10,-0.0010342701838315,0.0010342707613774,2.3361709778744e-09,-1.7811479671256e-09,-0.0011365502994518,0.0011365539052949,-0.0011365533225216,0.001136550855754,-0.0011365518251345,0.0011365523550255,-0.0011365517498895,0.0011365523191066,-0.0010320641221461,0.0010320669386584,-0.0010320680003859,0.0010320634357849,0.62506670993773,128566,2924,0.0043008631965,0.005921687692014,0.0043008631955781,37.717942532323,6.4143540258583e-05,6.4143540258583e-05,6.4143540258583e-05,2830981.6841973,0.014629997773863
10619200,0.88153285246101,0.014486454188934,0.0044009656675805,0.0056845228548049,0.0044009656665488,-0.0010418303371191,0.0010418298474087,3.2755991246805e-10,-8.2757084752236e-10,1.5412317963714e-09,-2.1211451008261e-09,-0.0011455462967415,0.0011455483372471,-0.0011455475527598,0.0011455470735273,-0.0011455483695781,0.0011455462233483,-0.0011455478582125,0.0011455466036171,-0.0010394611697055,0.0010394590396507,-0.0010394605484926,0.001039459363375,8.0412176586732e-10,-1.5700688396512e-09,-2.0372310539897e-10,-5.3067236067659e-10,-0.0014375490497385,0.0014375483258684,-0.0015248081676731,0.0015248091103804,-0.0015248088327782,0.00152480840142,-0.0015248096396849,0.0015248076153272,-0.0015248092499388,0.0015248079523644,-0.0013355413274952,0.0013355379421886,-0.0013355392706162,0.0013355397694674,-0.0013355398368489,0.0013355393483369,-0.0013355400484256,0.0013355390435612,1.7894028392914e-10,2.0477287988055e-10,-0.0010418299068008,0.0010418302773857,2.8448920137959e-09,-2.5083874133614e-09,-0.0011455457421269,0.0011455488823242,-0.0011455485008778,0.0011455460982193,-0.0011455465962502,0.0011455480039408,-0.001145547606728,0.0011455468830029,-0.0010394598684998,0.0010394600094076,-0.0010394616852471,0.0010394585677255,0.61395642720303,128566,2924,0.0043322419989808,0.0059711643762871,0.0043322419982761,37.64738209492,6.3579056759364e-05,6.3579056759364e-05,6.3579056759364e-05,2827784.9681346,0.014743899044496
10819200,0.88944282916156,0.014590897829745,0.004431581466173,0.0057277348984659,0.0044315814651057,-0.0010489512779265,0.0010489508054492,3.3127974315147e-10,-8.1426300064124e-10,1.5055568735798e-09,-2.0671063541433e-09,-0.0011540225901594,0.0011540241265187,-0.0011540233533919,0.0011540233529113,-0.0011540241440644,0.0011540225309587,-0.0011540241187548,0.0011540224241475,-0.0010463913527482,0.0010463906442913,-0.0010463921061288,0.0010463895906263,8.3643342512125e-10,-1.606174096778e-09,-6.343227706983e-10,-1.0352272204014e-10,-0.001448769627677,0.0014487689003988,-0.0015373225220052,0.0015373227010527,-0.0015373224099378,0.0015373227804305,-0.0015373235168073,0.0015373216827348,-0.0015373233492625,0.0015373218079654,-0.0013454989282374,0.0013454962093636,-0.0013454975718995,0.0013454973557031,-0.0013454968358484,0.001345498231101,-0.0013454986469164,0.0013454963248368,6.8650671787483e-11,1.4235617687203e-10,-0.0010489509435167,0.0010489511393688,3.1863177404155e-09,-3.0359031685133e-09,-0.0011540219763406,0.0011540247291125,-0.0011540245342152,0.0011540221463686,-0.0011540223264663,0.001154024355398,-0.0011540241137081,0.001154022457368,-0.001046391660582,0.0010463900058521,-0.0010463921370572,0.001046389901435,0.60387279249318,128566,2924,0.0043617987698501,0.0060176180510858,0.0043617987688352,37.649666163494,6.359732930795e-05,6.359732930795e-05,6.359732930795e-05,2830226.9025153,0.014851046549724
11019200,0.89692791985864,0.014687848660583,0.0044599642960121,0.005767920069629,0.0044599642949423,-0.0010559142105271,0.001055913747694,3.4070857675781e-10,-8.1412540150174e-10,1.4937642045933e-09,-2.0451551260324e-09,-0.0011622763523918,0.001162278384602,-0.0011622776116853,0.0011622771112003,-0.0011622783872702,0.0011622763040471,-0.0011622778716282,0.0011622766889971,-0.0010531443319029,0.0010531420525896,-0.0010531434947564,0.0010531425914214,8.4809342956318e-10,-1.6226269128028e-09,-8.9424967363925e-10,1.5194159558267e-10,-0.0014595959992952,0.0014595952681251,-0.0015493883921605,0.0015493888958031,-0.0015493886030072,0.0015493886613738,-0.0015493898848693,0.001549387378695,-0.0015493890617916,0.0015493881676048,-0.0013551207675692,0.0013551158784189,-0.0013551172617094,0.0013551191925805,-0.0013551183236332,0.0013551182636692,-0.0013551185102317,0.0013551179812085,-1.0562090982429e-11,9.2192783514924e-11,-0.0010559139466023,0.0010559140111825,3.373613394603e-09,-3.3618844831411e-09,-0.0011622757235497,0.0011622790005374,-0.0011622789437386,0.0011622757540357,-0.0011622765583878,0.0011622781415637,-0.0011622780188647,0.001162276568692,-0.0010531431878108,0.0010531428653234,-0.0010531452939983,0.0010531411321187,0.59321240656356,128566,2924,0.0043906981481549,0.0060624377925542,0.0043906981472534,37.825929883235,6.5007439065882e-05,6.5007439065882e-05,6.5007439065882e-05,2836891.9061497,0.014955212285491
11219200,0.90397705823827,0.014779085495911,0.0044866942602067,0.0058056969766046,0.0044866942591,-0.0010623408486735,0.0010623403848244,3.4084907332235e-10,-8.1537427160255e-10,1.5087008947582e-09,-2.0610812392653e-09,-0.0011698950758806,0.0011698967316442,-0.0011698959495411,0.0011698958433364,-0.0011698967353541,0.001169895028463,-0.0011698966056848,0.0011698950253143,-0.0010593810709073,0.0010593799291411,-0.0010593813798361,0.0010593793147841,8.2633691920963e-10,-1.5984584967196e-09,-8.3275327007687e-10,9.2653070571117e-11,-0.0014696357294613,0.001469635000129,-0.001560597154555,0.0015605972798645,-0.0015605970010384,0.0015605974106204,-0.0015605982269554,0.0015605961834985,-0.0015605978507275,0.0015605965271185,-0.0013640492994822,0.0013640457619115,-0.0013640471336527,0.001364047743498,-0.0013640469666007,0.0013640480388419,-0.0013640483265954,0.0013640465845051,-4.5585617736258e-11,9.420444849652e-11,-0.0010623406010758,0.0010623406319257,3.3008641950999e-09,-3.3242747807903e-09,-0.0011698944925236,0.0011698973013558,-0.0011698972902285,0.0011698944785323,-0.0011698949294836,0.0011698968408907,-0.0011698967399911,0.0011698949192953,-0.0010593810494341,0.0010593796190552,-0.001059382041659,0.0010593789960135,0.59263757059147,128566,2924,0.0044173709084988,0.00610399900698,0.0044173709074705,37.936026702737,6.5888213621894e-05,6.5888213621894e-05,6.5888213621894e-05,2842869.0392467,0.015051559649663
11419200,0.91054557962341,0.014864706061913,0.0045118172107725,0.0058410716414737,0.004511817209667,-0.0010680113212792,0.0010680108455394,3.213443382595e-10,-8.0761564954839e-10,1.5446165886025e-09,-2.1095849808622e-09,-0.0011766545714598,0.0011766575921641,-0.0011766567943931,0.0011766553555946,-0.0011766576163049,0.0011766545043168,-0.0011766561206019,0.0011766558663511,-0.0010649009953582,0.0010648956707985,-0.0010648971607028,0.0010648991979807,7.7364871785684e-10,-1.5408658066073e-09,-4.6783886090276e-10,-2.6778100376827e-10,-0.0014786512157237,0.0014786504903927,-0.0015706936572609,0.0015706953747005,-0.0015706951250365,0.0015706938777806,-0.001570696078821,0.0015706929292593,-0.001570694554156,0.0015706944168367,-0.0013720617649248,0.0013720546085261,-0.0013720559376703,0.001372060244461,-0.0013720599769246,0.0013720563330853,-0.0013720568615398,0.0013720593602197,-4.2894824522702e-11,1.6230941926729e-10,-0.0010680110321267,0.0010680111342037,3.0002380694335e-09,-2.9473117590505e-09,-0.0011766540808677,0.001176658069773,-0.0011766580095446,0.0011766541157909,-0.0011766558537636,0.0011766562730038,-0.0011766560811611,0.001176655934949,-0.0010648966444247,0.0010648996889507,-0.0010649018164567,0.0010648948861003,0.59626754092637,128566,2924,0.0044409054520113,0.0061413180712428,0.004440905451,37.863928251413,6.53114260113e-05,6.53114260113e-05,6.53114260113e-05,2844940.08919,0.015137236880173
11619200,0.91659788549084,0.014943995316909,0.0045351108642897,0.0058737735894364,0.0045351108631833,-0.0010728417121368,0.0010728412174139,3.4119394876275e-10,-8.4619917963359e-10,1.5963912553595e-09,-2.1814430170015e-09,-0.0011824794327094,0.0011824810380287,-0.0011824802204213,0.0011824802404659,-0.0011824810640443,0.0011824793656718,-0.0011824810409928,0.0011824792549757,-0.0010696046158054,0.0010696038823501,-0.001069605433533,0.0010696027615496,7.1979749573942e-10,-1.4819754996069e-09,2.6834985209622e-11,-7.5791299263127e-10,-0.001486545783274,0.0014865450629931,-0.0015795807046556,0.0015795812080594,-0.0015795809862567,0.0015795808884973,-0.0015795815819876,0.0015795803084266,-0.0015795818857162,0.0015795799580137,-0.0013790422350721,0.0013790408588412,-0.0013790421358981,0.0013790407492356,-0.001379041161798,0.0013790418563895,-0.0013790427065977,0.0013790402255029,3.8151621326877e-11,2.2305107374336e-10,-0.0010728413416154,0.0010728415874483,2.5642871124948e-09,-2.3593315084987e-09,-0.0011824790589742,0.0011824814006873,-0.0011824811934478,0.0011824792411444,-0.0011824793818321,0.0011824810535002,-0.0011824807250583,0.0011824796003153,-0.0010696046271435,0.0010696035406495,-0.0010696051861854,0.0010696033506514,0.59873866579052,128566,2924,0.0044609539763706,0.0061739951227879,0.0044609539753619,37.584296338983,6.3074370711867e-05,6.3074370711867e-05,6.3074370711867e-05,2843694.9644201,0.015211129200844
11819200,0.92209784947119,0.015016548250671,0.0045564540650109,0.005903640121756,0.0045564540639045,-0.00107668542024,0.0010766849055618,3.4008878944924e-10,-8.6480171650108e-10,1.6418421315337e-09,-2.2478985319488e-09,-0.0011872120115511,0.0011872141991929,-0.0011872133660132,0.0011872128377378,-0.0011872142395139,0.0011872119308846,-0.0011872136628036,0.001187212374482,-0.0010733442515061,0.0010733415433001,-0.0010733431522016,0.0010733423426811,6.6461623778309e-10,-1.4205291756323e-09,5.8003186266004e-10,-1.3054119420318e-09,-0.0014931538092838,0.0014931530949249,-0.0015870870107686,0.0015870884714956,-0.0015870882766328,0.0015870871562914,-0.0015870884767295,0.0015870869844787,-0.001587088511595,0.0015870868916172,-0.0013848317169984,0.0013848295212954,-0.0013848307417823,0.0013848302644511,-0.0013848314359177,0.0013848297111226,-0.0013848309215039,0.001384830141886,1.1603460861206e-10,3.2130776899523e-10,-0.0010766849506148,0.0010766853746847,2.1079608378316e-09,-1.7144538017842e-09,-0.0011872117484692,0.0011872144525663,-0.0011872140767874,0.0011872120991963,-0.0011872126239531,0.001187213552606,-0.0011872130416497,0.0011872130248129,-0.0010733420283259,0.0010733434377281,-0.001073344543112,0.001073341292139,0.6021859912882,128566,2924,0.0044769084234325,0.0062013450389557,0.0044769084223921,37.033762923498,5.867010338798e-05,5.867010338798e-05,5.867010338798e-05,2839780.0885296,0.01527130354878
12019200,0.92714246202441,0.015085217373045,0.0045767306457707,0.0059317560826094,0.0045767306446651,-0.0010805056980044,0.0010805051774923,3.5010432977731e-10,-8.8059346036614e-10,1.647345103918e-09,-2.2599478380272e-09,-0.001191810805713,0.0011918128526487,-0.0011918120203806,0.0011918116329785,-0.0011918128902082,0.0011918107282171,-0.0011918124713424,0.0011918110144568,-0.0010771218490052,0.0010771196793293,-0.0010771213004182,0.001077119930302,6.5587215090894e-10,-1.4089336432796e-09,7.8794854741863e-10,-1.5105803827474e-09,-0.0014994883055441,0.0014994875938655,-0.0015942240786966,0.0015942254913906,-0.0015942252976967,0.0015942242173417,-0.0015942253580043,0.0015942241917479,-0.0015942257065447,0.0015942237793252,-0.0013904503714698,0.0013904491375361,-0.0013904503421255,0.0013904489220187,-0.0013904503708516,0.0013904490381833,-0.001390450384347,0.0013904489439013,1.5150531937752e-10,3.6889838388829e-10,-0.0010805051832707,0.0010805056917509,1.9414872709554e-09,-1.4586730775121e-09,-0.0011918105780008,0.001191813071363,-0.001191812616902,0.0011918110073324,-0.001191811300082,0.0011918123248925,-0.0011918117266956,0.0011918117879701,-0.0010771200407892,0.0010771211602043,-0.0010771220429424,0.0010771195268212,0.6193037570053,128566,2924,0.004492765114963,0.0062275625578012,0.004492765113979,36.63141745488,5.5451339639043e-05,5.5451339639043e-05,5.5451339639043e-05,2830651.83152,0.015330131230868
12219200,0.93186389358823,0.015151649046141,0.0045964159769116,0.0059588170934274,0.0045964159758016,-0.0010848356907274,0.0010848351852256,2.8173447226409e-10,-7.9734216469645e-10,1.5949959601466e-09,-2.191653436786e-09,-0.0011968579659337,0.0011968595280967,-0.0011968587199104,0.0011968587675934,-0.0011968595989542,0.0011968578551617,-0.0011968595430185,0.0011968577771871,-0.0010814770658701,0.0010814760397177,-0.0010814776030984,0.0010814751989805,6.8894012164631e-10,-1.443217539636e-09,6.1003217128885e-10,-1.3335419335623e-09,-0.0015061795223444,0.0015061788095018,-0.0016016322975341,0.0016016331955655,-0.0016016329806366,0.0016016324578084,-0.0016016331814649,0.0016016322894653,-0.0016016338297327,0.0016016315806308,-0.0013965053686505,0.0013965050587881,-0.0013965062937808,0.0013965039011167,-0.0013965050932467,0.0013965052377077,-0.0013965064723807,0.0013965037863076,2.1954783263353e-11,4.2912794198557e-10,-0.0010848352184094,0.0010848356570657,2.2020047653836e-09,-1.7934935396625e-09,-0.0011968576683964,0.0011968598156787,-0.0011968594913605,0.0011968579678063,-0.0011968579180643,0.0011968595420976,-0.0011968589520624,0.0011968583976602,-0.0010814764869395,0.0010814762890549,-0.0010814774370305,0.0010814757063989,0.63790519549723,128566,2924,0.0045107363147989,0.0062552564022876,0.0045107363138093,36.591025918741,5.5128207349928e-05,5.5128207349928e-05,5.5128207349928e-05,2815961.7853441,0.015394754400184
12419200,0.93632099687325,0.015212299520456,0.004614330975447,0.0059836375706751,0.0046143309743336,-0.0010891493596953,0.0010891488709223,3.8963310534006e-10,-8.8871070391003e-10,1.5557634074278e-09,-2.134837963048e-09,-0.0012019063818643,0.0012019085477864,-0.0012019077553467,0.0012019071674257,-0.0012019085396726,0.0012019063499725,-0.0012019079888629,0.0012019067670069,-0.0010857774154926,0.0010857749256509,-0.0010857764402871,0.0010857755971835,7.5666973425902e-10,-1.5164539094916e-09,1.6398028945589e-10,-8.9230362938368e-10,-0.001512773042198,0.0015127723247275,-0.001608897510128,0.0016088987116609,-0.0016088984597126,0.001608897716696,-0.0016088989920148,0.0016088972068183,-0.001608898801693,0.0016088973446714,-0.0014024637274264,0.0014024607900389,-0.0014024620841187,0.0014024622171949,-0.0014024627826944,0.0014024616505815,-0.0014024625932176,0.0014024617624465,5.0322212277355e-11,2.9634333766721e-10,-0.0010891489484501,0.0010891492816929,2.461061770664e-09,-2.1644242119777e-09,-0.0012019060285777,0.0012019088909237,-0.0012019086206002,0.0012019062740825,-0.0012019068852859,0.0012019080104336,-0.0012019075736181,0.001201907211539,-0.0010857754866144,0.0010857765251374,-0.0010857779860696,0.001085774392499,0.6182714015325,128566,2924,0.0045286396209333,0.0062825443566515,0.0045286396199506,36.717217673136,5.6137741385089e-05,5.6137741385089e-05,5.6137741385089e-05,2804947.1235837,0.015458832730699
12619200,0.9404720358343,0.015265734650069,0.0046300295914338,0.0060056754683184,0.0046300295903168,-0.0010925789963618,0.0010925785157411,3.0046555644673e-10,-7.9144932012276e-10,1.5317684802909e-09,-2.1017980973932e-09,-0.001206040663172,0.0012060419552488,-0.0012060411727855,0.0012060414370729,-0.0012060419987042,0.0012060405796958,-0.0012060421914451,0.0012060402519218,-0.0010891047714613,0.0010891045280986,-0.0010891060145767,0.0010891029784812,7.6081614317731e-10,-1.5208767262012e-09,9.1602080266385e-11,-8.2010467765916e-10,-0.0015183123446294,0.0015183116269353,-0.0016150940221922,0.0016150943725685,-0.0016150941180594,0.0016150942317986,-0.0016150947008584,0.0016150936695288,-0.0016150952689978,0.0016150930517757,-0.0014073650249628,0.0014073643759306,-0.0014073656785778,0.001407363516314,-0.0014073639829896,0.0014073653376064,-0.0014073662353525,0.0014073630117714,-9.0864693782007e-11,3.7978619249472e-10,-0.0010925786184216,0.0010925788931838,2.6229126628774e-09,-2.3887848696544e-09,-0.0012060402758137,0.001206042331602,-0.0012060421908121,0.0012060403920502,-0.0012060402569158,0.0012060423270018,-0.0012060418753002,0.0012060405980712,-0.0010891051487461,0.0010891038202541,-0.0010891054656329,0.0010891038697468,0.58731726925965,128566,2924,0.0045428741731732,0.0063054679785651,0.0045428741721427,36.6036930515,5.5229544411997e-05,5.5229544411997e-05,5.5229544411997e-05,2804099.259899,0.01551103177703
12819200,0.94433306751586,0.015315841292242,0.0046447718398971,0.0060262976135639,0.0046447718387807,-0.0010957144879914,0.0010957140067647,3.8933009564827e-10,-8.8089528646788e-10,1.5409746277149e-09,-2.1116052012635e-09,-0.0012097749267985,0.0012097769581793,-0.0012097761709244,0.0012097757062275,-0.0012097769465452,0.0012097748986037,-0.0012097765168668,0.0012097751933516,-0.0010921433758238,0.0010921412420449,-0.0010921427353236,0.0010921415765433,7.6609028623233e-10,-1.5265831530502e-09,-1.0337433963194e-11,-7.1851407953514e-10,-0.0015233456842541,0.0015233449663023,-0.0016207501941817,0.0016207511527649,-0.0016207508965593,0.0016207504084595,-0.0016207515467759,0.0016207497757861,-0.0016207513799736,0.0016207498953906,-0.0014118252222834,0.0014118223237609,-0.0014118236329121,0.0014118237128471,-0.0014118240409683,0.0014118234286788,-0.0014118242583467,0.0014118231358877,-3.0014602523025e-11,3.0051742270049e-10,-0.0010957141190683,0.0010957143751843,2.6201792713218e-09,-2.40571739913e-09,-0.0012097745543488,0.0012097773200303,-0.001209777154203,0.0012097746956055,-0.0012097752567921,0.0012097765939663,-0.0012097762033876,0.0012097755367379,-0.0010921418592363,0.0010921424283137,-0.0010921440973442,0.0010921405564879,0.59135073318622,128566,2924,0.0045558868115516,0.0063262983685933,0.0045558868105088,36.464799926606,5.4118399412851e-05,5.4118399412851e-05,5.4118399412851e-05,2806701.9125555,0.015558623918086
13019200,0.94784562346466,0.015361582917086,0.0046582409173832,0.0060451010834366,0.0046582409162667,-0.001097750260535,0.0010977497511022,5.2373597099765e-10,-1.0432641286653e-09,1.6227560766639e-09,-2.2232483982875e-09,-0.001212347585421,0.0012123507506641,-0.0012123499291409,0.0012123484015375,-0.0012123506722823,0.0012123476240981,-0.0012123493341292,0.0012123488287378,-0.0010940956116365,0.0010940906552221,-0.0010940922448884,0.0010940937263841,7.063628671581e-10,-1.4617956400878e-09,2.1075099505471e-10,-9.351605163705e-10,-0.001527093044923,0.0015270923322316,-0.0016250639684361,0.0016250660572277,-0.0016250658372391,0.0016250641462221,-0.0016250662996782,0.0016250637055113,-0.0016250652593072,0.0016250646926236,-0.0014150554691815,0.0014150497924855,-0.0014150510426746,0.0014150539973288,-0.0014150546543716,0.0014150505259345,-0.0014150514865894,0.0014150536026424,1.5113876335864e-10,2.2324730372385e-10,-0.0010977498250904,0.0010977501860523,2.293622548582e-09,-1.9685264442388e-09,-0.0012123473112365,0.0012123510154798,-0.0012123506643797,0.0012123476378948,-0.0012123490990313,0.0012123492035748,-0.0012123487913188,0.001212349400725,-0.0010940911234265,0.0010940948175276,-0.0010940961314324,0.0010940901776088,0.59303210058509,128566,2924,0.004564337220624,0.0063418050062407,0.0045643372195998,35.906093183087,4.9648745464698e-05,4.9648745464698e-05,4.9648745464698e-05,2806691.3271905,0.015591543840559
13219200,0.95101820410786,0.015403073879744,0.0046704697831041,0.0060621343146521,0.0046704697819882,-0.0010991799400711,0.0010991794127298,3.8308935272331e-10,-9.2072324880922e-10,1.6527935080429e-09,-2.2725026792501e-09,-0.0012142518760338,0.0012142544131399,-0.001214253581436,0.001214252701583,-0.001214254433543,0.0012142518177157,-0.0012142535722459,0.0012142525456432,-0.0010954546923596,0.0010954512360124,-0.0010954528632044,0.001095452761299,6.2841143593258e-10,-1.3758059547195e-09,6.2570516743075e-10,-1.3421533114317e-09,-0.0015300584398414,0.0015300577346839,-0.0016285365670129,0.0016285382967952,-0.0016285381149214,0.001628536697172,-0.0016285382610096,0.0016285365827231,-0.001628538069291,0.001628536714716,-0.0014175593010519,0.0014175562620297,-0.0014175574577527,0.0014175578800222,-0.0014175591337089,0.0014175563353386,-0.0014175575789875,0.0014175578056978,4.7345481727297e-11,4.2082783282854e-10,-0.0010991794492868,0.0010991799036995,2.1130493436165e-09,-1.686319151954e-09,-0.001214251646754,0.0012142546327317,-0.001214254285447,0.0012142519723955,-0.0012142527842229,0.0012142534711081,-0.0012142528771963,0.0012142532706034,-0.0010954515837782,0.0010954540155762,-0.0010954550855166,0.0010954508828465,0.5951291256122,128566,2924,0.0045702731172112,0.0063540747670732,0.0045702731176042,35.184252919283,4.3874023354268e-05,4.3874023354268e-05,4.3874023354268e-05,2804474.4279119,0.015616068852477
13419200,0.95388804148105,0.015439995760945,0.0046813389025217,0.0060773179570131,0.0046813389014102,-0.0011002959060452,0.0011002953681312,3.6633802596301e-10,-9.140867442657e-10,1.6744936951078e-09,-2.305169413245e-09,-0.0012158045224349,0.0012158066280803,-0.0012158057905213,0.0012158053567468,-0.0012158066667839,0.0012158044462182,-0.0012158062289783,0.0012158047501097,-0.0010964951141835,0.0010964928903789,-0.0010964945496849,0.0010964931535821,6.020529790477e-10,-1.3446260830079e-09,8.3108557908251e-10,-1.5435888691255e-09,-0.001532561658623,0.0015325609571503,-0.0016314989628563,0.0016315003958389,-0.0016315002290542,0.0016314990725252,-0.0016315002268952,0.0016314991124419,-0.0016315005769114,0.0016314986974338,-0.0014196379402794,0.0014196367272938,-0.0014196378879048,0.0014196365431127,-0.0014196380684508,0.0014196364973097,-0.0014196378656034,0.0014196366284404,4.9415619361014e-11,4.8470264852434e-10,-0.001100295375885,0.0011002958977816,1.9497405405296e-09,-1.4538558654972e-09,-0.0012158043358603,0.0012158068060227,-0.0012158064113535,0.0012158047075929,-0.0012158050212647,0.0012158060965355,-0.0012158054131613,0.0012158055954468,-0.0010964931334991,0.0010964945432338,-0.0010964954109226,0.0010964926332469,0.5860878708396,128566,2924,0.0045749073074536,0.0063644314312049,0.0045749073064001,34.453696812536,3.8029574500291e-05,3.8029574500291e-05,3.8029574500291e-05,2802339.1992544,0.015636006929812
13619200,0.95651548141669,0.01547335899681,0.0046911527173279,0.0060910535632604,0.0046911527162215,-0.0011015276588601,0.0011015271280668,2.7593977022208e-10,-8.1665644760529e-10,1.6448316614832e-09,-2.2682807692266e-09,-0.0012174289177796,0.0012174297856195,-0.001217428962152,0.0012174297369172,-0.001217429876371,0.0012174287891133,-0.0012174305416924,0.0012174279878257,-0.0010976492283341,0.0010976502962654,-0.0010976519223281,0.0010976472931956,6.1536066515408e-10,-1.3561047212846e-09,8.0877198304167e-10,-1.5193568504559e-09,-0.0015350517313843,0.0015350510307626,-0.0016344142741075,0.0016344145393561,-0.001634414361629,0.0016344143902951,-0.0016344143855938,0.0016344144055918,-0.0016344158794717,0.0016344128485433,-0.0014217365645862,0.0014217389705488,-0.0014217401457991,0.0014217351636335,-0.0014217366461049,0.0014217387868019,-0.0014217401482608,0.0014217352296791,-7.6657044249771e-11,5.8489828007889e-10,-0.0011015271452943,0.0011015276412058,2.066308987267e-09,-1.597232866761e-09,-0.0012174287008119,0.0012174299932766,-0.0012174296966427,0.0012174289735418,-0.0012174281504521,0.0012174305197533,-0.0012174297900613,0.0012174287701008,-0.0010976505605957,0.0010976486328078,-0.0010976496125705,0.0010976499468082,0.57890325295831,128566,2924,0.0045800210876444,0.0063747343113842,0.0045800210867618,33.908677405799,3.3669419246392e-05,3.3669419246392e-05,3.3669419246392e-05,2802438.1213184,0.015656864398793
13819200,0.95894351222342,0.015504173878947,0.0047002215578754,0.0061037307643034,0.0047002215567681,-0.0011028601827339,0.0011028596646102,4.0750450914564e-10,-9.3550323855699e-10,1.6139230162358e-09,-2.2238860301024e-09,-0.0012191124690118,0.0012191141553016,-0.0012191133459922,0.0012191132761514,-0.0012191141573033,0.0012191124309168,-0.0012191141457356,0.001219112307062,-0.0010989141180349,0.0010989130597538,-0.0010989146509896,0.0010989122243521,6.7236595844621e-10,-1.4197144425218e-09,5.0457114652136e-10,-1.2212001974664e-09,-0.0015375322966932,0.001537531591573,-0.0016372893627816,0.0016372902596082,-0.0016372900498322,0.0016372895197263,-0.001637290306016,0.0016372892948137,-0.0016372908139687,0.001637288728537,-0.0014238625928492,0.0014238619463918,-0.0014238631665052,0.0014238611517555,-0.0014238622027447,0.0014238622417043,-0.0014238634013807,0.0014238609761404,-9.8887850735216e-13,4.4858635507014e-10,-0.001102859705759,0.0011028601411486,2.2057772552543e-09,-1.8021245746576e-09,-0.0012191122232703,0.0012191143930347,-0.0012191140908817,0.0012191125023166,-0.0012191124915182,0.0012191141006358,-0.0012191134943043,0.0012191129887888,-0.0010989133747028,0.0010989134746869,-0.0010989146290573,0.0010989125870762,0.57842617806663,128566,2924,0.0045855522853206,0.0063849983849057,0.0045855522844177,33.508163906968,3.0465311255741e-05,3.0465311255741e-05,3.0465311255741e-05,2803468.4394204,0.015678530218285
14019200,0.96122463593789,0.015533121042395,0.0047087450871148,0.0061156308692746,0.0047087450860058,-0.0011046044666804,0.0011046039687058,4.2817613575194e-10,-9.363295832122e-10,1.5619434473267e-09,-2.150648936563e-09,-0.0012211885040709,0.001221190309567,-0.0012211895198962,0.0012211892874136,-0.0012211902832658,0.0012211884917016,-0.0012211901448237,0.0012211884947082,-0.0011006054007462,0.0011006040388721,-0.0011006055682865,0.0011006035678928,7.3254066150328e-10,-1.4843798912721e-09,1.1449715989624e-10,-8.3497437116493e-10,-0.001540357337046,0.0015403566276086,-0.0016404821306509,0.0016404829161425,-0.0016404826739873,0.0016404823274565,-0.0016404832211299,0.0016404818025965,-0.0016404833715077,0.0016404816018266,-0.0014263571876284,0.0014263552667844,-0.0014263565404549,0.0014263557086496,-0.0014263562130978,0.0014263561592717,-0.0014263570643569,0.0014263552369286,-7.0860787027333e-11,3.9549552363507e-10,-0.0011046040621239,0.0011046043728226,2.5217001917901e-09,-2.2500119018261e-09,-0.0012211881874148,0.0012211906159314,-0.0012211904427179,0.0012211883370461,-0.0012211885841174,0.0012211901956594,-0.0012211897065031,0.0012211889631303,-0.0011006044923945,0.0011006046184351,-0.0011006061490351,0.0011006033283066,0.57821463374922,128566,2924,0.0045927912218884,0.0063966885743193,0.0045927912209788,33.391213405653,2.9529707245225e-05,2.9529707245225e-05,2.9529707245225e-05,2804563.4546272,0.0157051139218
14219200,0.96336348200144,0.015559257467572,0.0047164140650944,0.0061264293384947,0.004716414063983,-0.0011061041737062,0.0011061036899711,4.353418447268e-10,-9.2939345079367e-10,1.5270455103354e-09,-2.1003681397833e-09,-0.0012230166183622,0.0012230185033188,-0.0012230177269002,0.0012230173863929,-0.0012230184623605,0.0012230166201966,-0.0012230182308389,0.0012230167154503,-0.0011020336622806,0.0011020320631597,-0.0011020335487789,0.0011020318698275,7.6722652887384e-10,-1.5224531811004e-09,-1.1643071665094e-10,-6.0704914400652e-10,-0.0015428705251454,0.0015428698125574,-0.0016433467745802,0.0016433475155243,-0.0016433472547702,0.0016433469948229,-0.001643347974505,0.0016433462911349,-0.0016433478901704,0.0016433463308066,-0.0014285477007869,0.0014285449891247,-0.0014285462974703,0.0014285462009394,-0.0014285463818531,0.0014285462347906,-0.0014285469911499,0.0014285455534724,-1.335166996142e-10,3.7089087135648e-10,-0.0011061038205166,0.0011061040427067,2.7281978295467e-09,-2.5504034659873e-09,-0.0012230162601324,0.0012230188502838,-0.0012230187764131,0.001223016310494,-0.0012230167379229,0.0012230183491368,-0.0012230179347828,0.0012230170420238,-0.0011020326034775,0.0011020327916685,-0.0011020345766579,0.0011020311844299,0.55856766862644,128566,2924,0.0045990153628644,0.0064070877570352,0.0045990153619249,33.234132526876,2.8273060215009e-05,2.8273060215009e-05,2.8273060215009e-05,2807020.6463236,0.015728325722587
14419200,0.96535636378626,0.015583874736775,0.0047236502839489,0.0061365741699892,0.0047236502828368,-0.0011072591771508,0.0011072586956155,4.7254187816447e-10,-9.6445059572488e-10,1.5284483631943e-09,-2.099308524448e-09,-0.0012244390678535,0.0012244411047612,-0.0012244403266452,0.0012244398380416,-0.0012244410393587,0.0012244390947671,-0.0012244407031222,0.0012244392946282,-0.0011031143747768,0.0011031124616879,-0.0011031139460552,0.0011031125852374,7.7520095214303e-10,-1.5325620176353e-09,-1.6000879619405e-10,-5.6549332492004e-10,-0.0015449289296635,0.0015449282158709,-0.0016457399926675,0.0016457408374142,-0.001645740573215,0.0016457402196602,-0.0016457413249428,0.0016457394814497,-0.0016457410875692,0.0016457396751194,-0.0014303189633532,0.0014303157484387,-0.0014303170636886,0.0014303174586953,-0.0014303175782057,0.0014303170641074,-0.0014303177894873,0.0014303167749161,-1.2419290601771e-10,3.462346114394e-10,-0.0011072588328007,0.0011072590395022,2.7224794250047e-09,-2.5617559871857e-09,-0.0012244387231908,0.0012244414384545,-0.0012244413694902,0.0012244387689883,-0.0012244393382311,0.0012244408000011,-0.0012244404104439,0.0012244396179234,-0.0011031129903322,0.0011031135167649,-0.0011031153169508,0.001103111555904,0.56383593506029,128566,2924,0.0046038087373485,0.006415605456368,0.0046038087363896,32.956172568485,2.6049380547878e-05,2.6049380547878e-05,2.6049380547878e-05,2811067.9421699,0.015746719173951
14619200,0.96712910870658,0.01560589322569,0.0047301293735361,0.0061456344797304,0.0047301293724239,-0.0011066385439358,0.0011066380613821,3.5949505429786e-10,-8.5255052696843e-10,1.5365008949542e-09,-2.1086907485922e-09,-0.0012240401917345,0.0012240419130952,-0.0012240411262132,0.0012240409661764,-0.0012240419119313,0.0012240401417735,-0.0012240417616522,0.0012240401636644,-0.0011024119442748,0.0011024105726061,-0.0011024120686104,0.0011024101501412,7.2975498325089e-10,-1.483430347927e-09,4.3350076961376e-10,-1.1559817744326e-09,-0.001545046989042,0.0015450462777216,-0.0016461553796453,0.0016461563200707,-0.0016461560813654,0.0016461555711577,-0.0016461564224262,0.0016461552539736,-0.0016461568257035,0.0016461547972876,-0.0014301924156294,0.0014301912074952,-0.0014301924764588,0.0014301909515639,-0.0014301918640261,0.0014301916874341,-0.0014301927893298,0.0014301907037169,-2.0978773098912e-10,5.2288024205135e-10,-0.0011066381533838,0.001106638451772,2.3432295668864e-09,-2.0822660964436e-09,-0.0012240399557863,0.0012240421352188,-0.0012240420579563,0.0012240400059867,-0.0012240402372958,0.0012240418320412,-0.0012240412669754,0.001224040683602,-0.0011024108987331,0.00110241128806,-0.0011024127150992,0.0011024098415779,0.56645706252232,128566,2924,0.0046012366953186,0.0064160913448186,0.0046012366949869,31.824351588135,1.6994812705079e-05,1.6994812705079e-05,1.6994812705079e-05,2808385.2531762,0.015741990987057
14819200,0.96872611907497,0.015625859900923,0.0047360136498975,0.0061538326022465,0.004736013648779,-0.0011062117642892,0.0011062112707299,4.272009924941e-10,-9.309911549945e-10,1.5806281420533e-09,-2.1650967114287e-09,-0.0012238039905541,0.0012238058119494,-0.0012238050092555,0.0012238047910926,-0.0012238057840232,0.0012238039823511,-0.0012238056406798,0.0012238039885401,-0.0011019243016935,0.0011019229026159,-0.0011019244369224,0.0011019224590247,7.0176441393181e-10,-1.4518842104634e-09,6.7195835425118e-10,-1.3909945998345e-09,-0.001545280011854,0.0015452793042545,-0.0016466465355921,0.0016466476651423,-0.0016466474359742,0.0016466467084218,-0.0016466476019491,0.0016466465750264,-0.0016466481171514,0.001646646000488,-0.0014302109994914,0.0014302101462279,-0.0014302113909787,0.0014302095398409,-0.0014302107901606,0.0014302102616032,-0.0014302115363784,0.0014302094558301,-1.2012531894146e-10,5.0415490681716e-10,-0.0011062113316474,0.0011062117029413,2.0532756802492e-09,-1.7117561979276e-09,-0.0012238038456348,0.0012238059480072,-0.001223805768454,0.0012238040014539,-0.0012238041928183,0.0012238055778855,-0.0012238049777902,0.0012238046822164,-0.0011019230873347,0.0011019237876197,-0.0011019249212213,0.0011019223180253,0.56962155655594,128566,2924,0.0045994686247777,0.0064170533902591,0.0045994686238853,30.872041322832,9.3763305826599e-06,9.3763305826599e-06,9.3763305826599e-06,2804360.831499,0.015739379190512
15019200,0.97013634318997,0.015643425191073,0.0047411914398835,0.0061610423124251,0.0047411914387642,-0.001104905927188,0.0011049054297539,5.5619065424811e-10,-1.0637105173377e-09,1.5975326597422e-09,-2.1858998882589e-09,-0.0012226572221582,0.0012226591825581,-0.0012226583728053,0.0012226580314443,-0.0012226590750825,0.0012226572922282,-0.0012226589679006,0.0012226572652952,-0.0011005515816233,0.0011005502731143,-0.0011005518287486,0.0011005497295599,7.1327738827717e-10,-1.4637315546528e-09,8.7244301552357e-10,-1.5917168594955e-09,-0.0015444974171565,0.0015444967092445,-0.0016460904438462,0.0016460917630284,-0.0016460915264441,0.0016460906211676,-0.0016460915652265,0.0016460906196855,-0.0016460921660869,0.0016460899524792,-0.0014292432483032,0.0014292426237545,-0.0014292438643578,0.0014292417703991,-0.0014292432839223,0.0014292424887659,-0.0014292438889292,0.0014292418098317,3.3350607272135e-11,4.3293318034569e-10,-0.0011049054507909,0.0011049059056752,1.7213677782783e-09,-1.2890397443015e-09,-0.0012226571705784,0.0012226592266738,-0.0012226588945774,0.0012226574785436,-0.0012226576362446,0.001222658737441,-0.0012226581258055,0.0012226581366631,-0.0011005502852517,0.0011005512442657,-0.0011005520505876,0.0011005498456792,0.5673822755157,128566,2924,0.004594054021873,0.0064138115524865,0.0045940540208874,29.527110358995,-1.3831171280378e-06,-1.3831171280378e-06,-1.3831171280378e-06,2796391.9438191,0.015725089189438
15219200,0.971295170574,0.015657217711571,0.0047452414491565,0.0061667348143776,0.0047452414480373,-0.0011009628631504,0.001100962383541,3.929065980724e-10,-8.8285637036665e-10,1.5284573910307e-09,-2.0976401460628e-09,-0.0012188016239837,0.0012188034910355,-0.0012188027151531,0.0012188023997663,-0.0012188034744993,0.0012188016031609,-0.0012188032104704,0.0012188017340316,-0.0010964992614933,0.0010964975432001,-0.0010964990284889,0.0010964974776422,7.4535637281562e-10,-1.4989617177485e-09,1.6000787561041e-09,-2.3221067452329e-09,-0.0015408113928172,0.0015408106819415,-0.001642593656963,0.0016425955203561,-0.0016425952543078,0.0016425938454404,-0.0016425948467131,0.0016425943057429,-0.0016425958707004,0.0016425932017328,-0.0014254158333633,0.0014254164629028,-0.0014254177182074,0.0014254143166531,-0.0014254167761792,0.0014254154012863,-0.0014254172952224,0.00142541481848,-1.0428730849872e-10,6.7427346671082e-10,-0.001100962342952,0.0011009629032806,1.3239286864168e-09,-7.7529280820362e-10,-0.0012188016637433,0.0012188034436877,-0.001218803129561,0.0012188019541586,-0.0012188020586155,0.0012188030261197,-0.0012188021919428,0.0012188027812856,-0.0010964972995308,0.0010964991793894,-0.0010964995774016,0.0010964972668851,0.54391445445824,128566,2924,0.004577699345678,0.0063985516570657,0.0045776993447279,26.886529495833,-2.250776403334e-05,-2.250776403334e-05,-2.250776403334e-05,2779181.5362072,0.015676368260429
15419200,0.97234970346148,0.015671586999173,0.0047495255660426,0.0061725358682081,0.0047495255649226,-0.0011001479446956,0.0011001474531783,4.1493013714156e-10,-9.1666338436545e-10,1.5761660857429e-09,-2.1584629170278e-09,-0.0012180195889323,0.0012180215104715,-0.0012180207104266,0.0012180203891346,-0.0012180214884427,0.0012180195749896,-0.00121802122837,0.0012180196991141,-0.0010956561183061,0.0010956543792844,-0.0010956559093601,0.0010956542844107,6.9653490821903e-10,-1.444422046898e-09,9.6808480185029e-10,-1.6848911214975e-09,-0.0015402993800596,0.0015402986737392,-0.0016422390958355,0.0016422405222781,-0.0016422402910378,0.0016422392594926,-0.0016422402632991,0.0016422393300858,-0.0016422408627422,0.0016422386624735,-0.0014248038104949,0.0014248031949415,-0.0014248044263048,0.0014248023442825,-0.0014248039915777,0.0014248029065573,-0.0014248043790914,0.0014248024638552,-1.5832490197042e-10,5.9520350974097e-10,-0.0011001474855878,0.0011001479118303,1.8536831427818e-09,-1.4499140867734e-09,-0.0012180195120151,0.0012180215800993,-0.0012180213896458,0.0012180196783547,-0.001218019926485,0.0012180211422992,-0.0012180204473167,0.0012180205106095,-0.0010956544097955,0.0010956557595855,-0.0010956566909017,0.0010956538433397,0.61488003565797,128566,2924,0.004574319536572,0.0063964320467876,0.0045743195356282,25.932545438913,-3.0139636488696e-05,-3.0139636488696e-05,-3.0139636488696e-05,2773095.7857414,0.015667349760224
15619200,0.97334396667614,0.015685425673063,0.0047536595384889,0.0061781065972061,0.004753659537368,-0.0011003857353559,0.0011003852590262,-6.6887243082549e-10,1.8261726513596e-10,1.5177484567107e-09,-2.0839411573222e-09,-0.0012184169705383,0.0012184179829948,-0.0012184172039663,0.0012184177392018,-0.0012184186614669,0.0012184162680715,-0.0012184178540277,0.0012184169165964,-0.0010959286659705,0.0010959253632208,-0.0010959267824623,0.001095926839181,5.3265081276565e-10,-1.268529728817e-09,1.3604923419517e-09,-2.0674264600702e-09,-0.0015409887560966,0.0015409880622516,-0.0016430409143995,0.0016430423060811,-0.0016430421527845,0.0016430409728034,-0.0016430417929323,0.0016430413909213,-0.0016430427990548,0.0016430403213142,-0.0014253807147191,0.0014253815423425,-0.0014253826674471,0.0014253793815088,-0.0014253816353237,0.0014253804895734,-0.001425382268108,0.0014253798893834,-1.5036509361486e-09,1.4639228936044e-09,-0.001100385522747,0.001100385470699,3.6999091539033e-09,-3.8164127103998e-09,-0.0012184164311273,0.0012184185091982,-0.001218419507916,0.0012184154134666,-0.0012184159525272,0.001218418965558,-0.0012184180200524,0.0012184167932772,-0.001095926258397,0.0010959274020111,-0.0010959301831499,0.0010959238270931,0.62695261972922,128566,2924,0.0045753091959772,0.0063992823020707,0.0045753091940233,25.554547695719,-3.3163618434244e-05,-3.3163618434244e-05,-3.3163618434244e-05,2759759.4948978,0.015672257592306
15819200,0.97426112208718,0.015699134286374,0.0047577784202092,0.0061835774470631,0.004757778419102,-0.0010998844410178,0.0010998839479568,-1.0952665879311e-10,-3.9365858952409e-10,1.5870327408053e-09,-2.1713150494628e-09,-0.0012180618228552,0.0012180632369131,-0.0012180624253712,0.0012180626250694,-0.0012180635669884,0.0012180614514686,-0.0012180631124086,0.0012180617673478,-0.0010954738061426,0.0010954715087712,-0.0010954730174683,0.0010954719358935,6.1189924342755e-10,-1.3573352955737e-09,1.4772347303165e-10,-8.6243320496347e-10,-0.0015408910272843,0.0015408903259858,-0.0016430309715397,0.0016430316434965,-0.0016430314653641,0.0016430310937129,-0.0016430319204294,0.0016430306635567,-0.0016430321451375,0.0016430303976204,-0.0014252008839692,0.0014251992277181,-0.0014252004514048,0.0014251995397839,-0.0014252001286809,0.0014251999122408,-0.0014252008707514,0.0014251991749665,-9.0391496583628e-10,9.587666839885e-10,-0.0010998841744324,0.0010998842144392,3.3332630906889e-09,-3.3481451694707e-09,-0.0012180613853377,0.0012180636620403,-0.0012180642238769,0.001218060799071,-0.001218061265496,0.0012180637592349,-0.0012180630667825,0.0012180618438544,-0.0010954722471779,0.0010954727063688,-0.0010954751413726,0.0010954701766891,0.66920157570116,128566,2924,0.0045732332580899,0.0063988739695687,0.0045732332578912,24.793057480086,-3.9255540159311e-05,-3.9255540159311e-05,-3.9255540159311e-05,2742181.379703,0.015667628149198
16019200,0.97513689066078,0.015712193741963,0.0047617007349289,0.0061887922732299,0.0047617007338044,-0.0011003750350678,0.0011003745389876,3.6287291491904e-10,-8.6868258483281e-10,1.6008914985934e-09,-2.1882141657358e-09,-0.0012187607379164,0.0012187627592638,-0.0012187619469772,0.0012187615494866,-0.0012187628000251,0.0012187606749556,-0.0012187623392877,0.0012187609791773,-0.0010960505349754,0.0010960482346952,-0.0010960497561669,0.0010960486472584,6.1357595796978e-10,-1.3470882233795e-09,-4.5092082179607e-10,-2.5323566129496e-10,-0.0015419007128679,0.0015419000185139,-0.0016440921365978,0.001644092725835,-0.0016440925521761,0.0016440922576854,-0.0016440933799784,0.0016440914495349,-0.0016440929294978,0.0016440918690227,-0.001426125436381,0.0014261216929468,-0.0014261228935523,0.0014261240835091,-0.0014261238890459,0.0014261231577796,-0.0014261237125424,0.0014261233312572,-4.6765494853586e-10,4.7874788574156e-10,-0.0011003747882054,0.001100374784886,3.4853605432161e-09,-3.5534109850718e-09,-0.0012187602649032,0.0012187632250919,-0.0012187635346976,0.0012187599327695,-0.0012187607352342,0.0012187627301256,-0.0012187623725299,0.0012187609885855,-0.0010960490541941,0.0010960493684361,-0.0010960519564054,0.0010960468190903,0.66743247361376,128566,2924,0.0045752731479762,0.0064030481062335,0.0045752731459595,24.593630380053,-4.0850956959574e-05,-4.0850956959574e-05,-4.0850956959574e-05,2724048.1226139,0.015676014824826
16219200,0.97600105037775,0.015725022757256,0.0047655511027761,0.0061939205528094,0.0047655511016703,-0.0011018581692561,0.0011018576700059,7.9482378330217e-10,-1.3039351896036e-09,1.6147117317955e-09,-2.2058018589144e-09,-0.0012204658632083,0.0012204686586461,-0.0012204678342741,0.0012204666780937,-0.0012204684084018,0.0012204660789515,-0.0012204677599385,0.0012204665781931,-0.0010976254346693,0.0010976225257829,-0.0010976240659273,0.0010976235421502,6.0573835893246e-10,-1.3426399209191e-09,-7.4251960471223e-10,3.5634408510928e-11,-0.0015439709306062,0.0015439702343123,-0.0016462100314622,0.0016462109068224,-0.0016462107442385,0.0016462101531815,-0.0016462117541376,0.0016462091550397,-0.0016462106333929,0.0016462102478959,-0.0014281077440246,0.0014281019628933,-0.0014281031640592,0.0014281064001967,-0.0014281058361492,0.0014281038100395,-0.0014281041577877,0.0014281054583598,-7.9999994312441e-11,3.0366244232818e-11,-0.0011018579524128,0.0011018578862586,3.7511457727774e-09,-3.8845266223478e-09,-0.0012204653296649,0.0012204691799468,-0.0012204692744779,0.0012204652102412,-0.001220466556903,0.0012204679288642,-0.0012204679094808,0.0012204664660586,-0.0010976234659095,0.0010976241435142,-0.0010976270017018,0.0010976209684525,0.66426056967714,128566,2924,0.0045814299626059,0.0064116123334348,0.0045814299613795,24.944499752227,-3.804400198218e-05,-3.804400198218e-05,-3.804400198218e-05,2713779.0373665,0.015697223642947
16419200,0.97679381695347,0.01573556006937,0.0047686802926393,0.0061981994851984,0.0047686802915322,-0.0011009453592529,0.0011009448712164,5.38244178201e-10,-1.0366539111348e-09,1.5705722233117e-09,-2.1494645798031e-09,-0.0012197500945558,0.0012197523196601,-0.0012197515178352,0.0012197508888784,-0.001219752222249,0.0012197501501187,-0.0012197517939869,0.0012197504431137,-0.0010967320214114,0.0010967298055478,-0.0010967313155487,0.0010967301888475,6.8379194168438e-10,-1.4346077511885e-09,-2.8901030234541e-10,-4.3025441855226e-10,-0.0015434979304543,0.001543497224452,-0.0016457900270581,0.0016457908736576,-0.0016457906607967,0.0016457902000371,-0.0016457914249311,0.0016457894479194,-0.0016457909848543,0.0016457898532788,-0.0014275466168809,0.0014275427885628,-0.0014275440514168,0.0014275452022793,-0.0014275452028082,0.0014275441446372,-0.0014275447926324,0.001427544495102,-2.7088137756868e-10,3.954818629807e-10,-0.0011009450610442,0.0011009451694314,3.0896714217177e-09,-3.0321022543529e-09,-0.0012197497221611,0.001219752680972,-0.0012197527830276,0.0012197495954054,-0.0012197503907425,0.0012197519892057,-0.0012197516195211,0.0012197506469827,-0.0010967303741411,0.0010967311090623,-0.0010967332991703,0.0010967285515521,0.59982142945319,128566,2924,0.004577647506455,0.0064096493357698,0.0045776475064848,24.0742720482,-4.5005823614401e-05,-4.5005823614401e-05,-4.5005823614401e-05,2699554.1964074,0.015687549504303
16619200,0.97754691810671,0.015747448029674,0.0047722656028515,0.006202916825093,0.0047722656017292,-0.0011011216388559,0.0011011211548477,2.646018910479e-10,-7.5894341778967e-10,1.5560302952378e-09,-2.130457963501e-09,-0.0012199959032637,0.0012199975542526,-0.0012199967624462,0.0012199966916245,-0.0012199976354582,0.0012199957889906,-0.001219997412724,0.0012199958663721,-0.0010969443759955,0.001096942817001,-0.00109694430461,0.0010969425475719,7.0388087386364e-10,-1.4498900992645e-09,9.6860889672191e-11,-8.1176601963473e-10,-0.0015440239073608,0.0015440232027932,-0.0016463778620381,0.001646378585709,-0.0016463783551517,0.0016463780352431,-0.0016463788806281,0.0016463775341799,-0.0016463790808574,0.0016463772923841,-0.0014280267276527,0.0014280248707294,-0.0014280261407696,0.0014280252962836,-0.0014280257820093,0.0014280257361991,-0.001428026655119,0.0014280248400173,-5.3105150826669e-10,7.1848257628155e-10,-0.0011011213102151,0.0011011214830964,2.8212472330689e-09,-2.6943359902186e-09,-0.0012199956021688,0.0012199978466839,-0.0012199980738881,0.0012199953502236,-0.0012199956932893,0.0012199977317232,-0.0012199971113398,0.0012199962034274,-0.0010969432302104,0.0010969436192175,-0.0010969455371007,0.0010969416728769,0.70236007384539,128566,2924,0.004578380382546,0.0064118249374674,0.0045783803817348,23.766719628299,-4.7466242973607e-05,-4.7466242973607e-05,-4.7466242973607e-05,2695727.444879,0.015691248100644
16819200,0.97827063259797,0.015758926116567,0.0047757259523841,0.006207474212921,0.0047757259512615,-0.001101620418216,0.0011016199325816,3.3679486290731e-10,-8.344402428017e-10,1.5544740518057e-09,-2.1330143073477e-09,-0.0012207025048694,0.0012207042074716,-0.0012207033944837,0.0012207032816245,-0.0012207042019341,0.0012207024041972,-0.0012207040698256,0.0012207024677177,-0.0010975436984978,0.0010975423118599,-0.0010975438508,0.0010975419395044,6.8524983597024e-10,-1.4766021912284e-09,2.6269363124283e-10,-1.0178913417653e-09,-0.0015450318866255,0.0015450311575307,-0.0016473952644433,0.001647396098254,-0.0016473958811064,0.001647395465649,-0.0016473962951796,0.0016473950423947,-0.0016473965982035,0.0016473947059171,-0.0014289759009233,0.0014289743898255,-0.0014289757426819,0.0014289745091726,-0.0014289752436754,0.0014289750401062,-0.0014289760832496,0.0014289741168476,-4.3157988438005e-10,7.0163511868683e-10,-0.0011016200538736,0.001101620300206,2.6364871490097e-09,-2.4104812547639e-09,-0.0012207022594799,0.0012207044273351,-0.0012207045505301,0.0012207021057585,-0.0012207023902596,0.0012207042748309,-0.0012207036194011,0.0012207029045486,-0.0010975425970256,0.0010975430655436,-0.0010975448115032,0.0010975412604316,0.70571910263519,128566,2924,0.0045804542633879,0.0064159916108061,0.0045804542703242,23.643744264357,-4.8450045885144e-05,-4.8450045885144e-05,-4.8450045885144e-05,2680414.6163142,0.015699696277095
17019200,0.9789619435163,0.015769672980379,0.0047789590724581,0.0062117548366772,0.0047789590712433,-0.0011018694128469,0.0011018689280313,7.4078400871512e-10,-1.2365682628197e-09,1.5606046347338e-09,-2.1357796368099e-09,-0.0012211563845595,0.001221159889423,-0.0012211590916114,0.001221157172187,-0.0012211596538546,0.0012211565807369,-0.0012211582083918,0.0012211578794079,-0.0010978845929592,0.0010978793464686,-0.0010978808326951,0.0010978827531369,7.1679930056752e-10,-1.4699599303214e-09,7.1455760881437e-10,-1.435865212774e-09,-0.0015457839459805,0.0015457832365103,-0.0016481497437829,0.0016481524221921,-0.0016481521777637,0.0016481499179735,-0.0016481523140016,0.0016481498188275,-0.0016481513722117,0.0016481507033784,-0.0014296748618627,0.0014296696564373,-0.0014296709377661,0.0014296734136287,-0.0014296747097947,0.0014296697285321,-0.0014296710632272,0.00142967335374,-6.5367417689745e-11,2.9382478398138e-10,-0.0011018690640504,0.001101869277068,2.6396312666061e-09,-2.464292682222e-09,-0.0012211561456185,0.0012211601169578,-0.0012211600125298,0.0012211562225116,-0.001221158066865,0.0012211581715375,-0.0012211578059912,0.0012211583177323,-0.0010978796389989,0.0010978839473256,-0.001097885693956,0.001097878255922,0.69246304726962,128566,2924,0.0045814918662225,0.0064190989733049,0.0045814918667422,23.416637060957,-5.0266903512341e-05,-5.0266903512341e-05,-5.0266903512341e-05,2666982.8861468,0.015704963324527
17219200,0.97961486721159,0.015779547558131,0.0047819221366299,0.0062157032860813,0.00478192213542,-0.0011016964882905,0.0011016960057855,6.2495008486566e-10,-1.1180516856879e-09,1.5497794537169e-09,-2.1225730956725e-09,-0.0012211589405211,0.0012211617641026,-0.0012211609766915,0.0012211597279793,-0.0012211616070783,0.0012211590626916,-0.001221160684335,0.0012211598472314,-0.0010977737963828,0.001097770155792,-0.0010977716430972,0.0010977719805959,7.19211315588e-10,-1.4707728826039e-09,7.2570843122322e-10,-1.4455760930544e-09,-0.0015460573926674,0.0015460566854428,-0.0016484316173677,0.001648433692359,-0.0016484334463794,0.001648431801278,-0.0016484335766277,0.0016484317041818,-0.0016484332547816,0.00164843196924,-0.0014298971591229,0.0014298936740289,-0.0014298949380695,0.0014298956919966,-0.0014298970150913,0.0014298937296154,-0.0014298950540741,0.001429895632888,-1.5460560322112e-10,4.7086489512401e-10,-0.0011016960955633,0.0011016963983717,2.3077919669513e-09,-2.0377950370481e-09,-0.0012211587858987,0.0012211619116858,-0.0012211618085943,0.0012211588653352,-0.001221160020719,0.001221160653336,-0.0012211601096851,0.0012211604529191,-0.001097770262692,0.0010977733473253,-0.0010977747540333,0.0010977692197772,0.67476320375062,128566,2924,0.0045807785124718,0.0064202259655179,0.0045807785121906,22.993769367047,-5.3649845063623e-05,-5.3649845063623e-05,-5.3649845063623e-05,2656066.0830294,0.015704661359292
17419200,0.98023814631786,0.01578856540434,0.0047846176099431,0.0062193301856617,0.0047846176087348,-0.0011017817780021,0.0011017813015868,1.6016676407412e-10,-6.4523084696297e-10,1.5330936367568e-09,-2.0973351101462e-09,-0.0012213951455607,0.001221396401254,-0.0012213956492308,0.0012213959384721,-0.0012213965932188,0.00122139499599,-0.0012213965626489,0.0012213948208154,-0.0010979012573699,0.0010979004086316,-0.0010979018367411,0.0010978994028617,7.0942011387896e-10,-1.4053321297152e-09,1.5824555864798e-10,-8.2795018769009e-10,-0.0015465581444742,0.0015465574698649,-0.0016489504618778,0.0016489509182211,-0.0016489506770039,0.0016489506041414,-0.0016489511531896,0.0016489501855929,-0.0016489517058259,0.0016489495829099,-0.0014303441165593,0.001430343248025,-0.001430344401378,0.0014303426466011,-0.00143034317668,0.0014303439950496,-0.0014303449335813,0.0014303422675398,-5.8773422740404e-10,1.007749998841e-09,-0.0011017813288229,0.00110178174674,1.7600012314646e-09,-1.3870164911562e-09,-0.0012213951238634,0.001221396437118,-0.0012213965385654,0.001221395008064,-0.0012213947906799,0.0012213967438388,-0.0012213957649967,0.0012213956939634,-0.0010979002419837,0.0010979011037844,-0.0010979019365762,0.0010978997150128,0.64748127244933,128566,2924,0.0045811353826396,0.0064222949128642,0.0045811353741666,22.737051900431,-5.5703584796554e-05,-5.5703584796554e-05,-5.5703584796554e-05,2650300.8507263,0.015707489698511
17619200,0.98074660246191,0.015795634560543,0.0047867226528592,0.0062221892559551,0.0047867226517285,-0.0010969477626376,0.0010969473040511,7.8247100616736e-10,-1.2517045575855e-09,1.4611642461209e-09,-2.0069904488194e-09,-0.0012165905727251,0.0012165943954227,-0.0012165936487017,0.0012165913100164,-0.0012165941174958,0.0012165908133415,-0.0012165923329243,0.0012165924390425,-0.0010930126654778,0.0010930065834613,-0.0010930079717636,0.0010930109277398,8.2413603579805e-10,-1.5758325799846e-09,2.4193214819777e-09,-3.13884921337e-09,-0.0015417640249397,0.0015417633135152,-0.0016441820449458,0.0016441862481811,-0.0016441859301827,0.001644182258519,-0.0016441850397181,0.001644183227148,-0.0016441848386494,0.0016441833210803,-0.0014255392182103,0.0014255362357534,-0.0014255375287772,0.0014255376635632,-0.001425541141616,0.0014255341996819,-0.0014255366329327,0.0014255386695173,-1.7795254446236e-11,3.6216450741977e-10,-0.0010969473651231,0.0010969477012714,2.1174354915639e-09,-1.8093497235427e-09,-0.0012165904637379,0.0012165944927531,-0.0012165942750023,0.0012165906484376,-0.001216592728341,0.0012165922049722,-0.0012165917106424,0.0012165931036588,-0.0010930065251492,0.0010930123699103,-0.0010930135917183,0.0010930056692099,0.623905589718,128566,2924,0.0045610846486158,0.0064024478761167,0.0045610846480108,19.888103120503,-7.8495175035977e-05,-7.8495175035977e-05,-7.8495175035977e-05,2628661.6013972,0.015646601352093
17819200,0.98122191757847,0.015802012570422,0.0047886191445617,0.0062247742824368,0.0047886191434237,-0.0010960983491636,0.0010960978771431,5.3340072045943e-10,-1.0164442254952e-09,1.5097991054439e-09,-2.070865228077e-09,-0.0012157648236199,0.001215767094591,-0.0012157663292452,0.001215765591634,-0.0012157669915473,0.0012157648949694,-0.0012157664735199,0.0012157652701642,-0.0010921532612823,0.0010921508936304,-0.0010921523392579,0.001092151483257,7.6185072215986e-10,-1.5112508236188e-09,1.0688954829767e-09,-1.787057653733e-09,-0.0015410859928187,0.0015410852853267,-0.0016435260993857,0.0016435279785155,-0.0016435277046293,0.0016435262994753,-0.0016435276347934,0.0016435264133247,-0.0016435279918749,0.0016435259896837,-0.0014248346575481,0.0014248333265459,-0.0014248346047836,0.0014248331573445,-0.0014248348939245,0.0014248329846654,-0.0014248345322023,0.0014248333042625,-2.3530011946897e-10,6.4094869494722e-10,-0.001096097914926,0.0010960983107456,1.9116144430792e-09,-1.5417818133693e-09,-0.001215764771647,0.0012157671408785,-0.0012157670276888,0.0012157648595241,-0.0012157654552683,0.0012157664334743,-0.0012157657174377,0.0012157660600766,-0.0010921507595262,0.001092153054717,-0.00109215407044,0.0010921501040905,0.6034192377828,128566,2924,0.0045575617190025,0.0063996404135855,0.0045575617176811,19.211756009412,-8.3905951924704e-05,-8.3905951924704e-05,-8.3905951924704e-05,2625189.6769984,0.015636593508006
18019200,0.98168444830186,0.015808211724178,0.0047904633111526,0.0062272851030138,0.0047904633100118,-0.0010964261039591,0.0010964256164922,5.6312028954515e-10,-1.060467948421e-09,1.5776742263284e-09,-2.1547457101153e-09,-0.001216127594667,0.0012161301377348,-0.0012161293385876,0.0012161283926364,-0.0012161300275798,0.0012161276734337,-0.0012161293059815,0.0012161282296121,-0.0010924692359657,0.0010924662412688,-0.0010924677379636,0.0010924673699863,6.9912579518686e-10,-1.4318245805654e-09,2.3136491190193e-10,-9.3550678761568e-10,-0.001541619062537,0.0015416183619982,-0.001644101967718,0.0016441034566548,-0.0016441032406801,0.0016441021074252,-0.0016441036727318,0.0016441017178628,-0.0016441032645056,0.0016441020700868,-0.0014253316745942,0.0014253281004461,-0.0014253292941589,0.0014253302339135,-0.0014253308722515,0.0014253287794834,-0.0014253297530678,0.0014253299047609,-3.1475432974334e-10,4.9976732756609e-10,-0.0010964257704733,0.0010964259478271,2.6813728589586e-09,-2.557548607255e-09,-0.0012161273674715,0.0012161303570462,-0.0012161304300644,0.0012161272586011,-0.0012161282857377,0.0012161294145026,-0.0012161289238521,0.0012161286575221,-0.0010924665323129,0.0010924686028587,-0.0010924704019341,0.0010924650831154,0.60266014107464,128566,2924,0.0045589212616097,0.0064018469379997,0.0045589212570975,19.169563516026,-8.4243491871789e-05,-8.4243491871789e-05,-8.4243491871789e-05,2630525.2500159,0.015641596002331
18219200,0.98209595716178,0.015813834063929,0.0047921390261826,0.0062295560126866,0.0047921390250596,-0.0010940531316429,0.0010940526450277,6.0040053530078e-10,-1.0978116050779e-09,1.5665302959682e-09,-2.1430890935699e-09,-0.0012137492856962,0.0012137517556281,-0.0012137509608507,0.0012137500800333,-0.0012137516173632,0.0012137493915268,-0.0012137510257109,0.0012137498376913,-0.0010900442232997,0.0010900416047526,-0.0010900431092833,0.0010900423896708,7.1559504876835e-10,-1.4601316293339e-09,1.6958717228712e-10,-8.836429751372e-10,-0.0015392714036561,0.0015392707001836,-0.0016417991171707,0.0016418004994696,-0.0016418002640786,0.0016417992969825,-0.0016418007458477,0.0016417988429319,-0.0016418003945906,0.0016417991439567,-0.0014229669852676,0.0014229635575096,-0.001422964814109,0.001422965537272,-0.00142296611151,0.0014229643445931,-0.0014229652903252,0.0014229651228021,-2.5812369970404e-10,4.9260454902192e-10,-0.0010940527765159,0.0010940529995341,2.5677851741608e-09,-2.3878411650639e-09,-0.001213749085704,0.0012137519487268,-0.0012137519617143,0.0012137490466267,-0.0012137499322769,0.0012137510775448,-0.0012137505715877,0.00121375032734,-0.0010900418218992,0.0010900436686085,-0.0010900453480334,0.0010900405021692,0.61339062955926,128566,2924,0.0045490774285328,0.0063921289558892,0.0045490774272339,17.6863133893,-9.6109492885601e-05,-9.6109492885601e-05,-9.6109492885601e-05,2624395.9661895,0.015611730189177
18419200,0.98246769628118,0.01581895053268,0.0047936664499147,0.0062316176339756,0.0047936664487898,-0.0010920651573594,0.0010920646761713,4.0569561209371e-10,-8.9839591091906e-10,1.5396967353474e-09,-2.111603252323e-09,-0.0012117538105804,0.0012117557952394,-0.0012117550094198,0.0012117545925049,-0.0012117557759568,0.0012117537958087,-0.0012117554085132,0.0012117540238446,-0.0010880239166139,0.0010880219727726,-0.0010880234580875,0.0010880221167207,6.7928830467916e-10,-1.4321304696913e-09,4.0459807745352e-10,-1.1258215714532e-09,-0.0015373052093674,0.0015373045040173,-0.0016398601230861,0.0016398612952487,-0.0016398610729432,0.0016398602945814,-0.0016398613861263,0.0016398600092498,-0.001639861530177,0.0016398598113964,-0.0014209880162903,0.001420986133419,-0.0014209874022145,0.0014209865982591,-0.0014209875222738,0.0014209865664505,-0.0014209876863821,0.0014209863475331,-4.8208715924835e-10,6.7334892343476e-10,-0.0010920648284413,0.0010920650052524,2.7926888106856e-09,-2.6562199136395e-09,-0.0012117535526024,0.0012117560445329,-0.0012117562373628,0.0012117533373095,-0.0012117539222257,0.0012117556506097,-0.0012117550655987,0.001211754399728,-0.0010880222734985,0.0010880232740578,-0.0010880251691567,0.001088020745388,0.61738716246348,128566,2924,0.0045408309417459,0.0063839897296125,0.0045408309421033,16.427436315101,-0.00010618050947919,-0.00010618050947919,-0.00010618050947919,2616691.8784763,0.015586713139888
18619200,0.9828213646077,0.015823771957607,0.0047951057047377,0.0062335605492693,0.0047951057036001,-0.001091545703239,0.0010915452094956,5.9892796521325e-10,-1.1039387286422e-09,1.5927162575344e-09,-2.1779681730967e-09,-0.0012112531403373,0.0012112555878782,-0.0012112547725361,0.0012112539453459,-0.0012112554423799,0.0012112532325501,-0.0012112549058751,0.0012112536466919,-0.0010874960526497,0.0010874935293424,-0.001087495074576,0.0010874942105861,6.7678255140468e-10,-1.4286174006014e-09,-1.3550339217026e-10,-5.8510246358019e-10,-0.0015368809464922,0.0015368802408221,-0.0016394590672849,0.0016394601879013,-0.0016394599795477,0.0016394592411277,-0.0016394606363329,0.0016394585949928,-0.0016394601249361,0.001639459067032,-0.0014205441663556,0.0014205402902819,-0.0014205415492518,0.001420542765109,-0.0014205429618335,0.0014205414437593,-0.0014205421786639,0.0014205421696318,-2.9747999307644e-10,4.7170823114377e-10,-0.0010915453769182,0.0010915455357713,2.8446010427437e-09,-2.7300877290873e-09,-0.0012112528821401,0.0012112558334448,-0.0012112559158443,0.0012112527734132,-0.001211253684147,0.0012112550081238,-0.0012112545585063,0.0012112540146492,-0.001087493883135,0.0010874953605013,-0.0010874973228712,0.0010874922938323,0.61178946395925,128566,2924,0.0045386764046979,0.0063822331202893,0.0045386764046264,15.967790987424,-0.00010985767210061,-0.00010985767210061,-0.00010985767210061,2614450.1384774,0.015580552859222
18819200,0.98316412614143,0.015828756760107,0.0047966026898584,0.0062355513815415,0.0047966026887072,-0.0010915609938209,0.0010915604962711,5.6716106817015e-10,-1.0752829440836e-09,1.606969443238e-09,-2.195734184769e-09,-0.0012112904602089,0.0012112928499352,-0.0012112920417996,0.0012112912773562,-0.0012112927548805,0.0012112905511113,-0.0012112922104176,0.0012112909208834,-0.0010875107358772,0.0010875082462322,-0.0010875097768817,0.0010875088405518,6.6502281512714e-10,-1.3937487241097e-09,-3.3870382194838e-10,-3.6064317283392e-10,-0.0015370078835699,0.0015370071911934,-0.0016396131754064,0.0016396141131718,-0.0016396139085656,0.001639613322869,-0.0016396146849437,0.0016396125765921,-0.0016396140804379,0.0016396131344363,-0.0014206508417354,0.0014206466731812,-0.0014206478913929,0.0014206494284611,-0.0014206493599962,0.0014206480438783,-0.0014206486723525,0.0014206487043766,-3.7253045426468e-10,4.6977590980997e-10,-0.0010915607014319,0.0010915607872464,3.0899971311205e-09,-3.0610593199853e-09,-0.0012112901436942,0.0012112931655441,-0.0012112933416167,0.0012112899434758,-0.0012112908782172,0.0012112924022914,-0.0012112920072676,0.0012112911795312,-0.0010875087293263,0.0010875099127782,-0.0010875121063193,0.0010875068814023,0.64923264287814,128566,2924,0.0045387400191887,0.0063827584420174,0.0045387400162257,15.79129986797,-0.00011126960105624,-0.00011126960105624,-0.00011126960105624,2615026.9627818,0.015581215513163
19019200,0.98350834904974,0.015834079013445,0.0047982088113895,0.0062376613918068,0.0047982088102484,-0.0010926261227341,0.0010926256282886,1.4258072664638e-10,-6.467024429703e-10,1.603549369752e-09,-2.1887351132329e-09,-0.0012124416608576,0.0012124439437095,-0.0012124431251601,0.0012124424685697,-0.0012124441146623,0.0012124414644733,-0.001212443119025,0.0012124422848864,-0.0010886214241443,0.0010886175916989,-0.001088619090672,0.0010886195112062,6.1488489704141e-10,-1.3403253120406e-09,2.8062173237517e-10,-9.7796401604708e-10,-0.0015383013746639,0.0015383006836344,-0.0016409137045165,0.00164091517086,-0.0016409149943044,0.0016409138039307,-0.0016409153513784,0.0016409134905265,-0.0016409149642458,0.0016409138238866,-0.0014219162753704,0.0014219128705275,-0.0014219140181454,0.0014219149029282,-0.0014219156670862,0.0014219133683922,-0.0014219143821101,0.001421914660722,-9.4564323898897e-10,7.6260167022995e-10,-0.00109262597184,0.0010926257774176,4.1301705688889e-09,-4.4074906177633e-09,-0.0012124410907071,0.0012124445009448,-0.0012124452331911,0.0012124403286959,-0.0012124417145486,0.0012124438529323,-0.0012124434381693,0.0012124420165916,-0.0010886185844932,0.0010886200639179,-0.0010886233265301,0.0010886156716367,0.68719397492059,128566,2924,0.0045431600601199,0.0063881110713358,0.0045431600564184,16.171747126545,-0.00010822602298764,-0.00010822602298764,-0.00010822602298764,2614358.2064229,0.015595630680821
19219200,0.98387470837982,0.015839917114681,0.0047999737251055,0.0062399696656035,0.0047999737239721,-0.0010954416476793,0.0010954411399369,5.9307791055709e-10,-1.111342172407e-09,1.6531736878091e-09,-2.2537459839013e-09,-0.0012154219876355,0.0012154242922473,-0.0012154234436819,0.001215422821033,-0.001215424161083,0.0012154220671987,-0.0012154237936237,0.0012154223014845,-0.0010915306439514,0.0010915285911278,-0.001091530182443,0.0010915287295759,6.0510744079481e-10,-1.3461366469201e-09,-1.0235600511195e-09,3.1288131298478e-10,-0.0015415208564453,0.0015415201587345,-0.0016441248891125,0.0016441252014182,-0.0016441250473895,0.0016441250205344,-0.0016441262334912,0.0016441238341686,-0.0016441253172429,0.0016441247260477,-0.0014250936083425,0.0014250885659111,-0.0014250897828999,0.0014250922858337,-0.0014250913373882,0.0014250907966554,-0.0014250909410089,0.0014250911524972,-4.2181390199616e-10,3.8387285025032e-10,-0.0010954414209256,0.0010954413666412,3.696467223699e-09,-3.8162888917807e-09,-0.0012154215302414,0.0012154247346485,-0.0012154250353018,0.001215421201251,-0.00121542214622,0.0012154240952971,-0.001215423841339,0.0012154222814191,-0.0010915293763174,0.0010915295114158,-0.001091532321088,0.0010915269365848,0.70678359193864,128566,2924,0.0045548424557782,0.0064014345631062,0.0045548424556885,17.484203731604,-9.7726370147166e-05,-9.7726370147166e-05,-9.7726370147166e-05,2616965.5754212,0.015632894496581
19419200,0.98424991969855,0.015845765737083,0.0048017368393602,0.0062422920595082,0.0048017368382148,-0.0010971821831299,0.0010971816802925,1.2540363614783e-09,-1.76730872802e-09,1.6336016560264e-09,-2.2282323517371e-09,-0.0012173479046689,0.0012173501995096,-0.0012173493717599,0.0012173487358566,-0.0012173496325682,0.0012173484313575,-0.0012173501413559,0.0012173477963197,-0.0010933528687068,0.0010933534159755,-0.0010933550153,0.001093350997625,6.5413977506713e-10,-1.3923521020696e-09,-1.8944224532239e-09,1.1860688439404e-09,-0.0015436605399459,0.0015436598424145,-0.0016462554249541,0.0016462547618551,-0.0016462545874295,0.0016462555943025,-0.0016462563633599,0.0016462537989621,-0.0016462553245293,0.0016462548337683,-0.0014271904143918,0.0014271849113283,-0.0014271861694465,0.0014271890622014,-0.0014271869310162,0.001427188354003,-0.0014271879126133,0.0014271873294275,3.8644015656995e-10,-1.1175770824637e-10,-0.0010971818014316,0.0010971820612895,2.5501686089819e-09,-2.3339234832204e-09,-0.0012173477273342,0.0012173503717292,-0.0012173499304268,0.0012173481425798,-0.0012173483393286,0.0012173497348426,-0.001217349606709,0.0012173483569513,-0.0010933536057316,0.0010933523682219,-0.001093353973388,0.001093352361882,0.69265168238064,128566,2924,0.0045620660349922,0.0064102872858346,0.0045620660335281,18.221431350357,-9.1828549197145e-05,-9.1828549197145e-05,-9.1828549197145e-05,2615225.5142302,0.015656562046389
19619200,0.98462188768567,0.015851417376587,0.0048034360223179,0.0062445453330989,0.0048034360211702,-0.0010979678905877,0.0010979674027606,1.1174416111005e-09,-1.6158057956235e-09,1.5770268436055e-09,-2.1554135736537e-09,-0.0012182781269821,0.0012182803618364,-0.0012182795593943,0.001218278928187,-0.00121827987274,0.0012182785714267,-0.0012182802244012,0.0012182780936003,-0.0010941953569396,0.0010941954814074,-0.0010941970238393,0.0010941935452775,7.0184212196964e-10,-1.447550835198e-09,-8.3948796127785e-10,1.2433788515119e-10,-0.0015447760329557,0.0015447753295145,-0.0016473665996019,0.0016473667258044,-0.0016473665118908,0.0016473667877667,-0.00164736763522,0.0016473656648714,-0.0016473672185196,0.0016473660551521,-0.0014282708246571,0.0014282671664331,-0.0014282684298567,0.0014282693997023,-0.001428268651441,0.0014282692809352,-0.0014282695317355,0.0014282683284681,2.4789997833686e-10,5.0872377168724e-11,-0.0010979675039206,0.0010979677889019,2.4078096444799e-09,-2.1621209515677e-09,-0.0012182779811045,0.0012182805000238,-0.0012182801339282,0.0012182783202502,-0.0012182785567063,0.0012182799003839,-0.0012182796474865,0.0012182786952212,-0.0010941955727933,0.0010941949524363,-0.0010941964365613,0.0010941944526263,0.67639366640374,128566,2924,0.0045653281349578,0.0064149011507264,0.0045653281338657,18.45583033713,-8.9953357302958e-05,-8.9953357302958e-05,-8.9953357302958e-05,2612356.4164884,0.015667876779362
19819200,0.98498748367634,0.015856808649498,0.0048050524384706,0.0062467037737089,0.0048050524373183,-0.0010984881949114,0.0010984877191628,6.703470703645e-11,-5.5233536812228e-10,1.5366234437067e-09,-2.1004128079481e-09,-0.0012189106959372,0.0012189130639035,-0.0012189122891071,0.0012189114782577,-0.0012189132765277,0.0012189104587227,-0.0012189120509598,0.0012189115237542,-0.0010947561898046,0.0010947516954315,-0.0010947531618639,0.001094754378974,7.4919144342155e-10,-1.4873859813793e-09,4.7753757161381e-10,-1.1866041701748e-09,-0.0015455833367868,0.0015455826335147,-0.0016481766312377,0.0016481784984287,-0.0016481782476387,0.0016481768091554,-0.0016481785512451,0.0016481765461747,-0.0016481781255222,0.0016481769144323,-0.0014290463817449,0.0014290427289451,-0.0014290439463236,0.0014290448757209,-0.0014290458340754,0.0014290431492278,-0.0014290442679221,0.0014290446736248,-8.4399332421012e-10,1.0862173880939e-09,-0.0010984878382734,0.0010984880736299,2.4886303228166e-09,-2.307249433609e-09,-0.0012189105266926,0.0012189132296319,-0.0012189136117199,0.0012189101128442,-0.0012189112522662,0.001218912479894,-0.0012189115621134,0.0012189120562426,-0.001094751812321,0.0010947557463896,-0.0010947573314523,0.0010947505738637,0.6578730586814,128566,2924,0.004567488579825,0.0064182401631671,0.0045674885752711,18.558026415707,-8.9135788674345e-05,-8.9135788674345e-05,-8.9135788674345e-05,2610972.3811494,0.015675658235106
20019200,0.98534102498758,0.015862216593018,0.0048066787588896,0.0062488590763785,0.0048066787577503,-0.0010985260093188,0.0010985255393546,9.6702811575633e-10,-1.4477038891526e-09,1.5065588308071e-09,-2.0653783863433e-09,-0.0012190210898411,0.0012190230875223,-0.0012190223190102,0.0012190218559682,-0.001219022684731,0.0012190214451852,-0.0012190230280062,0.0012190209758533,-0.001094814451123,0.001094814631229,-0.001094816093363,0.0010948127015296,7.6983702788959e-10,-1.5263505319213e-09,7.3864977681517e-10,-1.4631331491102e-09,-0.0015458425979759,0.0015458418865998,-0.0016484480365492,0.0016484491337552,-0.0016484488645105,0.0016484482548711,-0.001648449020574,0.001648448128505,-0.0016484497186439,0.0016484473663849,-0.0014292811366497,0.0014292807702542,-0.0014292820719414,0.001429279641699,-0.0014292809387118,0.0014292808882414,-0.0014292822052412,0.0014292795593504,1.4182669108054e-10,2.8969953489277e-10,-0.0010985255638113,0.0010985259847168,1.8379531380874e-09,-1.4408918934798e-09,-0.001219021081034,0.0012190230879381,-0.0012190227050942,0.0012190214360824,-0.0012190214461414,0.0012190226998363,-0.0012190222006836,0.0012190218269296,-0.0010948143892393,0.0010948143642197,-0.0010948152989609,0.0010948138239124,0.68048787113681,128566,2924,0.0045676468122388,0.0064193115913763,0.0045676468119482,18.401409170753,-9.0388726633974e-05,-9.0388726633974e-05,-9.0388726633974e-05,2609634.0816959,0.015677068550469
20219200,0.98568527984401,0.0158676373112,0.0048083125490753,0.0062510122141989,0.0048083125479257,-0.0010987616142576,0.0010987611468972,9.863753105106e-10,-1.4638016008344e-09,1.5091542904146e-09,-2.0645837773828e-09,-0.0012193511007245,0.0012193530495007,-0.001219352268016,0.0012193518541129,-0.0012193526023137,0.0012193514486471,-0.0012193530344375,0.0012193508988443,-0.0010950917379768,0.0010950921308067,-0.0010950935944759,0.0010950899897468,7.6621572910602e-10,-1.5318519680915e-09,9.7340823851708e-10,-1.7070349408425e-09,-0.0015463311373235,0.0015463304112548,-0.0016489357480784,0.0016489369098388,-0.0016489366643934,0.001648935920911,-0.0016489366692608,0.0016489359543823,-0.0016489375760113,0.0016489349784602,-0.0014297462428712,0.0014297465900516,-0.0014297478603965,0.0014297447569685,-0.0014297463355466,0.0014297464265644,-0.0014297478590606,0.0014297448802449,1.6130344180896e-10,2.8702354321693e-10,-0.0010987611614766,0.0010987615995822,1.6709820635861e-09,-1.2522736095203e-09,-0.00121935114433,0.001219352983861,-0.001219352562856,0.0012193515079007,-0.0012193514546844,0.0012193526509001,-0.0012193521312834,0.0012193518141422,-0.0010950918050066,0.001095091722183,-0.0010950925245717,0.0010950913875064,0.69909042498932,128566,2924,0.0045686261468182,0.0064213313684767,0.0045686261466464,18.352476521066,-9.0780187831474e-05,-9.0780187831474e-05,-9.0780187831474e-05,2606216.180663,0.015681110530353
20419200,0.98602707953962,0.015873026801369,0.0048099366855529,0.0062531534314263,0.0048099366843894,-0.0010995702246088,0.001099569748648,6.1207404178611e-10,-1.0980708199662e-09,1.5334784913729e-09,-2.0985707287518e-09,-0.0012202832304682,0.0012202854763969,-0.0012202847005411,0.0012202840121147,-0.0012202853204794,0.0012202833546589,-0.0012202849525278,0.0012202835762288,-0.0010959598640703,0.0010959578901648,-0.0010959593628556,0.001095958067438,7.4660567200333e-10,-1.4898372550828e-09,8.3997666605414e-10,-1.5528046210612e-09,-0.0015474516536329,0.0015474509486872,-0.0016500468781959,0.0016500484997254,-0.0016500482433669,0.0016500470634596,-0.0016500483163075,0.0016500470328472,-0.0016500486037864,0.0016500466806241,-0.0014308389140475,0.0014308374103751,-0.0014308386486997,0.0014308374133316,-0.0014308388558207,0.0014308373548994,-0.0014308387224936,0.0014308374373666,-2.3552896285848e-10,6.4357446045616e-10,-0.0010995697862043,0.0010995701858645,1.8442671319639e-09,-1.4746636071889e-09,-0.00122028323496,0.0012202854678176,-0.001220285343467,0.0012202833299462,-0.0012202838260053,0.0012202848524186,-0.0012202841304275,0.0012202844337088,-0.0010959576627926,0.0010959597623371,-0.0010959607121694,0.0010959570686064,0.6999878278301,128566,2924,0.0045719829187651,0.0064259665053798,0.0045719829162798,18.615711747324,-8.8674306021408e-05,-8.8674306021408e-05,-8.8674306021408e-05,2603797.665474,0.01569263895813
20619200,0.98635606352131,0.015877663385724,0.0048113198272848,0.0062550237323122,0.0048113198261266,-0.0010994226628261,0.0010994221861965,4.9648474438443e-10,-9.8277621952993e-10,1.5379159227536e-09,-2.1029801033426e-09,-0.0012202541539633,0.0012202565094391,-0.0012202557343671,0.0012202549381277,-0.0012202564353825,0.0012202542042705,-0.001220255800174,0.0012202546824431,-0.0010958421793065,0.0010958394313991,-0.0010958409007982,0.0010958403688813,7.4254461236003e-10,-1.4780456608373e-09,7.493051902996e-10,-1.4552219580857e-09,-0.0015475664688803,0.0015475657680633,-0.0016501580444662,0.0016501597770141,-0.0016501595253821,0.0016501582204306,-0.0016501596540398,0.001650158137938,-0.0016501597033782,0.0016501580226734,-0.001430923555582,0.0014309212982791,-0.0014309225228907,0.0014309220639564,-0.0014309233755964,0.0014309213534101,-0.0014309226606914,0.0014309220378609,-3.6427838745524e-10,7.5891377064734e-10,-0.0010994222298506,0.0010994226174122,1.8612846479728e-09,-1.507811976199e-09,-0.0012202541577554,0.0012202565032757,-0.0012202564708258,0.0012202541600807,-0.0012202548522858,0.0012202557839755,-0.0012202549923877,0.0012202555321734,-0.0010958392132547,0.0010958420685952,-0.0010958430388013,0.0010958385916227,0.6309950777283,128566,2924,0.0045713731597804,0.0064264386892972,0.0045713731560902,18.385573949565,-9.051540840348e-05,-9.051540840348e-05,-9.051540840348e-05,2598966.7332488,0.015691881643896
20819200,0.9866640321981,0.015882345229478,0.0048127264006137,0.0062568924294007,0.0048127263994635,-0.0010984384842771,0.0010984380077512,7.4637729803331e-10,-1.2335690731454e-09,1.5317575016281e-09,-2.0979188307845e-09,-0.0012192728345101,0.0012192748240957,-0.0012192740420231,0.0012192736131032,-0.0012192745700354,0.0012192730438889,-0.0012192746503808,0.0012192728344452,-0.0010948403102126,0.0010948396538988,-0.0010948411387559,0.0010948385319639,7.3964253389889e-10,-1.4928521880963e-09,9.0268163904849e-10,-1.6240403811517e-09,-0.0015466756491753,0.0015466749409954,-0.0016492928846324,0.0016492941908755,-0.0016492939347224,0.0016492930841797,-0.001649293967749,0.0016492930857979,-0.00164929464875,0.0016492923381083,-0.0014300215925487,0.0014300212121422,-0.0014300224893005,0.0014300201146924,-0.0014300216508001,0.001430021075612,-0.0014300224958438,0.0014300201615394,-1.2111270242096e-10,5.1404799785748e-10,-0.0010984380553796,0.0010984384366207,1.9467566719788e-09,-1.5896239926968e-09,-0.0012192728197178,0.0012192748300691,-0.001219274646695,0.0012192729767296,-0.0012192731459683,0.001219274480381,-0.0012192738635919,0.0012192736467902,-0.0010948394590174,0.0010948401730646,-0.0010948412312942,0.0010948387703455,0.67643099373572,128566,2924,0.0045672905874072,0.0064227512657191,0.0045672905873642,17.70523318574,-9.5958134514083e-05,-9.5958134514083e-05,-9.5958134514083e-05,2597867.550335,0.015679842367227
21019200,0.98694758432842,0.015886514760375,0.0048139756242797,0.0062585635129735,0.0048139756231214,-0.0010969200102599,0.001096919534942,6.5781283268678e-10,-1.1434451779988e-09,1.5286684275414e-09,-2.093301483606e-09,-0.0012177982567593,0.0012178004521382,-0.0012177996761067,0.0012177990351358,-0.0012178002615688,0.0012177984118353,-0.001217800008529,0.0012177985241275,-0.0010933214553483,0.0010933198315618,-0.001093321303771,0.0010933196688304,7.5036023983327e-10,-1.4990053620622e-09,8.5634190610729e-10,-1.5738331737122e-09,-0.0015452600898018,0.0015452593824913,-0.0016478796335812,0.0016478811821739,-0.0016478809212542,0.0016478798285128,-0.0016478809888338,0.0016478798006115,-0.001647881373377,0.0016478793501312,-0.0014285951021031,0.0014285938197545,-0.001428595082849,0.0014285936061889,-0.0014285950690023,0.0014285937496025,-0.0014285951412065,0.0014285936251354,-2.119637388996e-10,6.1470990612991e-10,-0.0010969195755932,0.0010969199687257,1.8631220895461e-09,-1.4966448706469e-09,-0.0012177982643498,0.0012178004386881,-0.0012178003047694,0.0012177983704667,-0.0012177987942747,0.0012177998847265,-0.0012177991908225,0.0012177993741883,-0.0010933195930579,0.0010933213623699,-0.0010933223402347,0.0010933189761939,0.6560204679434,128566,2924,0.0045609929259534,0.0064168901939019,0.004560992924114,16.749581444571,-0.00010360334844343,-0.00010360334844343,-0.00010360334844343,2588729.1938891,0.015661097094014
21219200,0.98719499398647,0.015890176232264,0.0048150737696158,0.0062600286941926,0.0048150737684561,-0.0010937867298388,0.0010937862697143,6.7278300031983e-10,-1.139482899447e-09,1.5081932350169e-09,-2.0518788523919e-09,-0.0012146475065756,0.0012146497599518,-0.0012146489912551,0.0012146482575459,-0.0012146495277193,0.0012146476375416,-0.0012146491963212,0.0012146478159109,-0.0010901506304724,0.0010901488037415,-0.0010901502128504,0.0010901488278942,7.8457377916254e-10,-1.5225666566338e-09,1.186947812912e-09,-1.9003915797535e-09,-0.0015420796391666,0.0015420789149511,-0.0016447080787607,0.001644709859325,-0.0016447096340362,0.0016447081818146,-0.0016447095084841,0.0016447083733501,-0.001644710039988,0.001644707767902,-0.0014254211504283,0.0014254203179178,-0.0014254214011671,0.0014254195983832,-0.0014254213788409,0.001425419879948,-0.001425421373812,0.0014254199787102,-2.3349448815918e-10,5.9643117677243e-10,-0.0010937863131558,0.0010937866808532,1.6519695311707e-09,-1.3444087108939e-09,-0.0012146475702009,0.001214649676724,-0.001214649538861,0.001214647626301,-0.0012146481651467,0.0012146490620516,-0.0012146483327152,0.0012146487038451,-0.0010901484798281,0.0010901506162083,-0.0010901514464974,0.0010901479947088,0.65967490516012,128566,2924,0.0045479957205538,0.0064037245826151,0.0045479957089242,14.937485210279,-0.00011810011831777,-0.00011810011831777,-0.00011810011831777,2575093.6061066,0.015621323761225
21419200,0.98742066462795,0.015893539949668,0.0048160842059068,0.0062613715389959,0.0048160842047654,-0.0010918904695034,0.0010918899984411,3.6825950778512e-10,-8.5258761232533e-10,1.5076895710229e-09,-2.0709832554714e-09,-0.001212740539474,0.0012127436150791,-0.0012127428099748,0.0012127412965011,-0.0012127435720936,0.0012127404900014,-0.0012127420961714,0.0012127418788286,-0.0010882401688883,0.0010882348732013,-0.0010882363569569,0.0010882384523125,7.1222645550009e-10,-1.504522291112e-09,2.4035738729975e-09,-3.1585587352576e-09,-0.0015401810753339,0.0015401803530359,-0.0016428084184877,0.001642812042806,-0.0016428117787131,0.0016428086431873,-0.0016428108462953,0.001642809617403,-0.0016428111457477,0.0016428092166203,-0.0014235264608244,0.0014235250749825,-0.0014235264450772,0.0014235250216896,-0.0014235286112285,0.0014235229581343,-0.0014235253958583,0.001423526000894,-6.7439478056267e-10,7.5824025868407e-10,-0.0010918902052055,0.0010918902677828,3.2702566493747e-09,-3.2332974086647e-09,-0.0012127402023613,0.0012127439200362,-0.0012127443188863,0.0012127397839077,-0.0012127416113295,0.0012127424941217,-0.0012127419451214,0.0012127420321089,-0.0010882352846098,0.0010882393902187,-0.00108824180966,0.0010882332865435,0.66373847845139,128566,2924,0.0045401298959673,0.0063958652050786,0.0045401299065754,13.801400497505,-0.00012718879601996,-0.00012718879601996,-0.00012718879601996,2565671.6584248,0.015597363846041
21619200,0.9876348998913,0.015896762766911,0.0048170535872293,0.0062626555936311,0.004817053586051,-0.001091111080356,0.0010911105955931,6.4207717481945e-10,-1.137177141071e-09,1.5678775682915e-09,-2.1429942570553e-09,-0.0012119762710217,0.0012119785281098,-0.0012119777296329,0.0012119770671301,-0.0012119783534607,0.0012119764069942,-0.001211978040486,0.0012119765753935,-0.0010874607799527,0.0010874589692739,-0.0010874604742124,0.0010874589478826,7.0542164173542e-10,-1.450482120708e-09,4.2676942895748e-10,-1.140940034771e-09,-0.0015394595621164,0.0015394588576607,-0.001642087593447,0.0016420888790828,-0.0016420886520941,0.0016420877624994,-0.0016420889668077,0.0016420874809856,-0.0016420890253148,0.001642087363696,-0.0014228023608892,0.0014228001241754,-0.0014228013622622,0.0014228009130786,-0.0014228018284423,0.0014228005663269,-0.0014228016669698,0.0014228006828175,-3.2252620085294e-10,5.6669734123835e-10,-0.0010911107209418,0.0010911109536975,2.4754318947842e-09,-2.283484132164e-09,-0.0012119761377638,0.0012119786528762,-0.0012119786956577,0.0012119760652376,-0.0012119766963359,0.0012119780707325,-0.0012119775101502,0.0012119771398316,-0.0010874590375617,0.0010874603726818,-0.001087461973122,0.0010874577997248,0.66921247315023,128566,2924,0.0045368972667633,0.006392877988532,0.0045368972640482,13.269848752984,-0.00013144120997613,-0.00013144120997613,-0.00013144120997613,2560943.8061486,0.01558776380642
21819200,0.98784997821689,0.015899950137442,0.0048180113173969,0.0062639275038261,0.0048180113162191,-0.0010919158590957,0.0010919153586839,6.468389175739e-10,-1.1567983206549e-09,1.6243779769083e-09,-2.2163988776533e-09,-0.0012128333207774,0.0012128355567409,-0.0012128347298241,0.0012128341400838,-0.0012128353825378,0.0012128334423364,-0.0012128351368495,0.0012128335504413,-0.001088290160437,0.0010882884762108,-0.0010882900465393,0.0010882882777722,6.4061592709375e-10,-1.3874902435961e-09,-3.9259961005729e-10,-3.2459163859531e-10,-0.0015404227643313,0.0015404220580758,-0.0016430512274976,0.0016430518778515,-0.0016430517028088,0.0016430513638572,-0.0016430525018522,0.0016430505758702,-0.0016430520855534,0.0016430509511852,-0.0014237494555942,0.0014237458247225,-0.0014237470230034,0.0014237480609124,-0.001423747934561,0.0014237472586812,-0.001423747816569,0.0014237473400568,-3.9894090506302e-10,4.8540712978968e-10,-0.0010919155724175,0.0010919156444744,3.1252617840448e-09,-3.110625641861e-09,-0.0012128330386027,0.0012128358291077,-0.0012128360249112,0.0012128328034384,-0.0012128335391198,0.0012128352995942,-0.0012128348934909,0.001212833821451,-0.0010882888857638,0.0010882894114806,-0.0010882916587992,0.0010882870068739,0.65989247635033,128566,2924,0.0045402364955419,0.0063968641943764,0.0045402364937014,13.593162862479,-0.00012885469710017,-0.00012885469710017,-0.00012885469710017,2562904.8811576,0.015598595303339
22019200,0.98806771257664,0.01590312348364,0.0048189633039955,0.0062651968768287,0.0048189633028155,-0.0010929733723268,0.0010929728597991,5.84458747771e-10,-1.106023153521e-09,1.6635139042517e-09,-2.2684683107326e-09,-0.0012139459286036,0.0012139492095075,-0.0012139483607381,0.0012139467577162,-0.0012139490736425,0.0012139459941343,-0.0012139477309456,0.0012139472019259,-0.0010893680210558,0.0010893630419963,-0.0010893646615448,0.0010893661018185,6.2667975806944e-10,-1.3776295220696e-09,-8.7000439566879e-10,1.4829575596057e-10,-0.0015416502452659,0.0015416495336337,-0.0016442892842244,0.001644290667641,-0.0016442905121986,0.0016442894092734,-0.0016442916105587,0.0016442883090549,-0.0016442898167724,0.0016442900652209,-0.0014249563975965,0.0014249486765637,-0.0014249498779652,0.0014249550236053,-0.0014249542646655,0.0014249507213635,-0.0014249509733785,0.0014249539955791,-5.1815931113652e-10,4.9830804216004e-10,-0.001092973134835,0.0010929730968376,3.5829792423848e-09,-3.6861485255513e-09,-0.0012139455420247,0.0012139495833079,-0.0012139499250501,0.0012139451463314,-0.0012139470600783,0.0012139480275349,-0.001213947687418,0.0012139472692851,-0.0010893636829388,0.0010893670329787,-0.0010893697320114,0.0010893613623086,0.6498277124538,128566,2924,0.0045446238710756,0.0064019445840538,0.0045446238701633,14.052519131147,-0.00012517984695083,-0.00012517984695083,-0.00012517984695083,2567770.9123171,0.015612667258889
22219200,0.98828898546639,0.01590632190754,0.0048199219611792,0.0062664779863687,0.0048199219599921,-0.0010941622990606,0.0010941617952287,6.2872376246291e-10,-1.1423503220889e-09,1.650410849052e-09,-2.2460278442146e-09,-0.0012151839507104,0.001215186603277,-0.0012151857667675,0.001215184793359,-0.0012151864728064,0.001215184085654,-0.0012151857761655,0.0012151845941946,-0.0010905694620483,0.0010905665005538,-0.0010905680567871,0.0010905675143513,6.350631657268e-10,-1.3480419402441e-09,-1.0025176420095e-09,3.1827529008483e-10,-0.0015430075507802,0.0015430068700822,-0.001645665841167,0.0016456664974516,-0.0016456663182501,0.0016456659709954,-0.0016456675128154,0.0016456648048221,-0.0016456662868931,0.0016456659934203,-0.0014262876787515,0.0014262815955962,-0.0014262827890201,0.0014262863176557,-0.0014262853744056,0.0014262838220645,-0.0014262839818975,0.0014262851907744,-5.1240314519667e-10,4.4333862530288e-10,-0.001094162086249,0.0010941620062269,3.7003114259671e-09,-3.8543330007634e-09,-0.0012151835314767,0.0012151870178297,-0.0012151873907515,0.0012151831408254,-0.0012151844258053,0.0012151861016784,-0.0012151858327209,0.0012151846024749,-0.0010905671984416,0.0010905684241785,-0.0010905712405768,0.0010905647203442,0.64497825883662,128566,2924,0.0045495561586378,0.0064075627244785,0.0045495561548194,14.581919014113,-0.00012094464788709,-0.00012094464788709,-0.00012094464788709,2574359.0756739,0.015628392268359
22419200,0.98851025170414,0.015909661528481,0.0048209264225944,0.0062678086844663,0.0048209264214202,-0.0010949115594904,0.0010949110642244,6.5628351903494e-10,-1.1598043937308e-09,1.6183271263072e-09,-2.2032762793044e-09,-0.0012159696292843,0.0012159718368121,-0.0012159710115411,0.0012159704405115,-0.0012159716491119,0.0012159697479931,-0.0012159714294959,0.0012159698235508,-0.0010913259742785,0.0010913243970686,-0.0010913259427109,0.0010913240833478,6.5917873865966e-10,-1.4023101289764e-09,-7.2167884638309e-10,6.0981729402968e-12,-0.001543894557796,0.0015438938464341,-0.0016465756631643,0.0016465760570045,-0.0016465758898401,0.0016465757800022,-0.0016465769158048,0.0016465747647384,-0.0016465763144281,0.0016465753344221,-0.0014271513227639,0.0014271471311,-0.0014271482841765,0.0014271499092368,-0.0014271493071109,0.0014271490300063,-0.0014271493384416,0.0014271490104478,-4.7065573269853e-10,4.6017904309428e-10,-0.0010949113212899,0.0010949112998088,3.4234187416133e-09,-3.5227506275326e-09,-0.0012159692789912,0.001215972172776,-0.0012159724675279,0.0012159689314526,-0.0012159697345153,0.0012159716903406,-0.0012159713405015,0.0012159699390842,-0.0010913249311896,0.0010913250991113,-0.0010913276545549,0.0010913227356959,0.67139742587655,128566,2924,0.0045526644716979,0.0064112341413974,0.0045526644662264,14.87092641244,-0.00011863258870048,-0.00011863258870048,-0.00011863258870048,2579118.3088518,0.015638435103724
22619200,0.98872928671664,0.015913005906188,0.0048219330028325,0.0062691399016917,0.0048219330016634,-0.0010953782628612,0.0010953777769325,6.5500429455003e-10,-1.1508302017695e-09,1.5747475862867e-09,-2.1509337255688e-09,-0.0012164987318428,0.0012165011523667,-0.0012165003486792,0.0012164995301684,-0.0012165009699245,0.001216498875504,-0.0012165005137288,0.0012164991852822,-0.001091813998628,0.0010918117667133,-0.0010918132786089,0.001091812161613,7.0366491757861e-10,-1.4476464081606e-09,-2.2346087148259e-10,-4.901632715544e-10,-0.0015445197832297,0.0015445190795622,-0.0016472094925219,0.0016472105017265,-0.0016472102809115,0.0016472096683665,-0.0016472110156712,0.0016472089531622,-0.0016472105002452,0.0016472094222557,-0.0014277535586896,0.001427749596693,-0.0014277508482583,0.0014277521239981,-0.0014277521823609,0.0014277508937873,-0.0014277515705971,0.0014277514613774,-4.1525934034014e-10,5.4507975165466e-10,-0.0010953779609024,0.001095378078326,2.9891173325761e-09,-2.9256670363821e-09,-0.0012164984816426,0.0012165013934134,-0.0012165015722783,0.0012164982718612,-0.0012164991661933,0.0012165006831536,-0.0012165002123981,0.0012164995220398,-0.0010918120385176,0.0010918133884236,-0.0010918154846646,0.0010918103047032,0.67880651023625,128566,2924,0.004554601541614,0.006413820966754,0.0045546015404273,15.008042400316,-0.00011753566079747,-0.00011753566079747,-0.00011753566079747,2579065.8298665,0.015644997971593
22819200,0.98894531251117,0.015916294389378,0.0048229223420587,0.0062704497064331,0.0048229223408865,-0.0010957366172834,0.0010957361399918,6.6628376520892e-10,-1.1536306784717e-09,1.5441920917581e-09,-2.1109927715611e-09,-0.0012169240374843,0.0012169263921504,-0.0012169256040856,0.0012169248220984,-0.0012169261959622,0.0012169241927139,-0.0012169258013796,0.0012169244441389,-0.001092196104031,0.0010921940777788,-0.0010921955578257,0.0010921942987053,7.3756862131432e-10,-1.4855701471459e-09,2.6925164713524e-10,-9.8637813576621e-10,-0.0015450406979472,0.0015450399905525,-0.0016477347275316,0.0016477360253732,-0.0016477357808553,0.0016477349160448,-0.0016477362192294,0.0016477345064229,-0.001647736080333,0.001647734592117,-0.0014282522857975,0.0014282494352438,-0.0014282506961162,0.0014282508133514,-0.0014282515050069,0.0014282501312279,-0.0014282511275332,0.0014282504630423,-3.6375901754406e-10,6.0194634958181e-10,-0.0010957362644468,0.0010957364919776,2.5423645949774e-09,-2.3597573963172e-09,-0.0012169238975733,0.0012169265226916,-0.0012169265961795,0.0012169237942231,-0.001216924525511,0.0012169258719903,-0.001216925288058,0.0012169249899813,-0.0010921941028814,0.0010921957425596,-0.001092197394068,0.0010921928133575,0.67692181757901,128566,2924,0.0045560893588912,0.006415975726483,0.0045560893571076,15.090140837817,-0.00011687887329747,-0.00011687887329747,-0.00011687887329747,2577842.9427125,0.015650209571761
23019200,0.98915747535099,0.015919296075633,0.0048238195967493,0.0062716568833068,0.0048238195955768,-0.0010959590064075,0.00109595853403,7.2692963883896e-10,-1.2094396253207e-09,1.5255081487677e-09,-2.086644111043e-09,-0.001217210043229,0.0012172121917885,-0.001217211424831,0.0012172108296796,-0.0012172119802148,0.0012172102681836,-0.0012172118365412,0.0012172102286591,-0.0010924331277667,0.0010924319151384,-0.001092433356964,0.001092431315911,7.7100443840247e-10,-1.4950609939717e-09,4.7593254346984e-10,-1.1697654902908e-09,-0.0015454160743378,0.0015454153842985,-0.0016481169087025,0.0016481181370002,-0.0016481178572891,0.0016481171113949,-0.0016481181811354,0.0016481168414625,-0.0016481184093598,0.0016481165462569,-0.0014286036640416,0.0014286018694605,-0.001428603139258,0.0014286021658394,-0.0014286031047121,0.0014286023160033,-0.0014286034672295,0.0014286019144091,-2.4984048814936e-10,6.1873333886018e-10,-0.0010959585880541,0.0010959589507805,2.0085163854972e-09,-1.6808231249944e-09,-0.0012172100342936,0.001217212203302,-0.0012172121166929,0.0012172101064865,-0.0012172104613789,0.0012172117543,-0.0012172110837243,0.001217211044457,-0.0010924316589691,0.0010924330545719,-0.0010924341539788,0.0010924308968863,0.63260382301584,128566,2924,0.0045570130136455,0.0064175281984377,0.0045570130102597,15.108051372078,-0.00011673558902337,-0.00011673558902337,-0.00011673558902337,2576873.3262744,0.015653663449016
23219200,0.9893656147003,0.01592237499294,0.0048247437622725,0.0062728874695577,0.0048247437611102,-0.0010961526870477,0.0010961522144855,6.5628410504829e-10,-1.1388946570768e-09,1.5203265484407e-09,-2.0819701994748e-09,-0.0012174064153561,0.0012174088632144,-0.0012174080886883,0.0012174071876127,-0.0012174086667052,0.0012174065654193,-0.0012174081561867,0.0012174069413324,-0.0010926184149647,0.0010926160506611,-0.0010926175179584,0.0010926166432735,7.6046919636453e-10,-1.5159302146666e-09,9.3389395965117e-10,-1.6580085373302e-09,-0.0015456923683208,0.0015456916555801,-0.0016484204773091,0.001648422345936,-0.0016484220806852,0.001648420677946,-0.001648422102616,0.0016484206925335,-0.0016484222781721,0.0016484204499272,-0.0014288636373234,0.0014288617466146,-0.0014288630181648,0.0014288621309555,-0.001428863692985,0.001428861589455,-0.0014288630321898,0.0014288621959602,-3.2507260041696e-10,7.0414934958285e-10,-0.0010961522662825,0.0010961526345828,2.0057584439858e-09,-1.6676658990168e-09,-0.0012174064143087,0.0012174088565347,-0.0012174088132214,0.0012174064250125,-0.0012174071336246,0.0012174081119359,-0.0012174073706109,0.0012174077539626,-0.0010926157728454,0.0010926183581062,-0.0010926194678137,0.0010926150309469,0.65900389837922,128566,2924,0.0045578161036678,0.0064186723021322,0.0045578161022859,15.109149456732,-0.00011672680434615,-0.00011672680434615,-0.00011672680434615,2580739.0592651,0.015656456309464
23419200,0.98956908894146,0.015925352395565,0.0048256365665706,0.0062740792635905,0.004825636565404,-0.0010962415799932,0.0010962411061146,6.8406793293134e-10,-1.1681463547508e-09,1.5275448738321e-09,-2.0907077859005e-09,-0.001217531215496,0.0012175335325281,-0.0012175327553223,0.0012175319932302,-0.0012175333218914,0.001217531385676,-0.0012175329802878,0.0012175315874338,-0.0010927118177425,0.0010927099520645,-0.0010927114213288,0.00109271003368,7.5482302932165e-10,-1.5064052801763e-09,9.3733776815107e-10,-1.6577127343668e-09,-0.0015458918990659,0.0015458911890774,-0.0016486355406549,0.0016486372528903,-0.00164863699041,0.001648635735682,-0.0016486370068243,0.0016486357595702,-0.0016486373386969,0.0016486353597481,-0.0014290427599667,0.0014290413293573,-0.0014290425937408,0.0014290412576147,-0.0014290428249762,0.0014290411597988,-0.0014290426041261,0.0014290413297577,-2.96508251711e-10,6.9535243909908e-10,-0.0010962411479615,0.00109624153727,1.9066313382508e-09,-1.5459181152186e-09,-0.0012175312449539,0.0012175334963695,-0.0012175334203317,0.0012175312901308,-0.0012175318238419,0.0012175328931593,-0.0012175321442815,0.0012175324543582,-0.0010927096217647,0.0010927118136128,-0.001092712827062,0.0010927089721038,0.65256751637472,128566,2924,0.0045581853865941,0.0064194976377036,0.0045581853847707,15.055227769806,-0.00011715817784155,-0.00011715817784155,-0.00011715817784155,2580595.7172867,0.015658045027162
23619200,0.9897811398925,0.015928528310612,0.0048265909247452,0.0062753464622907,0.0048265909235762,-0.0010981998932738,0.0010981994123967,5.4186030213531e-10,-1.032029878253e-09,1.5705338674835e-09,-2.1404865703693e-09,-0.0012195449794971,0.001219546797619,-0.0012195459873401,0.0012195457672719,-0.0012195466749727,0.0012195450436751,-0.0012195466618839,0.0012195448898355,-0.0010947012144037,0.0010947002995649,-0.0010947017898372,0.0010946993654517,6.949895175473e-10,-1.4259282258127e-09,8.988453922432e-10,-1.6002152376994e-09,-0.0015480611549316,0.0015480604540398,-0.0016508225101538,0.0016508236931349,-0.0016508234861927,0.0016508226282215,-0.0016508234974004,0.0016508226787679,-0.0016508242201693,0.0016508218722118,-0.0014311798746722,0.0014311797055616,-0.0014311808867926,0.0014311784603857,-0.0014311799547879,0.0014311795335583,-0.0014311809082995,0.001431178587893,-5.768182006955e-10,7.1375437719813e-10,-0.0010981995874916,0.0010981997168665,2.8160498445514e-09,-2.7395928702338e-09,-0.0012195447973138,0.0012195469609802,-0.0012195472277537,0.0012195444798713,-0.0012195448496986,0.0012195468853986,-0.0012195462877513,0.0012195453089094,-0.0010947004415234,0.0010947007194859,-0.0010947026721111,0.0010946988543586,0.66669414927297,128566,2924,0.0045663093558765,0.006428476464258,0.0045663093531326,16.005203535605,-0.00010955837171516,-0.00010955837171516,-0.00010955837171516,2589049.1607211,0.015683667696623
23819200,0.99000570693023,0.015932076418202,0.004827661178624,0.0062767540621224,0.0048276611774557,-0.001100701697964,0.0011007012001129,7.2746731116895e-10,-1.2348927419216e-09,1.6149674413128e-09,-2.2044654762106e-09,-0.0012221397770581,0.0012221423671289,-0.0012221415476196,0.0012221405965323,-0.0012221421437477,0.0012221399582682,-0.0012221416458807,0.0012221403224403,-0.0010972536307748,0.0010972512022892,-0.0010972527584037,0.0010972517561285,6.5118781007116e-10,-1.3996856430938e-09,-1.3833799663387e-10,-5.8033961314083e-10,-0.0015508440970022,0.0015508433913503,-0.001653621342409,0.0016536224827831,-0.0016536222905268,0.0016536214943376,-0.0016536229370157,0.0016536208590824,-0.0016536223703128,0.00165362138608,-0.0014339261237629,0.0014339220878432,-0.0014339232930809,0.0014339247025461,-0.001433924918493,0.0014339231929459,-0.0014339239304459,0.0014339241360136,-3.8910058186748e-10,5.3322920560717e-10,-0.0011007013834437,0.0011007015135537,2.9394054417109e-09,-2.8631115165647e-09,-0.0012221395711886,0.0012221425669115,-0.0012221427220517,0.0012221393860635,-0.0012221403638753,0.0012221417457778,-0.0012221412702861,0.0012221407234777,-0.001097251411511,0.0010972530832907,-0.0010972551300995,0.0010972497289094,0.70079570301663,128566,2924,0.0045766883446225,0.0064399945854874,0.0045766883423765,17.237748035064,-9.9698015719491e-05,-9.9698015719491e-05,-9.9698015719491e-05,2598486.4267863,0.015716451861989
24019200,0.9902268259871,0.015935610004655,0.004828726992478,0.0062781560208712,0.0048287269913062,-0.0011011075503148,0.0011011070606648,4.8815300439315e-10,-9.877645742806e-10,1.5913034223555e-09,-2.171532969276e-09,-0.0012226546372502,0.0012226561474289,-0.0012226553334368,0.0012226554425109,-0.0012226560795029,0.0012226546686072,-0.0012226563186085,0.001222654274204,-0.0010976970764791,0.0010976968874014,-0.0010976984018631,0.0010976952098031,6.9567161235683e-10,-1.4392828183685e-09,4.8616498316995e-10,-1.1993769245053e-09,-0.0015514721393709,0.0015514714358892,-0.0016542516678329,0.0016542523297683,-0.0016542521046759,0.0016542518278971,-0.0016542523771494,0.0016542515929383,-0.0016542531277404,0.0016542507809266,-0.0014345232567582,0.0014345230498217,-0.0014345242756816,0.0014345218096217,-0.0014345228146124,0.0014345233975817,-0.0014345245465118,0.001434521625047,-6.7954017040028e-10,7.4850850031165e-10,-0.0011011072764822,0.0011011073336315,3.181312817783e-09,-3.1813834438231e-09,-0.0012226543695275,0.0012226564040413,-0.0012226567985757,0.0012226539444664,-0.0012226540892867,0.0012226566592325,-0.0012226560917971,0.0012226545404745,-0.0010976971998767,0.001097696413188,-0.0010976987216518,0.0010976952536744,0.70866616752043,128566,2924,0.0045783740361289,0.0064425915865823,0.0045783740343219,17.342688789365,-9.8858489685084e-05,-9.8858489685084e-05,-9.8858489685084e-05,2595346.1351735,0.015722515880928
24219200,0.99044411138546,0.015938932083523,0.0048297251664877,0.0062794817517213,0.0048297251653144,-0.0011014365812017,0.0011014360974494,7.0774947912526e-10,-1.2020147256279e-09,1.5611997481124e-09,-2.1352888616851e-09,-0.0012230860650591,0.0012230884072336,-0.0012230876100533,0.001223086856001,-0.0012230881864199,0.001223086245362,-0.0012230878834782,0.0012230864224714,-0.0010980688501789,0.001098067027717,-0.0010980685336834,0.001098067037963,7.2139034643186e-10,-1.4598778185583e-09,2.4857407829136e-10,-9.5541984475604e-10,-0.0015520256715957,0.0015520249756645,-0.0016547970896836,0.0016547983248876,-0.0016547980796641,0.0016547972926321,-0.0016547985259567,0.0016547968629634,-0.0016547984043332,0.0016547969354002,-0.0014350522026192,0.0014350495075686,-0.0014350507712303,0.0014350507670294,-0.0014350514236174,0.0014350502013343,-0.0014350511840484,0.0014350503827777,-3.855983826238e-10,6.2760836660826e-10,-0.0011014362253996,0.0011014364532694,2.6000792665396e-09,-2.412164296054e-09,-0.0012230859358102,0.0012230885277588,-0.0012230886215115,0.0012230858225877,-0.0012230864965767,0.0012230879406368,-0.0012230873492698,0.0012230869789466,-0.0010980670139073,0.0010980685246693,-0.0010980702245438,0.0010980656819829,0.68010473121743,128566,2924,0.0045797411845135,0.0064448800490206,0.0045797411845716,17.41801713905,-9.8255862887604e-05,-9.8255862887604e-05,-9.8255862887604e-05,2591301.2322599,0.015727619275757
24419200,0.99065758180909,0.015942192754718,0.0048307047828462,0.0062807831902056,0.0048307047816664,-0.0011017562875361,0.0011017558098146,6.2767450326154e-10,-1.1156668746854e-09,1.5443642921538e-09,-2.1117516349665e-09,-0.0012234688154615,0.00122347078321,-0.0012234699959525,0.0012234696005109,-0.0012234706147199,0.0012234689477768,-0.0012234705556405,0.0012234688609225,-0.0010984108197947,0.0010984097672767,-0.0010984112449428,0.0010984090111069,7.3970919921525e-10,-1.4869884894635e-09,5.4319376527392e-10,-1.2593775671151e-09,-0.0015525261234849,0.0015525254171902,-0.0016553036215955,0.001655304743142,-0.0016553044910458,0.0016553038128921,-0.0016553047545443,0.0016553035829829,-0.0016553051499196,0.0016553031272398,-0.0014355297411266,0.0014355284806273,-0.0014355297422713,0.0014355282608387,-0.0014355293149439,0.0014355288117239,-0.001435529996627,0.0014355280805117,-4.7528224006043e-10,7.2354559922364e-10,-0.0011017559300263,0.00110175616659,2.5198420343202e-09,-2.3253518387703e-09,-0.0012234687078225,0.0012234708832726,-0.001223471025994,0.0012234685363101,-0.0012234688958352,0.0012234706702754,-0.0012234700032925,0.0012234694478773,-0.0010984096999314,0.0010984105461288,-0.0010984121706299,0.0010984084376696,0.67934993437562,128566,2924,0.0045810686056408,0.0064469500389939,0.0045810686041167,17.49164025393,-9.7666877968556e-05,-9.7666877968556e-05,-9.7666877968556e-05,2590986.0264377,0.015732419137741
24619200,0.99086639659036,0.015945534676455,0.0048317125464205,0.0062821095847944,0.0048317125452405,-0.0011019548415472,0.0011019543652694,6.9084790057453e-10,-1.1778901988963e-09,1.5315950947201e-09,-2.0981533910306e-09,-0.001223721723017,0.0012237239007274,-0.0012237231221081,0.0012237225063605,-0.0012237236920234,0.0012237219024363,-0.001223723506474,0.0012237219546674,-0.0010986314314055,0.0010986299988779,-0.0010986314752415,0.0010986296474552,7.4705002089936e-10,-1.5014480589101e-09,5.7569015911963e-10,-1.2979794989702e-09,-0.0015528899932904,0.0015528892861541,-0.001655674011973,0.001655675352802,-0.0016556750858728,0.0016556742305679,-0.0016556753327972,0.0016556740082263,-0.0016556755727832,0.0016556737125803,-0.0014358750763365,0.0014358733716829,-0.0014358746673925,0.001435873583627,-0.0014358746985242,0.0014358736614408,-0.001435874888677,0.0014358733942485,-3.8540313513995e-10,7.070651901732e-10,-0.0011019544492457,0.0011019547573686,2.2951569595303e-09,-2.0193889189472e-09,-0.0012237216714438,0.0012237239483795,-0.001223723991063,0.0012237216097733,-0.0012237220688421,0.0012237235258029,-0.0012237228297771,0.0012237226600919,-0.0010986297983702,0.0010986312963308,-0.0010986326843051,0.0010986287757735,0.70944812601074,128566,2924,0.0045818933434013,0.0064484548812802,0.0045818933429962,17.497787481586,-9.761770014731e-05,-9.761770014731e-05,-9.761770014731e-05,2590156.7128529,0.015735623627158
24819200,0.991070525046,0.015948561818756,0.0048326193200209,0.0062833231798973,0.0048326193188375,-0.0011021162427584,0.0011021157678784,7.2464275833762e-10,-1.2099305283263e-09,1.5319793462241e-09,-2.096482239142e-09,-0.00122397477921,0.0012239770680058,-0.0012239762883986,0.0012239755599584,-0.0012239768336069,0.0012239749787513,-0.0012239765767078,0.0012239750937388,-0.0010988260281431,0.001098824391693,-0.0010988258618752,0.0010988242367414,7.502292754812e-10,-1.4996603682875e-09,6.1644467892056e-10,-1.3344610590718e-09,-0.001553256022905,0.0015532553156538,-0.0016560335388202,0.0016560349839967,-0.0016560347234676,0.0016560337396754,-0.0016560349454669,0.0016560335508725,-0.0016560351242268,0.0016560333114212,-0.0014362176399512,0.001436215745117,-0.0014362170184233,0.0014362161487853,-0.001436217297253,0.0014362159912438,-0.0014362172287822,0.0014362160056404,-3.5745143304526e-10,6.8836667686135e-10,-0.0011021158452553,0.0011021161646331,2.2005966813996e-09,-1.9152172506712e-09,-0.0012239747562394,0.0012239770849593,-0.0012239770966278,0.0012239747174429,-0.0012239752587818,0.0012239765577146,-0.0012239758615572,0.0012239758416535,-0.0010988241401389,0.0010988259430312,-0.0010988272449382,0.0010988232005987,0.66112595031981,128566,2924,0.0045825648333651,0.0064499675238076,0.0045825648318154,17.493844975674,-9.7649240194606e-05,-9.7649240194606e-05,-9.7649240194606e-05,2586467.3460607,0.01573852561479
25019200,0.99128160800789,0.015951654714204,0.004833545009296,0.0062845646967954,0.0048335450081126,-0.0011039501217462,0.0011039496349788,7.0194085230093e-10,-1.1985350045929e-09,1.5788316501739e-09,-2.1562143987184e-09,-0.0012258654297971,0.0012258673869918,-0.0012258665863174,0.0012258662343682,-0.0012258671767417,0.001225865605054,-0.0012258672496679,0.0012258653898732,-0.0011006878494725,0.0011006871384227,-0.0011006886551964,0.0011006860099849,7.1107327443486e-10,-1.4545960070905e-09,-5.1115079645874e-11,-6.620928995164e-10,-0.0015553249355105,0.0015553242314399,-0.0016581193995669,0.0016581200354679,-0.0016581198078714,0.0016581195768667,-0.0016581204340628,0.0016581189721808,-0.0016581205252641,0.0016581188357456,-0.0014382552134629,0.0014382530405617,-0.0014382542809312,0.0014382537594068,-0.0014382540404139,0.0014382541155348,-0.0014382549037228,0.0014382532127794,-4.0206825491433e-10,6.9638421949618e-10,-0.0011039497362677,0.0011039500192108,2.3308798690435e-09,-2.08885375731e-09,-0.0012258653871369,0.0012258674249339,-0.0012258674883634,0.0012258652945914,-0.0012258655282093,0.0012258672584385,-0.0012258665763167,0.001225866095616,-0.0011006869711941,0.001100687684843,-0.0011006891176516,0.0011006858967331,0.65362907938399,128566,2924,0.0045901724488639,0.0064585305934768,0.004590172446264,18.391181709966,-9.0470546320269e-05,-9.0470546320269e-05,-9.0470546320269e-05,2595757.2098759,0.015762678857544
25219200,0.99151063473445,0.015955125886629,0.0048345866241013,0.0062859526396075,0.0048345866229197,-0.0011073107526509,0.001107310252816,7.15249074731e-10,-1.2242751545535e-09,1.6293673585706e-09,-2.2208436153991e-09,-0.001229308476942,0.0012293108691339,-0.0012293100463534,0.0012293093074622,-0.001229310671418,0.001229308661826,-0.0012293103441167,0.0012293088221343,-0.0011040959845405,0.0011040940726615,-0.00110409562171,0.0011040940728216,6.5122085488519e-10,-1.3799129868408e-09,-4.2573444522258e-10,-2.7405899962686e-10,-0.0015590122211755,0.001559011528177,-0.0016618338639754,0.0016618346209998,-0.0016618344290121,0.0016618340030579,-0.0016618352571586,0.0016618331998457,-0.0016618347005333,0.001661833714568,-0.001441897460307,0.0014418934218793,-0.0014418946052653,0.0014418960468187,-0.0014418958710369,0.001441894896511,-0.0014418954412706,0.0014418952956832,-5.0139155165212e-10,5.7653135727087e-10,-0.0011073104697811,0.0011073105338698,3.1666536518458e-09,-3.1659428271189e-09,-0.0012293082382937,0.0012293111054523,-0.0012293113771043,0.0012293079414534,-0.0012293087831842,0.001229310533644,-0.0012293100745758,0.0012293091401555,-0.0011040943423194,0.0011040953770139,-0.0011040976463726,0.0011040924198671,0.67455040944504,128566,2924,0.0046041130010363,0.0064737923281357,0.0046041129972273,20.09941635277,-7.6804669177839e-05,-7.6804669177839e-05,-7.6804669177839e-05,2612613.7833942,0.015806503558781
25419200,0.99174664254917,0.015959005436037,0.0048357573321228,0.0062874907729675,0.0048357573309465,-0.0011092433006534,0.0011092428065889,8.6547085822407e-10,-1.3697417123414e-09,1.6040601268234e-09,-2.1897749853479e-09,-0.0012313372337058,0.001231341094058,-0.0012313402742126,0.001231338048939,-0.001231340778369,0.0012313375159972,-0.001231339187863,0.0012313389656714,-0.0011060731987736,0.0011060675572779,-0.0011060690996011,0.001106071336866,6.4662227225109e-10,-1.3897893121258e-09,-3.4311963369542e-10,-3.6919835871416e-10,-0.0015612360343159,0.0015612353357949,-0.0016640797351758,0.001664081921763,-0.0016640817273408,0.001664079895082,-0.0016640825066917,0.0016640791282951,-0.0016640806257076,0.0016640809689118,-0.0014440827202189,0.0014440747660125,-0.001444075998299,0.0014440813286649,-0.0014440812790162,0.0014440761434196,-0.0014440767496638,0.0014440806074543,-3.6171741296515e-10,4.3861773514416e-10,-0.0011092430228794,0.0011092430841183,3.245537270476e-09,-3.2387560090993e-09,-0.001231336972696,0.0012313413464102,-0.0012313415324806,0.001231336764367,-0.0012313389911917,0.0012313393024343,-0.0012313389455103,0.0012313392410603,-0.0011060678338527,0.0011060725816738,-0.0011060749289473,0.0011060658513994,0.72789747379702,128566,2924,0.004612130497964,0.0064829954034128,0.0046121304974619,21.025579825406,-6.9395361396749e-05,-6.9395361396749e-05,-6.9395361396749e-05,2620552.399897,0.015832142164051
25619200,0.99197499011637,0.015962781487053,0.0048368963156419,0.0062889888569502,0.0048368963144609,-0.0011092915495464,0.0011092910679638,6.9433863233029e-10,-1.1861582801953e-09,1.5594756334042e-09,-2.1311579568814e-09,-0.0012315120643638,0.0012315140477189,-0.0012315132537757,0.0012315128586496,-0.0012315138394401,0.001231512239817,-0.0012315138636022,0.0012315120712885,-0.001106168332355,0.0011061675400199,-0.0011061690346144,0.00110616651106,7.2843521468656e-10,-1.4748685504841e-09,1.8054978944551e-10,-8.9587825529896e-10,-0.001561543936355,0.0015615432317944,-0.0016643814573452,0.0016643822795151,-0.0016643820356798,0.001664381650444,-0.0016643825283209,0.0016643811826735,-0.0016643827423899,0.0016643809170439,-0.0014443580707028,0.0014443561130623,-0.0014443573740672,0.0014443566007464,-0.0014443571884145,0.001444356907344,-0.0014443578515322,0.0014443561830558,-4.7321939795384e-10,7.0001162774477e-10,-0.0011092912013155,0.0011092914153024,2.6245425427328e-09,-2.4552322558611e-09,-0.0012315119518183,0.001231514153935,-0.0012315143111274,0.0012315117683698,-0.0012315121103143,0.0012315139703584,-0.0012315133341928,0.0012315126350753,-0.001106167476458,0.0011061680581234,-0.0011061697808136,0.0011061661148849,0.73244075684079,128566,2924,0.0046123334999611,0.0064842663345561,0.0046123334981085,20.943837497637,-7.0049300018906e-05,-7.0049300018906e-05,-7.0049300018906e-05,2614226.8725629,0.015833847729192
25819200,0.99218605660198,0.015966177067938,0.0048379180342638,0.0062903410005917,0.0048379180330821,-0.0011079176757885,0.0011079172109449,7.8306593888044e-10,-1.2586382936709e-09,1.491201043806e-09,-2.044892072892e-09,-0.0012302296145234,0.0012302322127178,-0.0012302314524504,0.001230230374986,-0.0012302319311604,0.001230229861314,-0.0012302314196694,0.0012302302323234,-0.0011048240926926,0.0011048217526561,-0.0011048231837499,0.001104822344819,7.9377337541531e-10,-1.5500869884948e-09,1.0093668210071e-09,-1.7333586817292e-09,-0.0015603412282674,0.0015603405164821,-0.001663163094378,0.0016631651241014,-0.0016631648301058,0.0016631633221317,-0.0016631648282344,0.0016631633634092,-0.0016631649652348,0.001663163157604,-0.001443140925766,0.0014431389336325,-0.0014431402468692,0.0014431393960509,-0.0014431410432836,0.0014431387187755,-0.0014431402296049,0.0014431394729688,-3.1454046986853e-10,7.1695745162398e-10,-0.001107917247705,0.0011079176386164,1.9243670034972e-09,-1.5578918635299e-09,-0.0012302296690081,0.0012302321520228,-0.0012302320897133,0.0012302297054521,-0.0012302304704189,0.0012302313259467,-0.0012302305688495,0.0012302311155293,-0.0011048212952696,0.0011048242116333,-0.0011048252383279,0.0011048206335506,0.71386864548498,128566,2924,0.0046066373559556,0.0064792849185618,0.0046066373551115,20.11108260671,-7.6711339146319e-05,-7.6711339146319e-05,-7.6711339146319e-05,2601739.0715443,0.015817216300688
26019200,0.99238669765923,0.015969275384518,0.004838847423386,0.0062915805389296,0.0048388474222019,-0.0011073389995207,0.0011073385356287,7.4864849814051e-10,-1.2231202164513e-09,1.487985490175e-09,-2.0406750668363e-09,-0.0012297167800478,0.0012297190699353,-0.0012297183137828,0.0012297175405221,-0.0012297188125027,0.0012297170037178,-0.0012297185587914,0.0012297171171945,-0.0011042706589192,0.0011042690847857,-0.0011042705127049,0.0011042689135112,7.9836266868614e-10,-1.5533415344824e-09,1.2228790521785e-09,-1.9457712733762e-09,-0.0015599335971198,0.001559932885505,-0.0016627455458683,0.0016627474277107,-0.0016627471313261,0.0016627457716345,-0.0016627469932676,0.0016627459535512,-0.0016627475579705,0.0016627453159919,-0.0014427181360975,0.0014427173425244,-0.0014427186421468,0.0014427165927991,-0.0014427185197657,0.0014427168505502,-0.0014427184938121,0.0014427168142731,-3.3104835669259e-10,7.8987868151318e-10,-0.0011073385428971,0.001107338991635,1.6712326816358e-09,-1.2437656579563e-09,-0.00122971690263,0.0012297189429495,-0.0012297188532665,0.0012297169656136,-0.0012297173910961,0.0012297184301745,-0.0012297175832422,0.0012297181247358,-0.0011042684939761,0.0011042709141346,-0.0011042716912025,0.0011042680797328,0.6868883892386,128566,2924,0.0046042388579482,0.0064775954311955,0.0046042388566728,19.717234917423,-7.9862120660618e-05,-7.9862120660618e-05,-7.9862120660618e-05,2595324.1992679,0.015810627981414
26219200,0.9925811624949,0.015972460149772,0.0048398076220609,0.0062928449068351,0.0048398076208762,-0.0011073357296932,0.0011073352587569,7.6901175824255e-10,-1.2502305952325e-09,1.5138361314556e-09,-2.074154422065e-09,-0.0012297512612903,0.0012297536866944,-0.001229752920252,0.0012297520358326,-0.0012297534248504,0.0012297514974251,-0.0012297530754691,0.0012297517000336,-0.0011042855065603,0.0011042836324131,-0.0011042850822645,0.0011042837292328,7.7132031016457e-10,-1.52004713178e-09,1.0678970259495e-09,-1.7851961967169e-09,-0.0015600857464615,0.0015600850394717,-0.0016629023542417,0.0016629042285307,-0.0016629039483846,0.0016629025635139,-0.0016629038919295,0.0016629026639511,-0.0016629042456044,0.0016629022400477,-0.0014428572119885,0.0014428558352868,-0.0014428571097669,0.0014428556890548,-0.0014428574251148,0.0014428555070788,-0.0014428570479651,0.0014428558294346,-3.324783763925e-10,7.6046121202021e-10,-0.0011073352845756,0.0011073357029851,1.7757920122436e-09,-1.3824540688053e-09,-0.0012297513676341,0.0012297535779777,-0.0012297535093107,0.0012297514111289,-0.0012297519722269,0.0012297529483913,-0.0012297521412254,0.0012297526705251,-0.0011042831006277,0.0011042857030953,-0.0011042865865227,0.0011042825756952,0.72525109597856,128566,2924,0.0046042261758148,0.0064782241661012,0.0046042261739638,19.629429991831,-8.056456006535e-05,-8.056456006535e-05,-8.056456006535e-05,2594599.8435556,0.015811240947623
26419200,0.99277407510243,0.015975711371576,0.0048407897809055,0.0062941318109493,0.0048407897797215,-0.0011080323963954,0.0011080319169511,6.8332695723125e-10,-1.1728656303979e-09,1.5485089183875e-09,-2.1181583291288e-09,-0.0012305435471776,0.0012305455393035,-0.0012305447537784,0.0012305443376243,-0.0012305453366529,0.0012305437169145,-0.0012305453317377,0.0012305435799664,-0.0011050321741384,0.0011050312728207,-0.0011050327598974,0.0011050303658226,7.1476813638289e-10,-1.459867732337e-09,5.3714376033271e-10,-1.2514803185471e-09,-0.0015610289645708,0.0015610282606728,-0.0016638341200241,0.0016638352104824,-0.0016638349722766,0.0016638342992717,-0.001663835223439,0.0016638340803297,-0.0016638356270416,0.0016638336188655,-0.0014437797649883,0.0014437785338128,-0.001443779773396,0.0014437782976065,-0.0014437793602268,0.0014437788362318,-0.0014437800149629,0.0014437781314529,-4.6012082749956e-10,8.1535255432775e-10,-0.0011080319840747,0.0011080323283702,2.0628704851933e-09,-1.750833717479e-09,-0.0012305435930908,0.0012305454892814,-0.0012305455531563,0.0012305435015846,-0.0012305437398549,0.0012305453171458,-0.0012305445194583,0.0012305444250043,-0.001105030893135,0.0011050322200156,-0.0011050333919366,0.0011050300810185,0.74503105336881,128566,2924,0.0046071180427113,0.0064821257212482,0.004607118040835,19.918148795175,-7.8254809638598e-05,-7.8254809638598e-05,-7.8254809638598e-05,2593296.5697394,0.015821080746581
26619200,0.99297187085883,0.015979013233918,0.0048417860345169,0.006295441166068,0.0048417860333327,-0.0011097425974046,0.0011097421045387,8.2008272961458e-10,-1.3230899375009e-09,1.6031575815021e-09,-2.1875999219711e-09,-0.0012323916195481,0.0012323942728333,-0.0012323934549736,0.0012323924357242,-0.0012323939864776,0.0012323918737665,-0.0012323935414928,0.0012323921739021,-0.0011068181719894,0.001106815917763,-0.0011068174552776,0.0011068163058984,6.7313733876342e-10,-1.413187731026e-09,3.4048963180488e-11,-7.4347678100057e-10,-0.001563083146545,0.0015630824479926,-0.0016658682490764,0.0016658695235882,-0.0016658693125712,0.001665868410208,-0.0016658698636465,0.0016658678844125,-0.0016658694012357,0.0016658682982418,-0.0014458057301861,0.001445802017954,-0.0014458032456198,0.0014458043131758,-0.0014458047316345,0.0014458029329596,-0.0014458037813354,0.001445803836607,-4.0581531539641e-10,6.020360988722e-10,-0.0011097422588348,0.001109742442411,2.6926347079756e-09,-2.5540356488042e-09,-0.0012323915220478,0.0012323943626282,-0.0012323944946969,0.0012323913659572,-0.0012323922960793,0.001232393564556,-0.0012323930169828,0.0012323927336866,-0.00110681587243,0.0011068178797805,-0.0011068196898343,0.0011068144228488,0.73848801667002,128566,2924,0.0046142147137771,0.0064906246984634,0.0046142147123253,20.756388872797,-7.1548889017621e-05,-7.1548889017621e-05,-7.1548889017621e-05,2595481.158852,0.015844134461193
26819200,0.99317309345904,0.015982287339663,0.0048427712427716,0.0062967448553045,0.004842771241587,-0.0011112648379576,0.0011112643407932,8.3253264986079e-10,-1.3397626672915e-09,1.6219256347484e-09,-2.2106541150931e-09,-0.0012340462202228,0.0012340489038267,-0.0012340480763263,0.0012340470449081,-0.0012340486116352,0.0012340464781338,-0.0012340481640462,0.0012340467810096,-0.0011084038087119,0.0011084015318906,-0.0011084030878262,0.0011084019243979,6.5495713097982e-10,-1.3944811961449e-09,-3.2496122759874e-10,-3.8414695328015e-10,-0.0015649366685688,0.001564935970433,-0.0016677110135399,0.0016677120423001,-0.0016677118475953,0.0016677111672651,-0.0016677126200229,0.0016677104115226,-0.0016677119187614,0.0016677110712847,-0.0014476283821363,0.0014476239120037,-0.0014476251302189,0.0014476269831277,-0.0014476269398067,0.001447625279155,-0.0014476258834374,0.0014476262812806,-4.4158440593628e-10,5.5645244833779e-10,-0.0011112645386652,0.001111264639353,3.0388170964589e-09,-2.9916968859196e-09,-0.0012340460407989,0.0012340490754104,-0.0012340492846403,0.0012340458055384,-0.001234046828663,0.0012340482623128,-0.0012340477973041,0.001234047182633,-0.0011084016550892,0.0011084033466921,-0.0011084054963391,0.0011083998670157,0.72122275031903,128566,2924,0.0046205314560089,0.0064982932614689,0.0046205314544869,21.494586386789,-6.5643308905686e-05,-6.5643308905686e-05,-6.5643308905686e-05,2598216.3406481,0.015864760334919
27019200,0.99337119717539,0.015985419063187,0.0048437108911269,0.0062979972821183,0.0048437108899419,-0.0011118180333155,0.0011118175422011,7.6097769265385e-10,-1.2619375719336e-09,1.5981742186504e-09,-2.1800607607579e-09,-0.0012346937486885,0.0012346960896441,-0.0012346952795367,0.0012346945639035,-0.001234695850827,0.0012346939691725,-0.0012346956226531,0.0012346940369881,-0.0011089916064797,0.001108990018909,-0.0011089915409688,0.0011089897324449,6.8484255576531e-10,-1.4176196051059e-09,-2.2450151122117e-10,-4.7847034758873e-10,-0.0015657405208278,0.0015657398254541,-0.0016685152724545,0.0016685161056586,-0.0016685158907312,0.001668515435085,-0.0016685166160213,0.0016685147353724,-0.0016685162589466,0.0016685150464984,-0.0014484062341878,0.0014484027368687,-0.0014484039550823,0.0014484048047853,-0.0014484048721936,0.0014484040019844,-0.0014484046753065,0.0014484041581954,-5.1283019124813e-10,6.5419334727428e-10,-0.0011118177225427,0.0011118178516424,2.925658203209e-09,-2.8509803555402e-09,-0.0012346935936082,0.0012346962411592,-0.0012346964793126,0.0012346933303109,-0.0012346940444632,0.0012346957640648,-0.0012346952146685,0.0012346944898312,-0.001108990064168,0.0011089912236243,-0.0011089932494276,0.0011089883896843,0.70228868041981,128566,2924,0.0046228279163872,0.0065016180475703,0.0046228279135999,21.71449175643,-6.3884065948556e-05,-6.3884065948556e-05,-6.3884065948556e-05,2598755.3995724,0.015872804844424
27219200,0.99356387304457,0.015988369609117,0.0048445936410234,0.0062991823282514,0.004844593639842,-0.0011120012604801,0.0011120007781268,6.161419894506e-10,-1.1085499058493e-09,1.5644018353515e-09,-2.1367684814249e-09,-0.0012349351187354,0.0012349368532958,-0.0012349360587687,0.0012349359172736,-0.0012349366984372,0.001234935242981,-0.0012349368679622,0.0012349349236097,-0.0011091901003925,0.0011091896975899,-0.0011091911939137,0.0011091882713683,7.2138374163364e-10,-1.4563553171683e-09,-3.5659595506188e-11,-6.6861373672106e-10,-0.0015661173523917,0.0015661166569012,-0.0016689016370422,0.001668902136275,-0.0016689018937279,0.0016689018292813,-0.0016689025210705,0.001668901225817,-0.0016689027704982,0.0016689009285037,-0.0014487598519395,0.0014487581512569,-0.0014487594012743,0.0014487584009198,-0.0014487586940128,0.0014487592190247,-0.0014487600157091,0.0014487578475052,-6.2600810174617e-10,8.5887553995376e-10,-0.0011120009085288,0.0011120011291354,2.5907859367386e-09,-2.4147049352876e-09,-0.0012349350432335,0.0012349369244562,-0.0012349371769138,0.001234934760764,-0.0012349348981974,0.0012349370440008,-0.0012349362972637,0.0012349355327077,-0.001109189544688,0.0011091899176762,-0.0011091916043436,0.0011091882151656,0.68192142585549,128566,2924,0.0046235890029737,0.0065031763770153,0.0046235890010027,21.739836427566,-6.368130857947e-05,-6.368130857947e-05,-6.368130857947e-05,2599641.1061292,0.015875934652809
27419200,0.99375269350426,0.015991353772569,0.0048454890205357,0.0063003757326791,0.0048454890193545,-0.0011124264647891,0.0011124259865078,1.0993595153049e-09,-1.5881533482439e-09,1.5453030908657e-09,-2.1142671867652e-09,-0.001235388627921,0.0012353922264686,-0.0012353914391104,0.0012353894177923,-0.0012353917472577,0.0012353890793164,-0.0012353906906462,0.0012353899941341,-0.0011096253404259,0.0011096213597222,-0.0011096228416613,0.0011096235373162,7.3500814153522e-10,-1.4840115156433e-09,3.5296865734392e-10,-1.0702255961074e-09,-0.0015667051581785,0.0015667044540375,-0.0016695086282443,0.00166951095628,-0.0016695107007147,0.0016695088351137,-0.0016695110853644,0.0016695084763743,-0.0016695100326331,0.0016695094741369,-0.0014493280395826,0.0014493225718958,-0.0014493238520951,0.001449326561398,-0.0014493273839459,0.0014493231418685,-0.0014493242155198,0.0014493262427199,-1.4869262997237e-10,3.928669527146e-10,-0.0011124261101849,0.0011124263407321,2.5755509509217e-09,-2.3844323760815e-09,-0.0012353885562234,0.0012353922929014,-0.0012353922267177,0.0012353886012135,-0.0012353902775409,0.001235390546759,-0.0012353901100275,0.001235390608528,-0.0011096211764856,0.0011096251860005,-0.0011096268580186,0.0011096198667479,0.7021524852358,128566,2924,0.0046253530780112,0.0065056088922185,0.0046253530772279,21.891588639504,-6.2467290883971e-05,-6.2467290883971e-05,-6.2467290883971e-05,2603082.8249191,0.015881989767619
27619200,0.99394034396254,0.015994365922134,0.0048463938707351,0.006301578181847,0.0048463938695516,-0.0011132990266669,0.0011132985436254,6.9668702520431e-10,-1.1921659006212e-09,1.5426041583566e-09,-2.1191759077483e-09,-0.0012363221287944,0.0012363241373953,-0.0012363233539058,0.0012363229292753,-0.0012363239344204,0.0012363223156048,-0.0012363239600052,0.0012363222008005,-0.0011105227093459,0.0011105218337236,-0.0011105233516445,0.0011105209534588,7.2201414437527e-10,-1.4953887010193e-09,2.7921252471962e-10,-1.0172899657251e-09,-0.0015677837209992,0.0015677830156236,-0.0016706008322262,0.0016706018195307,-0.0016706015397219,0.0016706011167943,-0.0016706019640159,0.0016706006769682,-0.0016706022013591,0.0016706004091032,-0.0014503774219271,0.0014503756025671,-0.001450376973103,0.0014503759359178,-0.0014503767489598,0.0014503762307849,-0.0014503773087892,0.0014503754888891,-5.1185536562949e-10,8.4727234244646e-10,-0.0011132986299089,0.00111329894232,2.461594193693e-09,-2.1692143615794e-09,-0.001236322085685,0.001236324183343,-0.0012363243281524,0.0012363219535534,-0.0012363222099153,0.0012363240337959,-0.0012363232606331,0.0012363229069798,-0.0011105215611012,0.0011105226558468,-0.0011105241790983,0.0011105204178723,0.71253169550763,128566,2924,0.0046289734332718,0.0065100718422489,0.0046289734373719,22.281013300339,-5.935189359729e-05,-5.935189359729e-05,-5.935189359729e-05,2605909.1891979,0.015893879938054
27819200,0.99412416328336,0.015997366301167,0.0048472961945836,0.006302773913194,0.004847296193389,-0.0011137482603608,0.0011137477861601,9.0405365344322e-10,-1.3885307390981e-09,1.543518395181e-09,-2.1071360371463e-09,-0.0012368393500917,0.0012368420211225,-0.0012368412285819,0.0012368401325312,-0.0012368416587893,0.0012368396639742,-0.0012368412650877,0.0012368399086059,-0.0011109988687448,0.0011109968275002,-0.0011109983037943,0.0011109970651135,7.403856366682e-10,-1.4892630790352e-09,4.1501013254885e-10,-1.1322752403569e-09,-0.0015684317234075,0.0015684310135074,-0.0016712578925111,0.0016712594419833,-0.0016712592028466,0.0016712580693087,-0.0016712595527886,0.0016712577572481,-0.0016712593355366,0.0016712579101812,-0.0014510004531849,0.0014509974417639,-0.0014509987007599,0.0014509989816352,-0.0014509998511323,0.0014509979606439,-0.0014509990414852,0.0014509987310634,-3.4282010814352e-10,6.3210367442399e-10,-0.001113747883689,0.0011137481616697,2.3170439690737e-09,-2.0775427958567e-09,-0.0012368393507896,0.0012368420085669,-0.0012368420290879,0.0012368392909968,-0.0012368401335394,0.0012368412027142,-0.0012368405662939,0.0012368406424703,-0.0011109964992073,0.0011109988556393,-0.0011110002839377,0.0011109954385407,0.72383698409413,128566,2924,0.0046308381931507,0.0065127522717838,0.0046308381907548,22.443306784547,-5.8053545723627e-05,-5.8053545723627e-05,-5.8053545723627e-05,2606123.8955957,0.015900392553746
28019200,0.9943048679194,0.016000369373355,0.0048482004795143,0.0063039684155196,0.0048482004783215,-0.0011143163812302,0.0011143158972693,6.9321177755457e-10,-1.19058676584e-09,1.540786769066e-09,-2.1209849918938e-09,-0.0012374852011418,0.0012374873167171,-0.0012374865236654,0.0012374860086493,-0.0012374871011197,0.0012374853792072,-0.0012374870546914,0.0012374853917498,-0.0011116019861984,0.0011116008491636,-0.0011116023990104,0.0011116002818786,7.0255314295432e-10,-1.5159764051967e-09,4.2894914530982e-10,-1.2030647829026e-09,-0.0015692127234989,0.0015692120012457,-0.00167204180859,0.001672043018118,-0.0016720427354265,0.0016720421428293,-0.0016720430564437,0.0016720417737968,-0.0016720432893139,0.0016720415228217,-0.0014517546943911,0.0014517529234264,-0.0014517543795998,0.0014517532120977,-0.0014517542968192,0.0014517533300287,-0.001451754560486,0.0014517528048288,-4.9656133105763e-10,9.0631608993947e-10,-0.0011143159522442,0.0011143163307367,2.3535269465438e-09,-1.9739769195504e-09,-0.0012374851957046,0.0012374873234346,-0.0012374874273834,0.0012374851186827,-0.0012374854101815,0.0012374870858281,-0.0012374862453974,0.0012374861777818,-0.0011116004831179,0.0011116020290717,-0.0011116034324104,0.0011115994839701,0.73612814041977,128566,2924,0.00463319638238,0.0065159827585916,0.0046331963918451,22.670108088835,-5.6239135289321e-05,-5.6239135289321e-05,-5.6239135289321e-05,2605435.6951239,0.015908466817274
28219200,0.99448526827663,0.016003425620322,0.0048491219451053,0.0063051817313229,0.0048491219438934,-0.0011153812511459,0.001115380768387,6.0825547571458e-10,-1.1020276412499e-09,1.5660684264162e-09,-2.1409917607596e-09,-0.0012386453839053,0.0012386472829563,-0.0012386464796135,0.0012386461825858,-0.0012386471228103,0.0012386454942872,-0.0012386471385114,0.0012386453596498,-0.0011127176624061,0.0011127167723457,-0.0011127182882537,0.0011127158568336,7.1135912399647e-10,-1.4772861055706e-09,3.5249504345956e-10,-1.085099068733e-09,-0.001570527257905,0.001570526543359,-0.0016733539576518,0.0016733548869901,-0.0016733546500226,0.0016733541608289,-0.0016733550207674,0.0016733538031266,-0.0016733553546472,0.0016733534198015,-0.0014530396567796,0.0014530382398218,-0.0014530395264609,0.0014530381860867,-0.0014530390401923,0.0014530387874964,-0.0014530398605105,0.0014530378738396,-6.5398308820858e-10,9.4212542840604e-10,-0.0011153808749074,0.0011153811447648,2.4453398060181e-09,-2.2082660090664e-09,-0.0012386453641838,0.0012386472944654,-0.0012386475393603,0.001238645094814,-0.0012386453479703,0.0012386472853783,-0.0012386464542482,0.0012386460631045,-0.0011127164898937,0.0011127176076149,-0.0011127191485971,0.0011127153239434,0.74949207241531,128566,2924,0.004637615436359,0.0065214210701506,0.004637615436719,23.16278523966,-5.2297718082723e-05,-5.2297718082723e-05,-5.2297718082723e-05,2605390.0824804,0.015922971837677
28419200,0.99466011649368,0.016006448671293,0.0048500344231247,0.006306379826252,0.0048500344219164,-0.001115543883317,0.0011155434014154,1.012592798213e-09,-1.5053161799032e-09,1.5593942879076e-09,-2.1324473429033e-09,-0.0012389081108993,0.0012389108384909,-0.0012389100438407,0.0012389089088071,-0.0012389104138281,0.0012389085015537,-0.0012389101330119,0.0012389086510189,-0.0011129242295003,0.0011129224798812,-0.0011129239834237,0.0011129224204338,7.270849715238e-10,-1.4823636531021e-09,4.4527643687521e-10,-1.1680919915326e-09,-0.0015709228430264,0.0015709221357433,-0.0016737406390543,0.0016737422015667,-0.0016737419504224,0.0016737408479547,-0.001673742270923,0.0016737405484366,-0.0016737421010624,0.0016737406645961,-0.0014534135266801,0.0014534106744467,-0.0014534119608467,0.0014534120524776,-0.0014534130057647,0.0014534111148958,-0.0014534122512659,0.0014534117913952,-2.5248722421803e-10,5.566030460671e-10,-0.0011155434979458,0.0011155437867759,2.3599237894776e-09,-2.1040191690879e-09,-0.001238908114417,0.00123891083064,-0.0012389107937745,0.0012389081298991,-0.0012389089243456,0.001238909995532,-0.001238909413677,0.0012389093979039,-0.0011129221455212,0.0011129242284346,-0.0011129256821834,0.0011129210588271,0.76402646172395,128566,2924,0.0046382923840077,0.0065230554558827,0.0046382923840192,23.176320864363,-5.2189433085092e-05,-5.2189433085092e-05,-5.2189433085092e-05,2601730.5264046,0.015926009160679
28619200,0.99482990938066,0.016009404474628,0.004850926800551,0.0063075508747318,0.0048509267993448,-0.0011157557392304,0.0011157552587087,7.2496240830047e-10,-1.2163352073912e-09,1.5530740814801e-09,-2.1249755385736e-09,-0.0012392282572792,0.0012392304739452,-0.001239229682492,0.0012392290541233,-0.0012392302446429,0.0012392284554398,-0.0012392300818652,0.001239228488802,-0.0011131886323044,0.0011131872422218,-0.0011131887406311,0.0011131868317741,7.2384047434684e-10,-1.4797492209712e-09,4.5003643804868e-10,-1.1734949327118e-09,-0.0015713844724884,0.0015713837657371,-0.0016741844110111,0.0016741856563102,-0.0016741854046849,0.0016741846223369,-0.0016741857209073,0.001674184326211,-0.0016741858750394,0.001674184119872,-0.0014538547367985,0.0014538527555078,-0.0014538540369415,0.0014538532563686,-0.0014538542305152,0.0014538531828311,-0.0014538543208304,0.0014538529955907,-5.4226525417423e-10,8.635374358081e-10,-0.0011157553460021,0.0011157556520934,2.3034138111716e-09,-2.0281479179117e-09,-0.0012392282773233,0.0012392304502565,-0.0012392306004115,0.0012392281085927,-0.0012392285725163,0.0012392301306622,-0.00123922933151,0.0012392292664273,-0.0011131868659394,0.0011131886746618,-0.0011131900694288,0.0011131858377195,0.76896221958261,128566,2924,0.0046391738172766,0.0065249627962201,0.0046391738176295,23.222697305409,-5.1818421556731e-05,-5.1818421556731e-05,-5.1818421556731e-05,2597315.7737216,0.015929739411394
28819200,0.99500116761422,0.016012306433424,0.0048518008139158,0.0063087048067982,0.0048518008127105,-0.0011171567806293,0.0011171562925946,8.4525707097301e-10,-1.3441934938069e-09,1.5788218409368e-09,-2.159008360306e-09,-0.001240752845488,0.0012407552152246,-0.0012407544108621,0.0012407536554903,-0.0012407549115788,0.0012407531232206,-0.0012407547793798,0.0012407531301538,-0.0011146594658573,0.0011146581295222,-0.001114659654827,0.0011146576408844,6.9910786138178e-10,-1.4515203613434e-09,1.4624747012253e-10,-8.6629392002127e-10,-0.0015730920768925,0.0015730913755608,-0.0016758738693546,0.0016758749686354,-0.0016758747273551,0.0016758740817671,-0.0016758752239977,0.0016758735946345,-0.0016758751193352,0.0016758736567146,-0.0014555335796353,0.0014555308800462,-0.0014555321604655,0.0014555321294591,-0.0014555327164361,0.0014555316706782,-0.001455532618365,0.0014555316764539,-4.582459914951e-10,7.1944076825485e-10,-0.0011171564156488,0.0011171566594612,2.5838743614119e-09,-2.375689674677e-09,-0.0012407528031825,0.0012407552556763,-0.0012407553926147,0.0012407526550089,-0.0012407532316651,0.0012407548021837,-0.0012407541454499,0.0012407537905437,-0.0011146578931181,0.0011146593673664,-0.0011146610373122,0.001114656590028,0.74978588049303,128566,2924,0.0046449879183901,0.0065320269665229,0.0046449879223396,23.909567624359,-4.6323459005124e-05,-4.6323459005124e-05,-4.6323459005124e-05,2597161.15171,0.01594873164187
29019200,0.99516345239437,0.016014904371515,0.0048525791518917,0.0063097460689304,0.0048525791506927,-0.0011166275024809,0.0011166270381628,1.0160452755345e-09,-1.4911632004609e-09,1.4940971049326e-09,-2.0479709293057e-09,-0.0012403054011301,0.0012403079154681,-0.0012403071592189,0.0012403061727125,-0.0012403074822508,0.0012403058040446,-0.001240307375301,0.0012403057933659,-0.001114150501984,0.0011141493077506,-0.0011141507601499,0.0011141487785328,6.6608004135901e-10,-1.4150150880251e-09,-1.8085723934725e-10,-5.3645658673716e-10,-0.0015727546393439,0.0015727539387319,-0.0016755326420759,0.0016755335745431,-0.00167553337016,0.0016755328295,-0.0016755340575587,0.0016755321446971,-0.0016755336540866,0.0016755325101249,-0.0014551781349878,0.0014551745822422,-0.0014551758252655,0.0014551767130519,-0.0014551768775108,0.0014551757641638,-0.0014551764636739,0.0014551760730461,-2.271795579528e-10,6.5209986167001e-10,-0.0011166270654692,0.0011166274754665,1.953138339435e-09,-1.5708519205677e-09,-0.0012403054978409,0.0012403078200039,-0.0012403076895354,0.0012403056112923,-0.0012403061084728,0.0012403071854467,-0.0012403064581261,0.0012403067328012,-0.0011141486990928,0.0011141507957631,-0.0011141518045932,0.0011141480531385,0.71130444946267,128566,2924,0.0046427944731924,0.0065306278556239,0.004642794473826,23.568094466572,-4.9055244267423e-05,-4.9055244267423e-05,-4.9055244267423e-05,2592758.9172531,0.015942854344457
29219200,0.99532430890835,0.016017417112429,0.0048533305839899,0.0063107559456472,0.0048533305827922,-0.0011174831650953,0.0011174826802905,7.5328417986369e-10,-1.2489313541992e-09,1.5713845819561e-09,-2.1480512896252e-09,-0.0012412016724684,0.0012412039472713,-0.0012412031383303,0.0012412024719876,-0.001241203689225,0.0012412018764583,-0.0012412035291827,0.0012412019225316,-0.0011150263607253,0.0011150249299889,-0.0011150264595073,0.0011150245561678,7.1395021854619e-10,-1.4765645183205e-09,1.6594296667392e-10,-8.9576286082418e-10,-0.0015738056419508,0.0015738049308323,-0.0016765949578094,0.0016765960480034,-0.0016765958079906,0.0016765951685334,-0.0016765962954923,0.0016765946901059,-0.0016765962439098,0.0016765946967663,-0.0014562059278005,0.001456203344285,-0.0014562046348686,0.0014562044680996,-0.0014562050726016,0.0014562041454227,-0.0014562050841197,0.001456204033855,-5.849213169891e-10,8.1908710423522e-10,-0.0011174828144136,0.0011174830317067,2.6412833033728e-09,-2.4612642928052e-09,-0.0012412016219209,0.0012412039864557,-0.0012412042205341,0.0012412013652025,-0.0012412019464902,0.0012412036384746,-0.0012412029241558,0.0012412025442005,-0.0011150247078152,0.0011150262522052,-0.0011150279990777,0.0011150233364744,0.69517196907124,128566,2924,0.004646344229404,0.0065349770336995,0.0046463442309741,23.973902658231,-4.5808778734155e-05,-4.5808778734155e-05,-4.5808778734155e-05,2597587.3686732,0.015954485601403
29419200,0.99548432845907,0.016019744210161,0.0048540217656234,0.0063117006801142,0.0048540217644229,-0.0011184899305774,0.0011184894312519,4.9176687082657e-10,-1.0017228683074e-09,1.6250569142848e-09,-2.2172365181816e-09,-0.0012422384672643,0.0012422404863498,-0.0012422396538705,0.0012422392927557,-0.0012422404212229,0.001242238497199,-0.0012422401909205,0.0012422385875354,-0.0011160371597496,0.0011160355014375,-0.0011160370639863,0.0011160352751467,7.5582929316921e-10,-1.5124768990454e-09,4.4988997934642e-10,-1.1740436234203e-09,-0.0015749777613807,0.0015749770521722,-0.0016777943462128,0.0016777955316232,-0.0016777952616308,0.0016777945689657,-0.0016777955962117,0.0016777942591563,-0.0016777958337364,0.0016777939648432,-0.0014573466905371,0.001457344963808,-0.001457346265857,0.0014573451893876,-0.001457346141869,0.0014573454332473,-0.001457346575912,0.0014573449199845,-9.2567330220206e-10,1.0063694475821e-09,-0.0011184896485713,0.0011184897131099,3.2031539594923e-09,-3.1904510110991e-09,-0.0012422382917091,0.0012422406520945,-0.0012422412115892,0.0012422377108866,-0.0012422383276922,0.001242240590666,-0.001242239853473,0.0012422389564977,-0.001116035579539,0.0011160367389738,-0.0011160390539525,0.0011160336320606,0.65090115890993,128566,2924,0.0046505201698136,0.0065398281677022,0.0046505201695338,24.456575172191,-4.1947398622474e-05,-4.1947398622474e-05,-4.1947398622474e-05,2603644.8173124,0.015967899256346
29619200,0.99564387887239,0.016022029474551,0.0048546996683235,0.0063126301391047,0.0048546996671222,-0.0011196172427246,0.0011196167465683,5.4499005161184e-10,-1.0517116498496e-09,1.602666032651e-09,-2.1908722371217e-09,-0.0012433452325798,0.0012433472648324,-0.0012433464466155,0.0012433460452838,-0.0012433471593182,0.0012433453021794,-0.0012433469771095,0.0012433453456099,-0.0011171466087487,0.0011171450982422,-0.0011171466431385,0.0011171447453283,7.3379689894961e-10,-1.4873061362891e-09,1.6250953844515e-10,-8.8394595023446e-10,-0.0015761999544038,0.0015761992473634,-0.0016790638486997,0.0016790648116645,-0.0016790645601422,0.0016790640582224,-0.0016790650720952,0.0016790635656561,-0.0016790651267652,0.0016790634608712,-0.0014585396101773,0.0014585373733046,-0.001458538663523,0.0014585381381518,-0.0014585387115406,0.0014585381973395,-0.0014585391441117,0.001458537696805,-8.8191934151912e-10,9.6651412326727e-10,-0.001119616960337,0.0011196170290008,3.126465265044e-09,-3.1093739755195e-09,-0.0012433450786993,0.0012433474097922,-0.0012433479339171,0.0012433445322737,-0.0012433451348776,0.0012433473285408,-0.0012433466168669,0.0012433457372366,-0.0011171451269935,0.0011171462402885,-0.0011171484911982,0.0011171432424831,0.6419164972244,128566,2924,0.0046551946949615,0.0065448883473118,0.0046551946950766,24.997260318902,-3.7621917448786e-05,-3.7621917448786e-05,-3.7621917448786e-05,2612963.3070977,0.015982537504712
29819200,0.99580364701033,0.016024458442495,0.004855424454664,0.0063136095343674,0.0048554244534637,-0.0011209416817624,0.001120941193666,5.8270149722218e-10,-1.0814103157866e-09,1.5692974066775e-09,-2.1489051146591e-09,-0.0012446421278608,0.0012446441072202,-0.0012446433063638,0.0012446429246988,-0.0012446439713044,0.0012446422279205,-0.001244643871377,0.001244642191216,-0.0011184561713905,0.0011184549283511,-0.0011184564425944,0.0011184543425035,7.1790312349354e-10,-1.4692053070805e-09,-6.5280000329035e-11,-6.5403366419109e-10,-0.0015776043534356,0.0015776036479242,-0.0016805194856666,0.0016805202323359,-0.0016805199921816,0.0016805196879923,-0.001680520638974,0.0016805190558481,-0.0016805206079749,0.0016805190431726,-0.0014599136159035,0.0014599111162297,-0.0014599124023008,0.0014599121622024,-0.0014599124422924,0.0014599122202501,-0.0014599130186089,0.0014599115801107,-8.5003555778764e-10,9.5046203187375e-10,-0.0011209413956799,0.001120941479838,3.007206131211e-09,-2.9718251821547e-09,-0.0012446420031838,0.0012446442235711,-0.0012446447170079,0.001244641487617,-0.0012446420167526,0.0012446441852829,-0.0012446434749544,0.0012446426181672,-0.0011184548846805,0.0011184558778089,-0.0011184580325451,0.0011184530950814,0.67837951943783,128566,2924,0.0046606867000421,0.0065507028944459,0.0046606867002497,25.633993978991,-3.2528048168074e-05,-3.2528048168074e-05,-3.2528048168074e-05,2622392.9530238,0.015999603465013
30019200,0.99596010219717,0.016026875075868,0.0048561465113444,0.0063145820543792,0.0048561465101446,-0.0011216002129356,0.0011215997177219,9.3527694997162e-10,-1.4419459928414e-09,1.5911787639817e-09,-2.1793483923438e-09,-0.0012453161820833,0.0012453188409777,-0.0012453180227854,0.0012453169922589,-0.001245318470194,0.0012453165091403,-0.0012453181926191,0.0012453166790762,-0.0011191127230562,0.0011191109189498,-0.0011191124766449,0.0011191108992143,7.1591855729715e-10,-1.4787368057233e-09,1.7729209190711e-10,-9.0549936949818e-10,-0.0015783686239532,0.0015783679184062,-0.0016813204729644,0.0016813218269395,-0.001681321575929,0.0016813207103668,-0.0016813220661479,0.0016813202225228,-0.0016813217617884,0.0016813204829083,-0.001460645303207,0.0014606420120443,-0.0014606433522009,0.0014606438665035,-0.0014606444917827,0.0014606428074966,-0.0014606437707277,0.0014606434076261,-4.5313853395641e-10,6.5336668993251e-10,-0.0011215998762748,0.0011216000563255,2.8239456400462e-09,-2.6769685652043e-09,-0.0012453161035389,0.0012453189091556,-0.0012453190867061,0.0012453159169435,-0.0012453167786169,0.0012453182114025,-0.0012453176457736,0.0012453172413503,-0.00111911075794,0.0011191125487022,-0.0011191144806883,0.0011191092064602,0.68873328544944,128566,2924,0.0046634180208576,0.0065538663261782,0.0046634180249614,25.914053906816,-3.0287568745475e-05,-3.0287568745475e-05,-3.0287568745475e-05,2625671.8332231,0.016008367486762
30219200,0.99611141220818,0.016029106914253,0.0048568105461795,0.0063154858231007,0.0048568105449725,-0.0011218676033839,0.0011218671066375,5.6088680927093e-10,-1.0686163218068e-09,1.5859121881827e-09,-2.1749658244635e-09,-0.0012456071703419,0.0012456089747518,-0.0012456081655275,0.0012456079745438,-0.0012456088553638,0.0012456072449025,-0.0012456089222403,0.0012456070620308,-0.0011193771573572,0.0011193763658728,-0.001119377918381,0.0011193753260744,6.7621872886436e-10,-1.4316888804757e-09,3.8485838436995e-10,-1.1071187282828e-09,-0.0015787382363753,0.0015787375327205,-0.0016817220310604,0.0016817228880551,-0.0016817226657123,0.0016817222230106,-0.0016817229913603,0.0016817219104806,-0.0016817234243959,0.0016817214286849,-0.0014609813596879,0.0014609802612995,-0.0014609815342659,0.0014609799409737,-0.0014609808464745,0.0014609807214042,-0.0014609818119264,0.001460979663059,-7.7786743902009e-10,1.0956518238986e-09,-0.001121867205503,0.0011218675056832,2.4245395492752e-09,-2.1542920230523e-09,-0.0012456071839885,0.0012456089526601,-0.0012456092627172,0.0012456068563437,-0.0012456070032838,0.0012456091090849,-0.0012456081632061,0.0012456078404405,-0.0011193759811902,0.0011193772091472,-0.0011193787031023,0.0011193748618063,0.66008543728448,128566,2924,0.004664527391064,0.0065553958555485,0.0046645273935365,25.990714397602,-2.9674284819183e-05,-2.9674284819183e-05,-2.9674284819183e-05,2626642.4094491,0.016012175906559
30419200,0.99625535432787,0.016031109060897,0.0048574030327293,0.0063163029966475,0.0048574030315201,-0.001121604986415,0.0011216044877097,6.435005216699e-10,-1.1524884626497e-09,1.599173884648e-09,-2.1896575951694e-09,-0.001245321925548,0.0012453238332067,-0.0012453230243123,0.0012453227381793,-0.0012453236685389,0.001245322059088,-0.0012453237359026,0.001245321853819,-0.0011190835220962,0.0011190827399379,-0.001119084289952,0.0011190816584845,6.7469141228754e-10,-1.4180471609267e-09,7.2199799139814e-10,-1.4336404601504e-09,-0.001578502971141,0.0015785022716376,-0.0016815331935473,0.0016815343094904,-0.0016815340880971,0.0016815333583522,-0.001681534190701,0.001681533288935,-0.0016815347987544,0.0016815326207333,-0.0014607179415729,0.0014607173972701,-0.0014607186199431,0.0014607165052783,-0.0014607178408347,0.0014607173994992,-0.0014607187081476,0.0014607164765331,-6.700795079207e-10,1.0567786978797e-09,-0.0011216045494993,0.00112160492385,2.0822675686257e-09,-1.738040013555e-09,-0.0012453220316319,0.0012453237230509,-0.0012453239068537,0.0012453218245412,-0.0012453219417296,0.0012453237877503,-0.0012453228123256,0.0012453228071558,-0.0011190821881891,0.0011190837419022,-0.0011190848939779,0.0011190813976714,0.62526765959969,128566,2924,0.0046634373879707,0.0065544232209696,0.0046634373863762,25.787113709204,-3.1303090326369e-05,-3.1303090326369e-05,-3.1303090326369e-05,2628713.17181,0.016008971948759
30619200,0.99639131656923,0.016033125404749,0.0048580037719159,0.0063171178621258,0.0048580037707077,-0.0011211101649412,0.0011211096642846,7.0767841205734e-10,-1.2188598239433e-09,1.6031514099701e-09,-2.1957227610592e-09,-0.0012447500574041,0.0012447517586692,-0.0012447509494341,0.0012447508740159,-0.0012447515519066,0.0012447502310344,-0.0012447519184039,0.001244749737317,-0.0011185354159842,0.0011185354431421,-0.0011185370090075,0.0011185335610895,6.8961145225527e-10,-1.4421747807269e-09,8.3784817237228e-10,-1.5583966115827e-09,-0.0015779556832128,0.0015779549797791,-0.0016810477925516,0.0016810487538997,-0.0016810485211082,0.0016810479762754,-0.0016810485557449,0.0016810479709461,-0.0016810494912526,0.0016810469742422,-0.0014601494094052,0.0014601498510796,-0.0014601510964367,0.0014601479603683,-0.0014601494503948,0.001460149717316,-0.0014601511086645,0.0014601479823051,-5.7301398658626e-10,1.042529821504e-09,-0.0011211096859863,0.0011211101432936,1.7902804929834e-09,-1.3556901234751e-09,-0.0012447502396902,0.0012447515737577,-0.0012447516414004,0.0012447501522029,-0.0012447499351919,0.0012447518533098,-0.0012447508347606,0.0012447508463842,-0.0011185347352907,0.0011185357977626,-0.0011185366514098,0.0011185342487074,0.6631850040654,128566,2924,0.0046613830717601,0.006552160733079,0.0046613830718992,25.454272428513,-3.3965820571897e-05,-3.3965820571897e-05,-3.3965820571897e-05,2632660.5695311,0.016002496870923
30819200,0.99652726690342,0.016035237220211,0.0048586357775346,0.0063179656663501,0.0048586357763266,-0.0011224192082917,0.0011224187076189,7.8324811644739e-10,-1.2944539384555e-09,1.5977168946397e-09,-2.1904132438496e-09,-0.0012460588714795,0.0012460610934005,-0.0012460602845167,0.0012460596817634,-0.0012460608354173,0.001246059094843,-0.0012460607760866,0.0012460590217584,-0.0011198518569251,0.001119850674267,-0.0011198522295397,0.0011198499973866,6.8058498653701e-10,-1.4288633290885e-09,4.6243025977887e-10,-1.1789256253961e-09,-0.0015793537617312,0.001579353059899,-0.0016824823206175,0.0016824834972197,-0.0016824832740283,0.0016824824979948,-0.0016824835498834,0.0016824822467506,-0.0016824837640963,0.0016824819785693,-0.0014615151426578,0.0014615134336354,-0.0014615146784133,0.0014615137079459,-0.00146151470575,0.0014615137874825,-0.0014615149299789,0.0014615134942564,-5.7061372706879e-10,9.1269601577884e-10,-0.0011224187940773,0.0011224191219727,2.3407864351106e-09,-2.0465200795426e-09,-0.0012460589128618,0.0012460610463764,-0.0012460611970309,0.001246058741132,-0.0012460591259713,0.0012460608084903,-0.0012460599609838,0.0012460598652111,-0.0011198502211587,0.0011198519776771,-0.001119853367751,0.0011198491970458,0.69236589515595,128566,2924,0.0046668124693888,0.0065579477221747,0.0046668124697021,26.086441462328,-2.8908468301378e-05,-2.8908468301378e-05,-2.8908468301378e-05,2638003.1180045,0.01601940896569
31019200,0.99666756806398,0.016037483458996,0.0048593095678577,0.0063188643244877,0.0048593095666508,-0.0011248391170026,0.0011248386322532,7.7172124426925e-10,-1.2666162947627e-09,1.559642865198e-09,-2.1347719833577e-09,-0.0012485385197527,0.0012485404196138,-0.0012485396298673,0.0012485393131882,-0.0012485401651078,0.0012485387475313,-0.0012485403718174,0.0012485383892207,-0.0011223197309251,0.0011223193974714,-0.0011223208929381,0.0011223178972679,7.3367184571108e-10,-1.4777352274973e-09,-3.8755764796812e-10,-3.260199576082e-10,-0.001581927258594,0.0015819265541887,-0.0016850719714815,0.0016850723232618,-0.0016850720819063,0.0016850721665563,-0.0016850729423494,0.001685071324914,-0.0016850728958061,0.0016850713308682,-0.0014640485801511,0.0014640460201454,-0.0014640472842056,0.0014640471080802,-0.0014640469431398,0.0014640475640432,-0.0014640481402891,0.0014640463256159,-7.1436575964765e-10,8.2758188164655e-10,-0.0011248388237661,0.0011248389242227,2.8521932969232e-09,-2.8057789809084e-09,-0.0012485384526671,0.0012485404816521,-0.0012485408719527,0.0012485380359064,-0.0012485383541499,0.0012485405557003,-0.0012485399062089,0.0012485388937522,-0.0011223192325085,0.0011223195642399,-0.0011223215810145,0.0011223175698678,0.71216091898593,128566,2924,0.0046768505180596,0.0065685979443803,0.004676850515416,27.295414109348,-1.9236687125216e-05,-1.9236687125216e-05,-1.9236687125216e-05,2640010.7179492,0.016050629287896
31219200,0.99681263484178,0.016039922763855,0.0048600439332612,0.0063198348985349,0.0048600439320592,-0.0011274493472512,0.0011274488748295,7.4040763868723e-10,-1.2235656369447e-09,1.5249817097618e-09,-2.0877668796843e-09,-0.0012512424976353,0.0012512439027258,-0.0012512431218321,0.0012512432748363,-0.0012512436532356,0.0012512427097598,-0.0012512443042774,0.0012512419250867,-0.0011249958608347,0.0011249968539311,-0.0011249983222255,0.0011249940850591,7.7203209406712e-10,-1.5270391789425e-09,-1.0031299942437e-09,2.8058934671747e-10,-0.0015847371493811,0.0015847364402269,-0.0016878876152806,0.0016878871357109,-0.0016878868729167,0.0016878878578701,-0.0016878881606363,0.0016878865658411,-0.0016878881701574,0.0016878865313516,-0.0014668171384288,0.0014668146804102,-0.0014668160208083,0.0014668156630358,-0.0014668146701497,0.0014668170989585,-0.0014668172754226,0.0014668144285776,-8.2691740672246e-10,8.0838611548039e-10,-0.0011274491290146,0.0011274490930635,3.2222916837892e-09,-3.3133785510367e-09,-0.0012512423511934,0.0012512440408485,-0.0012512445998736,0.0012512417696176,-0.0012512417653777,0.0012512446023754,-0.0012512440623193,0.0012512421959631,-0.0011249968742352,0.0011249955090008,-0.0011249979664568,0.0011249947808101,0.74546453423361,128566,2924,0.0046876785812323,0.0065802254081679,0.0046876785812462,28.60129857615,-8.7896113908006e-06,-8.7896113908006e-06,-8.7896113908006e-06,2640688.5603,0.016084449710554
31419200,0.99695635298102,0.016042223938714,0.0048607335471418,0.0063207568456314,0.0048607335459407,-0.0011287464832284,0.0011287460042514,8.2341673543763e-10,-1.3124809889898e-09,1.5418164806513e-09,-2.1101084618702e-09,-0.0012526668870286,0.0012526690645652,-0.0012526682851102,0.0012526676723985,-0.0012526687780617,0.001252667158345,-0.0012526687567169,0.0012526670167721,-0.001126356564848,0.0011263555982134,-0.0011263570658954,0.0011263547397633,7.5412224678889e-10,-1.490269121419e-09,-6.2027963582408e-10,-8.6024929115113e-11,-0.0015862594941483,0.0015862587944901,-0.0016894037696386,0.0016894042424756,-0.0016894039877466,0.0016894039766962,-0.0016894050098378,0.0016894029736205,-0.0016894045536649,0.0016894033913579,-0.001468301608176,0.0014682978577069,-0.00146829912946,0.0014683001278406,-0.0014682996392941,0.0014682997348513,-0.001468300151145,0.0014682991860136,-7.4166992835676e-10,7.4194003093068e-10,-0.0011287462492811,0.0011287462366515,3.19370156708e-09,-3.2697469327073e-09,-0.0012526667431376,0.0012526692048066,-0.0012526696882356,0.001252666235424,-0.0012526669173546,0.0012526690053442,-0.0012526684883983,0.0012526673311848,-0.0011263555934916,0.0011263562366047,-0.0011263586264327,0.0011263535512541,0.71243067062517,128566,2924,0.0046930613552607,0.0065865225598206,0.0046930613520201,29.221191259958,-3.830469920336e-06,-3.830469920336e-06,-3.830469920336e-06,2636599.830045,0.016101789741625
31619200,0.99709198949633,0.01604429179411,0.0048613505246138,0.0063215907460782,0.0048613505234184,-0.001128468984877,0.0011284684953629,8.1600466080524e-10,-1.3157598822428e-09,1.5807138096238e-09,-2.161686744542e-09,-0.0012524447388002,0.001252446884562,-0.0012524460800177,0.0012524455456021,-0.001252446600339,0.0012524449928531,-0.0012524466465994,0.0012524448126336,-0.0011260906456537,0.001126089814187,-0.0011260913423267,0.0011260888109416,7.0223131919758e-10,-1.4512742727436e-09,8.7299791463061e-11,-8.0476858775441e-10,-0.0015860991114802,0.0015860984085548,-0.0016892555901575,0.0016892564438076,-0.001689256208748,0.0016892557839275,-0.0016892567418116,0.0016892552694074,-0.0016892568055538,0.0016892551587249,-0.0014681147322496,0.0014681125222838,-0.0014681137864095,0.0014681132827663,-0.0014681137760935,0.0014681133970924,-0.0014681142938796,0.0014681128090404,-6.6536950757268e-10,8.4239470739144e-10,-0.0011284686588262,0.0011284688215884,2.5658365335728e-09,-2.4421672533409e-09,-0.0012524447702525,0.0012524468480589,-0.0012524471729126,0.0012524444266505,-0.001252444885112,0.001252446707555,-0.0012524460179762,0.0012524454702746,-0.001126089495137,0.0011260906342773,-0.0011260923910572,0.0011260881017621,0.68058194622311,128566,2924,0.0046919116956616,0.0065858571449139,0.0046919116960356,29.011787392895,-5.5057008568362e-06,-5.5057008568362e-06,-5.5057008568362e-06,2632942.5055022,0.016098778223164
31819200,0.99721882117196,0.016046156887465,0.0048619053236995,0.0063223462412619,0.0048619053225033,-0.001127863510341,0.0011278630191678,8.5301654297794e-10,-1.3544810784549e-09,1.5903414357748e-09,-2.1730917071871e-09,-0.0012518347315285,0.0012518372118055,-0.0012518364014246,0.0012518355416201,-0.0012518369018521,0.0012518350094594,-0.0012518366671976,0.0012518351009613,-0.0011254714631899,0.0011254698133517,-0.0011254713412469,0.0011254696092964,6.720546129576e-10,-1.4147139450483e-09,8.6453819330458e-10,-1.5761718782075e-09,-0.0015855281962585,0.001585527496136,-0.0016887089424942,0.001688710585285,-0.0016887103635593,0.0016887090980739,-0.0016887103746601,0.0016887091284592,-0.0016887106361461,0.0016887088013546,-0.0014675253432216,0.0014675237868294,-0.0014675250038996,0.0014675239039282,-0.0014675254320589,0.0014675235962997,-0.0014675250023523,0.0014675239750632,-5.9077464946057e-10,8.6105379040235e-10,-0.0011278631359295,0.001127863393547,2.1464761746263e-09,-1.9176524038819e-09,-0.0012518348790084,0.0012518370577845,-0.0012518372688639,0.0012518346437815,-0.0012518353169382,0.0012518365951254,-0.0012518358309743,0.001251835971675,-0.0011254692831881,0.001125471656327,-0.0011254730057839,0.0011254682945548,0.65806101306148,128566,2924,0.0046894004435915,0.0065834943594031,0.0046894004435326,28.630128401051,-8.5589727915895e-06,-8.5589727915895e-06,-8.5589727915895e-06,2630969.8120377,0.016091273697776
32019200,0.99733964501817,0.016048108393106,0.0048624909823269,0.0063231264296476,0.0048624909811313,-0.0011278436403228,0.001127843137585,7.9538472124127e-10,-1.3083502585962e-09,1.634667004966e-09,-2.2298479807925e-09,-0.0012517835020373,0.0012517850819852,-0.0012517842534011,0.0012517843382662,-0.0012517848188099,0.0012517837333459,-0.001251785439758,0.0012517829779394,-0.0011254334909888,0.0011254342749436,-0.0011254358605958,0.0011254316044075,6.8020369818511e-10,-1.4270328671843e-09,6.1164968734543e-10,-1.3276724345185e-09,-0.0015855290790684,0.0015855283767566,-0.0016887437128254,0.0016887443106301,-0.0016887440894939,0.001688743881028,-0.0016887442650726,0.0016887437374343,-0.0016887452551896,0.0016887426877008,-0.0014675083741123,0.0014675089441309,-0.0014675101714012,0.0014675069304401,-0.0014675081201768,0.0014675090954997,-0.0014675103309656,0.0014675068210865,-5.7993715299821e-10,9.9504625992604e-10,-0.0011278431877087,0.0011278435908059,1.5910407610322e-09,-1.2074875946398e-09,-0.0012517838021933,0.0012517847799366,-0.0012517848890227,0.0012517836700106,-0.0012517833104562,0.0012517852462967,-0.0012517842960767,0.0012517841531554,-0.0011254334829465,0.0011254339587348,-0.00112543474534,0.001125433058797,0.71766730567357,128566,2924,0.0046893172994023,0.0065834991123794,0.0046893173006677,28.559469530385,-9.1242437569186e-06,-9.1242437569186e-06,-9.1242437569186e-06,2633485.0360797,0.016091108548374
32219200,0.99745611347924,0.01605003329151,0.0048630696268327,0.0063238940390375,0.0048630696256399,-0.0011281996212785,0.0011281991242029,8.4819336354703e-10,-1.3545231598987e-09,1.6252117735852e-09,-2.2133884436788e-09,-0.0012521953779515,0.0012521977187895,-0.0012521968945679,0.0012521962047591,-0.0012521974190025,0.0012521956465429,-0.0012521973231067,0.0012521955775623,-0.0011258183835781,0.0011258171196569,-0.0011258186681418,0.0011258164779702,6.5809717117139e-10,-1.3888574036538e-09,8.2077071448866e-10,-1.522609441562e-09,-0.0015860155108849,0.0015860148128015,-0.0016892333378905,0.0016892347670537,-0.0016892345696222,0.0016892334494768,-0.0016892345975892,0.0016892334784793,-0.0016892349861479,0.0016892330171299,-0.0014679720980108,0.0014679709260024,-0.0014679720787045,0.0014679706678215,-0.0014679721171028,0.0014679707782477,-0.0014679721253987,0.001467970759077,-6.0632018454412e-10,8.899949922299e-10,-0.0011281992338288,0.001128199510305,1.9475449148397e-09,-1.7065909357072e-09,-0.0012521955945776,0.0012521974967876,-0.001252197696449,0.0012521953572008,-0.0012521958627847,0.0012521972035089,-0.0012521963953903,0.0012521965514612,-0.0011258165053639,0.0011258186622995,-0.0011258198346961,0.001125815683379,0.73341164211336,128566,2924,0.004690795263857,0.0065855106693932,0.0046907952610291,28.693939687999,-8.048482496011e-06,-8.048482496011e-06,-8.048482496011e-06,2631252.8969878,0.016096157022711
32419200,0.99756925451416,0.016051951654757,0.0048636473358149,0.0063246569843167,0.0048636473346257,-0.0011288137885609,0.0011288132874983,8.0452455187866e-10,-1.3159240023779e-09,1.6313676850117e-09,-2.2249497287836e-09,-0.0012528892155417,0.0012528908513278,-0.0012528900228399,0.0012528900491627,-0.0012528905812971,0.0012528894535022,-0.0012528911551812,0.0012528887435728,-0.0011264723351483,0.0011264730042366,-0.0011264745828539,0.0011264704498845,6.6818665612102e-10,-1.4099582170384e-09,3.0621210854792e-10,-1.017232020613e-09,-0.0015868010920144,0.001586800393148,-0.0016900145242277,0.0016900149604336,-0.0016900147483871,0.0016900146859175,-0.0016900151180337,0.0016900143433306,-0.001690015853299,0.0016900135552133,-0.001468733201496,0.0014687329806465,-0.001468734199978,0.0014687317767543,-0.0014687325648018,0.0014687335226962,-0.001468734549996,0.0014687314813972,-6.491353841482e-10,9.4914925755071e-10,-0.0011288133941828,0.0011288136819926,1.9952282196769e-09,-1.7355918420205e-09,-0.0012528894245194,0.0012528906390553,-0.0012528908693495,0.0012528891707834,-0.0012528889768769,0.0012528910611718,-0.0012528902163777,0.0012528897133364,-0.0011264723983717,0.0011264726146817,-0.0011264738187189,0.0011264715555487,0.75109666301805,128566,2924,0.0046933445586871,0.0065887596300713,0.0046933445589302,28.971397940715,-5.8288164742759e-06,-5.8288164742759e-06,-5.8288164742759e-06,2629246.7946978,0.0161046404849
32619200,0.99768203198978,0.01605371486146,0.0048641745046601,0.0063253658533288,0.0048641745034715,-0.0011303065915498,0.0011303061006837,8.685002528877e-10,-1.3692836673379e-09,1.5789977354053e-09,-2.1606113506299e-09,-0.0012544923275065,0.001254494693794,-0.0012544938951486,0.0012544931303706,-0.0012544943786345,0.0012544926144854,-0.0012544942625258,0.0012544925847123,-0.0011280312584422,0.0011280299549292,-0.0011280314758734,0.0011280294098878,7.0037200529246e-10,-1.4400023872096e-09,5.2483127264723e-12,-7.1471132788306e-10,-0.0015885131719104,0.0015885124720612,-0.0016917068689306,0.0016917078561156,-0.001691707630918,0.0016917070447613,-0.001691708210998,0.0016917064891808,-0.0016917080270491,0.0016917066245689,-0.0014704184819987,0.0014704156023078,-0.001470416826617,0.0014704170275636,-0.0014704174026839,0.0014704165826812,-0.0014704174032736,0.0014704165281995,-6.6668194181879e-10,8.3415979741266e-10,-0.0011303062678517,0.0011303064234104,2.6628852700358e-09,-2.5565949487783e-09,-0.0012544923387075,0.0012544946778888,-0.0012544950025691,0.0012544919893372,-0.0012544926443484,0.0012544943475205,-0.0012544936574875,0.0012544932250972,-0.0011280296248584,0.0011280312604608,-0.0011280330790366,0.0011280281614106,0.69654114801635,128566,2924,0.004699538642255,0.0065958422434592,0.0046995386402239,29.720416940856,1.6333552685041e-07,1.6333552685041e-07,1.6333552685041e-07,2626862.8470127,0.016124427273965
32819200,0.99778453420342,0.016055188608634,0.0048646116456928,0.0063259653184354,0.0048646116445059,-0.0011287990051179,0.0011287985142245,8.6567935783617e-10,-1.3666700380887e-09,1.5778993045994e-09,-2.1597567926184e-09,-0.0012529905876682,0.0012529928069381,-0.0012529920073933,0.0012529913900344,-0.0012529924909397,0.0012529908733093,-0.0012529925222178,0.0012529906991964,-0.0011264991860689,0.0011264983161667,-0.0011264998392374,0.0011264973432583,7.0615912079418e-10,-1.4503604866592e-09,3.6193640744414e-10,-1.0751974420444e-09,-0.0015870121048095,0.0015870114027087,-0.0016902229187244,0.0016902239886955,-0.0016902237540832,0.0016902230984627,-0.0016902241111447,0.0016902227715372,-0.0016902243105711,0.0016902225164567,-0.0014689075262752,0.0014689057132858,-0.001468906953639,0.0014689060678741,-0.0014689069101701,0.0014689062311375,-0.0014689072988245,0.001468905787533,-6.2986372448896e-10,8.950279044209e-10,-0.0011287986328728,0.001128798886082,2.2903111746246e-09,-2.0732423604196e-09,-0.0012529906978788,0.001252992691786,-0.0012529929302205,0.001252990434953,-0.0012529908507183,0.0012529925137672,-0.0012529917253128,0.0012529915303157,-0.001126497786423,0.0011264993850981,-0.0011265008307791,0.0011264966999752,0.64446384485527,128566,2924,0.0046932860148073,0.0065896293766384,0.0046932860139981,28.86729157483,-6.6616674013556e-06,-6.6616674013556e-06,-6.6616674013556e-06,2620830.4182985,0.016105407367158
33019200,0.99788081184546,0.016056691934365,0.0048650614264442,0.0063265690826636,0.0048650614252575,-0.0011283071863551,0.0011283066889007,8.8996750937922e-10,-1.3971901403208e-09,1.603472927806e-09,-2.192362914759e-09,-0.0012524280556027,0.0012524303657773,-0.0012524295559507,0.0012524288710233,-0.0012524300413768,0.0012524283540505,-0.0012524300250099,0.0012524282207599,-0.0011259723287034,0.0011259713114073,-0.0011259728544994,0.0011259704533627,6.8421449748147e-10,-1.4223642133379e-09,3.7897059817895e-10,-1.0868858286781e-09,-0.0015864774950431,0.0015864767961587,-0.0016897230821628,0.001689724208675,-0.0016897239887213,0.0016897232405607,-0.0016897243193196,0.001689722944998,-0.0016897244672853,0.001689722740045,-0.0014683678178292,0.0014683658724383,-0.0014683670793805,0.0014683663711044,-0.0014683672415214,0.0014683663319987,-0.0014683674084144,0.001468366121491,-6.0604553101915e-10,8.8289280653779e-10,-0.0011283068039789,0.001128307070499,2.2201537469447e-09,-1.9908585150029e-09,-0.001252428192611,0.0012524302253138,-0.0012524304377971,0.0012524279543834,-0.0012524284178402,0.0012524299743841,-0.0012524291828468,0.0012524291010668,-0.0011259707527565,0.0011259725562316,-0.0011259739328715,0.001125969730868,0.69524390541168,128566,2924,0.0046912445612766,0.0065874189081667,0.0046912445596443,28.558882306918,-9.1289415446578e-06,-9.1289415446578e-06,-9.1289415446578e-06,2623571.7314756,0.016099010731422
33219200,0.99797378855803,0.016058219774642,0.0048655205561302,0.0063271786635674,0.0048655205549443,-0.0011287003861736,0.0011286998834256,8.6057046911509e-10,-1.3734094361753e-09,1.6256818645883e-09,-2.2209266918611e-09,-0.00125283735114,0.0012528395480836,-0.0012528387178109,0.001252838174866,-0.0012528392315554,0.0012528376164565,-0.0012528393238114,0.001252837401136,-0.0011263764141474,0.0011263756544017,-0.0011263772357518,0.0011263745386185,6.487609094466e-10,-1.3966963775903e-09,1.7096490796295e-10,-8.8779445548879e-10,-0.0015869507787767,0.0015869500762181,-0.0016902072957596,0.0016902081553084,-0.0016902079602922,0.0016902074501129,-0.001690208406425,0.0016902070226563,-0.0016902085271423,0.0016902068539596,-0.0014688249043867,0.0014688229070454,-0.0014688241224271,0.0014688235009556,-0.001468824123656,0.0014688236136983,-0.0014688245422906,0.001468823129815,-6.628644488983e-10,8.9775189878471e-10,-0.0011287000244299,0.0011287002453682,2.4305279625097e-09,-2.2461442261886e-09,-0.0012528374447321,0.0012528394441597,-0.0012528397252278,0.0012528371372713,-0.0012528375380929,0.0012528393271501,-0.0012528385560114,0.0012528381902128,-0.0011263751980884,0.0011263765391482,-0.0011263781320975,0.0011263739755577,0.72923013158056,128566,2924,0.0046928758344362,0.0065893773044406,0.0046928758348648,28.726112288689,-7.791101690489e-06,-7.791101690489e-06,-7.791101690489e-06,2624588.1335477,0.016104315848181
33419200,0.99806498197415,0.016059747990177,0.0048659803930733,0.0063277872052182,0.0048659803918857,-0.0011296122063575,0.0011296116996224,1.0360790520256e-09,-1.5527248691743e-09,1.6404810698026e-09,-2.2396233707492e-09,-0.0012538221447697,0.0012538251955637,-0.0012538243642694,0.0012538229809203,-0.0012538247762399,0.0012538225314896,-0.001253824247177,0.0012538229250362,-0.0011273282150484,0.0011273256259727,-0.0011273272235699,0.0011273263220443,6.351003794723e-10,-1.3772216276482e-09,-3.6653354200483e-10,-3.4542373407144e-10,-0.001588028123163,0.0015880274244255,-0.0016912801117628,0.0016912813367491,-0.0016912811568957,0.0016912802637853,-0.0016912819406212,0.0016912794898215,-0.0016912809841944,0.0016912804067926,-0.0014698808596489,0.0014698756921837,-0.0014698768932291,0.0014698794628728,-0.0014698793884725,0.0014698770745794,-0.0014698776492161,0.0014698787405551,-4.9204525149135e-10,7.3125268370673e-10,-0.0011296118409021,0.0011296120660063,2.4566497291547e-09,-2.2742733530084e-09,-0.0012538222342644,0.0012538251040777,-0.001253825267392,0.0012538220468416,-0.0012538231673149,0.0012538241440746,-0.001253823481412,0.0012538237235944,-0.0011273251791957,0.0011273283423645,-0.0011273299346078,0.0011273239484333,0.74278856696829,128566,2924,0.0046966593706833,0.0065938341069338,0.004696659372604,29.175989943041,-4.1920804556681e-06,-4.1920804556681e-06,-4.1920804556681e-06,2624872.1690641,0.016116534822786
33619200,0.99815333658085,0.016061228989847,0.0048664258344191,0.0063283773221933,0.0048664258332347,-0.0011301540135044,0.0011301535102281,7.4458400677484e-10,-1.2571417026629e-09,1.6388178459916e-09,-2.234062128112e-09,-0.0012544496847963,0.001254451501725,-0.0012544506606768,0.0012544505107922,-0.0012544512613447,0.0012544498671066,-0.001254451574653,0.0012544494142219,-0.0011279086940695,0.0011279085887757,-0.0011279101731525,0.0011279067978584,6.3877118909629e-10,-1.3844782524927e-09,-8.6058900194966e-11,-6.2894937638122e-10,-0.0015887394120646,0.0015887387069191,-0.0016919822757553,0.001691982620677,-0.0016919824471821,0.0016919824017812,-0.0016919830524127,0.0016919818216819,-0.001691983331512,0.0016919814907647,-0.0014705702784013,0.0014705685148337,-0.0014705697081969,0.0014705688871721,-0.0014705691634516,0.0014705695560115,-0.0014705702986915,0.001470568368365,-8.5002794238977e-10,9.7960362189115e-10,-0.0011301537035717,0.0011301538201946,2.7981732481986e-09,-2.7300795825218e-09,-0.0012544496938289,0.0012544514784538,-0.0012544519464424,0.0012544491876361,-0.0012544493881927,0.0012544517600341,-0.0012544509954181,0.0012544500242906,-0.0011279083072696,0.001127908639607,-0.0011279106089227,0.0011279067067653,0.74303225748493,128566,2924,0.0046989085664398,0.0065967754128823,0.004698908566517,29.430931994636,-2.1525440429144e-06,-2.1525440429144e-06,-2.1525440429144e-06,2622922.0905649,0.016124096090706
33819200,0.9982393061677,0.01606267455978,0.0048668606156631,0.0063289533296385,0.0048668606144783,-0.0011308559432869,0.0011308554396336,8.1936093438736e-10,-1.3328785895905e-09,1.6161354674723e-09,-2.2120285398112e-09,-0.0012552330518862,0.0012552351364578,-0.0012552343143996,0.0012552338684856,-0.0012552348533174,0.0012552332936371,-0.0012552349891073,0.0012552330220429,-0.0011286542277727,0.0011286536231929,-0.0011286551928403,0.0011286523502699,6.6026816579017e-10,-1.4052065472575e-09,-1.537862162896e-10,-5.5986404177312e-10,-0.001589613369336,0.0015896126684579,-0.0016928433952165,0.0016928439745285,-0.0016928437748865,0.0016928435553151,-0.0016928444396191,0.0016928429081428,-0.0016928444206083,0.001692842881897,-0.0014714260964449,0.0014714236793792,-0.0014714249076383,0.001471424691619,-0.0014714248749245,0.0014714248293809,-0.0014714255490356,0.0014714240982755,-7.7699327763137e-10,9.2077576458593e-10,-0.0011308556266625,0.0011308557559462,2.782010015739e-09,-2.6972764309876e-09,-0.00125523306122,0.0012552351179747,-0.0012552355338865,0.0012552326191026,-0.0012552330308607,0.0012552351235848,-0.0012552343983679,0.001255233642487,-0.0011286533137967,0.001128654203388,-0.0011286561490927,0.001128651733555,0.74517938764119,128566,2924,0.0047018218357114,0.0066003899704317,0.0047018218350771,29.774600009501,5.9680007600626e-07,5.9680007600626e-07,5.9680007600626e-07,2621356.7243935,0.016133690957839
34019200,0.99832326954994,0.016064043874526,0.0048672713005703,0.006329501274572,0.004867271299384,-0.0011317146433121,0.0011317141478114,9.4071577960955e-10,-1.4462338888292e-09,1.5969828873572e-09,-2.1841024816978e-09,-0.0012561744482167,0.0012561770657209,-0.001256176252135,0.0012561752570871,-0.0012561766967776,0.0012561747791785,-0.0012561764472073,0.0012561748860769,-0.0011295602600717,0.0011295585403783,-0.0011295600814471,0.0011295583983178,6.9680976405767e-10,-1.4423031301e-09,-1.6700547939136e-10,-5.4737368163917e-10,-0.0015906453039005,0.0015906446006066,-0.0016938592337543,0.0016938602834703,-0.0016938600616755,0.0016938594089717,-0.0016938607587368,0.0016938587329891,-0.0016938602742026,0.0016938591719234,-0.0014724407742852,0.0014724369660505,-0.0014724382172783,0.0014724393414478,-0.0014724394833793,0.0014724381797005,-0.0014724388965533,0.0014724387213525,-6.6611896038697e-10,8.1545244215492e-10,-0.0011317143277726,0.0011317144630825,2.7595030683108e-09,-2.6694318473356e-09,-0.0012561744617345,0.0012561770434429,-0.0012561773799448,0.0012561740979083,-0.0012561749658827,0.0012561765145019,-0.0012561758566953,0.0012561755104129,-0.0011295581980186,0.0011295602679322,-0.0011295621850128,0.0011295566431009,0.72426716998892,128566,2924,0.0047053852830995,0.0066046583000639,0.0047053852825472,30.203253138126,4.0260251050056e-06,4.0260251050056e-06,4.0260251050056e-06,2619546.2481837,0.016145271625528
34219200,0.99840380133728,0.016065321578626,0.0048676535542532,0.0063300144713053,0.0048676535530671,-0.0011320003276318,0.001131999835547,8.8540595866529e-10,-1.3876632803017e-09,1.584731375763e-09,-2.1680162262984e-09,-0.0012565099785907,0.001256512177765,-0.0012565113704596,0.0012565107824331,-0.0012565118443632,0.0012565102747186,-0.0012565119309935,0.0012565100472271,-0.001129866267149,0.001129865557852,-0.0011298670898036,0.0011298644221048,6.965761940166e-10,-1.4424665804008e-09,6.3056867714799e-11,-7.7755788731675e-10,-0.0015910559460865,0.0015910552432184,-0.0016942684451431,0.0016942692661806,-0.0016942690420318,0.0016942686218207,-0.0016942695893896,0.0016942680985315,-0.0016942696347451,0.001694268002252,-0.0014728359013604,0.0014728335966173,-0.0014728348477288,0.0014728344653637,-0.0014728349145499,0.0014728345053412,-0.0014728353740523,0.0014728339892954,-6.9395761814465e-10,9.2003945953083e-10,-0.0011319999756241,0.0011320001877745,2.5736380304189e-09,-2.4013730883981e-09,-0.0012565100305136,0.0012565121181094,-0.0012565124242671,0.0012565096979652,-0.0012565101161956,0.0012565120075071,-0.0012565112306049,0.001256510781152,-0.0011298650883221,0.00112986640392,-0.001129868097012,0.0011298637588316,0.70594538707793,128566,2924,0.0047065712711513,0.0066063563438851,0.0047065712716173,30.330039489733,5.0403159178604e-06,5.0403159178604e-06,5.0403159178604e-06,2619170.4390569,0.016149408062198
34419200,0.99848190107765,0.016066565956265,0.0048680260061295,0.006330513945192,0.0048680260049436,-0.0011326741117993,0.0011326736239985,9.3271533931898e-10,-1.4305232431435e-09,1.5728696215782e-09,-2.151444133035e-09,-0.0012572079073975,0.0012572103211766,-0.0012572095227004,0.0012572087073608,-0.0012572099578648,0.0012572082390732,-0.0012572098788018,0.0012572081717059,-0.0011305568117784,0.001130555631055,-0.0011305571447535,0.0011305549736757,7.1387126813454e-10,-1.4573521418336e-09,1.3519453137046e-10,-8.4788134004237e-10,-0.0015918297781512,0.0015918290752959,-0.0016950474866572,0.0016950485619699,-0.0016950483279903,0.0016950476669076,-0.0016950488382969,0.001695047184499,-0.0016950487341829,0.0016950472365573,-0.0014735956160049,0.0014735929076277,-0.0014735941511321,0.0014735941567637,-0.0014735946894194,0.0014735937383674,-0.0014735946518304,0.0014735937267744,-6.4523106874773e-10,8.9746317574011e-10,-0.0011326737475278,0.0011326739876437,2.4866973944545e-09,-2.2886564510208e-09,-0.0012572079777381,0.0012572102451023,-0.0012572104991224,0.0012572076969121,-0.001257208277285,0.0012572099207778,-0.0012572091360538,0.0012572089504352,-0.0011305550980186,0.0011305570136473,-0.0011305586049362,0.0011305538652158,0.70868167052807,128566,2924,0.0047093662402545,0.0066095583951322,0.0047093662389494,30.662077873122,7.6966229849791e-06,7.6966229849791e-06,7.6966229849791e-06,2621074.4012975,0.016158342229784
34619200,0.99856225835568,0.016067899756135,0.0048684266263682,0.0063310465045839,0.0048684266251831,-0.001135410154018,0.0011354096943491,6.7962354468046e-10,-1.1495453768569e-09,1.486385964135e-09,-2.0350157474893e-09,-0.0012599949125332,0.0012599960272555,-0.0012599952700194,0.0012599956762804,-0.0012599958122302,0.0012599950896557,-0.0012599966435901,0.0012599941297439,-0.001133348362579,0.0011333499116308,-0.0011333513527006,0.0011333466428507,7.5025650606109e-10,-1.500401508058e-09,-1.0597500950091e-09,3.4127922633037e-10,-0.0015947259733789,0.0015947252666524,-0.0016979400691011,0.0016979393012573,-0.0016979390611873,0.0016979402938459,-0.0016979403694881,0.0016979389805786,-0.0016979405706042,0.0016979387525612,-0.0014764676444403,0.0014764657180391,-0.0014764670214692,0.0014764661865189,-0.0014764651203406,0.0014764681858767,-0.0014764682972859,0.0014764649352291,-9.3378489211179e-10,1.1623371768162e-09,-0.0011354098166369,0.0011354100314861,2.3246545165179e-09,-2.1495735653386e-09,-0.0012599950310093,0.001259995905469,-0.00125999637072,0.0012599945394285,-0.0012599940645402,0.0012599968477136,-0.0012599959027545,0.0012599948972727,-0.0011333492895795,0.0011333486709309,-0.0011333501843421,0.0011333481382352,0.73613944875568,128566,2924,0.0047207147267894,0.0066215437000783,0.0047207147262837,32.084306413362,1.9074451306899e-05,1.9074451306899e-05,1.9074451306899e-05,2626066.651671,0.016193586435511
34819200,0.99864479760696,0.016069281727043,0.0048688418201785,0.0063315980878714,0.0048688418189932,-0.0011382728116682,0.0011382723574872,1.1303848447836e-09,-1.595064109115e-09,1.4863586355507e-09,-2.0295986785065e-09,-0.0012629577915788,0.0012629608285258,-0.0012629600590427,0.0012629585505472,-0.0012629603060338,0.0012629582763041,-0.0012629598148998,0.0012629586226278,-0.0011362884855109,0.0011362861835754,-0.0011362875955458,0.0011362867517023,8.3561462878197e-10,-1.5938526988353e-09,-4.3202573173398e-10,-2.9366470098026e-10,-0.0015978046248881,0.0015978039105795,-0.0017010042605755,0.0017010055990251,-0.0017010052940969,0.0017010045257282,-0.0017010062442808,0.0017010035888469,-0.0017010052374566,0.0017010045527615,-0.001479518686543,0.0014795132982592,-0.0014795146604106,0.0014795171478979,-0.0014795168722092,0.0014795150444854,-0.0014795156009415,0.0014795162587389,-6.4683655137413e-10,5.7225545153932e-10,-0.0011382726295984,0.0011382725392907,3.4993844860884e-09,-3.6523484981401e-09,-0.0012629576175416,0.001262960990886,-0.0012629614616262,0.0012629571211316,-0.001262958563074,0.001262960021046,-0.0012629596725597,0.0012629587994737,-0.0011362861374734,0.0011362881965368,-0.0011362909094771,0.0011362837863091,0.74236296117699,128566,2924,0.0047325892097493,0.0066342825063067,0.0047325892091989,33.572714252289,3.0981714018308e-05,3.0981714018308e-05,3.0981714018308e-05,2628955.7134158,0.016230667856715
35019200,0.99872694914722,0.0160706150761,0.004869241180667,0.0063321327159509,0.0048692411794816,-0.0011402256022027,0.0011402251426082,4.967952808371e-10,-9.6676302775934e-10,1.4847124672739e-09,-2.0330547231032e-09,-0.0012650149116927,0.0012650154428667,-0.0012650146857688,0.001265015673108,-0.0012650153508918,0.0012650149659976,-0.0012650165182016,0.00126501366877,-0.0011383008562114,0.0011383034153782,-0.0011383048463558,0.0011382991302839,7.6331017104529e-10,-1.5145219600996e-09,-1.2380494242046e-09,5.1869926350531e-10,-0.0015999631073465,0.0015999623994782,-0.0017031512082916,0.0017031498588653,-0.0017031496101192,0.0017031514408159,-0.0017031510507995,0.0017031499917995,-0.0017031515945799,0.0017031494281227,-0.0014816477767902,0.0014816467485717,-0.001481648068521,0.001481646309922,-0.0014816450027036,0.0014816494700262,-0.0014816494668285,0.0014816449346976,-1.162062764521e-09,1.3379877650595e-09,-0.0011402252918592,0.0011402254526648,2.4755426138724e-09,-2.3555374002591e-09,-0.0012650150044912,0.0012650153456916,-0.0012650160010218,0.0012650143236571,-0.0012650134430578,0.0012650168831429,-0.0012650158568425,0.0012650143575587,-0.0011383028549248,0.0011383010953102,-0.0011383027786575,0.0011383015327322,0.72136732847427,128566,2924,0.0047406901375642,0.0066432128016782,0.0047406901369717,34.58242670806,3.905941366448e-05,3.905941366448e-05,3.905941366448e-05,2629803.2641017,0.016256210278067
35219200,0.99880732606406,0.016071882177104,0.0048696196747556,0.0063326428287784,0.0048696196735701,-0.0011417057456843,0.0011417052602566,7.4593390437463e-10,-1.2418837255268e-09,1.5574242956116e-09,-2.1335539406269e-09,-0.0012665599225861,0.0012665615366546,-0.0012665607452025,0.0012665607132679,-0.0012665612915203,0.0012665601300738,-0.0012665617620982,0.0012665595237194,-0.0011398235409239,0.0011398239489272,-0.0011398254627481,0.0011398217306756,7.0982059976204e-10,-1.4558842135013e-09,-3.914786770069e-10,-3.2331477513202e-10,-0.0016016018323352,0.0016016011290862,-0.0017047872788255,0.001704787380041,-0.0017047871531923,0.001704787469838,-0.0017047879916423,0.0017047866440635,-0.0017047881955044,0.0017047863996441,-0.0014832631783543,0.0014832614914896,-0.0014832627578354,0.0014832617404651,-0.0014832615822858,0.0014832630132795,-0.0014832635805142,0.0014832609623615,-8.8628684445152e-10,1.1085937906628e-09,-0.001141705398757,0.0011417056068748,2.5258460894299e-09,-2.3588491987118e-09,-0.0012665600007267,0.0012665614515654,-0.0012665618873606,0.0012665595392647,-0.0012665594837702,0.0012665619440961,-0.0012665610429519,0.0012665602733029,-0.0011398234104452,0.0011398237567921,-0.0011398254210289,0.0011398221086165,0.70214462029329,128566,2924,0.0047468299307087,0.0066499930587356,0.0047468299300697,35.344070973574,4.5152567788594e-05,4.5152567788594e-05,4.5152567788594e-05,2631900.4618816,0.016275581263823
35419200,0.99888500476975,0.016073068068592,0.0048699728648672,0.006333122340043,0.0048699728636817,-0.0011428528583321,0.0011428523492599,9.209689318916e-10,-1.439963844542e-09,1.6204802664586e-09,-2.2213812809737e-09,-0.0012677401549755,0.0012677424809699,-0.0012677416630593,0.0012677409725728,-0.0012677421355561,0.0012677404646893,-0.0012677421681093,0.0012677402926513,-0.0011409938481916,0.0011409929093863,-0.0011409944900645,0.0011409919593731,6.5238687791105e-10,-1.3927499735032e-09,2.8319443413384e-10,-9.9289847386847e-10,-0.0016028625346371,0.0016028618364645,-0.0017060571910424,0.0017060582428708,-0.0017060580434592,0.0017060573394426,-0.0017060584118713,0.0017060569994944,-0.0017060584989412,0.0017060568579557,-0.0014845024242764,0.0014845004105985,-0.0014845016154338,0.0014845010148759,-0.0014845017810376,0.0014845009635024,-0.0014845019711263,0.0014845007179497,-6.58735247708e-10,9.8205370561355e-10,-0.0011428524482738,0.0011428527589914,2.3439219770278e-09,-2.0698184354814e-09,-0.0012677402765544,0.0012677423527981,-0.0012677425692391,0.0012677400345794,-0.001267740438246,0.0012677421661527,-0.0012677412821349,0.0012677412109309,-0.0011409922666382,0.0011409941623674,-0.0011409955701175,0.0011409912216378,0.68162529498374,128566,2924,0.0047515877480732,0.0066552098368816,0.0047515877473973,35.929394245585,4.9835153964684e-05,4.9835153964684e-05,4.9835153964684e-05,2635127.4418983,0.016290553967889
35619200,0.99896078236964,0.016074180212782,0.0048703028928141,0.0063335744283396,0.0048703028916286,-0.0011444220919139,0.0011444215770158,1.3256421554281e-09,-1.8504919305054e-09,1.6387284392358e-09,-2.2462820296259e-09,-0.0012693184380128,0.0012693224459534,-0.0012693216171505,0.0012693192621204,-0.0012693218368011,0.001269319012815,-0.001269320732084,0.0012693199703577,-0.0011425819258513,0.0011425776811109,-0.001142579271595,0.0011425800077506,6.5285144795405e-10,-1.3926807178542e-09,9.0538364715106e-10,-1.6145669730873e-09,-0.0016045189496549,0.0016045182515908,-0.0017077305641147,0.0017077334170848,-0.0017077332093078,0.0017077307043395,-0.0017077331809094,0.0017077307766442,-0.0017077322688116,0.0017077316200071,-0.0014861378612395,0.0014861328879488,-0.0014861340758077,0.0014861364330935,-0.001486138028174,0.0014861326162913,-0.0014861340376898,0.0014861365496929,-2.7892110468848e-10,5.6571415433102e-10,-0.0011444216970004,0.0011444219716187,2.6255741481003e-09,-2.3921468189685e-09,-0.0012693184848639,0.001269322390171,-0.0012693223787206,0.0012693184706316,-0.0012693203134172,0.0012693205366279,-0.0012693199517462,0.0012693207866889,-0.0011425771514761,0.0011425821171265,-0.0011425837600168,0.0011425758713361,0.65730118575363,128566,2924,0.0047580955553699,0.0066620651308845,0.0047580955547278,36.737358501221,5.6298868009771e-05,5.6298868009771e-05,5.6298868009771e-05,2640609.9690565,0.016310748724567
35819200,0.99903513785547,0.016075341459061,0.0048706495778338,0.006334042304579,0.0048706495766482,-0.0011463432886393,0.0011463427844534,1.2464549357014e-09,-1.7606910471066e-09,1.6065537670984e-09,-2.2026241436385e-09,-0.0012712204457784,0.0012712243218091,-0.0012712235088592,0.0012712212564852,-0.0012712237610011,0.0012712209723761,-0.0012712226575399,0.0012712219315793,-0.0011445092301318,0.0011445050557778,-0.0011445066143469,0.0011445073511542,6.7492915008364e-10,-1.4169489201831e-09,6.4446076769533e-10,-1.3555897762511e-09,-0.0016064861457996,0.0016064854459871,-0.0017097298767701,0.001709732495407,-0.0017097322775399,0.0017097300339,-0.0017097324369027,0.0017097299114337,-0.0017097314237787,0.0017097308622887,-0.001488086432058,0.0014880809878529,-0.0014880821946574,0.0014880849895355,-0.0014880862294423,0.0014880810929532,-0.0014880823369456,0.0014880849170922,-3.6607113070103e-10,6.6653770622693e-10,-0.0011463428922394,0.0011463431805823,2.5193247428879e-09,-2.27064846192e-09,-0.0012712205202482,0.0012712242396741,-0.0012712242797774,0.0012712204546662,-0.0012712222252302,0.0012712225098239,-0.0012712218464045,0.0012712227773071,-0.0011445044550749,0.0011445094962399,-0.0011445110472467,0.001144503266783,0.69619441513325,128566,2924,0.0047660622164815,0.0066702075166068,0.0047660622159217,37.722881777088,6.4183054216703e-05,6.4183054216703e-05,6.4183054216703e-05,2647613.9447909,0.016335216805275
36019200,0.99910515257219,0.016076501594513,0.0048709976567373,0.0063345062822238,0.0048709976555517,-0.0011469133117639,0.0011469128007798,9.5008446850915e-10,-1.4709945820241e-09,1.6213422099356e-09,-2.2241434531207e-09,-0.0012718159762526,0.0012718182920534,-0.001271817475972,0.0012718167941151,-0.0012718179310202,0.0012718163031281,-0.0012718180091906,0.0012718160844843,-0.001145087454766,0.0011450866774843,-0.0011450882594963,0.001145085561508,6.5012901047559e-10,-1.3899648539396e-09,6.7267395897818e-10,-1.3818691827862e-09,-0.0016071276046426,0.0016071269068815,-0.001710390995963,0.0017103922485325,-0.0017103920457572,0.0017103911384518,-0.0017103921666035,0.0017103910538538,-0.0017103925477352,0.0017103906118867,-0.0014887046013593,0.0014887032577471,-0.0014887044480347,0.001488703180719,-0.0014887044677489,0.0014887032922431,-0.0014887045544967,0.0014887031396815,-6.0534130774409e-10,1.032737699585e-09,-0.0011469128480613,0.0011469132642032,2.0967109995653e-09,-1.7113634615357e-09,-0.0012718161560241,0.0012718181067748,-0.001271818220262,0.00127181601709,-0.0012718162890625,0.0012718179487117,-0.0012718169600584,0.001271817166377,-0.0011450858552673,0.001145087946814,-0.0011450890506184,0.0011450851143754,0.73586529076625,128566,2924,0.0047684265715164,0.0066728616976719,0.0047684265709396,37.99396329781,6.635170638248e-05,6.635170638248e-05,6.635170638248e-05,2648583.3068778,0.016342720739645
36219200,0.99916966520413,0.016077535616535,0.004871306950495,0.0063349217167301,0.0048713069493095,-0.0011467197819417,0.0011467192675926,1.228395100303e-09,-1.7526808734347e-09,1.6352098951017e-09,-2.2417759019909e-09,-0.0012716821143785,0.0012716858342551,-0.0012716850106808,0.0012716829391604,-0.0012716852886423,0.0012716826269069,-0.0012716843453657,0.0012716834270644,-0.0011449200542241,0.0011449162510394,-0.001144917844582,0.0011449181449305,6.4479180370006e-10,-1.3842057857575e-09,1.1155155299428e-09,-1.8243467583412e-09,-0.0016070343565873,0.001607033659218,-0.0017102945330702,0.0017102973002703,-0.0017102970959192,0.0017102946677153,-0.0017102969225992,0.0017102948875128,-0.0017102963719961,0.0017102953665445,-0.0014885933528292,0.001488589487644,-0.001488590668396,0.0014885919305231,-0.0014885938026443,0.0014885889278084,-0.0014885904886808,0.0014885921856899,-3.2668949432711e-10,7.7092189427524e-10,-0.0011467193077629,0.0011467197414307,1.9995545158056e-09,-1.5940775137082e-09,-0.0012716823276256,0.0012716856151268,-0.0012716855301526,0.0012716823872553,-0.001271683851041,0.0012716840666431,-0.0012716832432715,0.0012716845631777,-0.0011449153823296,0.0011449205903781,-0.0011449216090661,0.0011449147267865,0.71361273445101,128566,2924,0.0047676256034843,0.0066724737315913,0.00476762560278,37.867430669483,6.5339445355862e-05,6.5339445355862e-05,6.5339445355862e-05,2643809.5405404,0.016340699597834
36419200,0.99922659632439,0.016078435598721,0.004871575852834,0.0063352838942389,0.0048715758516485,-0.0011449684274954,0.0011449679261492,7.8884271556196e-10,-1.3002756807032e-09,1.5842321725685e-09,-2.1766465574124e-09,-0.0012699295502398,0.0012699310570558,-0.0012699302614066,0.001269930351577,-0.0012699307982214,0.0012699297766,-0.0012699314458371,0.0012699289897472,-0.0011431515854327,0.0011431525045674,-0.0011431540502902,0.0011431497308251,6.8539809932325e-10,-1.4287024291215e-09,1.2829893779081e-09,-1.9952813129961e-09,-0.001605250573601,0.0016052498727739,-0.0017085181112572,0.0017085191116948,-0.0017085188812611,0.001708518268967,-0.0017085186278735,0.0017085185703387,-0.0017085200854402,0.0017085170396169,-0.0014868030799121,0.0014868049375812,-0.0014868061433836,0.0014868016193652,-0.0014868036928311,0.0014868042100378,-0.0014868058804483,0.0014868019575204,-7.1932512760376e-10,1.2902182522052e-09,-0.0011449678958903,0.0011449684574051,1.5100297279225e-09,-9.6557140725961e-10,-0.0012699298782303,0.0012699307253395,-0.0012699308211313,0.0012699297572084,-0.0012699292078332,0.0012699313710777,-0.001269930116703,0.0012699303509849,-0.0011431513530079,0.001143152408121,-0.0011431529279689,0.0011431511957265,0.70434246375472,128566,2924,0.0047603627087967,0.0066650911656474,0.0047603627080749,36.902651546875,5.7621212375005e-05,5.7621212375005e-05,5.7621212375005e-05,2634461.6761498,0.016318433394346
36619200,0.99927823547977,0.01607920533139,0.0048718047386151,0.0063355958553449,0.0048718047374296,-0.0011440614580821,0.0011440609593068,7.7123858044444e-10,-1.280278697073e-09,1.572645921958e-09,-2.1624556574052e-09,-0.0012690077647555,0.0012690091595346,-0.0012690083694183,0.0012690085597352,-0.0012690089097481,0.0012690079819392,-0.0012690096398811,0.0012690071121736,-0.0011422366698551,0.0011422378441849,-0.0011422393795985,0.0011422348269698,6.9927565272646e-10,-1.4439432935235e-09,1.1129748904987e-09,-1.826482969199e-09,-0.0016043274432085,0.0016043267411987,-0.0017076009760565,0.0017076017915594,-0.0017076015550892,0.0017076011446808,-0.0017076014204578,0.0017076013237841,-0.0017076028505245,0.0017075998221949,-0.0014858751792023,0.0014858770245731,-0.0014858782467286,0.0014858737131497,-0.001485875552761,0.0014858765404998,-0.0014858781025205,0.0014858739304535,-7.6823880056728e-10,1.2988925014398e-09,-0.0011440609481054,0.0011440614689378,1.6620830856203e-09,-1.1616576566615e-09,-0.0012690080550664,0.0012690088649884,-0.0012690090191253,0.0012690078757672,-0.0012690072719812,0.0012690096235602,-0.0012690083907718,0.0012690083935225,-0.001142236755762,0.0011422374301266,-0.0011422381060772,0.0011422364422892,0.66675553350898,128566,2924,0.0047566013600273,0.006661270819742,0.0047566013593126,36.396321958778,5.3570575670227e-05,5.3570575670227e-05,5.3570575670227e-05,2629693.6840109,0.016306904901749
36819200,0.99932651251195,0.016079905143643,0.0048720123984654,0.0063358803478975,0.0048720123972799,-0.0011441588048717,0.0011441582996565,1.191418683216e-09,-1.7068493881305e-09,1.5959037790457e-09,-2.1926738444368e-09,-0.0012690601899826,0.0012690636437549,-0.0012690628413624,0.0012690609952157,-0.0012690631189489,0.0012690606807975,-0.00126906236303,0.001269061297861,-0.0011423170932355,0.0011423139063788,-0.0011423154672048,0.0011423152275454,6.956912437571e-10,-1.4405299745628e-09,5.0356033793028e-10,-1.2172764395109e-09,-0.001604407419627,0.0016044067178959,-0.0017077062954051,0.0017077084738841,-0.001707708246633,0.0017077064693023,-0.0017077085043962,0.0017077062430383,-0.0017077077726797,0.0017077069147012,-0.001485948871345,0.0014859443103299,-0.0014859455406619,0.0014859474203597,-0.0014859484571736,0.0014859446298424,-0.0014859457845792,0.0014859472371022,-4.0869157803959e-10,8.3168513260296e-10,-0.0011441583462009,0.0011441587579796,2.0952926740706e-09,-1.7147779815921e-09,-0.0012690603778826,0.0012690634506514,-0.0012690634369901,0.0012690603665148,-0.0012690616357526,0.0012690621680395,-0.001269061315397,0.0012690623772398,-0.0011423130371998,0.0011423176350244,-0.0011423187447421,0.0011423122910797,0.64958125900692,128566,2924,0.0047570040375325,0.0066616032372632,0.0047570040368139,36.429629032123,5.3837032256986e-05,5.3837032256986e-05,5.3837032256986e-05,2633473.5998523,0.01630806005733
37019200,0.99937224414945,0.016080612360388,0.0048722235913199,0.0063361651789339,0.0048722235901343,-0.001144732493886,0.001144731986922,9.6563935779958e-10,-1.4827512066638e-09,1.6017959792379e-09,-2.2005927784012e-09,-0.0012695837902244,0.0012695860624186,-0.001269585254791,0.001269584596224,-0.0012695856865803,0.0012695841306851,-0.0012695858181223,0.0012695838581332,-0.0011428671885803,0.0011428665721147,-0.0011428681353984,0.0011428653132222,6.7114360014136e-10,-1.4130883757083e-09,9.2881540179763e-12,-7.2035183092251e-10,-0.0016049659532897,0.001604965253781,-0.0017083026903785,0.0017083034939186,-0.0017083032857107,0.0017083028533759,-0.0017083038493389,0.001708302312258,-0.0017083038282542,0.0017083022843302,-0.0014864930518747,0.0014864906102644,-0.0014864918341391,0.0014864916316304,-0.0014864920276469,0.0014864915521701,-0.0014864923805169,0.0014864911400338,-7.1500483638717e-10,9.9521310124919e-10,-0.0011447321066578,0.0011447323738058,2.6647508311619e-09,-2.4415681362565e-09,-0.0012695838379286,0.0012695860071654,-0.001269586289669,0.0012695835301911,-0.001269583904588,0.0012695859158295,-0.0012695850500384,0.0012695846591237,-0.00114286598052,0.0011428674494355,-0.00114286913085,0.0011428646620707,0.68962108410247,128566,2924,0.0047593818566022,0.0066639166509254,0.0047593818558903,36.716061990434,5.6128495923472e-05,5.6128495923472e-05,5.6128495923472e-05,2640850.1537765,0.016315243099645
37219200,0.99941664239563,0.016081345957387,0.0048724438777747,0.0063364582030227,0.0048724438765891,-0.0011462186352488,0.0011462181209506,1.1854784801888e-09,-1.7098944043936e-09,1.6300239788845e-09,-2.2367380071304e-09,-0.001271093477618,0.0012710969970464,-0.0012710961744519,0.0012710942967371,-0.0012710964795094,0.0012710939582295,-0.0012710956747801,0.0012710946231953,-0.0011443747668098,0.0011443713785364,-0.0011443729712638,0.001144372863797,6.5553324649753e-10,-1.3960303812301e-09,-6.3646726453843e-10,-7.3317713664763e-11,-0.001606553857137,0.0016065531589607,-0.0017099069577586,0.0017099084093292,-0.0017099082178257,0.0017099071184087,-0.0017099091897903,0.0017099061553432,-0.0017099076659345,0.0017099076436238,-0.0014880585687413,0.0014880516625552,-0.0014880528882288,0.0014880571745106,-0.0014880567247043,0.0014880534403536,-0.0014880538377139,0.001488056266868,-5.4469992186849e-10,7.3847013306144e-10,-0.0011462182883425,0.0011462184674976,3.0371172046248e-09,-2.9110243470647e-09,-0.0012710934381293,0.0012710970281432,-0.0012710972547038,0.001271093186456,-0.0012710947312366,0.0012710957101392,-0.0012710950714368,0.0012710952588203,-0.0011443709742117,0.001144374841061,-0.001144376887608,0.0011443692912102,0.73362849312601,128566,2924,0.0047655456643114,0.0066704877561676,0.0047655456635688,37.495615041728,6.2364920333827e-05,6.2364920333827e-05,6.2364920333827e-05,2647598.0640021,0.016334450761047
37419200,0.99945886876138,0.016081995387947,0.004872637553783,0.0063367202815668,0.0048726375525973,-0.0011470791154828,0.001147078595649,1.1456497375031e-09,-1.6755322649218e-09,1.6412830600486e-09,-2.2535659302254e-09,-0.0012720338151011,0.001272037070843,-0.0012720362444887,0.0012720346379947,-0.0012720365828634,0.0012720342660932,-0.0012720359975897,0.0012720347116565,-0.0011452717351056,0.0011452689516299,-0.0011452705592717,0.0011452698172908,6.3161885430109e-10,-1.3698448111225e-09,-6.2710238762899e-10,-8.0656444471575e-11,-0.0016075519325583,0.0016075512364226,-0.0017109016932962,0.0017109028933688,-0.0017109027152168,0.0017109018384251,-0.0017109036669403,0.0017109008972092,-0.0017109023890097,0.0017109021392694,-0.0014890312999957,0.0014890251670041,-0.0014890263728816,0.0014890299231565,-0.0014890294993205,0.0014890268993747,-0.0014890273008355,0.0014890290384292,-6.5031759679896e-10,7.2689518485198e-10,-0.0011470788244699,0.0011470788862854,3.0296972468876e-09,-3.0204207726406e-09,-0.0012720338229469,0.0012720370546485,-0.0012720374294515,0.0012720334230001,-0.0012720348419356,0.0012720360106815,-0.0012720354590056,0.001272035282574,-0.001145268620385,0.001145271736393,-0.0011452739334875,0.0011452667866913,0.68665852414209,128566,2924,0.004769116123148,0.0066746158959963,0.0047691161223694,37.94222040936,6.5937763274879e-05,6.5937763274879e-05,6.5937763274879e-05,2646856.6310538,0.016345905761513
37619200,0.99949798778376,0.016082575914085,0.0048728101104519,0.0063369556943672,0.0048728101092663,-0.0011470590676485,0.0011470585398351,1.1734745411767e-09,-1.7111499746486e-09,1.6615935018359e-09,-2.2821761552615e-09,-0.0012720136011949,0.0012720168386765,-0.001272016005766,0.0012720144341663,-0.001272016339039,0.0012720140643657,-0.0012720158210715,0.0012720144448816,-0.0011452447691742,0.0011452421754435,-0.0011452438095931,0.0011452428297486,6.059698664483e-10,-1.3418123899643e-09,-3.1752930716822e-10,-3.8812041583477e-10,-0.001607553149837,0.0016075524558311,-0.0017109216349156,0.0017109229754066,-0.0017109228105335,0.0017109217620801,-0.0017109235414203,0.0017109210474299,-0.0017109225165009,0.0017109220307984,-0.0014890187652194,0.001489013351599,-0.0014890145306941,0.0014890174017561,-0.0014890173998431,0.0014890146401053,-0.0014890152412482,0.0014890167369477,-5.5059347838321e-10,7.8315770616065e-10,-0.0011470586940188,0.0011470589130568,2.5698361615634e-09,-2.3932703558906e-09,-0.0012720137197108,0.0012720167136175,-0.0012720169202536,0.0012720134878547,-0.0012720147053467,0.001272015702752,-0.0012720150093797,0.0012720152878418,-0.0011452415901559,0.0011452450269509,-0.0011452467089784,0.0011452402716545,0.66415580012813,128566,2924,0.0047690328933181,0.0066746210538801,0.0047690328924744,37.916700355511,6.5733602844088e-05,6.5733602844088e-05,6.5733602844088e-05,2647701.0151598,0.016345741745521
37819200,0.99953320245847,0.016083078150724,0.0048729588641672,0.0063371604235753,0.0048729588629815,-0.0011460129167846,0.0011460123937003,7.2637496626544e-10,-1.259409087061e-09,1.64276270801e-09,-2.2584729258495e-09,-0.0012709162318864,0.0012709178352666,-0.0012709170088051,0.0012709170528327,-0.0012709176289135,0.0012709164050248,-0.0012709181368422,0.0012709157472187,-0.0011441605766022,0.0011441610110853,-0.0011441626107925,0.0011441586413175,5.9668492515571e-10,-1.3301534551368e-09,1.0483699773109e-09,-1.7517327368262e-09,-0.0016064252842201,0.0016064245913903,-0.0017098226048675,0.0017098235075005,-0.0017098233305795,0.0017098227079609,-0.0017098231751664,0.0017098229126028,-0.001709824359667,0.0017098216574554,-0.0014878843050476,0.0014878855188163,-0.001487886663929,0.0014878829195222,-0.0014878847319988,0.0014878849832529,-0.0014878864975224,0.0014878831695041,-1.0157628446313e-09,1.2369572292782e-09,-0.0011460125505373,0.0011460127595549,2.6287393964629e-09,-2.4599180447199e-09,-0.0012709163355238,0.0012709177221351,-0.0012709182436638,0.0012709157885667,-0.0012709156897927,0.0012709183430734,-0.0012709173583125,0.0012709165633933,-0.0011441604248173,0.0011441608211402,-0.0011441625535326,0.0011441590539538,0.6401645286384,128566,2924,0.0047646931279967,0.00666995497351,0.0047646931271842,37.336500553291,6.1092004426331e-05,6.1092004426331e-05,6.1092004426331e-05,2645768.5585814,0.016332176915694
38019200,0.99956423156575,0.01608353996737,0.0048730963003822,0.0063373473677915,0.0048730962991965,-0.0011441435389388,0.0011441430227572,9.2884294126514e-10,-1.4550493684275e-09,1.6134775545668e-09,-2.2214615775207e-09,-0.0012689431230521,0.0012689451990807,-0.0012689443925517,0.0012689439330941,-0.0012689448561425,0.0012689434336896,-0.0012689451407644,0.0012689430072397,-0.0011422284367885,0.001142228230716,-0.0011422298124358,0.0011422265402155,6.5320758542723e-10,-1.3931727204709e-09,1.2235227632783e-09,-1.9327965432747e-09,-0.0016043758842108,0.0016043751864425,-0.00170781059584,0.0017078120057947,-0.0017078117945915,0.0017078107344881,-0.0017078115578893,0.0017078110200838,-0.0017078125092634,0.0017078099947606,-0.001485840764084,0.0014858412314855,-0.0014858424151893,0.0014858393315331,-0.001485841342392,0.001485840539164,-0.0014858421686329,0.0014858396554209,-7.1745565415239e-10,1.1571077063827e-09,-0.0011441430658519,0.0011441434954541,1.7849223576707e-09,-1.3779894760705e-09,-0.0012689434337687,0.0012689448834486,-0.0012689450644951,0.0012689432276798,-0.0012689432694558,0.0012689450229556,-0.0012689439450229,0.0012689442363411,-0.0011422271975885,0.0011422291377849,-0.001142230015488,0.0011422266828719,0.6657016079473,128566,2924,0.0047569381897809,0.0066614764787355,0.0047569381889742,36.308568956132,5.2868551649054e-05,5.2868551649054e-05,5.2868551649054e-05,2641903.0856663,0.016307794838822
38219200,0.999592533721,0.016083964708554,0.0048732228857571,0.006337518938225,0.0048732228845714,-0.0011433634138246,0.0011433628995173,1.1355776289565e-09,-1.6600060505323e-09,1.6049146255885e-09,-2.2111441280647e-09,-0.0012681081532382,0.001268110675918,-0.0012681098746347,0.001268108959897,-0.0012681101946629,0.0012681086013581,-0.0012681103018659,0.0012681083556284,-0.0011414236961336,0.0011414229911359,-0.001141424565475,0.0011414218092102,6.659920371063e-10,-1.4064282976397e-09,9.0055001946213e-10,-1.6101702749916e-09,-0.0016035064083265,0.001603505709499,-0.0017069605999791,0.0017069621217205,-0.0017069619062219,0.0017069607486753,-0.0017069618846786,0.0017069608120522,-0.001706962315291,0.0017069603156524,-0.0014849702041247,0.0014849690781677,-0.0014849702792696,0.0014849687668435,-0.0014849703425271,0.0014849688309102,-0.0014849702490056,0.0014849688685355,-4.9906626673393e-10,9.8371297137725e-10,-0.0011433629194137,0.0011433633935371,1.6034832597459e-09,-1.1472257784572e-09,-0.0012681085107324,0.001268110314331,-0.0012681103226632,0.0012681084772294,-0.0012681087908478,0.0012681100096052,-0.0012681090175512,0.0012681096716678,-0.0011414218571812,0.0011414244995168,-0.0011414252016132,0.0011414215172711,0.67076547800817,128566,2924,0.0047537019496783,0.006657879472165,0.0047537019488693,35.868511511757,4.9348092094053e-05,4.9348092094053e-05,4.9348092094053e-05,2639342.4486903,0.016297560142754
38419200,0.99962474160139,0.016084480830012,0.0048733776778206,0.0063377254755567,0.0048733776766349,-0.0011504897596665,0.001150489257015,1.055957424641e-09,-1.5687533214495e-09,1.5852316692662e-09,-2.179449017858e-09,-0.0012752933080185,0.0012752958789808,-0.001275295075478,0.0012752941019358,-0.0012752954405709,0.0012752937088795,-0.0012752953782813,0.0012752936274252,-0.00114865636931,0.0011486551979314,-0.0011486567357716,0.0011486545026062,6.6391427069829e-10,-1.4049324679834e-09,-1.1496709872229e-09,4.3947277787889e-10,-0.0016108901886775,0.0016108894898495,-0.0017143441234955,0.0017143444006731,-0.0017143442063797,0.0017143442920665,-0.0017143455182432,0.0017143429821084,-0.0017143445036017,0.0017143439702082,-0.0014923207443639,0.0014923152668631,-0.0014923165075199,0.0014923193507913,-0.0014923182217033,0.0014923177343982,-0.0014923177934241,0.001492318105305,-9.4690329697117e-10,7.314812267681e-10,-0.001150489624534,0.0011504893919032,3.8141247785179e-09,-4.1161951140942e-09,-0.0012752931521953,0.0012752960232771,-0.001275296790737,0.00127529235993,-0.0012752934777154,0.0012752956733789,-0.0012752953106035,0.0012752937296212,-0.0011486552382111,0.001148655990446,-0.001148659101524,0.0011486524892403,0.7125426983946,128566,2924,0.0047832573412387,0.0066884358623143,0.0047832573407346,39.656207099808,7.9649656798467e-05,7.9649656798467e-05,7.9649656798467e-05,2659799.4160828,0.016388694231137
38619200,0.99965454901577,0.016084960583728,0.0048735213751122,0.0063379178346895,0.0048735213739265,-0.0011507154246084,0.0011507148417866,1.1933468302132e-09,-1.7857612419343e-09,1.8342861409094e-09,-2.5142858630575e-09,-0.0012756060513873,0.0012756083208646,-0.0012756073973895,0.0012756069535791,-0.0012756078403995,0.0012756064949882,-0.0012756084269079,0.0012756057459129,-0.0011488902426687,0.0011488907414849,-0.0011488925261185,0.00114888807828,5.7079277067266e-10,-1.3019402155025e-09,3.4283624194108e-10,-1.0442511279625e-09,-0.0016112028391903,0.0016112021484912,-0.0017146735428447,0.0017146742095391,-0.0017146740505185,0.0017146736307019,-0.0017146743345975,0.0017146733887263,-0.0017146748220358,0.0017146728424041,-0.0014926049812328,0.0014926040673998,-0.0014926052124651,0.0014926036364143,-0.0014926045250725,0.0014926044337045,-0.0014926054945465,0.0014926034418507,-7.7783024738237e-10,5.7263238265209e-10,-0.0011507152435818,0.0011507150224781,4.1114157761879e-09,-4.4043886335057e-09,-0.0012756058516946,0.0012756085034826,-0.0012756091473905,0.0012756051812181,-0.0012756057519443,0.0012756085769576,-0.0012756083160584,0.0012756059006444,-0.0011488909897277,0.0011488896294856,-0.0011488929383965,0.0011488880461349,0.71626665881217,128566,2924,0.0047841943315661,0.0066897278191531,0.004784194330873,39.752034621091,8.0416276968726e-05,8.0416276968726e-05,8.0416276968726e-05,2657935.5271269,0.016391914186085
38819200,0.99968199450674,0.016085403841569,0.0048736541881229,0.0063380954665087,0.0048736541869373,-0.0011507427568248,0.0011507421630633,8.6285149619231e-10,-1.4657941821539e-09,1.8042992529166e-09,-2.4944459970341e-09,-0.0012756790468506,0.0012756819410272,-0.0012756810580769,0.0012756799345732,-0.0012756816913738,0.0012756792592161,-0.001275681200943,0.0012756796174617,-0.001148939320408,0.001148936606835,-0.0011489384229319,0.0011489371998527,3.2905320700334e-10,-1.0379647034202e-09,-3.9184410760796e-10,-2.8972376713779e-10,-0.0016112954779113,0.0016112948080117,-0.0017147625436555,0.0017147634443651,-0.001714763448465,0.0017147625035,-0.001714764046587,0.0017147619244187,-0.001714763180242,0.0017147627543342,-0.0014926866134945,0.0014926819097745,-0.0014926828771896,0.0014926854714021,-0.0014926855139094,0.0014926829254463,-0.0014926834502772,0.0014926849459931,-8.4779312621334e-10,1.1801099619489e-09,-0.0011507423002156,0.0011507426193157,2.0745908447326e-09,-1.7860961323734e-09,-0.0012756793502506,0.0012756816330589,-0.001275681973972,0.0012756789841155,-0.0012756798940292,0.0012756810638384,-0.0012756800422744,0.0012756808056979,-0.0011489358117942,0.0011489397890203,-0.0011489410038382,0.001148934959447,0.71845445955684,128566,2924,0.0047843090063499,0.0066901095841436,0.0047843090056122,39.755834755849,8.0446678046791e-05,8.0446678046791e-05,8.0446678046791e-05,2654340.7326641,0.016392536465044
38880000,0.99969012473148,0.016085535309292,0.0048736935858462,0.0063381481387854,0.0048736935846606,-0.0011507464564741,0.0011507458736706,8.5718616654366e-10,-1.4491867014022e-09,1.783609148906e-09,-2.4622687692028e-09,-0.0012756977865865,0.0012757006858116,-0.0012756998102467,0.0012756986685213,-0.0012757004331523,0.0012756980035386,-0.0012756999161478,0.0012756983867974,-0.001148950784866,0.0011489480234147,-0.0011489498139308,0.0011489486953636,3.6864582682892e-10,-1.0812728878555e-09,-1.6238409692436e-10,-5.2247033124296e-10,-0.0016113227561085,0.0016113220828572,-0.0017147868892353,0.0017147879852601,-0.0017147879626208,0.0017147868713506,-0.0017147884345108,0.001714786422669,-0.001714787706652,0.0017147871082855,-0.0014927111639863,0.0014927068275749,-0.0014927078227543,0.0014927099878101,-0.0014927103107428,0.0014927075915659,-0.0014927082749741,0.0014927095868924,-8.2027758984372e-10,1.2380673566063e-09,-0.0011507459623633,0.0011507463674811,1.948511661718e-09,-1.570951691188e-09,-0.0012756981023488,0.0012757003664241,-0.0012757006318708,0.0012756978116741,-0.0012756986551049,0.0012756997883094,-0.0012756986715177,0.0012756996616606,-0.001148947112826,0.0011489513721085,-0.0011489523888157,0.0011489464582916,0.71910519332513,128566,2924,0.0047843248254723,0.0066902218824192,0.0047843248248528,39.755981284951,8.0447850279607e-05,8.0447850279607e-05,8.0447850279607e-05,2653163.5812559,0.016392683105088
