time,ASR_ext,ASR_strain,ASR_strain_xx,ASR_strain_yy,ASR_strain_zz,disp_x_101,disp_x_102,disp_x_103,disp_x_104,disp_x_105,disp_x_106,disp_x_p10_neg,disp_x_p10_pos,disp_x_p11_neg,disp_x_p11_pos,disp_x_p12_neg,disp_x_p12_pos,disp_x_p13_neg,disp_x_p13_pos,disp_x_p14_neg,disp_x_p14_pos,disp_x_p15_neg,disp_x_p15_pos,disp_x_p16_neg,disp_x_p16_pos,disp_x_p1_neg,disp_x_p1_pos,disp_x_p2_neg,disp_x_p2_pos,disp_x_p3_neg,disp_x_p3_pos,disp_x_p4_neg,disp_x_p4_pos,disp_x_p5_neg,disp_x_p5_pos,disp_x_p6_neg,disp_x_p6_pos,disp_x_p7_neg,disp_x_p7_pos,disp_x_p8_neg,disp_x_p8_pos,disp_x_p9_neg,disp_x_p9_pos,disp_y_101,disp_y_102,disp_y_103,disp_y_104,disp_y_105,disp_y_106,disp_y_p10_neg,disp_y_p10_pos,disp_y_p11_neg,disp_y_p11_pos,disp_y_p12_neg,disp_y_p12_pos,disp_y_p1_neg,disp_y_p1_pos,disp_y_p2_neg,disp_y_p2_pos,disp_y_p3_neg,disp_y_p3_pos,disp_y_p4_neg,disp_y_p4_pos,disp_y_p5_neg,disp_y_p5_pos,disp_y_p6_neg,disp_y_p6_pos,disp_y_p7_neg,disp_y_p7_pos,disp_y_p8_neg,disp_y_p8_pos,disp_y_p9_neg,disp_y_p9_pos,disp_z_101,disp_z_102,disp_z_103,disp_z_104,disp_z_105,disp_z_106,disp_z_p10_neg,disp_z_p10_pos,disp_z_p11_neg,disp_z_p11_pos,disp_z_p12_neg,disp_z_p12_pos,disp_z_p13_neg,disp_z_p13_pos,disp_z_p14_neg,disp_z_p14_pos,disp_z_p15_neg,disp_z_p15_pos,disp_z_p16_neg,disp_z_p16_pos,disp_z_p1_neg,disp_z_p1_pos,disp_z_p2_neg,disp_z_p2_pos,disp_z_p3_neg,disp_z_p3_pos,disp_z_p4_neg,disp_z_p4_pos,disp_z_p5_neg,disp_z_p5_pos,disp_z_p6_neg,disp_z_p6_pos,disp_z_p7_neg,disp_z_p7_pos,disp_z_p8_neg,disp_z_p8_pos,disp_z_p9_neg,disp_z_p9_pos,humidity,ndof,nelem,strain_xx,strain_yy,strain_zz,temp,thermal_strain_xx,thermal_strain_yy,thermal_strain_zz,vonmises,vstrain
14391759,0,0,0,0,0,0,0,0,0,0,0,0,0,0,0,0,0,0,0,0,0,0,0,0,0,0,0,0,0,0,0,0,0,0,0,0,0,0,0,0,0,0,0,0,0,0,0,0,0,0,0,0,0,0,0,0,0,0,0,0,0,0,0,0,0,0,0,0,0,0,0,0,0,0,0,0,0,0,0,0,0,0,0,0,0,0,0,0,0,0,0,0,0,0,0,0,0,0,0,0,0,0,0,0,0,0,0,0,0,0,0,0,0,0,0,0,0,0,0,0,0,0,0
14591759,0.020203200071005,0.00035679965749793,0.00011893321916598,0.00011893321916598,0.00011893321916598,-2.8000425254971e-05,2.8000418209083e-05,-3.6059519132546e-12,-3.6071498233504e-12,6.8753978638883e-12,-1.4026024955742e-11,-2.4446906019235e-05,2.4446878274652e-05,-2.6009672951225e-05,2.6009645349247e-05,-2.6009672756271e-05,2.6009645456915e-05,-2.4446886303238e-05,2.4446900335954e-05,-2.4446886908695e-05,2.4446900132395e-05,-2.600965352242e-05,2.6009667481434e-05,-2.600965372858e-05,2.6009667325527e-05,-2.9648091195293e-05,2.964809108186e-05,-2.9648091179779e-05,2.9648091055354e-05,-2.9648097998471e-05,2.964808420457e-05,-2.9648097992165e-05,2.9648084221174e-05,-2.6975934439812e-05,2.697592000114e-05,-2.6975934363833e-05,2.6975919998264e-05,-2.6975927334287e-05,2.6975926915525e-05,-2.6975927412123e-05,2.6975926890452e-05,-2.4446906539071e-05,2.4446878115563e-05,-6.6667901153883e-12,1.4759993521586e-11,5.5824063926126e-13,7.0130327249259e-12,-2.9034815794117e-05,2.903482315197e-05,-2.7736378542691e-05,2.7736385807399e-05,-2.7897425758529e-05,2.7897410801768e-05,-2.789740427097e-05,2.7897431979721e-05,-2.9828498357232e-05,2.9828496103946e-05,-2.9828496292352e-05,2.9828498256864e-05,-2.9828491493317e-05,2.982850329979e-05,-2.9828489470035e-05,2.9828505398408e-05,-2.7736377786165e-05,2.7736386455168e-05,-2.7736371748667e-05,2.7736392790995e-05,-2.7897423417051e-05,2.7897413169734e-05,-2.7897402312595e-05,2.7897433994433e-05,-2.7736385040795e-05,2.7736379111711e-05,-1.1167499084135e-12,-1.1161317549631e-12,-2.7149464296754e-05,2.7149462056864e-05,2.178703794806e-12,-4.5313865736739e-12,-2.4123063844162e-05,2.4123054593318e-05,-2.5210209070532e-05,2.5210200195991e-05,-2.5210209208633e-05,2.5210200030029e-05,-2.4123058520762e-05,2.4123062399186e-05,-2.4123057797587e-05,2.4123062417925e-05,-2.5210203109153e-05,2.5210207229944e-05,-2.5210202988965e-05,2.5210207543418e-05,-2.9015812464633e-05,2.9015812472869e-05,-2.9015814817748e-05,2.9015810403161e-05,-2.9015812447458e-05,2.901581244776e-05,-2.9015814780755e-05,2.9015810385583e-05,-2.660226278324e-05,2.6602258398853e-05,-2.6602262375934e-05,2.6602257973922e-05,-2.6602260223247e-05,2.6602260175379e-05,-2.6602260619969e-05,2.6602260588685e-05,-2.412306417221e-05,2.4123055462252e-05,0.70641910243712,129794,2964,0.00011666147472551,0.0001209709176634,0.0001131162363787,31.980482579589,-1.5613936328508e-07,-1.5613936328508e-07,-1.5613936328508e-07,776618.88040958,0.00035081087263725
14791759,0.039123366629195,0.00067764072479056,0.00022590956251722,0.0002277016172902,0.00022402954498314,-5.1214341484112e-05,5.1214446002666e-05,3.842526326326e-11,6.4164263368078e-11,-1.021236958695e-10,2.1952854980533e-10,-4.3827606508737e-05,4.3828266441825e-05,-4.710525694594e-05,4.71056502885e-05,-4.7105224606301e-05,4.7105703428914e-05,-4.3828055972657e-05,4.3827974077081e-05,-4.3828141106832e-05,4.3827861800722e-05,-4.7105568764358e-05,4.7105379857689e-05,-4.7105597248943e-05,4.7105366056244e-05,-5.4924209838413e-05,5.4924204062282e-05,-5.492421676129e-05,5.4924212666914e-05,-5.492412313763e-05,5.4924306812862e-05,-5.4924105545003e-05,5.4924328903902e-05,-4.9235700354526e-05,4.9235848185168e-05,-4.9235657910968e-05,4.9235914109175e-05,-4.9235768004943e-05,4.9235757446295e-05,-4.9235794363042e-05,4.9235756675675e-05,-4.3827815228389e-05,4.3828144450485e-05,6.4676577976409e-11,-1.0741151898098e-10,-8.9135446677908e-11,4.2553262317487e-11,-5.3568358392985e-05,5.3568306434882e-05,-5.0863460128106e-05,5.0863588548085e-05,-5.1300068992914e-05,5.1300190469471e-05,-5.1300237439657e-05,5.1299977468906e-05,-5.5416870447672e-05,5.5416824223948e-05,-5.5416838943993e-05,5.5416863316599e-05,-5.5416918302036e-05,5.5416755523903e-05,-5.5416883721789e-05,5.5416818683788e-05,-5.0863658119963e-05,5.0863402299702e-05,-5.0863500987959e-05,5.0863556903933e-05,-5.1300045325267e-05,5.1300214463885e-05,-5.130017696077e-05,5.1300049582975e-05,-5.0863571459984e-05,5.0863478707488e-05,-2.3116759824476e-11,2.5885172038263e-12,-4.9198084578811e-05,4.9198065270674e-05,2.9935527003066e-11,-4.7725835855126e-11,-4.311704318499e-05,4.3116759646206e-05,-4.5224827132733e-05,4.5224776691634e-05,-4.5224865359299e-05,4.5224742968732e-05,-4.3117044593757e-05,4.3116990430227e-05,-4.3116922756447e-05,4.3117063202311e-05,-4.5224787869488e-05,4.5224817911484e-05,-4.5224779247421e-05,4.5224856450319e-05,-5.3330861449648e-05,5.3330866151003e-05,-5.3330896402539e-05,5.3330830411358e-05,-5.3330854618708e-05,5.3330862681152e-05,-5.3330887596e-05,5.3330858226006e-05,-4.8388122798315e-05,4.8388125215203e-05,-4.8388150756912e-05,4.8388051252945e-05,-4.8388114505583e-05,4.8388123717185e-05,-4.8388120734838e-05,4.8388115140228e-05,-4.3116983604597e-05,4.3116990765022e-05,0.70580947214982,129794,2964,0.00021337001756145,0.00022317575092113,0.00020497052655686,30.975180631217,-8.1985549502604e-06,-8.1985549502604e-06,-8.1985549502604e-06,1255159.1873398,0.00064172495511819
14991759,0.056606551607306,0.00096639605904197,0.000322188379612,0.00032679648433703,0.00031741119509293,-7.2114145154244e-05,7.2114299784994e-05,6.5759465049364e-11,8.6832558832285e-11,-1.6014142352105e-10,3.2678774229997e-10,-5.9943020730069e-05,5.9943737723165e-05,-6.4516970712632e-05,6.4517599134915e-05,-6.4516945240649e-05,6.4517624731339e-05,-5.9943541555517e-05,5.9943251381652e-05,-5.9943568516558e-05,5.9943233890149e-05,-6.4517452941825e-05,6.451714246148e-05,-6.4517458769711e-05,6.4517136272972e-05,-7.839937040403e-05,7.8399351313673e-05,-7.8399367771101e-05,7.8399362547919e-05,-7.8399218972874e-05,7.8399521376146e-05,-7.8399213631462e-05,7.8399534309769e-05,-6.9992346151747e-05,6.9992618209825e-05,-6.9992321895219e-05,6.9992658075001e-05,-6.9992489407594e-05,6.9992466603352e-05,-6.9992488047297e-05,6.9992486974519e-05,-5.9943085262852e-05,5.9943681899894e-05,1.4251289331055e-10,-2.3918555450011e-10,-1.4772820983364e-10,5.1332392924669e-11,-7.665993606098e-05,7.6659835563754e-05,-7.3491804148174e-05,7.349202872716e-05,-7.4261446825716e-05,7.4261676701411e-05,-7.4261809520159e-05,7.4261279115032e-05,-7.876211006576e-05,7.8762056668149e-05,-7.8762050468462e-05,7.8762126007503e-05,-7.876222554692e-05,7.8761931855115e-05,-7.8762165018852e-05,7.8762007284499e-05,-7.3492125474167e-05,7.3491697482439e-05,-7.349193351438e-05,7.349191264763e-05,-7.4261382181256e-05,7.4261736299114e-05,-7.4261746047697e-05,7.4261352658032e-05,-7.3491989652591e-05,7.3491839786479e-05,-4.0534630489899e-11,-1.9555119597167e-11,-6.8656891875554e-05,6.8656834276525e-05,6.0761196458227e-11,-1.2131455257874e-10,-5.8579552078519e-05,5.8579240204165e-05,-6.1343821577381e-05,6.1343611221346e-05,-6.1343840961083e-05,6.1343582957174e-05,-5.8579381263559e-05,5.8579493698929e-05,-5.8579358746771e-05,5.85795027123e-05,-6.1343662018597e-05,6.1343778446147e-05,-6.1343655632908e-05,6.1343783711516e-05,-7.5777851797001e-05,7.5777848405762e-05,-7.5777917808147e-05,7.5777792573933e-05,-7.5777842956483e-05,7.5777853263246e-05,-7.5777906695284e-05,7.5777801254068e-05,-6.8174495679515e-05,6.8174403845607e-05,-6.8174519461866e-05,6.8174367386412e-05,-6.8174452027763e-05,6.8174440395596e-05,-6.817444313383e-05,6.8174460669907e-05,-5.8579530506026e-05,5.8579332106553e-05,0.70496359299664,129794,2964,0.00030043000929476,0.00031936370929666,0.00028602884566822,29.795978215869,-1.763217427305e-05,-1.763217427305e-05,-1.763217427305e-05,1335352.4467446,0.0009062390892436
15191759,0.071010712081659,0.0011880500156419,0.00039597447153254,0.00040400612243946,0.0003880694216699,-8.5331324884202e-05,8.533155460273e-05,1.0302972924044e-10,1.1846613509898e-10,-2.9271482513067e-10,5.468010292436e-10,-6.7221674029009e-05,6.7222949521199e-05,-7.311510610696e-05,7.3116145769334e-05,-7.3115050070477e-05,7.3116212145709e-05,-6.7222563897809e-05,6.7222129919816e-05,-6.7222704812755e-05,6.7221974545038e-05,-7.3115942622085e-05,7.3115413555222e-05,-7.311598882758e-05,7.3115366585576e-05,-9.4416807848897e-05,9.4416761354574e-05,-9.4416818378834e-05,9.4416760875449e-05,-9.4416558171492e-05,9.441703624772e-05,-9.4416541105795e-05,9.4417060004443e-05,-8.3166292020799e-05,8.3166717308222e-05,-8.3166250630692e-05,8.3166791752676e-05,-8.316650711469e-05,8.3166464383735e-05,-8.3166551542778e-05,8.3166444070706e-05,-6.7221851765935e-05,6.7222768536752e-05,3.0672861826523e-10,-4.3755259582831e-10,-2.6883183619639e-10,1.2673541918104e-10,-9.2309017667381e-05,9.2308869844853e-05,-8.887321671238e-05,8.8873678915245e-05,-9.0297411288856e-05,9.0297950262599e-05,-9.0298131154052e-05,9.0297138956783e-05,-9.4285717592487e-05,9.4285669811867e-05,-9.4285605972794e-05,9.4285791898184e-05,-9.4285959421507e-05,9.4285414789641e-05,-9.4285825764626e-05,9.4285566146971e-05,-8.887385362759e-05,8.8873042789157e-05,-8.8873431333364e-05,8.88734706833e-05,-9.0297318325906e-05,9.0298066078178e-05,-9.0297980931742e-05,9.0297311692722e-05,-8.8873580726622e-05,8.8873331409849e-05,-5.7467239708702e-11,-4.2166208031436e-11,-8.0542406646179e-05,8.0542311275514e-05,1.1632664254954e-10,-2.1201016655083e-10,-6.5316084324122e-05,6.5315486926306e-05,-6.9032446134734e-05,6.9032094010023e-05,-6.9032501361159e-05,6.9032042542526e-05,-6.5315809828547e-05,6.5315897143996e-05,-6.5315658356521e-05,6.5316025672965e-05,-6.9032180138703e-05,6.9032363513144e-05,-6.9032144181541e-05,6.9032428060916e-05,-9.0851856974233e-05,9.0851876158328e-05,-9.0851986288649e-05,9.0851762246863e-05,-9.0851862100257e-05,9.0851870703458e-05,-9.0851966507082e-05,9.0851783572628e-05,-8.0485778597765e-05,8.048562036591e-05,-8.0485813930936e-05,8.0485546503391e-05,-8.0485676417261e-05,8.0485705484386e-05,-8.0485709488983e-05,8.048569549491e-05,-6.5315968527445e-05,6.5315692844438e-05,0.66036417828326,129794,2964,0.00035548357075724,0.00038454428516184,0.00033553652040771,27.12984949961,-3.8961204003119e-05,-3.8961204003119e-05,-3.8961204003119e-05,1391373.3660432,0.0010761544953494
15391759,0.084314572704485,0.0014170785692164,0.00047217188653412,0.00048395604579174,0.00046095063689052,-0.00010158381668269,0.00010158403386155,1.0017779736867e-10,1.1680919690113e-10,-2.9108076934039e-10,5.2158350717674e-10,-7.9384789848351e-05,7.9385933026397e-05,-8.6205834508313e-05,8.6206832352488e-05,-8.6205804357568e-05,8.6206877046749e-05,-7.938561848474e-05,7.9385132355202e-05,-7.9385698665734e-05,7.9385046118249e-05,-8.62066216832e-05,8.620606997494e-05,-8.6206651508123e-05,8.6206046329301e-05,-0.00011263618481116,0.00011263612875863,-0.00011263618979655,0.00011263613261082,-0.00011263593663423,0.00011263640167383,-0.0001126359242746,0.00011263642017065,-9.9930687222829e-05,9.9931125117659e-05,-9.9930648599451e-05,9.9931176112132e-05,-9.9930927982334e-05,9.9930879798506e-05,-9.9930944225871e-05,9.9930873938409e-05,-7.9384895999425e-05,7.9385820595354e-05,2.8662808157283e-10,-4.340408196233e-10,-2.6844961030373e-10,1.2568149593167e-10,-0.00011096903219761,0.00011096888130533,-0.00010749787483994,0.00010749834009601,-0.00010970507469916,0.00010970554363278,-0.00010970578951887,0.00010970478936329,-0.00011238770329338,0.0001123876481492,-0.00011238758736584,0.00011238777614959,-0.00011238793351214,0.00011238740537883,-0.00011238780476318,0.00011238755331373,-0.00010749849133592,0.00010749769470489,-0.00010749808377889,0.00010749812509289,-0.00010970496729414,0.00010970564953062,-0.00010970564132441,0.00010970495260746,-0.00010749822785186,0.00010749797478627,-5.9207187308863e-11,-4.313546667125e-11,-9.5295992838088e-05,9.5295891530457e-05,1.2151088168861e-10,-2.2742179586332e-10,-7.6991590005135e-05,7.6991024794856e-05,-8.1151570941153e-05,8.1151164369177e-05,-8.1151601373233e-05,8.115112030658e-05,-7.6991252108814e-05,7.6991417171504e-05,-7.6991177083153e-05,7.699149696654e-05,-8.1151269623744e-05,8.115148299313e-05,-8.115124673553e-05,8.115151027161e-05,-0.00010795000120055,0.00010795001728658,-0.00010795013007269,0.00010794989820242,-0.00010795000028757,0.00010795001388506,-0.00010795011313105,0.00010794991449492,-9.6618003439955e-05,9.661782849933e-05,-9.6618045700539e-05,9.6617785237401e-05,-9.661789716022e-05,9.6617925282512e-05,-9.6617904881895e-05,9.6617910770682e-05,-7.6991512796125e-05,7.6991159096692e-05,0.73443066699562,129794,2964,0.00042317640373331,0.00046226121575953,0.00039698810942144,25.988274353095,-4.8093805175243e-05,-4.8093805175243e-05,-4.8093805175243e-05,1204155.3049507,0.0012832629180058
15591759,0.097363131942357,0.0016473951593068,0.00054888972457755,0.00056466348350937,0.00053384195121992,-0.00011875688481447,0.00011875708515892,9.0383395628717e-11,1.1281664368706e-10,-2.2666577465956e-10,4.3450016107201e-10,-9.2887337431971e-05,9.2888150927702e-05,-0.00010062614297682,0.0001006270081981,-0.00010062615461924,0.00010062700722715,-9.288799208228e-05,9.2887488727761e-05,-9.2887934847702e-05,9.288755415043e-05,-0.00010062680761877,0.00010062633581168,-0.00010062679073661,0.00010062636077538,-0.00013172394113925,0.00013172390002103,-0.00013172392994655,0.00013172392056252,-0.00013172372538435,0.00013172413945599,-0.00013172372560328,0.00013172414475345,-0.00011764235137713,0.00011764276415916,-0.0001176423447221,0.00011764277615264,-0.00011764258641401,0.00011764253146888,-0.00011764255397924,0.00011764257746312,-9.2887296613955e-05,9.2888173835296e-05,2.1898596116597e-10,-3.6500795421366e-10,-2.1939072579563e-10,8.1957607738129e-11,-0.00013051177343088,0.00013051162795665,-0.00012697367558775,0.00012697404871097,-0.00012985167966438,0.00012985199635391,-0.00012985223384595,0.00012985143022131,-0.00013140242777334,0.00013140235269933,-0.00013140232708824,0.00013140246547664,-0.00013140259726897,0.0001314021697156,-0.00013140251414694,0.00013140227341586,-0.00012697415825916,0.00012697353804229,-0.0001269738852904,0.00012697384104326,-0.00012985155992042,0.00012985209938574,-0.00012985215485123,0.00012985152206552,-0.00012697397046846,0.00012697373279866,-6.29981735143e-11,-4.1406634739555e-11,-0.00011087402484298,0.00011087392037076,1.0601112553261e-10,-2.1580149006702e-10,-9.0079030052589e-05,9.0078634270438e-05,-9.4351609079447e-05,9.4351179909649e-05,-9.4351596993818e-05,9.4351175107532e-05,-9.0078686228954e-05,9.0078970371488e-05,-9.0078766978544e-05,9.0078918158968e-05,-9.4351288971351e-05,9.4351519155823e-05,-9.4351308108735e-05,9.4351490775263e-05,-0.00012577713445014,0.00012577712197741,-0.00012577723830754,0.00012577702542171,-0.00012577711669166,0.00012577713346127,-0.00012577723452036,0.00012577702951619,-0.00011364254687065,0.00011364234367425,-0.0001136425545064,0.00011364233407411,-0.00011364245463217,0.00011364242721965,-0.00011364241713705,0.00011364246030554,-9.0079066768134e-05,9.0078611415235e-05,0.74589984581492,129794,2964,0.00049469865964715,0.00054364811632688,0.00046186976416897,25.60486603978,-5.116107168176e-05,-5.116107168176e-05,-5.116107168176e-05,1236819.3852009,0.0015013600309574
15791759,0.10982294650312,0.001879303047742,0.00062613976224417,0.00064628830464454,0.00060687498085327,-0.00013515670922536,0.00013515690577874,9.2503020456516e-11,9.7233602852236e-11,-2.0503394046415e-10,4.1588620271198e-10,-0.00010672861236458,0.00010672978737297,-0.00011515338164098,0.00011515410597628,-0.00011515328590038,0.0001151542246662,-0.00010672928881813,0.00010672919389996,-0.00010672957415571,0.00010672887113453,-0.00011515392666713,0.00011515362318476,-0.00011515403547467,0.00011515351661519,-0.00014970398617843,0.00014970401163838,-0.00014970402012511,0.00014970398262256,-0.00014970382767969,0.00014970418492657,-0.00014970379424361,0.00014970422852061,-0.00013480196463793,0.00013480224632969,-0.00013480187308999,0.00013480236337541,-0.00013480206650001,0.00013480212560866,-0.00013480216251883,0.00013480201900155,-0.00010672895293455,0.0001067294692283,1.8098844009651e-10,-3.0668357919928e-10,-2.4387497686682e-10,1.1478158887659e-10,-0.00014921920190624,0.0001492190666138,-0.00014566137641644,0.0001456616654831,-0.00014906072263407,0.00014906107799315,-0.00014906125564962,0.00014906046051942,-0.00014954887197476,0.0001495487942205,-0.00014954879623939,0.00014954888304402,-0.00014954905936906,0.00014954860181465,-0.00014954891210678,0.00014954875783609,-0.00014566186570498,0.00014566113532332,-0.00014566141446195,0.00014566159975498,-0.0001490607104797,0.00014906112738397,-0.00014906104967851,0.00014906068960159,-0.00014566163849384,0.00014566141114342,-5.1483452390961e-11,-4.7622340276812e-11,-0.00012559878640603,0.00012559869088928,4.5169986082187e-11,-1.4580654649456e-10,-0.00010351851711063,0.0001035178772455,-0.00010750355326388,0.00010750338716072,-0.00010750366275183,0.00010750328138154,-0.00010351836026398,0.00010351814514308,-0.00010351805627119,0.00010351842736553,-0.00010750347880241,0.00010750346290658,-0.00010750339246337,0.0001075035903438,-0.00014239310879789,0.00014239311140205,-0.00014239321522348,0.00014239302186796,-0.00014239314185615,0.00014239308111123,-0.00014239317023723,0.00014239305364156,-0.00013001336695294,0.00013001331084417,-0.00013001347972829,0.00013001322315082,-0.00013001331915072,0.00013001337473202,-0.0001300133987474,0.00013001326219014,-0.00010351825441277,0.00010351824802863,0.78513037327641,129794,2964,0.00056299602596391,0.00062155027058356,0.0005231941140949,24.908953934647,-5.6728368522822e-05,-5.6728368522822e-05,-5.6728368522822e-05,1258931.6975985,0.0017092186936574
15991759,0.12210638436583,0.0021063055628478,0.00070176405096056,0.00072665827189524,0.00067788323999197,-0.00015201561425118,0.00015201579447523,7.4959178798542e-11,1.0755829250623e-10,-1.3416363473864e-10,3.1894389455648e-10,-0.00012069460254538,0.00012069517104326,-0.00013003903261202,0.00013003968090536,-0.00013003906094332,0.00013003966806213,-0.00012069507306494,0.00012069470958087,-0.00012069496248854,0.00012069481339071,-0.0001300395037842,0.00013003919959073,-0.00013003947076886,0.00013003923629163,-0.00016817893390805,0.00016817893571506,-0.00016817891109452,0.00016817896333917,-0.00016817877873432,0.00016817910890911,-0.00016817878172284,0.00016817911081878,-0.00015247034373812,0.00015247067867628,-0.0001524703516191,0.00015247067705377,-0.00015247053364013,0.00015247048942677,-0.00015247046094748,0.00015247056562612,-0.00012069453824966,0.00012069522278354,1.3734038521315e-10,-2.6262831450383e-10,-1.4400771166786e-10,2.5278693367125e-11,-0.00016855348297886,0.00016855335814929,-0.00016483907178271,0.00016483928794536,-0.00016881539638716,0.00016881557463046,-0.00016881575077027,0.0001688152100975,-0.00016830215015005,0.00016830207759223,-0.00016830208759846,0.00016830214935329,-0.00016830226161649,0.00016830195838414,-0.00016830221905123,0.0001683020132611,-0.00016483935683349,0.00016483896666558,-0.00016483922683679,0.00016483912280143,-0.00016881530725976,0.00016881565994026,-0.00016881573025411,0.00016881524395425,-0.00016483925915967,0.00016483908097916,-6.8679075919297e-11,-3.7433746667382e-11,-0.00014065419714937,0.00014065409151142,6.3950956762665e-11,-1.7624463800618e-10,-0.00011726297318226,0.00011726267457946,-0.00012095689090431,0.00012095653275102,-0.00012095687314071,0.00012095654117933,-0.00011726269336261,0.00011726293835099,-0.00011726281992856,0.000117262839567,-0.00012095663407948,0.0001209567940323,-0.00012095667320207,0.00012095675851504,-0.00015939516428332,0.0001593951169131,-0.00015939523809165,0.0001593950533116,-0.00015939514095947,0.00015939513925879,-0.00015939523122189,0.00015939505196953,-0.00014672007901669,0.00014671989960429,-0.00014672008953285,0.0001467199033807,-0.0001467200278057,0.00014671994618708,-0.00014671996198653,0.00014671999982296,-0.0001172630344995,0.00011726262575723,0.77894844385234,129794,2964,0.00063320050463947,0.00070205637984932,0.00058589184320939,24.621550307886,-5.9027597536911e-05,-5.9027597536911e-05,-5.9027597536911e-05,1321964.8819196,0.0019230165517569
16191759,0.13474597582014,0.0023375643778071,0.0007788368147204,0.00080911371127429,0.00074961385181237,-0.00017030796346822,0.00017030812228337,7.4790461577737e-11,8.8794257021399e-11,-7.890232002946e-11,2.3937459649098e-10,-0.00013553009652968,0.00013553069527543,-0.00014618107185028,0.00014618150670369,-0.00014618105757915,0.00014618154654079,-0.00013553045448465,0.0001355303947452,-0.00013553050872371,0.00013553031155177,-0.00014618134948982,0.00014618120092478,-0.00014618137696797,0.00014618118212267,-0.00018822328908193,0.00018822333714647,-0.0001882232954172,0.00018822334521555,-0.00018822319654931,0.00018822344693154,-0.00018822318662605,0.00018822346511569,-0.00017159050140364,0.00017159073545832,-0.00017159047094859,0.00017159077969183,-0.00017159058497807,0.00017159064632816,-0.00017159060302316,0.00017159064064589,-0.00013553022529251,0.00013553061171724,4.9732800748546e-11,-1.4297037891281e-10,-1.2540141453196e-10,3.9725060372561e-11,-0.00018959273108819,0.00018959264023923,-0.00018552964383389,0.00018552976133409,-0.00019021540587487,0.00019021546854248,-0.00019021561012836,0.00019021524566684,-0.00018873951585679,0.00018873943267855,-0.00018873947872572,0.00018873948471457,-0.00018873957201375,0.00018873935876226,-0.0001887395243356,0.00018873943339846,-0.00018552985606901,0.0001855295127496,-0.00018552967168429,0.00018552972694723,-0.00019021537307778,0.00019021548795777,-0.00019021553214088,0.00019021534027532,-0.00018552975914253,0.00018552961455579,-4.0098774686888e-11,-2.7641024754785e-11,-0.00015692805542208,0.00015692798739411,-1.632225637822e-11,-5.8652470349525e-11,-0.00013189824872573,0.00013189800462203,-0.00013551997109824,0.00013551988739379,-0.00013551999915472,0.00013551985072486,-0.00013189819385713,0.00013189808969237,-0.00013189814172076,0.00013189815723733,-0.00013551995730627,0.00013551989629767,-0.00013551994135194,0.00013551992189117,-0.0001778038426671,0.00017780379234203,-0.00017780386736947,0.00017780377329561,-0.00017780383929569,0.00017780378747578,-0.00017780385080271,0.00017780378691749,-0.00016470916742696,0.00016470912335283,-0.00016470920768374,0.00016470909749544,-0.00016470916609099,0.00016470912817142,-0.00016470916333406,0.00016470909403225,-0.00013189818771513,0.00013189814783306,0.7719865442889,129794,2964,0.00070936876547515,0.00078965446883838,0.00065365970519098,24.889605474875,-5.6883156200999e-05,-5.6883156200999e-05,-5.6883156200999e-05,1417773.1252015,0.0021550253812138
16391759,0.14672331377491,0.0025571281046704,0.00085202922274395,0.00088806171910766,0.00081703716281884,-0.00018571413251167,0.00018571431323146,8.4294344321525e-11,9.3358978241417e-11,-9.2261890683159e-11,2.9540344977444e-10,-0.00014744273745663,0.00014744375136219,-0.00015946562502767,0.00015946610840129,-0.00015946552974456,0.00015946623937074,-0.00014744323116827,0.00014744337698098,-0.00014744350680448,0.0001474430416114,-0.00015946596873438,0.00015946586815569,-0.0001594660737086,0.000159465774438,-0.00020534110867047,0.00020534117716675,-0.00020534114560568,0.00020534117023301,-0.00020534102368919,0.00020534128478036,-0.00020534099351662,0.0002053413299418,-0.00018781218204585,0.00018781237968747,-0.00018781211155241,0.00018781250500101,-0.00018781219217032,0.00018781231024775,-0.0001878123158089,0.00018781223292544,-0.00014744313453213,0.0001474434064121,8.1806514955358e-11,-1.2910970177988e-10,-1.3975566643946e-10,7.4971100512237e-11,-0.00020774006131764,0.00020773999239847,-0.00020329604111653,0.00020329617102298,-0.00020872946040105,0.00020872965791224,-0.00020872969101419,0.0002087293171432,-0.00020632321123677,0.00020632313592711,-0.00020632317962053,0.00020632318533612,-0.00020632328134973,0.00020632303301233,-0.00020632320596534,0.00020632315573993,-0.00020329632926611,0.00020329589527988,-0.00020329602370237,0.00020329619821685,-0.00020872947630386,0.00020872967425647,-0.00020872954586683,0.00020872949404568,-0.00020329617459971,0.00020329604893681,-2.8576920290197e-11,-2.1005763825099e-11,-0.00017032043781935,0.00017032039203843,-3.6746021363039e-11,-8.1595554773898e-12,-0.00014364191002252,0.00014364152351557,-0.00014727020882291,0.00014727030368323,-0.00014727031453968,0.00014727021250172,-0.00014364200096448,0.00014364160255576,-0.00014364169370789,0.00014364188733662,-0.00014727034283317,0.0001472701525791,-0.00014727025347534,0.00014727028630521,-0.00019328215934355,0.00019328212919383,-0.00019328218527341,0.00019328211115061,-0.00019328217618061,0.0001932820993632,-0.00019328215378193,0.00019328215394059,-0.00017980180192212,0.00017980185242281,-0.00017980187044511,0.00017980173205549,-0.00017980181292625,0.00017980183495508,-0.00017980189081416,0.00017980173339782,-0.00014364167405509,0.00014364193513003,0.77561891810924,129794,2964,0.00077351511945511,0.00086520570713879,0.00070942564465745,24.116356188267,-6.306915049386e-05,-6.306915049386e-05,-6.306915049386e-05,1498299.4446046,0.0023509319029289
16591759,0.15846513844993,0.0027795321971102,0.00092606278696691,0.00096857795696768,0.00088489145317558,-0.00020199268120203,0.00020199286418641,8.6889353038437e-11,9.8753598726229e-11,-6.846519439119e-11,2.5789551653517e-10,-0.00016044602003621,0.00016044681841845,-0.00017381948982429,0.00017381991672554,-0.00017381943213266,0.00017382001391597,-0.00016044640012449,0.00016044651325354,-0.00016044658923059,0.00016044625618021,-0.00017381974353851,0.00017381966097885,-0.0001738198219525,0.00017381959239224,-0.00022320970900674,0.00022320979230816,-0.00022320973157437,0.00022320978904746,-0.00022320962955055,0.00022320989042995,-0.00022320960816935,0.00022320992317044,-0.00020514871348207,0.00020514892596452,-0.00020514864990228,0.00020514901432556,-0.00020514875471272,0.00020514887652711,-0.0002051488191565,0.00020514882849191,-0.00016044630096417,0.00016044656400566,5.6858260805926e-11,-1.231123349512e-10,-1.0051604182138e-10,3.6085308373195e-11,-0.0002269376119135,0.00022693754322311,-0.00022226287588394,0.00022226294225335,-0.0002284353939253,0.00022843551831483,-0.00022843561460165,0.00022843526281388,-0.00022478287125634,0.00022478282632019,-0.000224782857566,0.00022478285266767,-0.00022478294239626,0.00022478273658383,-0.00022478287767522,0.00022478282713014,-0.0002222630568595,0.00022226272525121,-0.0002222628522841,0.00022226295220076,-0.00022843541251336,0.0002284355048449,-0.00022843550485976,0.00022843539534408,-0.00022226293474734,0.00022226286119366,-2.9900434008957e-11,-2.0237453855265e-11,-0.00018446828515788,0.00018446823562273,-4.5759952218823e-11,-7.2771773527832e-12,-0.00015652607910546,0.0001565257789936,-0.00016003409534272,0.00016003417041742,-0.00016003418042723,0.00016003408694554,-0.00015652610753887,0.00015652578587566,-0.00015652590425768,0.00015652601728814,-0.00016003421505385,0.00016003403706149,-0.00016003414864639,0.00016003412752847,-0.00020942080626499,0.00020942076398107,-0.00020942082148982,0.00020942075365904,-0.00020942082113185,0.00020942074108832,-0.0002094207902089,0.00020942078512975,-0.00019594532781485,0.00019594537753955,-0.00019594541203466,0.00019594529422678,-0.00019594534741409,0.00019594535892686,-0.0001959453963681,0.00019594526421658,-0.00015652587842133,0.00015652608698816,0.80315472112693,129794,2964,0.00084128954592446,0.00094512310482851,0.00076833425638551,23.785019394319,-6.5719844845448e-05,-6.5719844845448e-05,-6.5719844845448e-05,1576647.4546764,0.0025580412513666
16791759,0.17015818904527,0.0030013070525463,0.00099970601851335,0.0010496249114864,0.00095197612254648,-0.00021859131339353,0.00021859149569911,8.2169565151188e-11,1.0172022950211e-10,-3.0967208730383e-11,2.2125977127616e-10,-0.00017337876123253,0.00017337941535301,-0.00018815687114974,0.00018815725134744,-0.00018815683310435,0.00018815732277809,-0.00017337907698157,0.00017337917283262,-0.00017337918024073,0.00017337900547593,-0.00018815708231557,0.00018815704804835,-0.00018815712943951,0.0001881570075739,-0.00024149841537402,0.00024149851028473,-0.00024149842453859,0.00024149851907479,-0.00024149835013392,0.00024149859371655,-0.0002414983370773,0.00024149861779735,-0.00022292789962227,0.00022292810780833,-0.00022292786179864,0.00022292817021749,-0.00022292794714124,0.0002229280510501,-0.000222927968571,0.00022292804420243,-0.00017337896638946,0.00017337923233387,4.2007215855449e-11,-9.257412983978e-11,-5.1163038745095e-11,-6.2756805800602e-13,-0.00024672958439116,0.00024672952924476,-0.00024187532661749,0.00024187533843045,-0.00024890178617049,0.00024890188168581,-0.00024890192801443,0.00024890170006404,-0.00024371985123063,0.00024371982199549,-0.00024371985423628,0.00024371982952317,-0.00024371989968725,0.00024371975764596,-0.0002437198683753,0.00024371980990559,-0.00024187541049242,0.00024187522357445,-0.00024187532331921,0.00024187533199994,-0.00024890180109561,0.00024890187482905,-0.00024890187919012,0.00024890177103613,-0.00024187533994353,0.00024187531182747,-3.3873389835953e-11,-1.6762531651458e-11,-0.00019881906970334,0.00019881902004117,-5.2044424700333e-11,-3.5681351457367e-13,-0.00016937651786903,0.00016937630484955,-0.00017279342402462,0.00017279349350586,-0.00017279348913489,0.00017279343217863,-0.00016937655249518,0.00016937630719185,-0.0001693764290763,0.00016937644996531,-0.00017279353388341,0.00017279337055569,-0.00017279349163353,0.0001727934327402,-0.00022590302896469,0.0002259029706312,-0.00022590303178438,0.00022590297557106,-0.00022590303312426,0.00022590295992733,-0.00022590300616256,0.00022590299830383,-0.00021241916835931,0.00021241920087424,-0.00021241923434521,0.00021241913739646,-0.00021241920018889,0.00021241917158318,-0.00021241921785566,0.00021241911856565,-0.00016937638299458,0.00016937653373542,0.80668182178756,129794,2964,0.00091039224884443,0.001027508409339,0.00082808479889745,23.66011422535,-6.6719086197201e-05,-6.6719086197201e-05,-6.6719086197201e-05,1662105.0430587,0.0027698447218185
16991759,0.18174484859462,0.0032161882516048,0.0010709605686469,0.0011287903651973,0.0010164373177606,-0.00023464257474088,0.0002346427600114,8.3302692586393e-11,1.0268837668323e-10,-1.0724548490052e-11,2.0676336932982e-10,-0.00018523016173377,0.00018523079300908,-0.00020148420122771,0.00020148455470726,-0.00020148415869083,0.00020148462418248,-0.00018523045013787,0.00018523058206614,-0.00018523055321533,0.00018523041744022,-0.00020148438520556,0.00020148439282482,-0.00020148442985743,0.00020148435189478,-0.00025942129452525,0.00025942140281565,-0.00025942130328445,0.00025942141257872,-0.00025942124068588,0.0002594214754007,-0.00025942122798743,0.00025942149878841,-0.00024009830478723,0.00024009850393689,-0.00024009827133259,0.00024009856632902,-0.00024009833951155,0.00024009845600403,-0.00024009836191453,0.00024009845120527,-0.00018523036820432,0.00018523061226564,3.4655598559958e-11,-6.9072347091713e-11,-2.6116559439205e-11,-1.3327228876552e-11,-0.00026614553086704,0.00026614548881269,-0.00026104582015386,0.00026104579949559,-0.00026904743614882,0.00026904753077302,-0.00026904753907479,0.00026904737901294,-0.00026228034477778,0.00026228032779153,-0.00026228035885993,0.00026228032388091,-0.00026228038077207,0.00026228027574499,-0.0002622803647487,0.00026228031305216,-0.00026104585931763,0.00026104573726851,-0.00026104581445077,0.00026104580105708,-0.00026904745998587,0.00026904751769547,-0.00026904750777729,0.00026904743240926,-0.00026104580338777,0.00026104580934658,-3.0894492986726e-11,-1.414101657518e-11,-0.00021256642499893,0.00021256638121074,-6.6203539938144e-11,2.0916614968227e-11,-0.00018114885121728,0.00018114868526521,-0.00018460169804291,0.00018460180892499,-0.00018460176232186,0.00018460174916595,-0.00018114893040519,0.00018114865859652,-0.00018114880186404,0.00018114879427115,-0.0001846018417736,0.00018460164983655,-0.00018460179718762,0.00018460171269471,-0.00024196894432809,0.00024196887939387,-0.00024196893533818,0.00024196889697515,-0.00024196894786483,0.00024196886923295,-0.00024196891082367,0.00024196891963379,-0.00022823932903553,0.00022823937423553,-0.00022823938897813,0.00022823931013491,-0.00022823937057599,0.00022823933269277,-0.00022823938973528,0.00022823928752922,-0.00018114872108464,0.00018114890813379,0.79134050447694,129794,2964,0.00097721206650162,0.0011083218866178,0.00088532018307843,23.477557003454,-6.8179543972366e-05,-6.8179543972366e-05,-6.8179543972366e-05,1749419.4961589,0.0029753051314427
17191759,0.19299002429509,0.003419212630549,0.0011382372135367,0.0012040699167822,0.0010769055002301,-0.00024937860778958,0.00024937880531631,9.2775501161829e-11,1.0516123112452e-10,-1.8233665010815e-11,2.2870245056918e-10,-0.00019543153477531,0.00019543230259819,-0.000213201720963,0.00021320208889573,-0.00021320164867052,0.00021320218787198,-0.00019543185565062,0.00019543206943196,-0.00019543205176282,0.00019543180633319,-0.00021320190712647,0.00021320193253117,-0.0002132019840552,0.00021320185814578,-0.00027616134603369,0.00027616146896891,-0.00027616136820485,0.00027616146729066,-0.00027616129344703,0.00027616154086584,-0.0002761612727829,0.0002761615729179,-0.00025582483068547,0.00025582502813586,-0.00025582477670167,0.00025582511581766,-0.00025582484294283,0.00025582499849937,-0.00025582490608389,0.00025582495640337,-0.00019543183267504,0.00019543203830355,4.0647649477504e-11,-6.4952448599762e-11,-3.4693981882779e-11,3.1189576996009e-12,-0.00028427593722316,0.00028427590356722,-0.00027883390390328,0.00027883388627877,-0.00028786022067011,0.00028786034919536,-0.00028786034887598,0.00028786016317788,-0.00027961572659644,0.00027961571884134,-0.00027961574267708,0.00027961571401973,-0.00027961577087425,0.00027961565608281,-0.00027961574009214,0.00027961571161983,-0.00027883396974527,0.00027883380194425,-0.00027883387149641,0.00027883391749178,-0.00028786026441499,0.00028786031765086,-0.0002878602815224,0.00028786025397339,-0.00027883388362836,0.00027883390152556,-2.230303415394e-11,-1.279630953741e-11,-0.00022502751330465,0.00022502747952259,-8.396582078876e-11,4.9500708694267e-11,-0.00019127476906695,0.00019127457220112,-0.00019487789277191,0.00019487808768093,-0.00019487798557791,0.00019487800167693,-0.00019127490675961,0.00019127450061659,-0.00019127467948763,0.00019127472995061,-0.00019487811171559,0.0001948778504459,-0.00019487803400843,0.00019487794828561,-0.00025684840318205,0.00025684834542207,-0.00025684838913148,0.00025684836780978,-0.00025684841879608,0.00025684832254493,-0.00025684835761069,0.00025684839917158,-0.00024263649798351,0.00024263658952705,-0.00024263657669385,0.00024263650020831,-0.00024263654656876,0.00024263653962031,-0.00024263660313626,0.0002426364574382,-0.00019127456029268,0.0001912748848784,0.77293706597851,129794,2964,0.0010385533116909,0.0011837787568798,0.00093719823542938,23.033390710459,-7.1732874316332e-05,-7.1732874316332e-05,-7.1732874316332e-05,1830991.0936437,0.0031645647417341
17391759,0.20405490230564,0.0036108425350604,0.0012017339816585,0.0012754946682902,0.0011336138851117,-0.00026370983644217,0.00026371003603345,9.5037315961998e-11,1.0497286961412e-10,-2.0990972409319e-11,2.2925364487028e-10,-0.00020478443018358,0.00020478529389711,-0.00022414880427888,0.00022414913698885,-0.00022414870577808,0.00022414927153907,-0.00020478475758441,0.0002047850606481,-0.00020478503782551,0.00020478469555664,-0.0002241489495823,0.00022414900369981,-0.0002241490638307,0.00022414889100108,-0.00029269174417054,0.00029269188515023,-0.00029269177772749,0.00029269186815162,-0.00029269170155,0.00029269194250702,-0.00029269167061475,0.00029269198546919,-0.00027096297785876,0.00027096315206522,-0.00027096289191602,0.00027096326516348,-0.00027096296693858,0.00027096315428446,-0.00027096305423353,0.00027096307007705,-0.00020478482647815,0.0002047849352945,3.0205947787853e-11,-5.1409290043059e-11,-3.7626826556608e-11,1.3583559189909e-11,-0.00030204773737699,0.00030204771125544,-0.0002961108812333,0.00029611084296915,-0.00030621077084381,0.00030621090217028,-0.00030621091032575,0.00030621070861058,-0.00029668943204206,0.0002966894370906,-0.00029668945652136,0.00029668942403546,-0.00029668948681391,0.00029668936808322,-0.00029668943363776,0.00029668943956285,-0.00029611094100128,0.00029611074380889,-0.00029611079312319,0.00029611091273081,-0.00030621084404989,0.00030621084328285,-0.0003062108033966,0.00030621084001599,-0.00029611083889503,0.00029611087496998,-1.6601934720268e-11,-9.9512286512073e-12,-0.00023709477240073,0.00023709474677541,-1.0691514758218e-10,7.8322073923894e-11,-0.00020053428725443,0.00020053403581376,-0.00020443013814198,0.00020443042782247,-0.00020443026838041,0.00020443030470767,-0.00020053446131059,0.00020053391334377,-0.0002005341440558,0.00020053424065707,-0.00020443044431564,0.00020443010172589,-0.00020443033635481,0.00020443023834653,-0.00027149409661538,0.00027149404585896,-0.00027149407933599,0.00027149407294392,-0.00027149412840044,0.00027149401026769,-0.00027149403238403,0.00027149411179539,-0.00025646629503413,0.00025646644880644,-0.00025646641857109,0.00025646634001084,-0.00025646636381839,0.00025646638885539,-0.00025646645120493,0.00025646625541321,-0.00020053397768636,0.00020053445742998,0.74411350763692,129794,2964,0.001098206241575,0.0012577376116011,0.00098743464339006,22.77206837871,-7.3823452970321e-05,-7.3823452970321e-05,-7.3823452970321e-05,1916536.9654133,0.003349017273654
17591759,0.21327055998817,0.0037642182846541,0.0012525737679352,0.0013328940663525,0.0011787504503663,-0.00027116363517819,0.00027116388358862,1.1724857399684e-10,1.2902243630608e-10,-1.0251787756833e-10,3.6896072406197e-10,-0.00020785905051087,0.00020786006792167,-0.00022857892981426,0.00022857958408079,-0.00022857886149541,0.00022857967744509,-0.00020785959791411,0.00020785961565355,-0.00020785976153286,0.00020785937398073,-0.000228579352499,0.0002285792100007,-0.00022857942106839,0.00022857913696863,-0.00030213038453817,0.00030213048162797,-0.00030213040235476,0.00030213048233916,-0.0003021302549668,0.00030213063027449,-0.00030213023921527,0.00030213065804456,-0.00027888613974886,0.00027888647242517,-0.00027888610603626,0.00027888654395242,-0.00027888623821398,0.00027888635065477,-0.00027888628452746,0.00027888632417137,-0.00020785931810917,0.00020785982448348,1.5083442290603e-10,-1.8974492359838e-10,-8.8289786182637e-11,3.8461450097575e-11,-0.00031230148184311,0.00031230143135601,-0.00030579439811769,0.00030579453793123,-0.00031682017237188,0.00031682047792377,-0.00031682050728688,0.00031682006646556,-0.0003065301162947,0.0003065301331793,-0.00030653009835783,0.00030653016264522,-0.00030653023494151,0.00030652999577817,-0.00030653017312896,0.00030653007984344,-0.00030579463144094,0.00030579429197259,-0.00030579445545679,0.00030579448059488,-0.00031682017461349,0.00031682049800087,-0.00031682042555707,0.00031682017334124,-0.00030579448560235,0.0003057944545746,-3.2236477609502e-11,-2.3977961577968e-11,-0.00024275646032044,0.00024275640632029,-3.9668663219881e-11,-1.5177864726812e-11,-0.00020353856371585,0.0002035382591992,-0.00020780239654534,0.00020780246413347,-0.0002078024882988,0.00020780238494217,-0.00020353859378649,0.00020353829880526,-0.00020353838668105,0.0002035385082599,-0.00020780250454407,0.00020780233253734,-0.00020780243033781,0.00020780243138317,-0.00027937452511665,0.00027937448348281,-0.00027937454725555,0.00027937447201977,-0.00027937454165461,0.0002793744632796,-0.00027937451643425,0.00027937449936703,-0.00026336493481325,0.00026336496170165,-0.00026336500555112,0.0002633648760348,-0.00026336494572952,0.00026336494908501,-0.00026336500029429,0.00026336487452992,-0.00020353837822472,0.00020353854972534,0.71798652176124,129794,2964,0.0011292321205334,0.001300406814237,0.0010110052999764,20.397431824278,-9.2820545405777e-05,-9.2820545405777e-05,-9.2820545405777e-05,1955596.8082692,0.0034466193247568
17791759,0.22169272740957,0.0038997895194986,0.0012975458893814,0.001383618078954,0.0012186255511632,-0.00027954260645257,0.00027954285632177,1.205324251995e-10,1.3134272706985e-10,-9.6042335347581e-11,3.559355368622e-10,-0.00021208969524616,0.00021209066550195,-0.00023408501820435,0.00023408564446603,-0.00023408496285242,0.00023408573461414,-0.00021209020304113,0.00021209022735865,-0.0002120903613383,0.00021208999252868,-0.00023408540198892,0.00023408526514008,-0.00023408547267112,0.00023408519649673,-0.00031241324822226,0.00031241335375149,-0.00031241326543414,0.00031241335397527,-0.00031241312349853,0.00031241349697161,-0.00031241310781965,0.00031241352308018,-0.00028761448146273,0.00028761482172673,-0.00028761444030934,0.00028761488613351,-0.00028761458458914,0.00028761471195769,-0.00028761462379336,0.00028761468143807,-0.00021208994613807,0.00021209043582297,1.3779811640625e-10,-1.8474477630809e-10,-9.3146380674545e-11,4.6445374304695e-11,-0.00032327925023616,0.00032327920056406,-0.00031617524082997,0.00031617539642926,-0.00032805671154059,0.00032805697747031,-0.00032805704765472,0.00032805659680772,-0.0003171774288525,0.00031717744110278,-0.00031717740686091,0.00031717747582059,-0.00031717754207079,0.00031717730914375,-0.00031717747658316,0.00031717739815954,-0.00031617546972986,0.00031617512645542,-0.0003161752838755,0.0003161753378891,-0.00032805670733562,0.00032805698802122,-0.00032805695521529,0.00032805671094784,-0.00031617532582807,0.00031617529039089,-3.2497717141681e-11,-2.599372288755e-11,-0.000249469312297,0.00024946925350812,-3.7472192647755e-11,-2.5800891603206e-11,-0.00020766476015104,0.00020766444704371,-0.00021230961500203,0.00021230965465732,-0.00021230969915664,0.00021230957130616,-0.00020766476067229,0.00020766447916885,-0.00020766456894817,0.00020766468711196,-0.0002123097107135,0.00021230954446774,-0.00021230963924597,0.00021230963411977,-0.00028817862066019,0.00028817857909366,-0.00028817864542571,0.00028817856253557,-0.00028817863675839,0.00028817855820938,-0.00028817861467188,0.00028817858818489,-0.0002711626269077,0.00027116264700598,-0.00027116270431112,0.00027116257587228,-0.00027116263173747,0.00027116264291763,-0.00027116268141855,0.0002711625580067,-0.00020766457453576,0.00020766472059515,0.6966937047206,129794,2964,0.001164107270351,0.0013460869231885,0.0010389506888083,19.22885963062,-0.00010216912295504,-0.00010216912295504,-0.00010216912295504,2005877.7180585,0.0035555059514256
17991759,0.23010753943848,0.0040333370887132,0.0013418436155381,0.0014336421484443,0.0012578513247308,-0.0002898527650676,0.00028985298865982,1.0875994704651e-10,1.1748941344083e-10,-3.8366656299986e-11,2.6921406652595e-10,-0.00021823385484212,0.00021823463489042,-0.00024153689966357,0.00024153735970727,-0.00024153685044879,0.00024153744516837,-0.00021823421325235,0.00021823434046646,-0.00021823436147831,0.00021823411704928,-0.00024153714325389,0.00024153711697653,-0.00024153721165943,0.00024153705175401,-0.00032468323566142,0.00032468336275227,-0.00032468325202826,0.00032468336331804,-0.00032468315627171,0.0003246834588699,-0.00032468314262415,0.0003246834828218,-0.00029826005163123,0.00029826032553011,-0.00029826001584244,0.00029826038248778,-0.00029826011244401,0.000298260259849,-0.00029826014760069,0.00029826023056596,-0.00021823408769332,0.00021823442041022,7.805180704146e-11,-1.0142958609889e-10,-4.7766669496329e-11,2.4589883237812e-11,-0.00033624579479291,0.00033624576863897,-0.00032851056572863,0.00032851063618341,-0.00034121904904134,0.00034121921370121,-0.00034121924281899,0.00034121898200987,-0.00032985127058762,0.00032985128029211,-0.00032985126865589,0.0003298512946529,-0.00032985133603588,0.00032985119794367,-0.00032985129418047,0.00032985126252012,-0.00032851067962631,0.00032851047802808,-0.00032851056481886,0.00032851062010424,-0.00034121906230398,0.00034121920577693,-0.00034121917727065,0.00034121906904402,-0.00032851058794685,0.00032851059086972,-2.590741130464e-11,-2.1988118881003e-11,-0.00025806820416815,0.00025806815571875,-6.3675544464005e-11,1.0533594239704e-11,-0.0002136525931643,0.00021365236938284,-0.00021869145545239,0.00021869156144805,-0.0002186915348966,0.00021869148247349,-0.00021365265177564,0.00021365232953585,-0.00021365247335517,0.00021365252985014,-0.00021869160859982,0.00021869139396547,-0.00021869154131788,0.00021869148046079,-0.00029892677652994,0.00029892672449938,-0.0002989267794766,0.00029892672976567,-0.00029892679247389,0.00029892670400109,-0.00029892675015759,0.00029892675269994,-0.00028086863388786,0.00028086867954844,-0.00028086870724873,0.00028086861647277,-0.0002808686576508,0.00028086865787502,-0.00028086870527558,0.00028086857243323,-0.00021365241918545,0.00021365262247735,0.689204637226,129794,2964,0.0012070182607122,0.0014000398807243,0.0010747457276893,19.173601112115,-0.00010261119110308,-0.00010261119110308,-0.00010261119110308,2074088.5213366,0.0036886521545975
18191759,0.23771548082701,0.0041558609771897,0.0013824600647922,0.0014796189007662,0.0012937820116313,-0.00029689148668365,0.000296891723446,1.1048791928755e-10,1.253897536791e-10,-5.7277037167008e-11,3.0838270973019e-10,-0.00022172749289349,0.0002217283981691,-0.00024620445410059,0.00024620498442651,-0.00024620438460922,0.00024620508075689,-0.00022172793012074,0.0002217280450812,-0.00022172810401424,0.00022172779539406,-0.00024620476387086,0.00024620471307759,-0.00024620483596695,0.00024620463794256,-0.00033344715170154,0.00033344727326035,-0.00033344716917282,0.00033344727305732,-0.00033344705737658,0.00033344738526399,-0.00033344703970931,0.00033344741473791,-0.000305628305524,0.00030562858687405,-0.00030562826181831,0.00030562866324058,-0.00030562836829607,0.0003056285069956,-0.00030562841049477,0.00030562847790258,-0.00022172776919666,0.00022172814095553,1.1149491589215e-10,-1.2567376308874e-10,-6.0700821229924e-11,3.7537762442437e-11,-0.00034564749621148,0.00034564747176528,-0.00033734404361125,0.00033734414840013,-0.00035076140009764,0.00035076163902593,-0.00035076164353128,0.00035076133141905,-0.00033903996820141,0.00033903998717876,-0.00033903995921199,0.00033904000805482,-0.00033904005368393,0.00033903988458742,-0.0003390400009443,0.0003390399589889,-0.00033734420937438,0.00033734395752515,-0.00033734406260512,0.00033734412378243,-0.0003507614139313,0.00035076164279131,-0.00035076156685695,0.00035076143226554,-0.0003373440972895,0.0003373440916203,-3.2671531132334e-11,-2.2793104686298e-11,-0.00026360279205484,0.00026360273802739,-5.45356278729e-11,-1.7439285614957e-12,-0.00021703273100442,0.00021703244260237,-0.00022240344204699,0.00022240354032954,-0.00022240353760286,0.00022240345404141,-0.00021703277967507,0.00021703244599857,-0.00021703256406773,0.00021703266798732,-0.000222403584133,0.00022240337996265,-0.00022240350581171,0.00022240347880286,-0.00030632369531886,0.00030632364579167,-0.00030632370981806,0.00030632364279175,-0.00030632371315043,0.00030632362521906,-0.00030632367561772,0.00030632366986041,-0.00028742053171321,0.00028742057449563,-0.00028742061330002,0.00028742048865873,-0.00028742055464815,0.00028742055279257,-0.00028742060933719,0.00028742047385535,-0.0002170325234712,0.00021703273971381,0.70094301963589,129794,2964,0.0012363132437846,0.0014391576898503,0.0010977853313428,17.890262429775,-0.0001128779005618,-0.0001128779005618,-0.0001128779005618,2110705.5875342,0.0037804520706113
18391759,0.24454734401849,0.0042661263994609,0.0014190021988597,0.0015210179709642,0.0013261062296371,-0.0003028086920441,0.00030280894077381,1.1824330590993e-10,1.3089416262612e-10,-7.108866706943e-11,3.3373296675313e-10,-0.00022449948245225,0.00022450042279269,-0.00025004478166027,0.00025004536266839,-0.00025004471248441,0.00025004545338199,-0.00022449995249614,0.00022450003351326,-0.0002245001228159,0.00022449979200659,-0.00025004512692673,0.00025004504661514,-0.00025004519459101,0.00025004497333757,-0.00034089829094394,0.0003408984092153,-0.00034089830827914,0.0003408984098464,-0.0003408981821179,0.0003408985376529,-0.00034089816681119,0.00034089856477524,-0.00031188495860144,0.00031188527222783,-0.00031188491981095,0.00031188534227739,-0.00031188503984815,0.00031188518010824,-0.00031188508057982,0.00031188515708444,-0.00022449974548903,0.00022450018325935,1.302524532152e-10,-1.4597997718028e-10,-6.7494022366814e-11,4.5151171332056e-11,-0.00035371365846046,0.00035371363421628,-0.0003449074812219,0.00034490762130979,-0.00035896438967247,0.00035896465595344,-0.00035896467105535,0.00035896431574136,-0.00034690535423804,0.00034690537946716,-0.00034690533904013,0.00034690540751473,-0.00034690544896093,0.00034690526631185,-0.00034690539416478,0.00034690534477173,-0.00034490767771412,0.00034490740034558,-0.00034490752395642,0.00034490758074329,-0.00035896438965332,0.00035896465979295,-0.00035896459290402,0.00035896441465556,-0.00034490754749996,0.00034490754418629,-3.3052089032287e-11,-2.5974360515822e-11,-0.00026817107756145,0.000268171019204,-4.4835059607389e-11,-1.6165357769711e-11,-0.00021973927496046,0.00021973897475428,-0.0002253940278593,0.00022539409133254,-0.00022539411506398,0.00022539400492428,-0.0002197393071997,0.00021973900178755,-0.00021973909310507,0.00021973921342155,-0.00022539414515076,0.00022539396286655,-0.0002253940621413,0.00022539404967861,-0.00031254687913277,0.00031254683256755,-0.00031254689992633,0.00031254682283213,-0.00031254689563659,0.00031254681131547,-0.00031254686869721,0.00031254684812654,-0.00029294250944182,0.00029294253530188,-0.00029294258641765,0.00029294245561124,-0.00029294252060265,0.00029294252495837,-0.00029294257704791,0.00029294244979975,-0.00021973908037908,0.00021973925519078,0.70345144354518,129794,2964,0.0012609401549553,0.0014727174057321,0.0011168024470261,16.542292695853,-0.00012366165843318,-0.00012366165843318,-0.00012366165843318,2134720.8403193,0.0038579560889976
18591759,0.25109665920359,0.0043695041207134,0.0014532604956231,0.0015598764417355,0.0013563671833548,-0.00030972340560243,0.00030972365082931,1.0360993468468e-10,1.5366610713532e-10,-4.9181399211131e-11,3.0246689452782e-10,-0.00022824283400944,0.00022824392766871,-0.0002548519018567,0.00025485236286592,-0.00025485181392522,0.00025485251357923,-0.00022824330277625,0.00022824355570146,-0.0002282435626751,0.00022824322348476,-0.00025485214198013,0.00025485209655733,-0.00025485224345729,0.00025485202119145,-0.00034934668569713,0.00034934680194288,-0.00034934670791404,0.00034934682202678,-0.00034934660229897,0.00034934691600904,-0.00034934656305249,0.00034934696573983,-0.00031912011835845,0.00031912036838858,-0.00031912001872096,0.00031912051198381,-0.00031912014445907,0.00031912031588969,-0.00031912021922574,0.00031912031367867,-0.00022824330694262,0.00022824352176295,9.9803958748745e-11,-1.0314805749461e-10,-5.2653909928864e-11,5.1283816957977e-11,-0.00036275562781282,0.00036275562295592,-0.00035343430899887,0.00035343441094262,-0.00036813187891222,0.00036813209946287,-0.000368132132405,0.00036813181930679,-0.00035575721424695,0.00035575724224045,-0.00035575721232912,0.00035575726368598,-0.00035575726739494,0.00035575713751402,-0.00035575723552126,0.00035575723916876,-0.00035343448719158,0.00035343421294421,-0.00035343430092959,0.00035343442517547,-0.00036813190873146,0.000368132052036,-0.00036813201911205,0.0003681319585366,-0.00035343429843329,0.00035343435528822,-3.32264588396e-11,1.0456421578204e-11,-0.00027376216936546,0.00027376214205991,-6.0988280795198e-11,3.2286884992615e-11,-0.00022341225787454,0.00022341186000389,-0.00022937655942417,0.00022937674085719,-0.00022937668020937,0.00022937662595009,-0.00022341232757725,0.00022341188282202,-0.00022341203511697,0.00022341218983458,-0.00022937675979271,0.00022937650997499,-0.00022937666635551,0.00022937662341505,-0.0003197992508512,0.000319799204371,-0.00031979924983695,0.00031979919640773,-0.00031979925055229,0.00031979917950794,-0.0003197992134977,0.00031979926004096,-0.00029944120867773,0.00029944135199303,-0.0002994413204818,0.00029944118243615,-0.00029944125710402,0.00029944128637667,-0.00029944131100364,0.00029944119307079,-0.0002234119330449,0.00022341236044282,0.68932345362246,129794,2964,0.00128971742897,0.001510335770002,0.0011400762192587,15.993821921744,-0.00012804942462605,-0.00012804942462605,-0.00012804942462605,2170474.7450987,0.0039479812759436
18791759,0.25756924339607,0.0044778966664916,0.0014891238370145,0.0016006303743592,0.0013881424551179,-0.0003175735234298,0.00031757375288228,1.0487632239446e-10,1.2986247509935e-10,-1.5703194792884e-11,2.5363841905717e-10,-0.00023336086482565,0.00023336170869014,-0.00026096999734017,0.00026097039932445,-0.00026096992275387,0.00026097051203944,-0.00023336121204913,0.00023336143438332,-0.00023336140308756,0.00023336115662143,-0.00026097018792957,0.00026097021861751,-0.00026097026998664,0.00026097013844903,-0.00035857023875135,0.00035857038308773,-0.00035857025808375,0.00035857038701266,-0.00035857018004667,0.00035857046281819,-0.0003585701551788,0.00035857049969525,-0.0003274897823307,0.00032749002143268,-0.00032748972224452,0.00032749011046924,-0.00032748981603147,0.00032748998072766,-0.00032748985612579,0.00032748996036165,-0.00023336118487323,0.00023336141121077,7.4488731979193e-11,-6.4135613371992e-11,-1.2357350830569e-11,1.9539312908864e-11,-0.00037274055085289,0.00037274055628676,-0.00036300127633612,0.00036300131345547,-0.00037828120737424,0.00037828138760966,-0.00037828136294308,0.00037828118758948,-0.00036548216491964,0.0003654822071494,-0.00036548218109838,0.00036548220471147,-0.0003654822163615,0.00036548213314038,-0.00036548218943788,0.00036548219304071,-0.00036300133985524,0.00036300120641957,-0.00036300125737105,0.00036300132572596,-0.00037828124030245,0.0003782813580563,-0.00037828130892829,0.00037828127138721,-0.00036300124568875,0.00036300131742649,-2.6815899324852e-11,-8.5872325629985e-12,-0.00028025912569638,0.00028025908891189,-8.3610929752221e-11,4.3625394847433e-11,-0.00022843753898508,0.00022843729982517,-0.0002346180086218,0.00023461820102195,-0.00023461811220527,0.00023461810428575,-0.00022843764210531,0.00022843722521222,-0.00022843741255141,0.00022843748100514,-0.00023461823007101,0.00023461796051348,-0.00023461814686085,0.00023461806062679,-0.00032781804754191,0.00032781798999979,-0.00032781803851193,0.00032781800398174,-0.00032781806262169,0.00032781796547159,-0.00032781800252326,0.00032781804330152,-0.00030702747216342,0.00030702757937339,-0.00030702757242619,0.0003070274728476,-0.0003070275246117,0.0003070275286167,-0.0003070275777698,0.0003070274331769,-0.00022843728299835,0.00022843762840462,0.73043847738876,129794,2964,0.0013223863424734,0.0015518754977598,0.0011671195940139,15.814748815169,-0.00012948200947865,-0.00012948200947865,-0.00012948200947865,2202579.381497,0.0040496427949938
18991759,0.26419804406224,0.0045907808469765,0.001526414664425,0.0016432130908925,0.001421153091659,-0.00032651900526728,0.00032651922371997,1.0098777242229e-10,1.2164132926442e-10,2.0106691754369e-11,2.0643882772964e-10,-0.00023937222316242,0.00023937292650763,-0.00026808770585811,0.0002680880289984,-0.00026808764575921,0.00026808812868318,-0.00023937247944598,0.00023937273986628,-0.00023937263943423,0.00023937250063775,-0.00026808782596253,0.00026808791442249,-0.00026808789736561,0.00026808784901866,-0.00036894712623445,0.00036894728342941,-0.00036894714193753,0.00036894729036023,-0.00036894708939883,0.00036894733989491,-0.00036894707050013,0.00036894737067508,-0.00033709162788954,0.00033709184249632,-0.00033709158254599,0.00033709191565374,-0.00033709164423796,0.000337091818464,-0.00033709167659147,0.0003370918031988,-0.00023937249976766,0.00023937267106134,4.4579927907921e-11,-1.7375423684921e-11,3.4106651533038e-11,-1.064926927944e-11,-0.00038403235850108,0.00038403238042846,-0.00037392943089971,0.0003739293947863,-0.00038983607153945,0.00038983620721395,-0.000389836140773,0.00038983609347196,-0.00037639298561458,0.00037639304172663,-0.00037639302286787,0.0003763930167407,-0.00037639301039264,0.00037639299601303,-0.00037639300873784,0.00037639302622207,-0.00037392939416046,0.0003739293903192,-0.00037392939672594,0.00037392941991319,-0.00038983611932804,0.00038983616389958,-0.0003898361221421,0.00038983614059284,-0.00037392933922694,0.00037392946318259,-1.9391152908626e-11,-5.8775608121988e-12,-0.00028776436181791,0.00028776433569828,-1.0565374026298e-10,7.719440846165e-11,-0.0002344375759466,0.00023443744532036,-0.00024082747204646,0.00024082771906711,-0.00024082756429839,0.00024082763444601,-0.00023443773651532,0.00023443731499742,-0.00023443754217705,0.00023443753027714,-0.00024082773751554,0.00024082743396779,-0.00024082766478198,0.00024082752445304,-0.00033694417222939,0.0003369441031218,-0.00033694413998191,0.0003369441412936,-0.00033694418442495,0.00033694408223122,-0.00033694410925451,0.00033694417303696,-0.00031579834265024,0.00031579846045604,-0.00031579842517085,0.00031579837390392,-0.00031579840977782,0.00031579839555004,-0.00031579845451289,0.00031579831106341,-0.000234437369381,0.00023443773515898,0.74319115624134,129794,2964,0.0013596124746384,0.0015988502804372,0.0011983589905652,16.067593049341,-0.00012745925560527,-0.00012745925560527,-0.00012745925560527,2238521.8919653,0.0041655620289166
19191759,0.27149977793827,0.0047222604413736,0.0015697240706443,0.0016930146007007,0.0014595217700286,-0.00033842111619922,0.00033842131805479,9.1073736465749e-11,1.1710906064858e-10,7.5524427854101e-11,1.3111082278672e-10,-0.00024827075266984,0.00024827137794852,-0.00027818534639509,0.00027818549411395,-0.00027818526410445,0.00027818561688204,-0.00024827087780233,0.00024827131306383,-0.00024827110239948,0.0002482710129096,-0.00027818530541937,0.00027818552152603,-0.00027818539793295,0.00027818543708966,-0.00038232229610707,0.00038232248369524,-0.00038232231750591,0.00038232248675772,-0.00038232230805702,0.00038232249187831,-0.0003823222799237,0.00038232253064106,-0.000349943381178,0.00034994351196971,-0.00034994330630641,0.00034994361244404,-0.00034994333387266,0.00034994355639079,-0.00034994338451532,0.0003499435263429,-0.00024827110023134,0.0002482710540884,-1.375974631096e-11,6.5011643674665e-11,8.9388959513572e-11,-3.9792193997801e-11,-0.00039867631984322,0.00039867636804082,-0.00038830814035124,0.0003883079795931,-0.00040489579726914,0.0004048958625403,-0.00040489575756545,0.00040489587326734,-0.00039045513540271,0.00039045520929419,-0.00039045520774526,0.00039045514829987,-0.00039045512124841,0.00039045520198412,-0.00039045514076711,0.00039045521254857,-0.00038830797410836,0.00038830810115426,-0.00038830803805539,0.00038830807270812,-0.00040489589299721,0.00040489576270448,-0.00040489574227306,0.000404895914266,-0.00038830793564457,0.00038830814884711,-8.2809450329238e-12,1.0008910367012e-11,-0.00029798465511317,0.00029798465492005,-1.5447901910932e-10,1.5263630704583e-10,-0.00024335503025763,0.00024335498001538,-0.00024986918590686,0.00024986960194175,-0.00024986929985295,0.00024986949241316,-0.00024335530429501,0.00024335472322397,-0.00024335504871957,0.00024335500125846,-0.00024986959361336,0.00024986917226998,-0.00024986949925411,0.00024986927966008,-0.00034889573503863,0.00034889565478566,-0.00034889566728459,0.0003488957264107,-0.00034889575139591,0.00034889562811208,-0.00034889562927842,0.00034889576782345,-0.00032771260942245,0.00032771282239334,-0.00032771271890551,0.0003277127107363,-0.00032771272039659,0.00032771271137767,-0.00032771278316104,0.00032771261019473,-0.00024335474920771,0.00024335533621752,0.78535096995039,129794,2964,0.0014091399401158,0.0016597670249508,0.0012408971787592,17.221402498259,-0.00011822878001392,-0.00011822878001392,-0.00011822878001392,2286469.2519867,0.0043191974850617
19391759,0.27936266403219,0.0048606147865738,0.0016152069551976,0.0017458333568746,0.0014995744745015,-0.00035039401268945,0.00035039420805252,9.3128462459986e-11,9.8038636795766e-11,8.7099751956483e-11,1.1991452829641e-10,-0.00025651858958066,0.00025651927981527,-0.00028781214872334,0.00028781225607186,-0.0002878120336664,0.00028781241078597,-0.00025651873512442,0.00025651924309471,-0.00025651899728705,0.00025651884779246,-0.00028781209052708,0.00028781237452227,-0.0002878122160764,0.0002878122422378,-0.00039603640270454,0.00039603662413343,-0.00039603644002232,0.00039603659986241,-0.00039603643747616,0.00039603659791387,-0.00039603640913098,0.00039603664331821,-0.00036290955147461,0.00036290964639978,-0.00036290947707302,0.00036290975483017,-0.00036290946749066,0.00036290971675571,-0.00036290955267772,0.00036290961529721,-0.00025651902301925,0.00025651887728486,-2.7170171175803e-11,1.0515948796867e-10,1.0814772947728e-10,-4.3127406043415e-11,-0.0004137775061757,0.00041377757027508,-0.00040310159189234,0.00040310137499837,-0.00042051629750535,0.00042051639059006,-0.00042051619359053,0.00042051638937521,-0.00040488607999741,0.00040488616826628,-0.00040488617173387,0.00040488608481859,-0.00040488607373679,0.00040488616535528,-0.00040488607405124,0.00040488617197715,-0.00040310137128724,0.00040310154593772,-0.0004031014274384,0.00040310151414061,-0.00042051643179845,0.00042051628919701,-0.00042051616793577,0.00042051645470911,-0.00040310137830504,0.00040310161116679,4.4165682266885e-12,1.6518572574829e-12,-0.00030813157560297,0.00030813158425847,-2.0144363547225e-10,2.0807148581445e-10,-0.00025168225835437,0.00025168222258799,-0.00025843646959147,0.00025843704343273,-0.00025843662558092,0.00025843690551689,-0.00025168264548061,0.00025168188750321,-0.00025168231433737,0.00025168222533468,-0.00025843702374211,0.00025843647381663,-0.00025843689620056,0.00025843663842826,-0.00036107777039462,0.00036107769068635,-0.00036107768870195,0.0003610777915577,-0.00036107781414361,0.00036107764814623,-0.00036107763362784,0.00036107782326228,-0.00033964497430883,0.00033964523754775,-0.00033964510946249,0.00033964513565218,-0.0003396451175966,0.00033964512067033,-0.00033964521904775,0.0003396449566443,-0.00025168191501523,0.00025168266857355,0.76951814512952,129794,2964,0.0014589602809797,0.001722581998809,0.001283129138131,18.120264833296,-0.00011103788133363,-0.00011103788133363,-0.00011103788133363,2338877.3112097,0.0044747512961462
19591759,0.28743472218807,0.0049990795398984,0.0016606874841734,0.0017989884252275,0.0015394036304975,-0.00036134034518768,0.00036134057120693,1.0901713166028e-10,1.229005048857e-10,9.8688438327128e-11,1.4658258444384e-10,-0.0002634784533891,0.00026347862843121,-0.0002961525398132,0.00029615288680067,-0.00029615257622596,0.00029615284524654,-0.00026347844950208,0.00026347858216431,-0.00026347840942406,0.00026347865181498,-0.00029615266995731,0.00029615281695219,-0.00029615262185,0.00029615286254747,-0.00040884314898785,0.00040884329843858,-0.00040884311977811,0.00040884335623843,-0.00040884311266379,0.0004088433734157,-0.00040884313238019,0.00040884335162259,-0.00037476945954393,0.00037476975927722,-0.00037476956177454,0.00037476970480308,-0.0003747695358252,0.00037476966166757,-0.00037476947139398,0.00037476981734951,-0.00026347827942684,0.00026347871364107,3.7835262673402e-11,6.2218746152017e-11,2.1762299249398e-10,-1.3821077751803e-10,-0.00042792591100756,0.00042792598910584,-0.00041685019785278,0.00041685001247938,-0.00043515286791059,0.00043515297356971,-0.00043515274440206,0.00043515310356184,-0.00041842191466165,0.00041842203519859,-0.00041842200262387,0.0004184219515,-0.00041842185493502,0.00041842208187866,-0.00041842200555228,0.00041842196357486,-0.00041684986445492,0.00041685037326091,-0.00041685029749948,0.00041684992776503,-0.00043515290354411,0.00043515296251405,-0.00043515295079127,0.0004351528884219,-0.00041684992102565,0.00041685025134216,-4.9814338913861e-12,7.4905399926744e-13,-0.0003172282275705,0.00031722822270686,-1.0307330678923e-10,1.1180521231653e-10,-0.00025871582454326,0.00025871624104157,-0.00026575403277545,0.00026575419857774,-0.00026575397150269,0.00026575424371374,-0.00025871609730355,0.00025871596110626,-0.00025871615370279,0.00025871594766678,-0.00026575420093505,0.00026575400123971,-0.00026575420322161,0.00026575397755837,-0.00037230592051955,0.0003723058045388,-0.00037230582888686,0.00037230589454196,-0.00037230588474578,0.00037230582975545,-0.00037230586237379,0.00037230590229081,-0.00035043686327728,0.00035043687078781,-0.00035043677027116,0.00035043685771293,-0.00035043690431658,0.00035043677882462,-0.00035043686724006,0.00035043688107083,-0.00025871597093208,0.00025871604801626,0.75194288230643,129794,2964,0.0015045076371077,0.0017814301629608,0.001320989296878,18.430860721557,-0.00010855311422754,-0.00010855311422754,-0.00010855311422754,2388617.6661934,0.0046176602524235
19791759,0.29561246239466,0.0051354995794887,0.0017054917578847,0.0018515526628668,0.0015784551587373,-0.00037190330366299,0.00037190353844861,1.1014215940911e-10,1.2716538549359e-10,6.1141063256016e-11,1.8748546678592e-10,-0.00026986386547598,0.00026986413649181,-0.00030393753519672,0.00030393795464628,-0.00030393758790724,0.00030393791667046,-0.00026986402325316,0.00026986400455781,-0.00026986386228683,0.0002698641224817,-0.000303937732046,0.00030393779093528,-0.00030393767828888,0.00030393784421583,-0.00042135100703333,0.00042135115378515,-0.00042135097804926,0.00042135120510675,-0.00042135094798694,0.0004213512396819,-0.00042135097183596,0.00042135122043442,-0.00038614812088315,0.00038614844550456,-0.00038614819189087,0.00038614840123457,-0.00038614823109966,0.00038614832575836,-0.00038614814672513,0.00038614842854279,-0.00026986373485087,0.00026986425631354,5.9640680768142e-11,1.7869963806839e-11,1.9112394046025e-10,-1.2563651801653e-10,-0.00044170982671425,0.00044170989120132,-0.00043014323236755,0.00043014309203243,-0.00044936976004108,0.00044936989716318,-0.00044936968342844,0.00044936992939846,-0.0004316667229431,0.00043166685594391,-0.00043166680312255,0.00043166678114939,-0.00043166670027939,0.00043166686654547,-0.00043166682708838,0.00043166675877206,-0.0004301429250629,0.00043014337327422,-0.00043014332893027,0.00043014298812089,-0.00044936977661046,0.00044936989760304,-0.00044936987784084,0.00044936975570673,-0.0004301430105635,0.00043014330109351,-1.4097896679228e-11,-6.051650273297e-12,-0.00032593135171891,0.00032593133105274,-1.1948256506658e-10,1.0129817492431e-10,-0.00026516213337084,0.00026516246089412,-0.00027252359865722,0.0002725237613359,-0.00027252355871413,0.00027252380794041,-0.00026516235611087,0.00026516225911111,-0.0002651625044696,0.00026516211910831,-0.00027252377561992,0.00027252356569469,-0.00027252381184362,0.0002725235319567,-0.00038320191656892,0.00038320179231262,-0.00038320182609276,0.00038320189287901,-0.00038320188551807,0.00038320181823433,-0.00038320184642344,0.00038320188061854,-0.00036072957943886,0.00036072957089761,-0.00036072951962898,0.00036072961411239,-0.00036072965267611,0.00036072949701835,-0.00036072957462256,0.00036072956096306,-0.00026516228825489,0.00026516232724933,0.73295181789297,129794,2964,0.0015484581956133,0.0018387588681578,0.0013572108279112,18.579078489431,-0.00010736737208455,-0.00010736737208455,-0.00010736737208455,2439485.9147857,0.0047558129551147
19991759,0.30370072001055,0.0052731426611149,0.0017506305397118,0.0019047427592603,0.0016177693621428,-0.00038192749411437,0.00038192775517403,1.2350950284006e-10,1.3953646909489e-10,3.0789811539451e-11,2.4569880290846e-10,-0.00027596264082293,0.00027596320736541,-0.0003113831775741,0.00031138364931162,-0.00031138316993071,0.00031138367457036,-0.00027596289049421,0.00027596298784971,-0.0002759629078405,0.00027596293502035,-0.00031138339668691,0.00031138345465466,-0.00031138340600321,0.00031138344980394,-0.00043322379297262,0.00043322395820295,-0.00043322378637204,0.00043322398828946,-0.0004332237262072,0.0004332240521942,-0.0004332237291947,0.00043322405426115,-0.00039707271579225,0.00039707302709946,-0.00039707272179977,0.00039707305268062,-0.00039707278466148,0.00039707294819523,-0.00039707277414913,0.00039707297893169,-0.00027596269883272,0.00027596315186436,9.1162894477327e-11,-2.0439014367766e-11,1.4086581325823e-10,-8.143476578033e-11,-0.00045491304975435,0.0004549131089384,-0.00044289476009924,0.00044289466179223,-0.00046301371091614,0.0004630139441203,-0.00046301376376672,0.00046301383870484,-0.00044433165468923,0.00044433179782005,-0.00044433172669365,0.00044433173305676,-0.00044433167310663,0.0004443317637235,-0.00044433175398547,0.00044433170440882,-0.00044289456698323,0.00044289483049215,-0.00044289481521926,0.00044289460166304,-0.00046301376145308,0.00046301391010756,-0.00046301386358848,0.00046301376065338,-0.00044289456280196,0.00044289484549544,-1.1891578924471e-11,-5.2432136763625e-12,-0.0003341150205531,0.00033411500320962,-1.2850704614326e-10,1.1355923282891e-10,-0.00027134687460749,0.00027134704038143,-0.00027895879316033,0.00027895903748693,-0.00027895881339232,0.00027895902621464,-0.00027134712271312,0.00027134681592674,-0.00027134708368118,0.00027134686449165,-0.00027895904851641,0.00027895876172443,-0.00027895902699735,0.00027895878875839,-0.00039346338958442,0.00039346328225801,-0.00039346331215224,0.000393463368978,-0.00039346337973112,0.00039346328713396,-0.00039346331271381,0.00039346337690632,-0.00037054525158759,0.00037054531441821,-0.00037054524875353,0.00037054529467679,-0.00037054532781519,0.00037054523236746,-0.00037054531448142,0.00037054523126252,-0.00027134684950657,0.00027134710175645,0.74870071597289,129794,2964,0.0015901657033076,0.0018936692475109,0.0013912698519703,18.423900657016,-0.00010860879474387,-0.00010860879474387,-0.00010860879474387,2482078.8885563,0.0048871267907129
20191759,0.31172901364731,0.0054127165762112,0.001796316746015,0.0019588591023126,0.0016575407278836,-0.00039210318423552,0.00039210346483499,1.3293994730528e-10,1.5020612967349e-10,1.9201593036866e-11,2.7618895882277e-10,-0.00028223048649509,0.00028223117702413,-0.00031903217723547,0.00031903268287846,-0.00031903214764073,0.00031903273322368,-0.00028223077819607,0.00028223091268374,-0.00028223085399079,0.00028223079804775,-0.00031903240780837,0.0003190324658768,-0.00031903244085802,0.00031903243686904,-0.00044521380251244,0.0004452139814267,-0.00044521380285929,0.0004452140029942,-0.00044521372930741,0.00044521408056474,-0.00044521372435573,0.0004452140913523,-0.00040830070000493,0.00040830102601598,-0.00040830068393848,0.00040830107065689,-0.00040830076545371,0.00040830095286029,-0.0004083007716833,0.00040830096384507,-0.00028223061050611,0.00028223105794456,1.0614116932778e-10,-4.1643049855471e-11,1.1709014067143e-10,-6.1727781503592e-11,-0.00046836927408977,0.00046836932956216,-0.0004559770588439,0.00045597698538726,-0.00047698720796916,0.00047698747427199,-0.00047698731550256,0.00047698731565295,-0.00045715481851199,0.00045715496632052,-0.00045715488479464,0.00045715490801884,-0.00045715485559358,0.00045715491254973,-0.0004571549181438,0.00045715487209648,-0.00045597691683619,0.00045597709666792,-0.00045597709872569,0.00045597693802553,-0.00047698726448971,0.00047698743239955,-0.00047698738465178,0.00047698726916185,-0.00045597687527543,0.00045597714961329,-1.4140577772408e-11,-6.8646521131195e-12,-0.00034242826846971,0.000342428246609,-1.2632685903049e-10,1.0572415590963e-10,-0.00027776388993758,0.00027776397251766,-0.00028560518302262,0.00028560543128461,-0.00028560522482809,0.00028560539848061,-0.00027776411939126,0.00027776375505125,-0.00027776401974499,0.00027776386892278,-0.00028560544706378,0.00028560514474379,-0.00028560540630465,0.00028560519204961,-0.00040383575662282,0.00040383565682709,-0.00040383569078995,0.00040383573157125,-0.00040383575475658,0.00040383565410299,-0.00040383568290282,0.00040383574715523,-0.00038064184855867,0.00038064193179723,-0.00038064187317368,0.00038064188952124,-0.00038064192286302,0.00038064185150914,-0.00038064193322032,0.00038064182362135,-0.00027776379585677,0.00027776409796774,0.76566370847295,129794,2964,0.0016325021204769,0.0019496288444783,0.0014258673244068,18.316848613081,-0.00010946521109535,-0.00010946521109535,-0.00010946521109535,2520333.1792326,0.0050206851791127
20391759,0.31992610248606,0.0055561529364411,0.0018431860330037,0.0020146968674223,0.0016982700360151,-0.00040321918686191,0.00040321947347251,1.3688088105951e-10,1.5287292670467e-10,3.6391657877479e-11,2.6441141316283e-10,-0.00028921444523094,0.00028921516088318,-0.00032746947830904,0.00032746994254226,-0.0003274694321632,0.00032747000996348,-0.00028921470778687,0.00028921492403283,-0.00028921483014201,0.00028921476006021,-0.00032746965970092,0.00032746976920362,-0.00032746971008576,0.00032746972175565,-0.00045822207080502,0.00045822227144645,-0.00045822207713921,0.00045822228652703,-0.00045822201255234,0.00045822235512859,-0.00045822200255178,0.00045822237127801,-0.00042056774788353,0.0004205680592726,-0.00042056771877861,0.00042056811523928,-0.00042056779126667,0.00042056800977854,-0.00042056781194037,0.00042056800624555,-0.00028921461674686,0.00028921499598694,9.177406030663e-11,-2.1609614250125e-11,1.1431828162004e-10,-5.2447939918717e-11,-0.00048298689270649,0.00048298695479379,-0.00047024774929625,0.00047024766575993,-0.00049219951291589,0.00049219976069267,-0.00049219960209638,0.00049219962287185,-0.00047104540490716,0.00047104555102528,-0.00047104547332206,0.00047104549086589,-0.00047104543634292,0.0004710455028385,-0.00047104549037451,0.00047104547149481,-0.0004702476062925,0.00047024777412561,-0.00047024775964991,0.00047024764734304,-0.00049219957994077,0.00049219970584526,-0.00049219965341523,0.00049219959417517,-0.00047024755771109,0.00047024783380535,-1.2151030407413e-11,-6.7341001013938e-12,-0.00035159397658666,0.0003515939563733,-1.3536514853644e-10,1.1594077231096e-10,-0.00028493245000551,0.00028493250777399,-0.00029302460004009,0.00029302488261462,-0.00029302465657755,0.0002930248334509,-0.00028493269694837,0.00028493226973724,-0.00028493255124564,0.00028493242928098,-0.00029302489797798,0.00029302456145271,-0.00029302484052763,0.00029302462406793,-0.00041516475744245,0.00041516465917383,-0.00041516469061861,0.00041516473470097,-0.00041516476143292,0.0004151646504011,-0.00041516467798737,0.00041516475488106,-0.00039173326036425,0.00039173336799481,-0.00039173330106447,0.00039173331253365,-0.00039173333936374,0.0003917332827439,-0.00039173336827,0.00039173323591937,-0.00028493231100914,0.00028493267542371,0.7715769859468,129794,2964,0.0016787488002289,0.002010414830542,0.001464011121317,18.578320756925,-0.0001073734339446,-0.0001073734339446,-0.0001073734339446,2563746.7246158,0.0051666080789237
20591759,0.32805975241365,0.0056862835235226,0.001885806254054,0.0020655310794461,0.0017349461900225,-0.00041286751639885,0.00041286780983473,1.4064165030295e-10,1.5443816290249e-10,3.8433622776265e-11,2.7305229226343e-10,-0.00029411441659238,0.00029411517841255,-0.00033389323540426,0.00033389371242157,-0.00033389317747432,0.00033389378597271,-0.00029411470039552,0.0002941149393481,-0.00029411483706101,0.00029411475477212,-0.00033389342788626,0.00033389354988391,-0.00033389348169139,0.00033389349336817,-0.0004700204445482,0.0004700206525201,-0.00047002045408188,0.00047002066458747,-0.00047002038690359,0.00047002073578852,-0.00047002037667114,0.00047002075374033,-0.00043102460414171,0.00043102491858532,-0.00043102457838692,0.00043102497800479,-0.00043102464157115,0.00043102486872809,-0.00043102467118891,0.0004310248613659,-0.00029411461334622,0.00029411499463642,9.8391854049339e-11,-1.7432573933965e-11,1.0498308685714e-10,-3.7062582079275e-11,-0.00049609536585413,0.00049609543455876,-0.00048276267815138,0.0004827626197791,-0.00050574558020971,0.00050574584399098,-0.00050574566814954,0.00050574569147674,-0.00048361859101388,0.0004836187348804,-0.00048361865315098,0.00048361868135474,-0.00048361862449414,0.0004836186849284,-0.00048361866849261,0.00048361866362826,-0.00048276256441076,0.00048276270900885,-0.00048276268796296,0.00048276260940432,-0.00050574564386466,0.00050574579724085,-0.00050574570963656,0.00050574567444644,-0.00048276251420853,0.00048276277334213,-1.2406181711062e-11,-9.5115308998482e-12,-0.00035935651317981,0.00035935649092629,-1.327380424191e-10,1.1249507338168e-10,-0.00028995496224481,0.00028995499221648,-0.00029851511277262,0.00029851539750702,-0.0002985151764227,0.00029851534295825,-0.00028995521538999,0.00028995477600183,-0.00028995504562669,0.00028995494696419,-0.00029851541316374,0.00029851507430893,-0.00029851534516386,0.00029851514557342,-0.00042530468899445,0.00042530459391592,-0.0004253046269812,0.00042530466637667,-0.00042530469618438,0.00042530458217716,-0.00042530461330432,0.00042530468705401,-0.00040102085910577,0.00040102096437601,-0.00040102090069115,0.00040102090202626,-0.00040102093508954,0.00040102088344011,-0.00040102097346733,0.00040102083132526,-0.00028995481449744,0.00028995518299481,0.70762321418973,129794,2964,0.0017188887955506,0.0020649222312423,0.0014963159067093,18.473862711928,-0.00010820909830458,-0.00010820909830458,-0.00010820909830458,2609754.5238083,0.0052942342327956
20791759,0.33579087500615,0.0058167314963373,0.001928419529921,0.0021165740621497,0.0017717379042666,-0.00042138427523387,0.00042138458209513,1.2961653187745e-10,1.7396729824198e-10,2.2986026880892e-11,3.0291083235553e-10,-0.0002987595727046,0.00029876052455311,-0.00033984294353101,0.00033984345477621,-0.0003398428740231,0.000339843575259,-0.00029875996181896,0.00029876020219471,-0.00029876010909168,0.00029875996383031,-0.00033984318021045,0.00033984328102078,-0.00033984325985065,0.00033984320691221,-0.00048034162093741,0.00048034183712656,-0.00048034162499221,0.00048034184626061,-0.00048034155990149,0.00048034191419606,-0.0004803415270817,0.00048034195120831,-0.00044047087028078,0.00044047116582557,-0.00044047079873163,0.00044047127260788,-0.00044047090123218,0.00044047110137701,-0.0004404709182637,0.00044047107934457,-0.00029875988927702,0.00029876020985054,1.2023248356839e-10,-4.1060052212524e-11,7.6554008987501e-11,-1.3273263972294e-11,-0.00050777547375127,0.0005077755368103,-0.00049394599214034,0.00049394596223567,-0.00051783089483141,0.00051783121001311,-0.0005178310303497,0.00051783098020751,-0.00049480569928183,0.00049480584474014,-0.00049480575499399,0.00049480579563129,-0.00049480576769521,0.00049480576866655,-0.00049480577945275,0.00049480576780975,-0.00049394591416222,0.00049394598961462,-0.0004939459443355,0.00049394594980809,-0.00051783098312242,0.00051783119819859,-0.00051783103211954,0.00051783101240483,-0.00049394587146481,0.0004939460881986,-3.7001861324418e-11,-3.7756895376293e-12,-0.0003661038413349,0.00036610380216082,-1.2648048839926e-10,8.7880258486166e-11,-0.00029470903120355,0.00029470887286229,-0.00030356226393595,0.00030356254120848,-0.00030356236647563,0.00030356246131006,-0.00029470921378954,0.00029470873619602,-0.00029470902595464,0.00029470895126774,-0.00030356255065724,0.0003035622019578,-0.00030356249857271,0.00030356233318006,-0.00043403511270707,0.00043403501293451,-0.00043403507384429,0.0004340350650643,-0.00043403512515659,0.00043403500836639,-0.00043403503727953,0.00043403510382779,-0.00040937820254572,0.00040937833087871,-0.00040937829143591,0.00040937822150701,-0.0004093783002808,0.00040937823166668,-0.00040937831800083,0.00040937815910659,-0.00029470879016332,0.00029470921448616,0.74689429749151,129794,2964,0.0017543201316372,0.0021134874451635,0.0015243954558214,17.813524843222,-0.00011349180125422,-0.00011349180125422,-0.00011349180125422,2640264.80985,0.0054069175754675
20991759,0.34302942352315,0.0059344453784494,0.0019668940604724,0.002162728226371,0.001804823091606,-0.00042861543152748,0.00042861575515469,1.4765264444542e-10,1.7536355354323e-10,1.8529578610563e-11,3.2563969791605e-10,-0.00030191845240425,0.00030191932419072,-0.0003443530386035,0.00034435362103191,-0.00034435298481564,0.00034435369994295,-0.00030191882549266,0.00030191899559929,-0.00030191892935849,0.00030191883224618,-0.00034435331162048,0.00034435338634541,-0.0003443533608385,0.00034435333623346,-0.00048941213030852,0.00048941234002415,-0.00048941213171515,0.00048941235700158,-0.00048941204859243,0.00048941244516222,-0.00048941203279787,0.00048941246742556,-0.00044852675096799,0.00044852711203601,-0.00044852672194792,0.0004485271749952,-0.00044852681940132,0.00044852702701628,-0.00044852682510643,0.0004485270392764,-0.00030191865275533,0.00030191912677018,1.3662760720862e-10,-6.0441682033397e-11,6.8769076960727e-11,-6.2032194876307e-12,-0.00051808213105207,0.00051808219483947,-0.00050373256469578,0.00050373259529342,-0.00052853713152972,0.00052853744358127,-0.00052853728607632,0.00052853721297581,-0.00050463227744468,0.00050463242047099,-0.00050463231641643,0.00050463238944241,-0.00050463233922786,0.00050463234255253,-0.00050463235966913,0.00050463234216167,-0.00050373253640284,0.00050373259106155,-0.00050373259160126,0.00050373254954806,-0.00052853717229612,0.0005285374373119,-0.00052853731154989,0.00052853721261608,-0.00050373247342179,0.00050373267743387,-3.1729878219037e-11,-1.5622704810621e-11,-0.00037169278977289,0.00037169274299371,-1.0041891190077e-10,5.4159954289728e-11,-0.00029804924607416,0.00029804915903961,-0.00030728904246506,0.00030728921550439,-0.0003072891085124,0.00030728916150291,-0.00029804939799811,0.00029804904964396,-0.00029804925491178,0.00029804919330684,-0.0003072892501704,0.00030728897965609,-0.00030728919438597,0.00030728905298104,-0.00044162545562545,0.00044162536133433,-0.00044162542465697,0.00044162540499033,-0.00044162546014735,0.00044162535886327,-0.00044162540468924,0.00044162542916722,-0.0004164330551604,0.00041643311378229,-0.0004164331032887,0.00041643304114908,-0.00041643311240296,0.00041643304847649,-0.00041643313420814,0.000416433012366,-0.00029804910542761,0.00029804935515446,0.72120576004019,129794,2964,0.0017844032522743,0.0021563403772894,0.0015476551737542,16.961393608262,-0.00012030885113391,-0.00012030885113391,-0.00012030885113391,2664046.1158017,0.0055036468128362
21191759,0.34929647534711,0.0060366588600941,0.0020002831661334,0.0022028358692452,0.0018335398247154,-0.00043280314403584,0.0004328034922912,1.7157985897073e-10,1.7313745357846e-10,-8.3440770059398e-12,3.8310677601273e-10,-0.00030274916995467,0.00030274997609778,-0.0003462861851139,0.00034628693881973,-0.00034628617449677,0.0003462869609235,-0.00030274959320068,0.0003027495942563,-0.00030274959829509,0.00030274954239171,-0.00034628659913438,0.00034628659381226,-0.00034628660905029,0.00034628657579853,-0.00049513600371442,0.00049513620388712,-0.00049513599808896,0.00049513622590784,-0.00049513588109395,0.00049513635120915,-0.00049513589021898,0.00049513635078413,-0.00045342072366244,0.00045342119563202,-0.0004534207627165,0.00045342119191802,-0.00045342085772584,0.00045342103981399,-0.00045342084230479,0.0004534210697976,-0.00030274919091298,0.00030274994350303,1.8743973863877e-10,-1.1618077202371e-10,4.1814295456756e-11,1.0060595304157e-11,-0.00052483368592656,0.00052483373898731,-0.00050999757539234,0.00050999771684018,-0.00053560407979006,0.00053560444536375,-0.00053560428968016,0.00053560414127633,-0.00051103582416746,0.00051103595861126,-0.00051103583336926,0.00051103595658485,-0.00051103590698345,0.00051103586037986,-0.00051103592384499,0.00051103585982747,-0.00050999762983245,0.00050999764239537,-0.00050999769219542,0.00050999759322175,-0.0005356040641861,0.00053560450049095,-0.00053560434758098,0.0005356041110625,-0.00050999758678153,0.00050999772076307,-3.3851000712481e-11,-4.43789829143e-11,-0.00037452900536726,0.00037452892910678,-5.8265007419937e-11,-1.6546516596848e-11,-0.00029904746127597,0.00029904742076598,-0.00030861914691607,0.00030861913531929,-0.0003086191664093,0.0003086191335753,-0.00029904753396521,0.00029904738377498,-0.00029904749587336,0.00029904742180534,-0.00030861920837685,0.00030861905852929,-0.00030861917832838,0.00030861909424614,-0.00044609184605507,0.00044609175364445,-0.00044609183929374,0.0004460917787233,-0.00044609184504171,0.00044609175819581,-0.00044609184004172,0.0004460917757241,-0.00042048819568068,0.00042048811309891,-0.00042048817443134,0.00042048810972259,-0.00042048819373169,0.00042048811017886,-0.00042048819791013,0.00042048810401009,-0.00029904748255837,0.00029904742683315,0.7238793380135,129794,2964,0.0018018264682504,0.0021844108644634,0.0015594612748141,15.11881173776,-0.00013504950609792,-0.00013504950609792,-0.00013504950609792,2666833.5372525,0.0055612709497204
21391759,0.35500284969423,0.0061301084023258,0.0020307925540935,0.002239490017338,0.0018598258308943,-0.00043754275782231,0.00043754310914065,1.6321095198804e-10,1.8915759854168e-10,9.1094802410434e-13,3.7013630623698e-10,-0.00030440778446701,0.00030440872409574,-0.00034896397703513,0.00034896465118854,-0.00034896393092125,0.00034896472203016,-0.00030440820494578,0.00030440833620428,-0.00030440830954288,0.00030440817975435,-0.00034896430592217,0.00034896434184712,-0.0003489643518665,0.00034896429704803,-0.000501270695769,0.00050127090940879,-0.00050127069668296,0.00050127092872942,-0.00050127059157044,0.00050127104013438,-0.00050127057807006,0.00050127105864206,-0.00045887793215689,0.00045887834749864,-0.00045887790327564,0.00045887840747025,-0.00045887802615031,0.00045887824280623,-0.00045887803298832,0.00045887825622555,-0.00030440796808513,0.00030440854598094,1.6090993445901e-10,-9.2944259691115e-11,2.2791601182596e-11,3.5396358077782e-11,-0.00053196671636086,0.00053196677482875,-0.00051669850923098,0.00051669864719493,-0.00054306612283232,0.00054306644986255,-0.00054306634176225,0.00054306616595732,-0.00051780299100896,0.00051780311946989,-0.00051780300095073,0.00051780311921266,-0.00051780306924744,0.00051780302210656,-0.00051780306256643,0.00051780305330104,-0.00051669858460373,0.00051669853129525,-0.00051669856361668,0.00051669857588802,-0.00054306613217658,0.00054306646264106,-0.00054306633267019,0.00054306619825703,-0.00051669849855213,0.00051669863254925,-4.0706180729856e-11,-2.8109553301854e-11,-0.00037801459171762,0.00037801452171102,-7.2123588342082e-11,6.5541578195548e-13,-0.00030087815073777,0.00030087798292552,-0.0003107543178467,0.00031075437518928,-0.00031075437493149,0.00031075432708856,-0.00030087822273559,0.00030087793874624,-0.00030087809133449,0.00030087807299411,-0.00031075443893714,0.00031075422704373,-0.00031075438567495,0.00031075429175306,-0.00045106439465051,0.00045106430201193,-0.00045106438646683,0.00045106432112439,-0.00045106439601437,0.00045106430015969,-0.00045106437137241,0.00045106434190586,-0.00042516457593158,0.0004251645747548,-0.00042516461407973,0.00042516451732465,-0.0004251646013166,0.00042516454179468,-0.00042516461884267,0.00042516450949681,-0.00030087802468469,0.00030087815648742,0.72693239473538,129794,2964,0.0018215445106107,0.0022140666671709,0.0015739684557994,13.933144408247,-0.00014453484473402,-0.00014453484473402,-0.00014453484473402,2674207.8588893,0.0056255159997995
21591759,0.36039873982406,0.0062192352250711,0.0020598612720429,0.0022744726873081,0.0018849012657201,-0.00044283507407112,0.00044283541396377,1.5423832086047e-10,1.8737028001068e-10,3.6057762107178e-11,3.2230296121871e-10,-0.00030676429834715,0.00030676520326803,-0.00035229875797231,0.00035229931824628,-0.00035229869284229,0.00035229940820741,-0.00030676465077828,0.00030676489061385,-0.00030676478959519,0.00030676469068292,-0.00035229898834118,0.00035229910866021,-0.00035229904797135,0.0003522990476111,-0.0005078942827106,0.00050789451674142,-0.00050789428644531,0.00050789453199716,-0.00050789421121411,0.00050789461299813,-0.00050789419003706,0.00050789463993611,-0.00046492051356674,0.00046492087123174,-0.00046492046517172,0.00046492095138563,-0.00046492056913389,0.00046492080695868,-0.00046492058123929,0.00046492081203031,-0.00030676453928527,0.00030676496996853,1.2464704717709e-10,-4.1732258461091e-11,4.3856166134155e-11,2.8470834296217e-11,-0.00053958914456826,0.00053958921724066,-0.0005239266183968,0.00052392669673149,-0.00055103335749972,0.00055103363520044,-0.00055103350308765,0.00055103342543888,-0.00052504047561901,0.00052504060484733,-0.00052504050042745,0.00052504058982359,-0.00052504053112496,0.0005250405319282,-0.00052504052985827,0.00052504055757057,-0.0005239266351195,0.00052392663641359,-0.00052392662558042,0.00052392667236416,-0.00055103339037037,0.0005510336254791,-0.00055103349207323,0.00055103346166222,-0.00052392656451679,0.00052392672639184,-4.0533247111205e-11,-2.149236883465e-11,-0.00038209399500137,0.00038209393156906,-9.4372629929465e-11,2.9109488820686e-11,-0.00030340244024882,0.00030340227100555,-0.00031357026898177,0.00031357040055,-0.00031357034466602,0.00031357033402064,-0.00030340254934732,0.0003034021824548,-0.00030340237997712,0.00030340235830111,-0.0003135704551711,0.00031357018581214,-0.00031357038906793,0.00031357026558567,-0.0004565727207434,0.00045657262241528,-0.00045657270230166,0.00045657265235635,-0.00045657272598491,0.00045657261675544,-0.00045657267844347,0.00045657268059279,-0.00043044531203587,0.00043044535800801,-0.00043044537525513,0.00043044528066005,-0.00043044536257178,0.00043044530345642,-0.00043044538853932,0.00043044525711336,-0.0003034022557133,0.00030340249645738,0.73328844298803,129794,2964,0.0018435608084582,0.0022457561872221,0.0015909457049394,13.227608812405,-0.00015017912950076,-0.00015017912950076,-0.00015017912950076,2686912.7042522,0.0056966056576433
21791759,0.36593593448258,0.0063093572863637,0.0020892480366882,0.0023098918760627,0.0019102173736128,-0.00045013892723927,0.00045013923962248,1.4809956604227e-10,1.6612587580676e-10,9.8613569158448e-11,2.3069579110782e-10,-0.0003109025491546,0.00031090316255066,-0.00035747553684503,0.00035747595235416,-0.00035747550722988,0.00035747600695997,-0.00031090273271467,0.00031090301778064,-0.00031090279420536,0.00031090289658874,-0.00035747564711948,0.00035747586564249,-0.00035747568155632,0.00035747583030062,-0.0005166335664069,0.00051663381867834,-0.00051663356439846,0.00051663383916447,-0.00051663353461012,0.00051663387348913,-0.00051663352877478,0.00051663388543711,-0.00047297125713033,0.00047297158268023,-0.00047297125337361,0.00047297161540224,-0.00047297129200908,0.00047297153742729,-0.00047297128587747,0.00047297155921447,-0.00031090267980107,0.00031090303747855,7.0287165481224e-11,3.741945820223e-11,1.1873125440785e-10,-2.2915689702439e-11,-0.00054939358750767,0.00054939368381089,-0.00053330739248994,0.00053330735664764,-0.0005612059660476,0.00056120614646544,-0.00056120594756956,0.00056120610186285,-0.00053441610197717,0.00053441624165876,-0.00053441615706238,0.00053441619502933,-0.00053441610401818,0.00053441622385591,-0.00053441615377378,0.00053441619653307,-0.00053330724244196,0.0005333074661005,-0.00053330738613101,0.00053330734686288,-0.00056120600813135,0.00056120612751858,-0.0005612060124349,0.00056120606279518,-0.0005333072482341,0.00053330748171453,-2.6271996867169e-11,-2.308488794899e-11,-0.00038809302012277,0.00038809296962113,-1.2346979973954e-10,7.1650380282409e-11,-0.00030767586384135,0.0003076758904996,-0.00031817894691716,0.00031817912633574,-0.00031817898720725,0.00031817909591273,-0.00030767605649457,0.00030767571329071,-0.00030767596753737,0.0003076758118217,-0.00031817917331349,0.00031817887271566,-0.00031817913293704,0.00031817892674012,-0.0004641343237747,0.00046413420952677,-0.00046413427164857,0.00046413427388723,-0.00046413432394929,0.00046413420888394,-0.00046413426240762,0.00046413428618688,-0.00043767817025645,0.00043767820670564,-0.0004376781892174,0.00043767817540955,-0.00043767822925745,0.00043767814308361,-0.00043767824096095,0.00043767811247714,-0.00030767578991707,0.00030767600106983,0.72319362495211,129794,2964,0.0018739428316992,0.0022865157319029,0.0016159089115078,13.545680954533,-0.00014763455236374,-0.00014763455236374,-0.00014763455236374,2716850.8327317,0.0057932698739329
21991759,0.37166402534988,0.006401067418235,0.0021191471091356,0.0023460170803109,0.0019359032287886,-0.00045779538959767,0.00045779568679973,1.3872344519691e-10,1.6044095033028e-10,1.3077400241458e-10,1.8263696253675e-10,-0.00031523917899333,0.00031523972357281,-0.00036287978508645,0.00036288009796326,-0.00036287974830277,0.00036288015995783,-0.00031523929098235,0.00031523965437818,-0.0003152393648493,0.0003152395202598,-0.00036287980997355,0.00036288009598336,-0.00036287984890224,0.00036288005682083,-0.00052580708316015,0.00052580734721757,-0.0005258070824064,0.00052580736773621,-0.00052580707907969,0.00052580737401001,-0.00052580707038265,0.00052580738873062,-0.00048135474480314,0.00048135501851212,-0.0004813547319417,0.0004813550621051,-0.00048135474613174,0.00048135500569348,-0.00048135474457008,0.00048135502499108,-0.00031523933583443,0.00031523957684548,3.852421164119e-11,8.8876945846415e-11,1.6619649087011e-10,-5.1908600453531e-11,-0.00055963689059629,0.00055963700588601,-0.00054306212759356,0.00054306200187061,-0.0005718011761548,0.00057180132577527,-0.00057180108286456,0.00057180135602806,-0.00054425418946644,0.00054425434825676,-0.00054425427135808,0.00054425427411601,-0.00054425416683401,0.00054425435518945,-0.00054425423864884,0.000544254305398,-0.00054306187595623,0.00054306221549101,-0.00054306208878547,0.00054306202548718,-0.00057180125044977,0.00057180127498293,-0.00057180116479136,0.00057180130040452,-0.0005430619045511,0.00054306220795165,-1.8055484423778e-11,-1.1965778380155e-11,-0.00039439931653338,0.00039439928561412,-1.6070449932223e-10,1.294190719736e-10,-0.0003121143183341,0.00031211443538471,-0.00032300137012695,0.00032300167079293,-0.00032300141833434,0.00032300163447426,-0.00031211460232518,0.00031211416853614,-0.00031211449822171,0.00031211427939742,-0.0003230016949947,0.00032300131611862,-0.00032300165079159,0.0003230013755299,-0.00047208127812631,0.0004720811520881,-0.0004720811958113,0.00047208124686051,-0.00047208127873924,0.00047208115077407,-0.00047208118404594,0.00047208126103452,-0.00044522531404853,0.00044522540817696,-0.00044522534060014,0.00044522537029684,-0.00044522540774307,0.00044522531124727,-0.00044522542093988,0.00044522527787488,-0.00031211422227066,0.00031211457055732,0.71247574927988,129794,2964,0.0019057906930477,0.002329097922426,0.0016421501573525,13.971329642001,-0.00014422936286399,-0.00014422936286399,-0.00014422936286399,2751687.7651883,0.0058945376409626
22191759,0.37765382090472,0.0064952773502851,0.0021498618756683,0.0023832037625098,0.0019622117121071,-0.00046594394584972,0.00046594422554834,1.1520176622394e-10,1.5676201633683e-10,1.3375440113015e-10,1.5282553129963e-10,-0.00031988232479526,0.00031988286788019,-0.0003686322308296,0.00036863246383243,-0.0003686321924724,0.00036863257457662,-0.00031988241813559,0.00031988277955934,-0.00031988247813392,0.00031988258648808,-0.00036863220591886,0.0003686325287978,-0.00036863228673482,0.00036863245058448,-0.00053556218481175,0.00053556247724928,-0.00053556217710676,0.00053556247138593,-0.00053556220603507,0.00053556245037693,-0.00053556217073772,0.00053556248255282,-0.0004902025492101,0.00049020275216443,-0.00049020246998128,0.000490202822819,-0.00049020252672882,0.00049020275631382,-0.00049020248697257,0.00049020271071739,-0.00031988254469806,0.00031988259616026,1.1524302763991e-11,1.1309454151273e-10,1.8612535937303e-10,-7.2504733094971e-11,-0.00057048458540732,0.00057048469997825,-0.00055334644425224,0.0005533462044627,-0.00058298723916297,0.00058298737693463,-0.00058298711123953,0.0005829874210998,-0.00055471125574483,0.00055471144310479,-0.00055471136616808,0.0005547113290861,-0.00055471127070635,0.00055471145103731,-0.00055471131172598,0.00055471137907305,-0.00055334606661651,0.00055334647335221,-0.00055334626109289,0.00055334626229162,-0.0005829873868844,0.00058298733700527,-0.00058298717425593,0.00058298739510593,-0.00055334617291766,0.00055334649270311,-3.297668850392e-11,-7.796339047782e-12,-0.00040113547814337,0.00040113544050073,-2.1968684163966e-10,1.7392699008481e-10,-0.00031683136562262,0.00031683146232808,-0.00032815395217405,0.00032815439463922,-0.00032815405288825,0.00032815432465367,-0.00031683164558041,0.00031683105309483,-0.00031683156748386,0.00031683122610139,-0.00032815440073705,0.00032815388245405,-0.00032815438327376,0.00032815402608561,-0.00048054236819106,0.00048054221908971,-0.00048054227569393,0.00048054233736447,-0.00048054239592311,0.00048054222567885,-0.00048054222540379,0.00048054235716113,-0.00045322798225271,0.00045322815751584,-0.00045322808252444,0.00045322810502237,-0.00045322813835178,0.00045322800312336,-0.00045322814010195,0.00045322792415212,-0.00031683114059807,0.00031683168213688,0.7011622964518,129794,2964,0.0019396843669656,0.0023741906202582,0.0016701793112714,14.541551922094,-0.00013966758462325,-0.00013966758462325,-0.00013966758462325,2791045.0562574,0.0060021988024803
22391759,0.38377773470788,0.0065953357177596,0.0021824077238936,0.0024227910322226,0.0019901369616434,-0.00047393289769546,0.00047393319335643,1.2372476730799e-10,1.6647075443272e-10,1.3086203334294e-10,1.8232081085673e-10,-0.00032451202911171,0.00032451265652783,-0.00037436077680475,0.00037436107532323,-0.00037436073395413,0.00037436116605347,-0.00032451221612312,0.00032451256938873,-0.00032451224445761,0.00032451244961137,-0.0003743608028796,0.00037436108337088,-0.00037436084941516,0.0003743610428475,-0.00054510601338654,0.00054510628284908,-0.00054510600625406,0.00054510629768502,-0.00054510601398818,0.00054510629122837,-0.0005451059907213,0.00054510631853462,-0.00049900127714523,0.00049900151168097,-0.00049900123849344,0.00049900158006737,-0.00049900126388707,0.00049900150112573,-0.00049900124210697,0.00049900151087043,-0.00032451227725158,0.00032451244700828,3.9617413774027e-11,1.0104188772682e-10,2.1622569687066e-10,-9.1212313856386e-11,-0.0005812372915169,0.00058123741939309,-0.00056356768220858,0.00056356745607426,-0.00059413472854253,0.00059413492531762,-0.00059413461839499,0.00059413494217328,-0.00056502531356676,0.00056502552264731,-0.00056502542878971,0.00056502540841071,-0.00056502530612249,0.00056502552442526,-0.00056502538927269,0.0005650254402426,-0.0005635673211556,0.0005635677673438,-0.0005635675936604,0.00056356749427624,-0.00059413485245512,0.00059413485699553,-0.00059413471823143,0.00059413487169482,-0.00056356737740822,0.00056356777171356,-2.1807140554987e-11,4.4195784113838e-12,-0.0004076775026462,0.00040767748893032,-2.0881603216741e-10,1.9247832074066e-10,-0.00032155893674968,0.00032155907495191,-0.00033328946926417,0.00033328992867766,-0.00033328954627969,0.0003332898721452,-0.00032155930926634,0.00032155879696079,-0.00032155920811153,0.00032155885977338,-0.00033328991255809,0.00033328943894688,-0.00033328988857993,0.00033328952455496,-0.00048875253480338,0.00048875239243162,-0.00048875242557012,0.00048875252066627,-0.00048875254290829,0.00048875239949059,-0.00048875239237525,0.00048875253896056,-0.0004611700856362,0.0004611702616082,-0.00046117014767087,0.00046117020584434,-0.00046117023966237,0.00046117010658728,-0.00046117023706061,0.00046117007092323,-0.00032155881977373,0.00032155933567527,0.72868415720823,129794,2964,0.0019729135636185,0.0024188863518589,0.0016974005357369,14.831798942916,-0.00013734560845667,-0.00013734560845667,-0.00013734560845667,2823166.526352,0.0061079900030442
22591759,0.3899757564227,0.0066975605423059,0.0022156094838885,0.0024633495029295,0.0020186015554879,-0.00048178751913814,0.00048178783452906,1.4028348483289e-10,1.7251086057339e-10,1.1090917997715e-10,2.2206680184987e-10,-0.00032883780676207,0.00032883852053075,-0.00037987065176737,0.00037987101615798,-0.00037987059181839,0.00037987111223291,-0.00032883800697916,0.00032883837736863,-0.00032883811649115,0.00032883818997406,-0.00037987071415264,0.00037987098332799,-0.00037987077944237,0.00037987091806127,-0.00055457329417455,0.00055457356665462,-0.00055457329530086,0.00055457357724668,-0.00055457327868315,0.00055457359628379,-0.00055457325437077,0.00055457362426752,-0.00050777768596828,0.00050777795841989,-0.00050777764195457,0.00050777803142238,-0.00050777767978966,0.00050777794705604,-0.00050777768515558,0.00050777794386172,-0.00032883805816118,0.00032883828141086,7.0148863618016e-11,7.0129978465165e-11,2.1207588889077e-10,-8.6767760895917e-11,-0.00059201293480766,0.00059201306280047,-0.0005738537923258,0.0005738535831039,-0.00060538408417751,0.00060538434946874,-0.00060538405540258,0.0006053842974746,-0.00057527640881654,0.0005752766370609,-0.00057527652484253,0.00057527652406992,-0.00057527641873161,0.00057527661557877,-0.00057527650109567,0.00057527654270369,-0.00057385347007962,0.00057385386422772,-0.00057385372647948,0.00057385361515065,-0.00060538421460403,0.00060538425932396,-0.00060538413808501,0.00060538424080051,-0.00057385347294224,0.00057385390026329,-1.1970714622738e-11,2.7257258632988e-12,-0.00041405006743104,0.00041405005967788,-2.1006752342051e-10,2.012245538213e-10,-0.00032606825061046,0.0003260684174423,-0.00033821537177223,0.00033821584893092,-0.00033821545296694,0.00033821578433227,-0.00032606863916344,0.0003260680499916,-0.00032606847817299,0.00032606821384619,-0.00033821583896929,0.00033821534009785,-0.00033821578370921,0.00033821543673732,-0.000496867604535,0.00049686746997035,-0.00049686749454282,0.0004968675967043,-0.0004968676172822,0.00049686746896917,-0.00049686746384951,0.00049686761923228,-0.00046900207380326,0.00046900226267334,-0.00046900213571611,0.00046900219421758,-0.00046900221421496,0.00046900211192389,-0.000469002246586,0.00046900206608967,-0.0003260680805508,0.00032606865073983,0.7362113015609,129794,2964,0.0020055837155166,0.0024636755162754,0.0017239167882339,14.996120767747,-0.00013603103385802,-0.00013603103385802,-0.00013603103385802,2850063.1690439,0.0062126148208167
22791759,0.39620780495515,0.0068012135702734,0.0022492248807888,0.0025045883852144,0.0020474003042702,-0.00048955944970797,0.00048955978360746,1.4657893402595e-10,1.8530405807352e-10,9.1634609552049e-11,2.6043040273585e-10,-0.00033304973290151,0.00033305049726047,-0.00038527730121258,0.000385277748953,-0.00038527724898161,0.0003852778354391,-0.0003330499988242,0.00033305028911715,-0.0003330500656075,0.00033305013845491,-0.00038527742975074,0.00038527764916122,-0.00038527748035393,0.00038527759497568,-0.00056397466790923,0.00056397493321803,-0.00056397466271792,0.00056397494986266,-0.00056397462926013,0.00056397498626868,-0.00056397460732406,0.00056397501238177,-0.00051652355765895,0.00051652387522303,-0.00051652352182008,0.00051652393877788,-0.00051652358431787,0.00051652382988112,-0.00051652356675403,0.0005165238496002,-0.00033304995682904,0.00033305028704692,9.7126821224635e-11,3.9079970517917e-11,2.0500027283459e-10,-8.2865048263112e-11,-0.00060278192126376,0.00060278204576004,-0.00058415519063605,0.00058415502024604,-0.00061665539798227,0.0006166556989679,-0.0006166554116534,0.0006166556027912,-0.00058548692072093,0.00058548715734777,-0.00058548702942398,0.00058548705219337,-0.00058548694503727,0.00058548712035718,-0.0005854870290076,0.00058548704764967,-0.00058415489677757,0.00058415526914963,-0.00058415515642056,0.00058415502194542,-0.00061665550995501,0.00061665562357472,-0.00061665550597582,0.00061665553645201,-0.00058415489378382,0.00058415531421277,-1.686850152996e-11,3.3866742894252e-12,-0.00042032049865736,0.00042032048601012,-2.0197885407895e-10,1.8731928457591e-10,-0.00033048647354709,0.00033048664037423,-0.00034304571676377,0.00034304615654033,-0.00034304578826207,0.00034304610116013,-0.00033048683178953,0.00033048630221279,-0.000330486713566,0.00033048642095561,-0.00034304615063309,0.0003430456811514,-0.00034304610780138,0.00034304576302551,-0.00050490458211687,0.00050490444486863,-0.00050490447566442,0.0005049045684264,-0.00050490458856489,0.00050490444940158,-0.00050490444659379,0.00050490458841694,-0.00047675109154619,0.00047675125997151,-0.00047675114842907,0.00047675120415042,-0.00047675123028232,0.00047675111225326,-0.00047675124341328,0.00047675108534639,-0.00033048632927392,0.0003304868408032,0.74293133293871,129794,2964,0.0020379093493232,0.002508434937095,0.0017500079185054,15.078970920432,-0.00013536823263654,-0.00013536823263654,-0.00013536823263654,2874783.9493974,0.0063164461519385
22991759,0.4024460389472,0.0068994694400561,0.0022811377629479,0.0025437603197459,0.0020745713573622,-0.00049691443182507,0.00049691477978388,1.5674380240796e-10,1.8924506473729e-10,7.8500473349718e-11,2.8819866394923e-10,-0.00033653979526023,0.00033654061517066,-0.00038999802379246,0.00038999852452187,-0.00038999796934137,0.00038999861250158,-0.00033654009006712,0.000336540372709,-0.00033654017865152,0.00033654020180834,-0.00038999818758871,0.00038999838887589,-0.00038999824466127,0.00038999832746981,-0.00057308115555555,0.00057308142397321,-0.00057308115333242,0.00057308143768646,-0.00057308110459713,0.00057308148992265,-0.00057308108331277,0.00057308151524792,-0.00052472467075917,0.00052472501693747,-0.00052472463736258,0.00052472507760111,-0.00052472470629161,0.00052472496244647,-0.00052472469702387,0.00052472497441767,-0.00033654001976274,0.00033654040005062,1.1822833085271e-10,1.6353557796064e-11,1.9266708935488e-10,-7.1862490128656e-11,-0.00061314661229904,0.00061314673539303,-0.00059394682638114,0.00059394668874421,-0.0006274661587083,0.00062746649765606,-0.00062746621987888,0.00062746635423869,-0.00059536031431354,0.00059536055771112,-0.00059536041682631,0.0005953604591146,-0.00059536035425273,0.00059536050457848,-0.00059536042905602,0.00059536044162855,-0.00059394656918309,0.00059394689872778,-0.00059394680343438,0.0005939466787739,-0.00062746626751032,0.00062746642561002,-0.00062746630227672,0.00062746629943871,-0.00059394654800536,0.00059394696234165,-1.5906089879505e-11,-2.6690361833649e-12,-0.00042619370833764,0.00042619369045403,-1.9185629340355e-10,1.7158139837017e-10,-0.00033416477609418,0.00033416491247992,-0.00034722126150035,0.00034722167136395,-0.00034722133446956,0.00034722161484035,-0.00033416511559814,0.00033416458577618,-0.00033416497753513,0.00033416472727973,-0.00034722167447034,0.00034722121826628,-0.00034722162380895,0.00034722130577851,-0.00051264765074494,0.00051264751998704,-0.00051264755395429,0.00051264763418823,-0.00051264766031389,0.00051264752155997,-0.00051264752579524,0.00051264765301036,-0.0004839639498365,0.00048396410117837,-0.00048396400297758,0.00048396404692616,-0.00048396407260078,0.00048396396835839,-0.00048396409676595,0.00048396393205813,-0.00033416462568567,0.00033416511008434,0.70494751504778,129794,2964,0.002068500540739,0.0025515123364597,0.0017744465308398,15.106465489895,-0.00013514827608084,-0.00013514827608084,-0.00013514827608084,2902120.8347588,0.0064151884651756
23191759,0.4086807011439,0.0069986342149353,0.0023133128209576,0.0025833496448756,0.0021019717491021,-0.00050431992493565,0.00050432028477057,1.6354692907711e-10,1.9443766970972e-10,7.3185306489123e-11,3.0603275117423e-10,-0.00034034779938239,0.00034034864832961,-0.00039493624041796,0.00039493677757134,-0.00039493618663354,0.00039493686333181,-0.00034034811463337,0.00034034838446883,-0.00034034820244327,0.0003403482159693,-0.00039493642734346,0.00039493661796861,-0.00039493648289817,0.00039493655711469,-0.00058215150871092,0.00058215178046186,-0.00058215150654178,0.00058215179457689,-0.00058215144950961,0.00058215185539555,-0.00058215142948048,0.00058215187957119,-0.00053293942724238,0.00053293979533907,-0.00053293939866102,0.00053293985076679,-0.00053293947098994,0.00053293973121412,-0.00053293945947686,0.00053293974728439,-0.0003403480173499,0.00034034844012992,1.309175113246e-10,4.3402444783634e-12,1.820503064256e-10,-6.0413500317123e-11,-0.00062345693908704,0.00062345706301624,-0.0006036452623216,0.00060364515764571,-0.00063818423920044,0.00063818459392448,-0.00063818432258127,0.00063818442814083,-0.00060524216207714,0.00060524240638863,-0.00060524225679891,0.00060524231610796,-0.0006052422088145,0.00060524234553308,-0.00060524227737162,0.00060524228993066,-0.00060364503561911,0.00060364533646801,-0.00060364525121706,0.00060364513772381,-0.00063818433821235,0.0006381845299973,-0.00063818440005904,0.00063818437811516,-0.00060364500610773,0.00060364540712298,-1.752564185551e-11,-6.6994790855127e-12,-0.00043213058895765,0.00043213056519447,-1.8140594054069e-10,1.5494570038286e-10,-0.00033811502803417,0.00033811513942046,-0.00035162043132562,0.00035162080585856,-0.00035162050181051,0.0003516207512953,-0.00033811534381055,0.00033811483672122,-0.00033811520657359,0.00033811497625942,-0.00035162081649587,0.00035162038170916,-0.00035162076500796,0.00035162046657369,-0.00052034782103607,0.000520347693515,-0.00052034773244989,0.00052034779932207,-0.00052034783050103,0.0005203476946901,-0.00052034770580057,0.00052034781682874,-0.00049122515827999,0.00049122529090984,-0.00049122520734509,0.00049122523987652,-0.00049122526966615,0.00049122516973077,-0.00049122529508929,0.0004912251331949,-0.00033811488430644,0.00033811532887039,0.71243094148945,129794,2964,0.0020993006300967,0.0025943616629167,0.0017991492040709,15.116499329,-0.000135068005368,-0.000135068005368,-0.000135068005368,2930190.7010004,0.0065141863545088
23391759,0.41488035110409,0.0070975231132792,0.0023453708795807,0.002622897153781,0.0021292550799174,-0.00051156083501991,0.00051156120389919,1.6535734647598e-10,2.0179232423595e-10,7.3291133344421e-11,3.1548027741173e-10,-0.0003439430170971,0.00034394390579202,-0.0003996787618841,0.00039967931111895,-0.00039967870194058,0.00039967940315833,-0.00034394335004703,0.00034394362699909,-0.00034394344296855,0.00034394345121942,-0.00039967895344254,0.0003996791463642,-0.00039967901082093,0.00039967908305776,-0.00059106941393752,0.00059106969074677,-0.00059106941134652,0.00059106970566453,-0.00059106935286433,0.00059106976779558,-0.00059106932969205,0.00059106979489087,-0.00054099451854879,0.00054099488928739,-0.0005409944836624,0.00054099495131515,-0.00054099456036732,0.00054099482406531,-0.0005409945449823,0.00054099484542996,-0.00034394325553548,0.0003439436791895,1.3669407694272e-10,2.0151595825595e-12,1.6987598630596e-10,-4.4899951820289e-11,-0.00063365286312564,0.00063365299047314,-0.00061324145845622,0.00061324138356095,-0.000648846595994,0.00064884695598577,-0.00064884668986697,0.00064884677840611,-0.00061496776108186,0.00061496800384639,-0.00061496784834198,0.00061496792154669,-0.00061496781161517,0.00061496793870085,-0.00061496787022761,0.00061496789402653,-0.0006132412612139,0.00061324153192933,-0.00061324144655891,0.00061324136435674,-0.00064884668954797,0.00064884689760168,-0.00064884675465787,0.00064884674161066,-0.00061324122516796,0.00061324160841134,-2.2259330237226e-11,-6.6486230361889e-12,-0.00043790692736747,0.00043790689877314,-1.7500332225485e-10,1.4339940944937e-10,-0.00034188731021562,0.00034188737841113,-0.00035586227981734,0.00035586263709872,-0.00035586235584982,0.00035586257696132,-0.00034188760373442,0.00034188710161616,-0.00034188745896771,0.00034188724695668,-0.00035586265071871,0.00035586222560688,-0.00035586259709479,0.00035586231332746,-0.00052791552432147,0.00052791539769256,-0.00052791544278061,0.00052791549605358,-0.00052791553341702,0.00052791539911441,-0.0005279154137331,0.00052791551654991,-0.00049838153365123,0.00049838166307991,-0.00049838159035585,0.00049838160474556,-0.00049838164308818,0.00049838154374495,-0.00049838166749308,0.00049838150848362,-0.00034188714957961,0.0003418875894295,0.71512603860388,129794,2964,0.0021294158254418,0.0026367339518621,0.0018231839353882,15.062858767547,-0.00013549712985962,-0.00013549712985962,-0.00013549712985962,2954612.4549994,0.0066113522812265
23591759,0.42143766534131,0.0072021080832289,0.0023792453646372,0.0026648012795587,0.0021580614390331,-0.00052074558616481,0.00052074594484404,1.7270932205465e-10,1.8495960875797e-10,1.0571085056196e-10,2.681564396666e-10,-0.0003492101830382,0.00034921078686556,-0.00040617056895244,0.00040617107790665,-0.00040617057129526,0.00040617111780787,-0.00034921038732967,0.00034921060709136,-0.00034921036908584,0.00034921055011492,-0.0004061707158158,0.00040617093631302,-0.0004061707418512,0.00040617091276645,-0.00060206098850851,0.00060206127543142,-0.00060206097698883,0.0006020612965548,-0.00060206093715201,0.00060206133929182,-0.00060206093709214,0.00060206134335085,-0.00055107517922107,0.00055107558752486,-0.00055107520704345,0.00055107556999506,-0.00055107524569855,0.00055107550152124,-0.00055107519447887,0.00055107554170384,-0.000349210238679,0.00034921072844555,1.0686857850299e-10,3.8030351336739e-11,2.0887319739073e-10,-7.3036801955063e-11,-0.00064606794943302,0.00064606808744534,-0.0006250266429725,0.00062502653564805,-0.00066179610864235,0.00066179638004282,-0.00066179609575685,0.00066179632005146,-0.0006268342006602,0.00062683444391177,-0.00062683429426022,0.00062683435471345,-0.00062683421588549,0.0006268344124606,-0.00062683431001836,0.00062683433049748,-0.00062502634980003,0.00062502676230989,-0.00062502664740748,0.00062502649097596,-0.00066179617756758,0.00066179634388107,-0.00066179623046811,0.00066179621511114,-0.00062502638241998,0.00062502677911215,-1.2147959430458e-11,-2.1837690388255e-11,-0.00044548536841234,0.00044548533378668,-1.7487943506801e-10,1.3380819256866e-10,-0.00034732266021841,0.0003473228905237,-0.00036180145539113,0.00036180173898396,-0.00036180148113057,0.00036180173373128,-0.00034732294520894,0.00034732256781951,-0.00034732293184368,0.00034732260534047,-0.00036180177161538,0.00036180138751778,-0.00036180176249949,0.0003618014348281,-0.00053744597751708,0.00053744584216559,-0.00053744588415096,0.00053744595391338,-0.00053744597959406,0.00053744585113321,-0.00053744587529169,0.00053744594728571,-0.00050750314524926,0.00050750319661247,-0.00050750313893841,0.00050750321747987,-0.00050750322624658,0.00050750310462112,-0.00050750322849368,0.00050750308648973,-0.00034732266025302,0.00034732290993721,0.71571491721803,129794,2964,0.0021676128564895,0.0026883262692839,0.0018547141861356,15.824893389792,-0.00012940085288166,-0.00012940085288166,-0.00012940085288166,2991836.791459,0.0067334926146068
23791759,0.42869995366385,0.0073237961092541,0.0024185156157417,0.0027137388933269,0.0021915416001855,-0.0005322770405386,0.00053227739025276,1.5842879831484e-10,1.9099949966992e-10,1.4588522008608e-10,2.1901653173941e-10,-0.00035659219930829,0.00035659286599906,-0.00041491606812078,0.00041491642907917,-0.00041491601591067,0.00041491651544209,-0.00035659234643815,0.00035659275498949,-0.00035659243444452,0.00035659259366441,-0.0004149160840075,0.0004149164178772,-0.00041491614134445,0.00041491635835377,-0.00061552625949598,0.00061552657250917,-0.0006155262571923,0.00061552658763376,-0.00061552625072596,0.00061552659595145,-0.00061552622986211,0.00061552661940455,-0.0005637699552853,0.00056377025998844,-0.00056376992654174,0.00056377031044714,-0.00056376994719016,0.00056377025059977,-0.0005637699266672,0.00056377027545766,-0.00035659241086944,0.00035659266438742,6.9868847231148e-11,9.8081903598076e-11,2.3104874053869e-10,-7.4185282432732e-11,-0.00066131169678588,0.00066131185613142,-0.00063969036317529,0.00063969018316846,-0.00067772020323125,0.00067772045046222,-0.00067772014185713,0.00067772044587557,-0.00064135205669739,0.00064135231065087,-0.00064135217236274,0.00064135219956669,-0.00064135205445364,0.00064135229920629,-0.00064135214264328,0.00064135222456872,-0.0006396900201815,0.00063969046801297,-0.00063969030256052,0.00063969021102675,-0.0006777203212052,0.00067772035898126,-0.00067772023646256,0.0006777203759332,-0.00063969003574355,0.00063969048647142,-1.1955807546889e-11,-2.1969609137639e-12,-0.00045515938911474,0.00045515937403996,-2.0954988931016e-10,1.9011262133399e-10,-0.00035490914717704,0.00035490933600217,-0.00036988521828057,0.00036988565699419,-0.00036988528606429,0.00036988560320603,-0.00035490952004079,0.00035490895716045,-0.00035490938529734,0.00035490909607208,-0.00036988566189037,0.00036988517259493,-0.00036988561308966,0.00036988525172506,-0.00054924901475902,0.00054924887421621,-0.00054924890332067,0.00054924900193082,-0.00054924902333739,0.00054924887539704,-0.00054924887807802,0.00054924901739429,-0.00051912481411374,0.00051912497053132,-0.00051912486303191,0.00051912493490197,-0.00051912494211962,0.00051912482985358,-0.00051912496563502,0.00051912480064799,-0.00035490900067046,0.00035490951618979,0.7520188826395,129794,2964,0.002215566311247,0.0027516694000529,0.0018949605494372,17.221887805361,-0.00011822489755711,-0.00011822489755711,-0.00011822489755711,3038034.7200294,0.0068860787535489
23991759,0.43599912753704,0.0074489928087508,0.0024587936031367,0.0027643658192295,0.0022258333863846,-0.0005415301772088,0.00054153055223612,1.8156828196362e-10,1.9174721034258e-10,1.2247710479087e-10,2.7733654136786e-10,-0.00036153213591474,0.0003615333885046,-0.00042131400333654,0.00042131434325732,-0.0004213138104708,0.00042131457423516,-0.0003615324180648,0.00036153320979069,-0.00036153290079807,0.00036153261576256,-0.0004213139902494,0.00042131441072722,-0.0004213141843758,0.0004213142102564,-0.0006267581121797,0.00062675847710766,-0.00062675816934209,0.00062675844246544,-0.00062675812624542,0.00062675848005537,-0.00062675806881009,0.00062675854445864,-0.00057430458428216,0.00057430482151039,-0.00057430445780652,0.00057430500084791,-0.00057430444441226,0.00057430490933245,-0.0005743046149163,0.00057430477395714,-0.00036153280468409,0.00036153276323411,9.6855885766233e-11,8.7255895900547e-11,1.5182438168186e-10,1.0759348472433e-11,-0.00067444875464494,0.00067444891999033,-0.00065233695632354,0.00065233681308544,-0.0006916376097275,0.00069163800268341,-0.00069163769318812,0.00069163780145615,-0.00065366880635869,0.0006536690608881,-0.00065366891614385,0.0006536689591733,-0.00065366885208758,0.00065366898770078,-0.00065366885264354,0.00065366901768256,-0.00065233679714289,0.00065233694579013,-0.00065233677795941,0.00065233697866238,-0.0006916378083243,0.00069163783934411,-0.00069163760640563,0.00069163793298529,-0.0006523366775591,0.00065233710940433,1.154161680675e-11,-1.3429753700831e-12,-0.00046256901912443,0.00046256903053684,-2.4937627132811e-10,2.6168646399455e-10,-0.00036019438044144,0.00036019425895853,-0.00037569495381852,0.00037569567591993,-0.00037569516092527,0.00037569549033334,-0.00036019490086393,0.00036019382132732,-0.00036019433407641,0.00036019436795234,-0.00037569564735131,0.00037569492913938,-0.00037569545508858,0.00037569516899476,-0.00055882367235258,0.00055882357696746,-0.00055882357114494,0.00055882369212271,-0.00055882373387478,0.00055882352017961,-0.0005588235116952,0.00055882375009452,-0.00052859809330096,0.00052859842147178,-0.00052859824181618,0.0005285982548729,-0.00052859823431483,0.00052859827165363,-0.00052859842086103,0.00052859806882762,-0.00036019385153473,0.00036019491390399,0.77069149719516,129794,2964,0.0022540469178512,0.0028062552818569,0.0019257893187913,17.33194018995,-0.0001173444784804,-0.0001173444784804,-0.0001173444784804,3061360.4345806,0.0070108461746242
24191759,0.4433151230156,0.0075679601679247,0.0024971215323646,0.0028125900617131,0.0022582485738471,-0.00055034439502778,0.00055034477938496,1.7571714588828e-10,2.0743944708787e-10,1.2083046257996e-10,2.8453782575591e-10,-0.0003656073042202,0.00036560811477656,-0.00042690137912484,0.00042690187078933,-0.00042690132561658,0.00042690195915863,-0.00036560756656827,0.00036560790770124,-0.0003656076240856,0.00036560774941051,-0.00042690150020772,0.0004269017814644,-0.00042690154870877,0.00042690171998645,-0.00063770841540661,0.00063770872914636,-0.00063770840934095,0.00063770874892195,-0.00063770837295127,0.00063770878629235,-0.00063770836029109,0.00063770880488164,-0.00058429387293576,0.00058429426157598,-0.00058429387498485,0.00058429429132926,-0.00058429391027003,0.00058429419665135,-0.00058429387433439,0.00058429424200491,-0.00036560751718803,0.00036560791007405,1.1945119281864e-10,5.2786397369515e-11,2.0537007439954e-10,-4.8363198630311e-11,-0.00068721228299106,0.00068721244320914,-0.00066449665890798,0.00066449656315242,-0.00070513195647756,0.00070513227308907,-0.00070513195104828,0.00070513218549993,-0.00066566113791194,0.00066566140067324,-0.00066566123454604,0.00066566131021338,-0.00066566115935903,0.00066566136141243,-0.00066566124075979,0.00066566129773018,-0.0006644964016462,0.00066449676954726,-0.00066449663068149,0.00066449656220811,-0.00070513204066285,0.00070513222350647,-0.0007051320614508,0.00070513210798792,-0.00066449639986268,0.00066449681871203,-1.5077420898818e-11,-8.0464858912617e-12,-0.00046954883592128,0.0004695488125211,-1.9174394227606e-10,1.6511413014711e-10,-0.00036457480271647,0.00036457494325036,-0.00038073316954055,0.00038073355690825,-0.00038073323362336,0.00038073350739869,-0.00036457513569887,0.00036457463119373,-0.00036457501735902,0.00036457474849021,-0.00038073356703452,0.00038073311477114,-0.00038073351898599,0.0003807331946255,-0.00056810939619258,0.00056810926548244,-0.00056810930127526,0.00056810937792165,-0.00056810940667769,0.00056810926516975,-0.00056810927850594,0.00056810939176239,-0.00053748204240872,0.00053748216618079,-0.00053748208330229,0.00053748213771968,-0.00053748215209056,0.00053748204196747,-0.00053748217967605,0.00053748201704513,-0.0003645746805632,0.0003645751148346,0.73179797751583,129794,2964,0.0022907020610274,0.0028592867049011,0.0019548302551358,17.407833956308,-0.00011673732834953,-0.00011673732834953,-0.00011673732834953,3086199.5476863,0.0071304268107423
24391759,0.45064434454629,0.007687805518662,0.0025356890330184,0.0028612606555957,0.0022908558300479,-0.0005592615261141,0.00055926192476853,1.8691218165233e-10,2.104721375442e-10,1.1399599597116e-10,3.0589873350367e-10,-0.0003700691039572,0.00037007013082852,-0.00043276440226606,0.00043276487769183,-0.00043276429150385,0.0004327650248057,-0.00037006938433867,0.00037006990541368,-0.00037006963471536,0.00037006955407296,-0.00043276448783828,0.00043276481884556,-0.00043276460086419,0.00043276469513238,-0.00064867818127146,0.00064867852500115,-0.00064867820105393,0.00064867851991937,-0.00064867815255878,0.00064867856923531,-0.00064867811929242,0.00064867860765735,-0.00059431788374345,0.00059431823537711,-0.00059431782688248,0.00059431832282539,-0.00059431786133329,0.00059431822806355,-0.0005943179007908,0.00059431820075754,-0.00037006949205791,0.00037006974792144,1.2625955318085e-10,4.812586565181e-11,1.775026397526e-10,-1.7895631460669e-11,-0.00069994724078127,0.00069994740361459,-0.0006765707455205,0.0006765706579256,-0.00071851126869534,0.00071851164409882,-0.00071851134618297,0.00071851147687513,-0.00067771734106669,0.00067771761363101,-0.00067771744038248,0.0006777175204153,-0.00067771739171747,0.00067771754490804,-0.0006777174247392,0.00067771752942268,-0.00067657054837905,0.00067657080149756,-0.00067657066542211,0.00067657070769802,-0.00071851140010913,0.0007185115474455,-0.00071851136223235,0.000718511492199,-0.00067657048514681,0.0006765709097345,-9.1688263067383e-12,-1.1349344388261e-11,-0.00047664592142115,0.00047664590068073,-2.0208056487341e-10,1.7822276536125e-10,-0.00036931715871511,0.00036931716061839,-0.00038602916854085,0.00038602964262613,-0.00038602929310763,0.0003860295352808,-0.00036931752448471,0.00036931680922284,-0.00036931721944085,0.00036931711395182,-0.00038602965311335,0.00038602911435899,-0.00038602954093698,0.0003860292586853,-0.00057739663542485,0.00057739652014283,-0.00057739655074821,0.00057739662246224,-0.00057739666769328,0.00057739649813229,-0.00057739651175617,0.0005773966520617,-0.00054645340754522,0.00054645357929036,-0.00054645349297096,0.0005464535153381,-0.00054645351209691,0.00054645345735469,-0.0005464536019179,0.00054645337802168,-0.00036931686663897,0.00036931750190085,0.73639361618756,129794,2964,0.0023277834623179,0.0029121961040471,0.0019843579798914,17.481478623053,-0.00011614817101557,-0.00011614817101557,-0.00011614817101557,3113984.3543684,0.00725081779687
24591759,0.4579540236534,0.0078105489653667,0.0025750926889134,0.0029112359656853,0.0023242203107679,-0.00056821203588947,0.0005682124457649,1.9158252887349e-10,2.1651042799034e-10,1.1683763511692e-10,3.1513669333446e-10,-0.00037462276217408,0.00037462376590807,-0.00043874636386922,0.00043874686952736,-0.00043874626436979,0.00043874700461622,-0.0003746230486268,0.00037462353369947,-0.00037462325989283,0.00037462322466751,-0.00043874646843341,0.00043874679281674,-0.00043874656818945,0.0004387466817478,-0.00065964004116375,0.00065964038948368,-0.00065964005602815,0.0006596403885175,-0.0006596400063658,0.00065964043938929,-0.00065963997705245,0.00065964047427669,-0.00060443672086012,0.00060443709834897,-0.00060443667103185,0.00060443717973666,-0.00060443671727189,0.00060443707820161,-0.00060443674599943,0.0006044370590115,-0.0003746231096762,0.0003746234232434,1.3321925012571e-10,4.4443178195825e-11,1.7903591704806e-10,-1.6705366512704e-11,-0.00071279687239065,0.00071279703805095,-0.00068883381521468,0.00068883374549381,-0.00073207016009198,0.00073207053370244,-0.00073207023066919,0.00073207037203604,-0.0006898116784391,0.00068981195316394,-0.00068981177331473,0.00068981186409876,-0.0006898117282764,0.00068981188526835,-0.00068981176549563,0.00068981186467082,-0.00068883362173364,0.00068883388566991,-0.00068883375066577,0.00068883377924114,-0.00073207027670615,0.00073207045347074,-0.00073207026393191,0.00073207036973673,-0.00068883356736778,0.00068883398557139,-1.3006539638922e-11,-1.4802395708737e-11,-0.00048376165688165,0.00048376162894253,-1.937450305679e-10,1.6263156104948e-10,-0.00037420810888872,0.00037420812048996,-0.00039145133342927,0.0003914517659655,-0.00039145144689031,0.00039145166977734,-0.00037420844918675,0.00037420779405801,-0.00037420818501393,0.00037420805803869,-0.00039145178307426,0.00039145127245093,-0.00039145168160206,0.00039145140495447,-0.0005866896809483,0.00058668956274919,-0.00058668960076928,0.00058668966101502,-0.00058668970958427,0.00058668954455722,-0.00058668956513518,0.00058668968682584,-0.00055558653544396,0.00055558667515904,-0.00055558661170467,0.00055558663425376,-0.00055558663098119,0.00055558655934989,-0.00055558670933707,0.00055558650420144,-0.00037420785878961,0.00037420841999719,0.7566100802504,129794,2964,0.0023650027622753,0.0029655790476925,0.002013962958861,17.498079887461,-0.00011601536090031,-0.00011601536090031,-0.00011601536090031,3137516.1656014,0.007371916449503
24791759,0.46523168703778,0.007921282120581,0.0026108088554033,0.0029563508637822,0.0023541224013955,-0.00057641283333642,0.00057641324817454,1.9280106150109e-10,2.2019684781392e-10,1.1984436863092e-10,3.1719255972032e-10,-0.0003778077239635,0.00037780869933727,-0.00044343012698132,0.00044343064757062,-0.00044343003842321,0.00044343077183967,-0.0003778080118195,0.00037780846572219,-0.00037780818564334,0.00037780819394562,-0.00044343024213971,0.00044343055990757,-0.00044343032933119,0.00044343046159673,-0.00067009747149447,0.0006700978200817,-0.00067009748164552,0.00067009782396793,-0.00067009743299326,0.00067009787373933,-0.00067009740682898,0.00067009790526153,-0.00061352153327473,0.00061352192554573,-0.00061352149463433,0.00061352199631341,-0.00061352154242434,0.00061352189287141,-0.00061352155585915,0.00061352188991999,-0.00037780803877418,0.00037780838861781,1.3707562296322e-10,4.6532128974482e-11,1.8245440855483e-10,-1.4299593069012e-11,-0.0007248994921929,0.0007248996635608,-0.0007001326898517,0.00070013263997258,-0.00074478009033255,0.00074478045887145,-0.00074478015003669,0.00074478030795936,-0.00070128449397151,0.00070128477067391,-0.00070128458479418,0.00070128468572067,-0.0007012845402085,0.00070128470606509,-0.00070128458104202,0.00070128468215013,-0.00070013249644589,0.00070013277980937,-0.00070013264019341,0.00070013265893966,-0.00074478019424347,0.00074478039055135,-0.00074478019544047,0.00074478029325987,-0.00070013245425378,0.00070013286676,-1.5638981986159e-11,-1.5995100698888e-11,-0.00049017924525567,0.00049017921341932,-1.8937931586304e-10,1.5422573174988e-10,-0.00037766453719477,0.00037766456780625,-0.00039563669393104,0.0003956370985489,-0.00039563679559087,0.00039563701351846,-0.00037766486386064,0.00037766425667441,-0.00037766463833089,0.0003776644805694,-0.00039563711952293,0.00039563662953255,-0.00039563703007304,0.00039563674904596,-0.00059549818152702,0.00059549805878148,-0.00059549810120214,0.00059549815734664,-0.00059549820538814,0.00059549804538514,-0.00059549806951125,0.00059549817919765,-0.00056371498212001,0.00056371510111815,-0.00056371504567452,0.00056371507128505,-0.00056371507368246,0.00056371498870331,-0.00056371513805826,0.00056371494777687,-0.00037766432376111,0.00037766483240343,0.68707270785273,129794,2964,0.0023991050109667,0.0030158569346281,0.0020406646666156,17.494416633842,-0.00011604466692926,-0.00011604466692926,-0.00011604466692926,3164566.6226405,0.0074838401312499
24991759,0.47287875347504,0.0080395432746167,0.0026488936326708,0.0030045826154273,0.0023860670265187,-0.00058663474400282,0.00058663514558128,1.66082154863e-10,2.3274004186325e-10,1.3893435640078e-10,2.7425900064932e-10,-0.00038329075064008,0.00038329183284202,-0.00045031836726352,0.00045031875117995,-0.00045031826219006,0.00045031894632873,-0.00038329103801161,0.00038329159944697,-0.00038329124579069,0.00038329124334727,-0.00045031837094803,0.00045031874578933,-0.00045031850677485,0.00045031862025999,-0.00068252941930959,0.00068252979003445,-0.0006825294257497,0.00068252978589612,-0.00068252941551076,0.00068252979605112,-0.00068252935656481,0.00068252985165732,-0.00062457649935451,0.00062457680027851,-0.0006245763737791,0.00062457693291639,-0.000624576463377,0.00062457680697066,-0.00062457646407395,0.00062457677178196,-0.00038329125917189,0.00038329132770588,1.0826485849465e-10,7.216728377468e-11,1.8876842270279e-10,-1.5485988027207e-11,-0.00073903228724719,0.00073903246313356,-0.00071336958752533,0.00071336946181189,-0.00075943432319228,0.00075943466189188,-0.00075943436126648,0.0007594345294056,-0.00071486810949979,0.00071486840325523,-0.00071486821945944,0.0007148682961614,-0.00071486816800062,0.00071486833591302,-0.00071486818935374,0.000714868317612,-0.00071336931864941,0.00071336961562578,-0.00071336941223176,0.00071336953152134,-0.0007594344857093,0.00075943457963166,-0.00075943436629641,0.00075943457038053,-0.00071336929727678,0.00071336972985474,-3.326844816623e-11,4.251387167158e-12,-0.00049851036531144,0.00049851033516404,-2.2629242079964e-10,1.8536708475425e-10,-0.0003833151406927,0.00038331501296765,-0.00040192346526046,0.00040192398623421,-0.0004019236242989,0.00040192385324773,-0.00038331543967418,0.00038331468370401,-0.00038331518275753,0.00038331497444331,-0.00040192397652036,0.00040192338140096,-0.00040192391306176,0.00040192357614315,-0.00060617985797154,0.00060617972129322,-0.00060617977211111,0.00060617982521579,-0.00060617989065055,0.00060617971174062,-0.00060617970875596,0.00060617987093974,-0.00057384567795448,0.00057384590215107,-0.00057384582417744,0.00057384581643601,-0.00057384582467163,0.00057384573275404,-0.00057384587716434,0.000573845648529,-0.00038331474882438,0.00038331549667326,0.69912331423562,129794,2964,0.0024416068087923,0.0030745646536208,0.0020753227261521,18.241410933046,-0.00011006871253563,-0.00011006871253563,-0.00011006871253563,3206883.6269928,0.0076207499667582
25191759,0.48144449231677,0.008175675038967,0.0026926122825871,0.0030602694292956,0.0024227933270844,-0.00059981491787535,0.00059981531319421,1.7085570218146e-10,2.2313435678092e-10,1.7997163121079e-10,2.300923773064e-10,-0.00039112532660017,0.00039112625512211,-0.0004598236812106,0.00045982398425317,-0.00045982355937039,0.00045982415541368,-0.00039112548696273,0.0003911261380005,-0.0003911257310321,0.00039112578574987,-0.0004598235996546,0.00045982406382027,-0.00045982372214276,0.00045982393729612,-0.00069820518586937,0.00069820556893049,-0.00069820519589815,0.00069820556831061,-0.00069820520505731,0.00069820555885799,-0.00069820515502167,0.00069820560931554,-0.00063884848527562,0.00063884876005831,-0.00063884838840349,0.00063884887829088,-0.00063884842301806,0.00063884880837321,-0.0006388484336597,0.00063884879573844,-0.00039112577196934,0.00039112580736648,8.0388894350929e-11,1.2788555773822e-10,2.4307534147988e-10,-4.5964398542062e-11,-0.00075681076601601,0.00075681096731158,-0.00073025679616177,0.00073025659961064,-0.00077789960417908,0.00077789991277358,-0.00077789956485041,0.00077789987370781,-0.00073188339148116,0.0007318837050425,-0.00073188352429808,0.00073188357427507,-0.00073188341294607,0.00073188367118741,-0.00073188346755529,0.00073188362662956,-0.00073025645212695,0.00073025686356288,-0.00073025664631198,0.00073025669883674,-0.00077789977146891,0.00077789978079366,-0.0007778996050432,0.00077789986444497,-0.00073025641934082,0.00073025694632067,-1.4945963758493e-11,7.6582728097284e-12,-0.0005094837168818,0.00050948370872815,-2.4657656166982e-10,2.3156617704386e-10,-0.00039137357546533,0.00039137362105561,-0.00041069787989984,0.00041069847567285,-0.00041069802260416,0.0004106983472588,-0.00039137399407419,0.00039137319684566,-0.00039137369424738,0.00039137349373153,-0.00041069846531885,0.00041069783335971,-0.00041069836156594,0.00041069798702837,-0.00061986363566676,0.00061986349753832,-0.00061986352443028,0.00061986362781252,-0.00061986366683813,0.0006198634834417,-0.000619863469337,0.00061986366872756,-0.00058705114446151,0.00058705139322383,-0.00058705127486234,0.00058705131623794,-0.00058705129867076,0.0005870512118365,-0.00058705137871575,0.00058705115584013,-0.00039137322811134,0.00039137401639996,0.71927450129304,129794,2964,0.0024964048765478,0.0031484117534424,0.0021209689828604,19.91123040993,-9.671015672056e-05,-9.671015672056e-05,-9.671015672056e-05,3261683.9697671,0.0077964028931647
25391759,0.49063863341192,0.008329594287122,0.002741806062227,0.0031235734502269,0.002464214774668,-0.00061304622190306,0.00061304664347986,2.092178619497e-10,2.1717130059525e-10,1.8804069230946e-10,2.5139940859711e-10,-0.00039877642543188,0.00039877661782604,-0.00046933148241509,0.00046933206568456,-0.00046933157978222,0.00046933199655197,-0.00039877636559119,0.00039877656021335,-0.00039877626395362,0.0003987766786102,-0.00046933162636697,0.00046933194289963,-0.00046933158079687,0.00046933199996819,-0.0007140504373848,0.00071405076316774,-0.00071405039499596,0.00071405084089882,-0.00071405038390667,0.00071405085192033,-0.00071405041286265,0.000714050823112,-0.00065352045831325,0.00065352099825121,-0.00065352060238387,0.00065352089701375,-0.00065352057879613,0.00065352085508929,-0.00065352047321224,0.00065352105109839,-0.00039877606309692,0.00039877683517128,1.0118460864437e-10,1.5026724042792e-10,3.507967284228e-10,-1.206517572254e-10,-0.00077518108442875,0.00077518131541424,-0.00074783141552433,0.00074783128065104,-0.00079713890705782,0.00079713911247346,-0.00079713870614407,0.00079713932508657,-0.00074928711907769,0.00074928742868366,-0.00074928724085173,0.00074928731863738,-0.00074928704329799,0.0007492874773217,-0.00074928724815469,0.00074928731383238,-0.00074783093906984,0.00074783173770155,-0.0007478315041892,0.00074783113473942,-0.00079713895980504,0.00079713913626885,-0.00079713899221402,0.00079713901381686,-0.00074783102417562,0.00074783157468307,7.7287798359342e-12,-1.4918440590116e-11,-0.00052031372436196,0.00052031371398285,-1.7850920784454e-10,1.795754243128e-10,-0.00039942354867121,0.00039942433759651,-0.00041945484374434,0.00041945507295429,-0.0004194547448432,0.00041945520357605,-0.00039942396401224,0.00039942374262044,-0.0003994241464,0.00039942372166884,-0.00041945511170015,0.00041945476935608,-0.00041945513751741,0.00041945474274936,-0.00063354818919089,0.00063354801131669,-0.00063354803969217,0.00063354816856108,-0.00063354814799942,0.00063354805454071,-0.00063354808615346,0.00063354815336615,-0.00060054917723472,0.00060054912960956,-0.00060054902329874,0.00060054923185137,-0.00060054923907795,0.00060054901908907,-0.00060054918183897,0.00060054917560494,-0.00039942387181555,0.0003994238762151,0.75830681877479,129794,2964,0.0025514147609146,0.0032247107951339,0.0021660197574144,21.020163069175,-8.7838695446599e-05,-8.7838695446599e-05,-8.7838695446599e-05,3303963.4160738,0.0079741708974728
25591759,0.4997801054862,0.0084873586466569,0.0027920217075213,0.0031888308067807,0.0025065061323548,-0.00062434299087757,0.00062434342770107,2.067384346945e-10,2.2767056458524e-10,1.6858699878291e-10,2.9227377139867e-10,-0.00040436568248386,0.0004043670655773,-0.00047687608936141,0.00047687640288602,-0.00047687583200502,0.00047687667685506,-0.00040436588856197,0.00040436690107988,-0.00040436654566699,0.00040436614597326,-0.00047687597832366,0.0004768765625475,-0.00047687622122515,0.00047687629500287,-0.00072795981246017,0.00072796025899733,-0.00072795987969155,0.00072796021269291,-0.00072795985509786,0.00072796023652426,-0.0007279597725427,0.00072796032276237,-0.00066652224071493,0.00066652245711208,-0.00066652203025084,0.00066652270692863,-0.00066652204789342,0.00066652262324814,-0.00066652224266165,0.00066652245492179,-0.00040436642804592,0.0004043663151636,1.3587026534489e-10,9.8988080882813e-11,2.0859262943799e-10,4.7018537062659e-12,-0.00079184158616587,0.00079184180136369,-0.00076382562287509,0.00076382543831834,-0.00081480133996349,0.00081480187472814,-0.00081480151800809,0.00081480160925317,-0.00076483816478438,0.00076483852221877,-0.00076483831566717,0.00076483837887795,-0.00076483825061938,0.00076483842164408,-0.00076483823958666,0.00076483845662787,-0.00076382540185479,0.00076382561136313,-0.0007638254061449,0.00076382561576824,-0.00081480161497537,0.00081480163881029,-0.00081480138897889,0.00081480176387948,-0.00076382523044682,0.00076382582167731,1.2072478159153e-11,1.3931631162937e-12,-0.00052922306531318,0.00052922307634439,-2.7849725008088e-10,2.9328597628717e-10,-0.00040558949510441,0.00040558935923085,-0.00042635284654632,0.00042635367017186,-0.00042635309330009,0.0004263534341478,-0.00040559007640434,0.0004055887928342,-0.00040558936030992,0.00040558950573542,-0.0004263536539455,0.00042635281486463,-0.0004263533806226,0.0004263530999324,-0.00064531364460135,0.0006453135397897,-0.00064531354047053,0.00064531366419893,-0.0006453137233941,0.00064531347452615,-0.00064531346216058,0.00064531374170206,-0.00061225994263576,0.00061226033243951,-0.00061226015336074,0.00061226013416379,-0.00061226010798956,0.00061226015449852,-0.00061226033434734,0.0006122599454499,-0.00040558880254054,0.0004055900573243,0.78253495764152,129794,2964,0.0025983834625618,0.0032939029067148,0.0022030846500679,21.046868411964,-8.7625052704287e-05,-8.7625052704287e-05,-8.7625052704287e-05,3324718.9726535,0.0081286475213403
25791759,0.50832773004614,0.0086303468263621,0.0028375458183612,0.0032481310596351,0.0025446699483658,-0.00063293152232868,0.00063293198808693,2.5181169367855e-10,2.1184196575571e-10,1.3863157626815e-10,3.5863322282475e-10,-0.0004072046998268,0.00040720583770023,-0.00048159880054792,0.00048159938482921,-0.00048159869111423,0.00048159953370962,-0.00040720498738336,0.00040720562361529,-0.00040720530702312,0.00040720519048137,-0.00048159893145645,0.0004815993291379,-0.00048159906535378,0.00048159918632431,-0.00073913896186284,0.00073913937922841,-0.00073913900709664,0.00073913936362465,-0.00073913892887822,0.00073913943477127,-0.00073913891952384,0.0007391394543894,-0.00067667325080513,0.00067667373929642,-0.00067667326292177,0.0006766737844892,-0.00067667322056406,0.00067667371166942,-0.00067667335395563,0.0006766736286279,-0.00040720507317758,0.00040720546863748,1.7594238919843e-10,6.1067718073867e-11,1.906054246296e-10,2.1284553005431e-11,-0.00080554454767553,0.00080554476092277,-0.00077682284724652,0.00077682284034316,-0.00082944411812457,0.00082944458738679,-0.00082944419410454,0.00082944436609979,-0.00077752051079357,0.00077752082419497,-0.00077752060178867,0.00077752074066217,-0.00077752055490118,0.00077752073787372,-0.00077752059926507,0.00077752073746564,-0.00077682270418337,0.00077682296663157,-0.000776822787787,0.00077682289211724,-0.00082944423065545,0.00082944450325884,-0.00082944422463717,0.00082944439555821,-0.00077682263628259,0.000776823094429,3.656064332906e-11,-3.5152590480138e-11,-0.00053563201893622,0.00053563202054551,-2.4033734333156e-10,2.4742363408508e-10,-0.00040895866825247,0.00040895879920949,-0.00043058629647261,0.00043058689399182,-0.00043058641126077,0.00043058680732574,-0.00040895921344045,0.00040895833388488,-0.00040895882893456,0.00040895871311816,-0.00043058690030141,0.00043058625030988,-0.00043058674805416,0.0004305864322452,-0.00065450976040949,0.00065450965425381,-0.00065450964216944,0.00065450979001189,-0.00065450981355019,0.00065450960435992,-0.00065450963166439,0.0006545098039938,-0.00062116954161929,0.00062116970938275,-0.00062116955195299,0.00062116967255527,-0.00062116961380597,0.00062116962458856,-0.00062116978268462,0.00062116945108334,-0.00040895842209487,0.00040895916072434,0.75922183666928,129794,2964,0.0026340954810794,0.0033508090905324,0.0022297525273083,20.189718741171,-9.4482250070633e-05,-9.4482250070633e-05,-9.4482250070633e-05,3330457.0568571,0.0082489289648577
25991759,0.51654436738098,0.0087648090074271,0.0028803860095174,0.0033039043939772,0.0025805186039325,-0.00064174696979269,0.00064174744324405,1.9960489714858e-10,2.7257637571412e-10,1.4518898547321e-10,3.5180806374044e-10,-0.00041055111848157,0.00041055212918222,-0.00048667484125627,0.00048667542544381,-0.00048667475078151,0.00048667555235802,-0.00041055139761462,0.00041055183453657,-0.00041055154658562,0.00041055160143675,-0.00048667496847426,0.00048667532672122,-0.00048667503977192,0.0004866752425172,-0.00075044852108354,0.00075044890411185,-0.00075044851032836,0.00075044893078549,-0.00075044847669863,0.00075044896779088,-0.00075044844014749,0.00075044900836653,-0.00068687100717116,0.00068687143493397,-0.00068687093644532,0.00068687152470826,-0.00068687103991722,0.00068687138109283,-0.00068687097795245,0.00068687145291864,-0.00041055138198908,0.00041055180989872,1.7655047097489e-10,4.2841557260275e-11,2.3997857437075e-10,-3.647155612644e-11,-0.0008191704471089,0.00081917065411837,-0.00078964772956959,0.00078964766178142,-0.0008438713074897,0.00084387176255923,-0.00084387139604925,0.00084387159377394,-0.00079027207407068,0.00079027242691984,-0.00079027219111357,0.00079027231859198,-0.00079027213394676,0.00079027235031283,-0.00079027220517994,0.00079027229695726,-0.00078964747223016,0.00078964785934944,-0.00078964769583352,0.00078964764352386,-0.00084387143046278,0.00084387168749856,-0.00084387148362519,0.00084387152577756,-0.0007896474207468,0.00078964794798146,-3.6853005546492e-11,1.5710338883461e-12,-0.00054236639556627,0.00054236635786131,-1.8839885389544e-10,1.5015407896742e-10,-0.00041276181153663,0.00041276186940264,-0.00043517583880059,0.00043517622142292,-0.00043517593403053,0.00043517614380519,-0.00041276209808739,0.0004127615431298,-0.00041276192922709,0.00041276174505494,-0.00043517624752663,0.00043517576849331,-0.00043517616348496,0.00043517587175977,-0.00066390325798166,0.00066390311263178,-0.00066390317696449,0.0006639032143355,-0.00066390326641886,0.0006639031194039,-0.00066390313985859,0.00066390324839937,-0.00063018736088998,0.00063018751052153,-0.00063018745392647,0.00063018743091325,-0.00063018748775458,0.00063018735723361,-0.000630187508675,0.00063018736027497,-0.00041276158753965,0.00041276207152065,0.74286645130272,129794,2964,0.0026707484715833,0.0034073916307835,0.0022577719521343,19.730314310645,-9.8157485514841e-05,-9.8157485514841e-05,-9.8157485514841e-05,3344464.1288258,0.0083712102171569
26191759,0.52464794955,0.008900263965833,0.0029234470267712,0.0033601733704068,0.002616643568655,-0.00065130462071063,0.00065130510015263,2.4449129107653e-10,2.3384356168088e-10,1.5767104186084e-10,3.4217742827327e-10,-0.00041491383248123,0.00041491470964422,-0.0004927109444457,0.0004927115424575,-0.00049271088686769,0.0004927116350266,-0.00041491398928351,0.00041491452243207,-0.00041491421577292,0.0004149142157586,-0.00049271104289299,0.00049271145371684,-0.00049271114093945,0.00049271134454257,-0.00076239850181241,0.00076239892611686,-0.00076239851739461,0.0007623989243353,-0.00076239846533681,0.00076239898087249,-0.00076239845227665,0.00076239899537504,-0.00069785216395681,0.00069785266917943,-0.00069785216931473,0.00069785267698776,-0.00069785218973792,0.00069785262964617,-0.00069785220459345,0.0006978526187768,-0.00041491398802898,0.000414914487144,1.5409641966604e-10,7.072193187588e-11,2.2164843032936e-10,-1.0955983288444e-11,-0.00083347409594631,0.0008334743108125,-0.00080317740977575,0.00080317737989114,-0.00085896313023547,0.00085896351809073,-0.00085896317999228,0.000858963404818,-0.00080370715560449,0.00080370748980024,-0.00080370725670414,0.00080370739468276,-0.00080370720666987,0.00080370742806798,-0.00080370725344937,0.00080370739326405,-0.00080317717431201,0.00080317754669636,-0.0008031773656489,0.00080317737009722,-0.0008589632356123,0.00085896345593785,-0.00085896324305941,0.00085896335548675,-0.00080317713700834,0.00080317761151449,8.9878912110195e-12,-3.7526415064367e-11,-0.00054985157926798,0.0005498515480389,-2.1344065332316e-10,1.8086386549777e-10,-0.00041760792644538,0.00041760816356158,-0.00044070095958065,0.00044070137014236,-0.0004407010231605,0.00044070132489038,-0.00041760834313504,0.00041760766811991,-0.00041760811250114,0.00041760794626757,-0.00044070141841595,0.00044070086507844,-0.00044070131130881,0.00044070099141244,-0.00067395693728401,0.00067395680413977,-0.00067395683528919,0.00067395692652328,-0.00067395697239727,0.00067395678636632,-0.00067395682569902,0.00067395693235109,-0.00063998098611035,0.00063998106856991,-0.0006399809938492,0.00063998108810244,-0.00063998104701241,0.00063998098044342,-0.00063998114281541,0.00063998091319086,-0.00041760779589859,0.00041760824979957,0.75895828676106,129794,2964,0.0027104842590281,0.003466784431744,0.0022889121994271,19.640541148897,-9.887567080882e-05,-9.887567080882e-05,-9.887567080882e-05,3364071.8050098,0.0085025957511725
26391759,0.53278898515617,0.0090408342813009,0.0029679888561929,0.0034187296181305,0.0026541158069775,-0.00066161843263729,0.00066161891046203,2.0963124429174e-10,2.6656321129452e-10,1.8693254083919e-10,3.1223208997986e-10,-0.0004199622302739,0.00041996309735743,-0.00049951607648752,0.00049951660338777,-0.0004995160073421,0.00049951670993881,-0.00041996241323002,0.00041996290549876,-0.00041996253303187,0.00041996270609416,-0.00049951613315538,0.00049951656140936,-0.00049951619504709,0.00049951649283919,-0.00077511687922918,0.00077511729581754,-0.00077511686946554,0.00077511732025615,-0.00077511685901375,0.00077511733365429,-0.00077511682866941,0.000775117366044,-0.00070981914520031,0.00070981956903813,-0.00070981909709634,0.00070981963509363,-0.00070981915399557,0.00070981953719955,-0.00070981909523726,0.00070981960421184,-0.00041996243619443,0.00041996283986633,1.3858957774236e-10,9.9642737736436e-11,2.6150980477924e-10,-3.9363280106111e-11,-0.00084877108843963,0.00084877131454255,-0.00081778830320423,0.00081778821961536,-0.00087516864669861,0.00087516901763167,-0.00087516863659147,0.00087516895664137,-0.00081799377485103,0.00081799412291507,-0.00081799389476689,0.00081799400804987,-0.00081799380498338,0.00081799407865148,-0.00081799388012624,0.00081799401671868,-0.00081778798981568,0.00081778847057182,-0.00081778826257951,0.00081778820960565,-0.00087516876370999,0.00087516894396112,-0.00087516873720655,0.00087516887426288,-0.00081778798363528,0.00081778850612341,-2.7198523859281e-11,-7.2719446117897e-12,-0.00055802937746356,0.00055802934063112,-2.0838896502652e-10,1.7034418295554e-10,-0.00042321095477132,0.00042321111634592,-0.00044700995000611,0.00044701035421707,-0.00044701002696781,0.00044701029671991,-0.0004232112900566,0.00042321072955098,-0.00042321116087988,0.00042321089862713,-0.00044701038224387,0.0004470098758004,-0.00044701031279722,0.00044700996830161,-0.00068474678237774,0.00068474662299431,-0.00068474668106333,0.00068474674481947,-0.00068474679044385,0.00068474663001036,-0.00068474665476883,0.00068474676719113,-0.00065065831508144,0.00065065843533681,-0.00065065837202668,0.00065065840517052,-0.00065065843764434,0.00065065828795639,-0.00065065845089887,0.00065065829883389,-0.0004232107960634,0.00042321126744613,0.78422789038794,129794,2964,0.0027533618322387,0.0035302976747699,0.0023229321885749,19.821172630182,-9.7430618958543e-05,-9.7430618958543e-05,-9.7430618958543e-05,3384330.8545952,0.0086442277524013
26591759,0.5413030143672,0.0091873982768292,0.0030143763109841,0.0034799410972518,0.0026930808685933,-0.00067342530260977,0.00067342577343155,2.3120631492343e-10,2.4403569323003e-10,2.1258443498555e-10,2.7260248888697e-10,-0.00042594006485378,0.00042594141900532,-0.00050743476600694,0.00050743502325225,-0.00050743454599425,0.00050743532359182,-0.00042594021688761,0.00042594129163459,-0.00042594080965596,0.00042594057340859,-0.00050743455196362,0.00050743519383685,-0.00050743480603285,0.00050743496217923,-0.00078955123188033,0.00078955173551552,-0.0007895513058993,0.00078955169325272,-0.00078955129243448,0.00078955169284087,-0.00078955122220882,0.00078955177250547,-0.00072344851604221,0.00072344879784057,-0.0007234483280148,0.00072344900159416,-0.00072344832226628,0.00072344895457415,-0.0007234485167259,0.00072344878777662,-0.00042594085924395,0.00042594063943215,9.5385467068868e-11,1.4236733382163e-10,2.0978439810013e-10,2.1735934167793e-11,-0.00086603010614198,0.0008660303432689,-0.00083433828522862,0.00083433811700299,-0.00089344632172226,0.0008934467204246,-0.0008934463676166,0.00089344655208551,-0.0008340975856524,0.00083409794337402,-0.00083409772276037,0.00083409781129594,-0.0008340976187637,0.00083409784243626,-0.00083409762530473,0.00083409789813394,-0.00083433805272203,0.00083433826679878,-0.00083433806816015,0.00083433833950261,-0.00089344653618475,0.00089344647406351,-0.00089344628291039,0.00089344672131564,-0.00083433789224816,0.00083433847872482,2.4164693029701e-11,-1.6955806423517e-12,-0.00056753981249815,0.00056753982806909,-2.9665337400188e-10,3.0361086818728e-10,-0.00042975200613322,0.00042975184536097,-0.00045441030889944,0.00045441114511777,-0.00045441057282616,0.00045441092524326,-0.00042975252836901,0.00042975127691001,-0.00042975190991302,0.00042975192448053,-0.00045441112528349,0.00045441026965699,-0.00045441090936472,0.00045441053607617,-0.00069712868967113,0.00069712858775264,-0.00069712857011187,0.00069712872028698,-0.00069712876524466,0.00069712850883319,-0.00069712850154562,0.00069712878266989,-0.00066288757353631,0.00066288795644338,-0.00066288776000222,0.00066288780115935,-0.00066288771011768,0.00066288779532296,-0.00066288795210022,0.00066288753351746,-0.0004297513435325,0.00042975259303438,0.78231018633951,129794,2964,0.0028024438794598,0.0036019527562271,0.0023624936706354,20.595423827103,-9.1236609383172e-05,-9.1236609383172e-05,-9.1236609383172e-05,3412617.6405308,0.0088059449067636
26791759,0.55024545968669,0.0093377306664084,0.0030619737751071,0.0035428661050344,0.0027328907862668,-0.00068572295887092,0.00068572342744543,2.1499308105013e-10,2.5486297578751e-10,2.3916903450605e-10,2.4872510395704e-10,-0.00043197991751979,0.00043198070691924,-0.00051549243242987,0.00051549281249696,-0.00051549235572724,0.00051549293487376,-0.0004319799942437,0.00043198061826874,-0.00043198014197719,0.00043198038148052,-0.00051549234975888,0.0005154929005998,-0.00051549243268138,0.00051549280848448,-0.00080469371920104,0.00080469417280065,-0.00080469371800595,0.00080469419327624,-0.0008046937356184,0.00080469417186386,-0.00080469371495114,0.00080469419801599,-0.0007375396637747,0.00073754007071899,-0.0007375396428709,0.00073754011312488,-0.00073753964160978,0.00073754007145429,-0.00073753960400615,0.00073754012159521,-0.00043198017044922,0.00043198042121793,8.9597023166562e-11,1.7479987210981e-10,3.1071937719036e-10,-6.2183267228062e-11,-0.00088405749055992,0.00088405774495938,-0.0008515177607979,0.00085151756924397,-0.00091246748514565,0.00091246776987678,-0.00091246732870437,0.00091246783358357,-0.0008509845164707,0.00085098488066566,-0.00085098466216833,0.00085098474357133,-0.00085098449849795,0.00085098486989196,-0.00085098461080558,0.00085098478707658,-0.00085151733912945,0.00085151792644813,-0.00085151766389025,0.00085151763680521,-0.00091246760949373,0.00091246766680544,-0.00091246747833722,0.0009124677278402,-0.00085151735476446,0.0008515179546812,-1.4801708994421e-12,-1.7506548128148e-12,-0.0005774287923254,0.00057742878412453,-2.6092605064194e-10,2.4929165977553e-10,-0.00043631533782987,0.00043631561394914,-0.00046191093592049,0.00046191150105664,-0.00046191102428681,0.00046191143406385,-0.00043631580276986,0.00043631508890715,-0.00043631562497382,0.0004363153076098,-0.00046191150578879,0.00046191087481795,-0.00046191142319379,0.00046191098608633,-0.00071010518093703,0.00071010502104905,-0.00071010504223216,0.0007101051816531,-0.00071010519923232,0.00071010501543574,-0.00071010501820463,0.000710105198213,-0.00067554425812603,0.00067554445458249,-0.00067554431437727,0.00067554442417102,-0.00067554439507203,0.00067554428624569,-0.00067554445702097,0.0006755442398725,-0.00043631514774952,0.00043631578892865,0.76473034385481,129794,2964,0.0028535646184876,0.0036767922250091,0.0024036293482183,21.456213708356,-8.4350290333149e-05,-8.4350290333149e-05,-8.4350290333149e-05,3445018.635718,0.0089745491054802
26991759,0.55924796507029,0.009485106266968,0.0031086708680616,0.0036046612010694,0.0027717741978371,-0.00069676873269255,0.00069676921327842,2.3039206085716e-10,2.5065216698365e-10,2.3430665594544e-10,2.6756727025356e-10,-0.00043676943889446,0.00043677052625048,-0.00052224474733568,0.00052224508570387,-0.00052224458779034,0.00052224529069451,-0.00043676954032521,0.00043677043603576,-0.00043676995198892,0.00043676991779703,-0.00052224460932372,0.00052224523758827,-0.00052224477892636,0.00052224505799602,-0.00081863074629926,0.00081863124153674,-0.00081863078361929,0.00081863122583762,-0.00081863078823883,0.00081863121667882,-0.0008186307425673,0.00081863126805776,-0.00075016460328117,0.00075016495085718,-0.00075016451397739,0.00075016506887752,-0.00075016448855921,0.00075016503588699,-0.00075016456829156,0.00075016497969224,-0.00043676994781681,0.00043676998562145,1.0654771489339e-10,1.6724308941195e-10,2.8807640581649e-10,-3.2423011299353e-11,-0.00090071621564527,0.00090071647725713,-0.00086718071956878,0.0008671805244805,-0.0009300000603899,0.00093000045424833,-0.00093000002130475,0.00093000040031743,-0.00086666070454369,0.00086666109469323,-0.00086666086316471,0.00086666094293144,-0.00086666072870523,0.00086666104217801,-0.00086666078399638,0.00086666101443073,-0.00086718035878791,0.00086718082662862,-0.00086718056131795,0.00086718065099757,-0.00093000025988717,0.00093000028338027,-0.00093000005434465,0.00093000040614974,-0.00086718029735706,0.00086718093048612,1.5011789071104e-11,-5.7110360317694e-12,-0.00058611244960595,0.00058611245533137,-2.8545711574577e-10,2.906841633983e-10,-0.00044161315766609,0.00044161328102493,-0.00046810037798663,0.00046810111074436,-0.00046810054934091,0.0004681009642773,-0.00044161371355916,0.00044161268478731,-0.0004416132741071,0.00044161316315561,-0.00046810110275289,0.00046810033232282,-0.00046810092760805,0.00046810053480337,-0.00072188754006142,0.000721887404669,-0.00072188740620895,0.00072188756035446,-0.00072188759264289,0.00072188736433583,-0.00072188736190008,0.00072188759788352,-0.00068683356054059,0.00068683384081691,-0.0006868336674825,0.00068683375535033,-0.00068683369980118,0.00068683367386234,-0.00068683385204588,0.000686833534884,-0.00044161274476577,0.00044161370626783,0.74558024424275,129794,2964,0.0028994819141768,0.0037459440313774,0.0024397540772701,21.7105398826,-8.23156809392e-05,-8.23156809392e-05,-8.23156809392e-05,3469932.5984501,0.0091271355022267
27191759,0.56816772967309,0.0096269609098434,0.0031536755402954,0.0036641767284118,0.0028091086411362,-0.00070710252395836,0.00070710301580262,2.3042695855576e-10,2.6250538131726e-10,2.2665449891946e-10,2.8811730050836e-10,-0.00044094109253002,0.00044094213127582,-0.00052833925852673,0.00052833967273551,-0.00052833913832923,0.00052833984534125,-0.00044094124404427,0.00044094200038971,-0.00044094152859611,0.00044094161335958,-0.00052833919445878,0.00052833975672708,-0.00052833931968819,0.00052833962821531,-0.00083184981472196,0.00083185029007415,-0.00083184983518168,0.00083185029846238,-0.00083184983349842,0.00083185029297458,-0.00083184980089952,0.00083185033304563,-0.00076181845149929,0.00076181885359127,-0.00076181840296981,0.00076181894076325,-0.00076181838468016,0.00076181888058906,-0.00076181841878938,0.00076181888901048,-0.0004409415068448,0.00044094168995611,1.2972923591972e-10,1.529684494685e-10,2.9884935580952e-10,-3.5036806655122e-11,-0.00091644241325183,0.00091644268196743,-0.0008817934408824,0.00088179329781884,-0.00094647013240975,0.0009464705298252,-0.00094647007681936,0.00094647048740265,-0.00088157294967848,0.00088157334158628,-0.0008815730973117,0.00088157320359752,-0.00088157296018783,0.00088157329156481,-0.00088157304438186,0.00088157324620489,-0.0008817930872446,0.00088179359995966,-0.00088179333933525,0.00088179336718173,-0.00094647029022616,0.000946470403286,-0.00094647016548013,0.00094647043928869,-0.00088179304601062,0.00088179367467706,1.0319449178058e-11,3.4932841649196e-13,-0.0005941374340544,0.0005941374405707,-2.7213463580456e-10,2.8017988110596e-10,-0.00044627249713623,0.00044627268961849,-0.00047356587904597,0.0004735665519599,-0.00047356601245005,0.00047356644453724,-0.00044627302706345,0.0004462721486235,-0.00044627271495796,0.0004462725027088,-0.00047356653847651,0.00047356583559581,-0.00047356640938773,0.00047356599774914,-0.00073297539783319,0.00073297525245146,-0.00073297525709775,0.00073297541208296,-0.0007329754299688,0.00073297522656892,-0.0007329752269615,0.00073297544263795,-0.00069729080648419,0.00069729105009424,-0.00069729087582099,0.00069729098315605,-0.00069729094739902,0.00069729088397974,-0.0006972910489662,0.00069729078615409,-0.00044627220104236,0.00044627303501648,0.72510222135433,129794,2964,0.0029424387499678,0.0038112198202895,0.0024731399478813,21.737000981113,-8.2103992151095e-05,-8.2103992151095e-05,-8.2103992151095e-05,3490774.1708299,0.0092700817116746
27391759,0.57704626509434,0.0097711545195754,0.0031993319369409,0.0037247398588411,0.0028470827237934,-0.00071771024858032,0.00071771075114739,2.3687300430996e-10,2.6607213738472e-10,2.2134803202838e-10,3.0335869507069e-10,-0.00044567832879693,0.00044567939459885,-0.00053497156219672,0.00053497200191936,-0.00053497143589092,0.00053497217564519,-0.00044567848706809,0.00044567923902486,-0.00044567878730048,0.00044567883270235,-0.00053497150643456,0.00053497207280798,-0.00053497163784787,0.0005349719302533,-0.00084525000715017,0.00084525049146328,-0.00084525002696191,0.00084525049450551,-0.00084525002097529,0.00084525049723656,-0.00084524998772915,0.00084525053600012,-0.00077373727505718,0.0007737376928021,-0.00077373720776484,0.0007737377876753,-0.00077373722385548,0.00077373772743958,-0.00077373725973371,0.00077373771044882,-0.0004456787386654,0.000445678948471,1.3762203168258e-10,1.4381495893959e-10,3.0149052359793e-10,-3.6657111949106e-11,-0.00093239227109597,0.00093239254154822,-0.00089668438545548,0.00089668424356721,-0.00096315731132879,0.00096315772840096,-0.00096315727751852,0.00096315766629781,-0.00089671652991194,0.00089671693773981,-0.00089671668141663,0.0008967167943617,-0.00089671655627962,0.00089671688019798,-0.00089671663226367,0.00089671683391607,-0.00089668402518742,0.00089668453710686,-0.00089668428212396,0.00089668430765809,-0.00096315747299801,0.00096315759570361,-0.00096315736237786,0.00096315761904007,-0.00089668398164872,0.00089668462312768,8.9099482373445e-12,-5.3771423790502e-12,-0.00060243819967801,0.00060243819846272,-2.7270699889922e-10,2.7032188814507e-10,-0.00045153926982113,0.0004515394509822,-0.00047951478986047,0.00047951544766881,-0.00047951492624324,0.00047951533257568,-0.00045153978406679,0.00045153889565102,-0.00045153945864945,0.00045153926048954,-0.0004795154467901,0.00047951473694666,-0.00047951530849157,0.00047951490173206,-0.00074423706896759,0.00074423692476089,-0.00074423693459173,0.00074423708034497,-0.00074423710836201,0.00074423689791802,-0.00074423690080243,0.00074423710871421,-0.000708097585154,0.00070809781973301,-0.00070809766378799,0.00070809776449776,-0.00070809771773017,0.00070809765633378,-0.00070809782844393,0.00070809755932813,-0.00045153895642016,0.00045153977241899,0.74094224648439,129794,2964,0.0029865316469647,0.0038774184652253,0.0025076713652398,21.838515737612,-8.1291874099107e-05,-8.1291874099107e-05,-8.1291874099107e-05,3510829.4855296,0.0094162815675128
27591759,0.58604877988443,0.0099192135620743,0.0032461332045797,0.0037870295603231,0.0028860507971715,-0.00072905314234827,0.00072905365104502,2.4294029760538e-10,2.6776761888305e-10,2.2657788008365e-10,3.0306595282259e-10,-0.00045099850852258,0.00045099975268961,-0.00054229451791832,0.00054229490263584,-0.00054229434530477,0.0005422951320048,-0.00045099868044045,0.00045099960187041,-0.00045099912211983,0.00045099904422987,-0.00054229440004642,0.00054229502157507,-0.000542294584121,0.00054229483380517,-0.00085946243472217,0.00085946294392161,-0.00085946247447806,0.00085946293234972,-0.00085946246758603,0.00085946293334866,-0.00085946242098457,0.00085946298584009,-0.00078647245511885,0.00078647283613504,-0.00078647234289391,0.0007864729785643,-0.00078647235222297,0.00078647292279337,-0.00078647245227219,0.00078647285035689,-0.00045099909950002,0.00045099914521777,1.3936571717889e-10,1.462690552168e-10,2.9059337227415e-10,-1.9264046226391e-11,-0.0009493152787093,0.00094931555589574,-0.00091259700117898,0.00091259684860789,-0.00098090631777585,0.00098090677096273,-0.00098090632499647,0.00098090666228058,-0.00091273415101852,0.0009127345728724,-0.00091273430975957,0.00091273442330798,-0.00091273418864738,0.00091273449557302,-0.00091273424347271,0.00091273447958688,-0.00091259666937162,0.00091259710818599,-0.00091259685526413,0.00091259696333192,-0.00098090651108626,0.00098090659317039,-0.0009809063561858,0.00098090667804799,-0.00091259657061721,0.00091259724450543,1.8709776124035e-11,-1.3272532768529e-12,-0.00061140121502386,0.00061140122644609,-2.9049138904776e-10,2.9978049488225e-10,-0.00045746713034159,0.0004574671933499,-0.00048611631728356,0.00048611708001356,-0.00048611650307341,0.00048611691711501,-0.00045746768771068,0.00045746661789706,-0.00045746721819869,0.00045746711740366,-0.00048611706543347,0.00048611626982738,-0.0004861168864223,0.00048611648512804,-0.00075625184192485,0.00075625171381519,-0.00075625170605449,0.00075625186420983,-0.00075625189744242,0.00075625166349165,-0.00075625166078201,0.00075625191046789,-0.00071979177082693,0.00071979208074917,-0.00071979188876071,0.00071979197819968,-0.00071979191155188,0.00071979191119185,-0.00071979207402614,0.00071979174435256,-0.0004574666733589,0.00045746770067921,0.7507170830086,129794,2964,0.0030336781054762,0.0039476506978653,0.0025449562834149,22.226439583993,-7.8188483328054e-05,-7.8188483328054e-05,-7.8188483328054e-05,3531858.7878678,0.009572438255918
27791759,0.59505586685192,0.010069377759358,0.0032935120623451,0.0038503392583515,0.0029255264386614,-0.00074011969677835,0.00074012021177622,2.4353805578545e-10,2.6742661909447e-10,2.2271583637525e-10,3.1643206182066e-10,-0.00045605447939,0.00045605566239607,-0.00054940648952137,0.00054940693672757,-0.00054940635015037,0.00054940713971618,-0.00045605472436509,0.00045605547033269,-0.00045605497657228,0.00045605505203882,-0.00054940644561351,0.0005494070224832,-0.00054940658710854,0.00054940686280366,-0.00087341298387698,0.00087341349942197,-0.00087341300579075,0.00087341348398962,-0.00087341300248711,0.00087341348766038,-0.00087341296711631,0.00087341352458247,-0.00079899852305486,0.00079899895261143,-0.00079899845198477,0.00079899903504583,-0.00079899846315475,0.00079899898119873,-0.000798998495257,0.0007989989215213,-0.00045605498624325,0.00045605515196979,1.4310611308883e-10,1.4526219340037e-10,2.9242446365175e-10,-2.3735987687016e-11,-0.00096606658850598,0.0009660668639486,-0.00092837598673802,0.00092837583814232,-0.00099852000067057,0.00099852043846622,-0.00099851995156916,0.00099852033765365,-0.00092853467429827,0.00092853509393093,-0.00092853482349098,0.00092853494224952,-0.0009285347238271,0.00092853502406574,-0.00092853477260244,0.00092853498285311,-0.00092837562667884,0.00092837612192604,-0.00092837583580734,0.00092837594108076,-0.00099852016320997,0.00099852031417715,-0.00099852003413008,0.00099852032446498,-0.00092837562246201,0.00092837624198659,7.1204997567084e-12,-1.4614312689838e-11,-0.00062007466433584,0.00062007465503216,-3.0006110178141e-10,2.8463475163543e-10,-0.00046320486032802,0.00046320496732888,-0.00049247553372964,0.00049247625986647,-0.00049247570104462,0.00049247611661485,-0.0004632053744032,0.00046320443380701,-0.00046320505496124,0.00046320476687677,-0.00049247624947178,0.00049247548023753,-0.00049247611910704,0.00049247567569007,-0.0007679852115624,0.00076798506741587,-0.00076798507578009,0.00076798522670069,-0.00076798527254546,0.00076798502949504,-0.00076798502907001,0.00076798525168365,-0.00073133836461366,0.00073133863835772,-0.00073133846100741,0.00073133854656666,-0.00073133851359297,0.00073133847257004,-0.00073133864078465,0.00073133828890701,-0.00046320449523293,0.00046320538841201,0.7613497006597,129794,2964,0.0030796754937449,0.0040171639932889,0.0025810381090102,22.425789743663,-7.6593682050697e-05,-7.6593682050697e-05,-7.6593682050697e-05,3547452.7918327,0.009725518387598
27991759,0.60404841265107,0.01022153961205,0.0033414333431286,0.0039146129269325,0.002965493341989,-0.00075121588518165,0.00075121641187782,2.4692454630108e-10,2.7733221695585e-10,2.2967728166376e-10,3.208128678871e-10,-0.00046115836223011,0.00046115951988727,-0.00055662935444339,0.00055662981198522,-0.00055662921266839,0.00055663001081463,-0.00046115854665399,0.00046115935537394,-0.00046115887401992,0.00046115891104065,-0.00055662929853722,0.00055662989091138,-0.00055662944483819,0.00055662973555894,-0.00088740005595624,0.00088740057150788,-0.00088740007941995,0.00088740056785661,-0.00088740007442034,0.00088740057075079,-0.00088740003834712,0.00088740061083749,-0.00081163030716126,0.00081163073483621,-0.0008116302318625,0.00081163083832453,-0.00081163023855954,0.00081163078089134,-0.00081163029003562,0.00081163074484722,-0.00046115884119291,0.00046115900571229,1.5221686629099e-10,1.4404259953128e-10,3.0574430748231e-10,-2.8719845846254e-11,-0.00098295060535155,0.00098295089020086,-0.00094434118922227,0.0009443410486776,-0.0010162997854644,0.0010163002438594,-0.0010162997620268,0.001016300150986,-0.00094441038434459,0.00094441082009145,-0.00094441054060156,0.00094441066641741,-0.00094441042859922,0.00094441074785232,-0.00094441048720715,0.00094441070783506,-0.00094434083656375,0.00094434133950776,-0.00094434107192002,0.00094434113286419,-0.0010162999582695,0.00101630010528,-0.0010162998411901,0.0010163001193069,-0.00094434078574023,0.00094434144874427,9.0883024063941e-12,-7.1812242067652e-12,-0.00062875286942927,0.00062875286908055,-2.8553094565024e-10,2.8323514770763e-10,-0.00046905734347529,0.00046905749882446,-0.00049887585099509,0.0004988765607715,-0.00049887601104399,0.00049887642649669,-0.00046905787625023,0.00046905694210978,-0.00046905752842995,0.00046905733068926,-0.00049887654861584,0.00049887580116081,-0.00049887640605807,0.00049887598848832,-0.00077973253186618,0.00077973239232468,-0.00077973239444848,0.00077973254169292,-0.00077973258133601,0.00077973235082455,-0.00077973235470339,0.00077973257834255,-0.00074304452143982,0.00074304479742404,-0.00074304460313907,0.00074304468666668,-0.00074304466802368,0.0007430446332591,-0.00074304478849424,0.00074304447141803,-0.00046905701449888,0.00046905788451778,0.77289277624295,129794,2964,0.0031257949161177,0.0040872213975929,0.0026171404306329,22.602676667736,-7.5178586658111e-05,-7.5178586658111e-05,-7.5178586658111e-05,3559600.1490502,0.0098793153474832
28191759,0.61320661171649,0.010379009738685,0.0033909371011174,0.0039812534057445,0.0030068192318227,-0.00076320736131477,0.00076320789096287,2.5353437278718e-10,2.7542492316354e-10,2.4102484631227e-10,3.0764956761983e-10,-0.00046700771520031,0.0004670089097466,-0.00056472877453336,0.00056472917917024,-0.00056472861497988,0.00056472940337277,-0.00046700786616766,0.00046700875968831,-0.0004670082523187,0.00046700824187247,-0.00056472865653707,0.00056472930173157,-0.00056472883325471,0.00056472911557469,-0.00090235956640013,0.00090236010439655,-0.00090235959908938,0.0009023600889191,-0.00090235959939952,0.00090236008704577,-0.00090235955772299,0.00090236013051513,-0.000825284658037,0.0008252850799639,-0.00082528455374146,0.00082528518915155,-0.00082528456971721,0.00082528515451261,-0.00082528464464378,0.00082528507495808,-0.00046700825818684,0.00046700833258028,1.3854580075618e-10,1.557926364066e-10,3.0502078650817e-10,-2.4914977058487e-11,-0.0010009922154009,0.0010009925036952,-0.00096150525846461,0.00096150509475542,-0.0010353073033067,0.0010353077445051,-0.0010353072751724,0.0010353076644904,-0.00096134584324797,0.00096134628552559,-0.00096134600592306,0.00096134612588621,-0.00096134588868718,0.00096134621158273,-0.00096134593819284,0.0009613461825042,-0.00096150489222147,0.00096150537754961,-0.00096150510146705,0.0009615052077166,-0.0010353074925771,0.0010353075857966,-0.001035307333124,0.0010353076569298,-0.00096150482407873,0.00096150550599967,1.651226689614e-11,-1.0145301626823e-11,-0.00063822557476811,0.00063822557655268,-3.0351871348095e-10,2.9932522014995e-10,-0.00047571558606114,0.00047571571636275,-0.00050603833815169,0.00050603909629903,-0.00050603851725253,0.00050603894033106,-0.00047571613404164,0.000475715098357,-0.00047571572960452,0.00047571555573921,-0.00050603908685721,0.00050603827614109,-0.00050603892721189,0.00050603849239117,-0.0007923668983294,0.00079236676405227,-0.00079236675811221,0.00079236691471302,-0.00079236696142674,0.00079236671078208,-0.00079236671175868,0.00079236695605103,-0.00075582884517386,0.00075582915316196,-0.00075582894880543,0.00075582904332942,-0.00075582899228593,0.00075582898861881,-0.00075582914078575,0.00075582878800407,-0.00047571518591993,0.00047571614344345,0.78542543925186,129794,2964,0.0031756325742927,0.0041620751006295,0.0026565463358201,23.09385095835,-7.1249192333201e-05,-7.1249192333201e-05,-7.1249192333201e-05,3573830.130072,0.010045073468289
28391759,0.6222822430298,0.010537748457049,0.0034407566667462,0.0040485634709091,0.0030484283193939,-0.0007744527837327,0.00077445332581728,2.3601527224838e-10,3.049564471134e-10,2.4967922297113e-10,3.1826445163653e-10,-0.00047219504279209,0.00047219597191625,-0.00057213083419179,0.00057213136069862,-0.00057213076022737,0.0005721314765191,-0.0004721952328498,0.00047219579914846,-0.00047219529594606,0.00047219564140614,-0.00057213083931991,0.00057213138059823,-0.00057213088384184,0.00057213131784297,-0.00091656758712115,0.00091656807184219,-0.00091656756626634,0.00091656811953637,-0.00091656757899099,0.0009165681038997,-0.00091656756459753,0.00091656812495606,-0.00083832647973274,0.00083832697081004,-0.00083832645385558,0.00083832701993859,-0.00083832649622009,0.0008383269397522,-0.00083832642032186,0.00083832704005296,-0.0004721952845842,0.00047219569773939,1.5433740809812e-10,1.5582233026234e-10,3.5639060912182e-10,-6.7140846844503e-11,-0.0010183586466341,0.0010183589451642,-0.00097805673787068,0.00097805661729723,-0.0010537157764066,0.0010537161703896,-0.0010537156507322,0.001053716196899,-0.00097756476005357,0.00097756519944317,-0.00097756491441233,0.00097756505282434,-0.00097756476097788,0.00097756516555848,-0.00097756488673827,0.00097756506821606,-0.00097805630871578,0.00097805699274714,-0.00097805672105337,0.00097805660588996,-0.0010537158856256,0.0010537160986125,-0.0010537158532804,0.0010537160264425,-0.00097805632511631,0.00097805700133051,-1.4253136203311e-11,5.3529876757833e-12,-0.00064695991453806,0.00064695990115383,-2.5943941192078e-10,2.4550508770914e-10,-0.00048171082534877,0.00048171116376254,-0.00051250398619165,0.00051250453823276,-0.00051250406376416,0.00051250448446174,-0.00048171128721498,0.00048171069189003,-0.00048171120514832,0.00048171080391564,-0.00051250453512507,0.00051250393409058,-0.00051250447360884,0.00051250401188709,-0.00080425932471145,0.00080425914874744,-0.00080425917621224,0.00080425930681034,-0.00080425932695605,0.00080425914785219,-0.00080425915757845,0.00080425932854582,-0.0007680114403482,0.00076801162599036,-0.0007680114638335,0.00076801157224799,-0.00076801160439663,0.000768011450105,-0.0007680115895077,0.00076801142499278,-0.00048171073912457,0.00048171128758794,0.79904055579984,129794,2964,0.0032223702304222,0.0042341196477467,0.0026928847395771,23.181730545104,-7.0546155639168e-05,-7.0546155639168e-05,-7.0546155639168e-05,3578793.464045,0.010201790834628
28591759,0.63119135870742,0.010695334938647,0.0034901768775473,0.004115439820055,0.0030897182410448,-0.00078528212116174,0.00078528267206682,2.7311424487082e-10,2.76677607689e-10,2.5109980605858e-10,3.2485153602327e-10,-0.00047703586558734,0.00047703717402291,-0.00057915542869927,0.00057915584363111,-0.0005791552354786,0.00057915608742245,-0.0004770360226865,0.00047703703354597,-0.00047703651663264,0.00047703641348738,-0.00057915529721794,0.0005791560041338,-0.00057915550603,0.00057915577546824,-0.00093035577784171,0.00093035634601465,-0.00093035582683215,0.00093035632006107,-0.00093035581976831,0.00093035632469283,-0.0009303557756781,0.00093035637278212,-0.00085096257710942,0.00085096299510128,-0.00085096245654399,0.00085096312951269,-0.0008509624479103,0.00085096311085332,-0.0008509625828175,0.00085096297890851,-0.00047703647186248,0.00047703654008235,1.5334858430601e-10,1.5579327556539e-10,2.9862245453532e-10,-8.9324098912299e-12,-0.001035343715841,0.001035344015213,-0.00099426563009226,0.00099426548794515,-0.0010718225639358,0.0010718230600297,-0.0010718225698594,0.0010718229339472,-0.00099336079088298,0.00099336124427059,-0.00099336095685724,0.00099336108381362,-0.00099336084651859,0.00099336115615801,-0.00099336087943487,0.00099336115032932,-0.00099426529901624,0.00099426575286778,-0.00099426547124694,0.00099426560949694,-0.0010718227740549,0.0010718228857613,-0.0010718225924487,0.0010718229609035,-0.00099426520578329,0.00099426589632125,2.6567677440029e-11,-2.0471466110763e-11,-0.00065531971810895,0.00065531971928306,-3.0805933743253e-10,3.0687973770746e-10,-0.00048738336602054,0.00048738345965273,-0.00051860164156699,0.00051860243958525,-0.00051860184317284,0.00051860226181657,-0.00048738397177085,0.00048738281587636,-0.00048738344800586,0.00048738338269698,-0.00051860243829054,0.00051860157951409,-0.000518602226028,0.00051860182894141,-0.00081574648418957,0.00081574635847313,-0.00081574634889097,0.00081574650587598,-0.00081574656134413,0.00081574628930501,-0.00081574630029613,0.00081574655218503,-0.00077998161387092,0.00077998192636887,-0.00077998171203766,0.00077998180267379,-0.00077998174687219,0.00077998177912646,-0.00077998192760398,0.00077998153567533,-0.00048738291131007,0.00048738394613366,0.80787670909166,129794,2964,0.0032673786540832,0.0043045744369073,0.0027276676356328,23.131424203132,-7.0948606374946e-05,-7.0948606374946e-05,-7.0948606374946e-05,3578905.5741428,0.010353607962985
28791759,0.6403557146351,0.010853598132174,0.0035399112575734,0.0041825582025073,0.0031311286720936,-0.00079760075833348,0.00079760130813173,3.4602389109e-10,2.0573414181613e-10,2.6612536653802e-10,3.0189725606959e-10,-0.00048302990544642,0.00048303179185603,-0.00058738387438766,0.00058738401691069,-0.00058738346678407,0.000587384488283,-0.00048302991213399,0.00048303179601667,-0.00048303122873474,0.00048303033570684,-0.00058738342913637,0.00058738446327042,-0.00058738394203643,0.00058738393691932,-0.00094583536129948,0.00094583608190418,-0.00094583555252123,0.0009458359160206,-0.00094583550404132,0.00094583595690818,-0.0009458354229849,0.00094583604501043,-0.00086498888288587,0.00086498918204221,-0.00086498863450504,0.00086498943866194,-0.00086498849249961,0.0008649895734684,-0.00086498903481116,0.00086498902863686,-0.00048303116231401,0.00048303054307068,1.2492211318578e-10,1.8240183836853e-10,2.0446831914056e-10,9.0433809788048e-11,-0.0010540341292119,0.001054034435308,-0.0010120876046643,0.0010120873693326,-0.0010916654816305,0.001091666098485,-0.0010916656617967,0.0010916657732506,-0.0010108505555721,0.0010108510298581,-0.0010108507467601,0.0010108508447734,-0.0010108506763589,0.0010108508651414,-0.0010108505692617,0.001010851014012,-0.001012087434508,0.0010120874398249,-0.0010120871622359,0.0010120877989984,-0.0010916658548072,0.0010916657126265,-0.0010916653927855,0.0010916661283292,-0.0010120870854043,0.0010120878621606,1.2914637980645e-10,-6.3523689394893e-11,-0.0006650294240246,0.00066502948233968,-4.0670655189585e-10,4.5864386822627e-10,-0.00049403020943713,0.00049402994306121,-0.00052572697607405,0.00052572828494514,-0.00052572739516244,0.0005257278829912,-0.00049403113162991,0.0004940289592089,-0.00049402979029384,0.00049403033615999,-0.00052572826678033,0.00052572691817775,-0.00052572777195481,0.00052572746546416,-0.00082880427920295,0.00082880427344026,-0.00082880415252333,0.00082880440932471,-0.00082880449924649,0.00082880405759267,-0.00082880406296098,0.00082880449494969,-0.00079349205927915,0.00079349265100367,-0.00079349228957816,0.00079349240483467,-0.00079349213035671,0.00079349256468722,-0.00079349271847424,0.00079349188252437,-0.00049402913069642,0.00049403107022111,0.78846979037587,129794,2964,0.0033185721728977,0.0043820967977033,0.0027680626142499,23.81261934121,-6.5499045270319e-05,-6.5499045270319e-05,-6.5499045270319e-05,3588644.336614,0.01052451446223
28991759,0.64919321301683,0.01099970243524,0.0035860014550103,0.004244465120979,0.0031692358592504,-0.00080735879176564,0.00080735935390798,2.8594636885824e-10,2.6578376148853e-10,2.7757584599844e-10,3.2642390997362e-10,-0.0004867612122945,0.00048676231046912,-0.00059309633368904,0.00059309680422271,-0.00059309613729253,0.00059309698493134,-0.00048676125890837,0.0004867622614125,-0.00048676178127832,0.00048676167987408,-0.00059309623545789,0.00059309702004833,-0.00059309641769396,0.00059309675714049,-0.00095870978641858,0.00095871037845959,-0.00095870982833491,0.00095871034260816,-0.0009587098259703,0.00095871035633463,-0.00095870980483285,0.00095871038204533,-0.00087598247073749,0.00087598292070851,-0.0008759824334854,0.00087598298318427,-0.00087598236595326,0.00087598302864759,-0.00087598244814884,0.00087598293766111,-0.00048676156519609,0.00048676186646684,1.6926120995093e-10,1.8325852609437e-10,3.3625121305772e-10,-2.2294792276128e-11,-0.0010696714010592,0.0010696717253679,-0.0010266848704799,0.0010266846687298,-0.0011083105363546,0.0011083110614149,-0.0011083104944172,0.0011083110132134,-0.001025587156044,0.0010255876284593,-0.0010255873377637,0.0010255874536855,-0.0010255872206515,0.0010255875886039,-0.0010255872609949,0.0010255875234769,-0.0010266845117228,0.0010266850180447,-0.0010266846620261,0.0010266848069877,-0.0011083107645056,0.0011083109548828,-0.0011083105682631,0.0011083109103451,-0.0010266843923571,0.0010266851477589,3.2822246008797e-11,-3.9595337624909e-11,-0.00067240841764865,0.0006724084109393,-2.9342427670373e-10,2.9613806702448e-10,-0.00049825977372509,0.00049826008259749,-0.00053042314793224,0.0005304238966948,-0.00053042330753593,0.00053042374089803,-0.00049826046516427,0.00049825938210993,-0.00049825992207431,0.00049825997924625,-0.00053042392625468,0.00053042308737662,-0.00053042364735147,0.00053042333980446,-0.00083940067135282,0.00083940055883988,-0.00083940055386891,0.00083940069977678,-0.00083940076938386,0.00083940048803977,-0.0008394005163707,0.00083940073614852,-0.00080437880229711,0.00080437906836265,-0.00080437886222706,0.00080437894973427,-0.00080437891861139,0.00080437893995719,-0.00080437911050424,0.00080437872275642,-0.00049825948892684,0.00049826031638714,0.75490510953734,129794,2964,0.0033591284898866,0.0044469468071729,0.0027987705369225,23.509071001151,-6.7927431990789e-05,-6.7927431990789e-05,-6.7927431990789e-05,3587625.0618032,0.010662101523049
29191759,0.65811115467244,0.011143745673472,0.0036315265250486,0.0043054135807375,0.0032068055676859,-0.00081849063015343,0.00081849118977115,2.8789742372544e-10,2.6785780639259e-10,2.779492067837e-10,3.0261822072108e-10,-0.00049213258067601,0.0004921337253581,-0.00060026987576544,0.00060027025132875,-0.00060026967839391,0.00060027049565555,-0.00049213257926343,0.00049213366536294,-0.00049213313407233,0.00049213301695997,-0.00060026968501628,0.00060027048101714,-0.00060026990946847,0.00060027021718791,-0.00097292443937582,0.00097292504875327,-0.0009729244939992,0.00097292500145274,-0.00097292449699127,0.00097292500486813,-0.0009729244647319,0.00097292503881804,-0.00088807580109601,0.00088807624086156,-0.00088807569242629,0.00088807633428978,-0.00088807567635735,0.00088807637717322,-0.00088807579324742,0.00088807622156943,-0.00049213308852588,0.00049213313899263,1.4022071658865e-10,1.8317211185559e-10,3.1743042281774e-10,-1.1986970047102e-11,-0.0010864500846407,0.0010864504027734,-0.0010422760359257,0.0010422758643468,-0.0011259851992275,0.0011259856636081,-0.0011259851481039,0.0011259856232969,-0.0010416359505272,0.0010416364265866,-0.0010416361279678,0.0010416362478297,-0.0010416360163679,0.0010416363579108,-0.0010416360277273,0.0010416363373731,-0.0010422756744354,0.0010422761403145,-0.0010422758304562,0.0010422760096987,-0.0011259854048227,0.0011259855104081,-0.0011259852014696,0.0011259855866244,-0.0010422755524397,0.0010422763001586,4.010390463633e-11,-3.4383405904669e-11,-0.00068107553992014,0.00068107554125166,-3.2343168831684e-10,3.196351594981e-10,-0.00050374821385297,0.00050374842973535,-0.00053638278574104,0.00053638361240897,-0.0005363829878962,0.00053638342165234,-0.00050374882170271,0.0005037476849544,-0.00050374832642638,0.00050374825517008,-0.0005363836238449,0.00053638272110964,-0.00053638338717176,0.00053638298358622,-0.00085125785202421,0.00085125774207681,-0.00085125771716046,0.00085125788723256,-0.00085125795378611,0.00085125765296036,-0.0008512576698539,0.00085125792615746,-0.00081654344103029,0.00081654374638459,-0.00081654352651507,0.00081654365502147,-0.00081654356701159,0.00081654361647479,-0.00081654375563441,0.00081654333927086,-0.00050374780791925,0.0005037487818193,0.73755968069701,129794,2964,0.0034053871286274,0.0045165250940727,0.0028348306540411,23.915236860594,-6.467810511525e-05,-6.467810511525e-05,-6.467810511525e-05,3598084.8800401,0.010815660993976
29391759,0.66713874072806,0.01128247303915,0.0036755763013025,0.0043640136428324,0.0032428830950152,-0.00082954784844928,0.00082954841104692,2.8421455488162e-10,2.7547862105252e-10,2.7738721208461e-10,3.0896918565935e-10,-0.00049724061031099,0.00049724175093207,-0.00060717161737455,0.00060717202500209,-0.00060717144025233,0.00060717224586013,-0.00049724065288977,0.00049724168242327,-0.00049724115184472,0.00049724110329351,-0.00060717146035387,0.0006071722215224,-0.00060717165816741,0.00060717199233954,-0.00098719118047171,0.00098719177261598,-0.00098719122563091,0.00098719174553486,-0.00098719122635491,0.00098719174710654,-0.0009871912026521,0.00098719177448117,-0.00089986498180282,0.00089986544691008,-0.00089986490549339,0.00089986553148348,-0.0008998648856015,0.00089986554152146,-0.00089986498471358,0.00089986544382739,-0.00049724109069328,0.00049724121294099,1.4685820140628e-10,1.9823103171298e-10,3.4441528020255e-10,-2.1437880410998e-11,-0.001103009910803,0.0011030102438856,-0.0010574928657729,0.0010574927066005,-0.0011433456487026,0.0011433461061179,-0.0011433455607798,0.0011433460961291,-0.0010576375447871,0.0010576380263239,-0.0010576377235559,0.0010576378512076,-0.0010576375831242,0.0010576379713147,-0.001057637629105,0.0010576379341522,-0.0010574924824348,0.0010574930293067,-0.001057492708619,0.0010574928242617,-0.0011433458401509,0.0011433459598853,-0.0011433456486739,0.0011433460277276,-0.0010574923805687,0.0010574931476338,3.7293303441282e-11,-2.7034060922113e-11,-0.00068963522173775,0.00068963522795815,-3.1273454233617e-10,3.175663018818e-10,-0.00050867997654151,0.00050868023285706,-0.00054195317477109,0.00054195397137028,-0.00054195335085691,0.00054195380494296,-0.00050868059078606,0.00050867954344346,-0.00050868015902997,0.00050868004010143,-0.00054195397487144,0.00054195311273984,-0.00054195375797669,0.00054195335231255,-0.00086310548195939,0.00086310536704474,-0.00086310534134238,0.00086310551409932,-0.00086310556698315,0.0008631052852461,-0.00086310530434074,0.00086310555347571,-0.0008283096804058,0.00082830997849964,-0.0008283097467737,0.00082830987508527,-0.00082830981446215,0.00082830984912015,-0.00082830998329092,0.0008283095937197,-0.00050867965172009,0.00050868055934581,0.70228761333935,129794,2964,0.0034513341973615,0.0045851913755286,0.0028704437795098,24.388763551223,-6.0889891590216e-05,-6.0889891590216e-05,-6.0889891590216e-05,3612533.3768325,0.010967557572843
29591759,0.67629289641625,0.011417164093426,0.003718544106813,0.0044207858724177,0.0032778341141953,-0.00084058843471948,0.00084058899708469,2.8684556709424e-10,2.7292227350012e-10,2.737066969777e-10,3.1136170748121e-10,-0.00050228322779518,0.00050228444464032,-0.00061403923712736,0.00061403962914691,-0.00061403904087827,0.00061403987087547,-0.00050228326703479,0.00050228437115821,-0.00050228384867419,0.00050228369799458,-0.00061403906169867,0.00061403984417802,-0.00061403928726289,0.00061403958660654,-0.0010015103767857,0.0010015109771846,-0.001001510428674,0.0010015109414263,-0.0010015104279519,0.0010015109456373,-0.001001510398758,0.0010015109761149,-0.0009114901723658,0.00091149062759027,-0.00091149007314038,0.00091149073072373,-0.00091149006397404,0.0009114907386535,-0.00091149018971112,0.00091149060539582,-0.00050228377702441,0.00050228382431007,1.5966492440498e-10,1.9251443582165e-10,3.4274985940722e-10,-1.245143580744e-11,-0.0011193174500701,0.001119317788723,-0.001072309102199,0.0010723089442675,-0.0011602496709898,0.0011602501705553,-0.0011602496268883,0.001160250118479,-0.0010735968200382,0.0010735973162388,-0.0010735970020255,0.0010735971383529,-0.0010735968718241,0.0010735972492542,-0.0010735969083604,0.0010735972213773,-0.0010723087273282,0.0010723092509268,-0.0010723089228924,0.0010723090719626,-0.0011602498854679,0.0011602500074812,-0.0011602496851054,0.0011602500801948,-0.0010723086088257,0.0010723093941933,4.2416254569156e-11,-2.8566359876138e-11,-0.00069813987048639,0.00069813988023801,-3.2717466218112e-10,3.3479218021565e-10,-0.00051334417426219,0.00051334440886507,-0.00054733835877686,0.0005473392082576,-0.00054733855442251,0.00054733902265895,-0.00051334481479526,0.00051334365886887,-0.00051334431178488,0.00051334423822221,-0.0005473392118264,0.00054733829444362,-0.00054733897297809,0.00054733856398977,-0.00087491955126839,0.00087491944513377,-0.00087491940864464,0.00087491958503425,-0.00087491964939374,0.00087491934775929,-0.00087491936446111,0.00087491963825144,-0.00083960368286689,0.00083960401177656,-0.00083960376843417,0.00083960389227887,-0.00083960381803925,0.00083960387718069,-0.00083960402094166,0.0008396035920743,-0.00051334377332421,0.00051334478010432,0.67338132111504,129794,2964,0.0034972096413507,0.0046528072918593,0.0029058265758892,24.909587924196,-5.672329660643e-05,-5.672329660643e-05,-5.672329660643e-05,3632457.8530246,0.011118111246276
29791759,0.68562919018756,0.011561801792156,0.0037645355596601,0.004481717265523,0.003315548966973,-0.00085248606226949,0.00085248662844319,2.8672565843383e-10,2.7696952291825e-10,2.7101357751536e-10,3.1865559843726e-10,-0.00050855626990235,0.00050855747558113,-0.00062223614147712,0.00062223656193509,-0.00062223595732777,0.00062223678989509,-0.00050855633623255,0.00050855739206937,-0.00050855686854015,0.00050855676465113,-0.00062223599305867,0.00062223675117396,-0.00062223619955235,0.00062223651284644,-0.0010165388240421,0.0010165394179608,-0.0010165388700875,0.0010165393888051,-0.0010165388673255,0.0010165393952276,-0.0010165388425907,0.0010165394218404,-0.00092427774006273,0.00092427821249847,-0.00092427764202923,0.00092427831587691,-0.00092427765298658,0.00092427830895762,-0.00092427776918863,0.00092427818525121,-0.00050855679285642,0.00050855689310748,1.5923171152169e-10,1.8521978379877e-10,3.4772883006779e-10,-2.4429203076858e-11,-0.0011364956911416,0.0011364960212794,-0.0010880495683535,0.0010880493982866,-0.0011779787069671,0.0011779792015239,-0.001177978659793,0.0011779791508323,-0.001090402338361,0.0010904028283476,-0.0010904025209709,0.0010904026495451,-0.0010904023856129,0.0010904027643621,-0.001090402434356,0.0010904027255596,-0.0010880491821127,0.0010880497189989,-0.0010880494042894,0.0010880495187529,-0.001177978913126,0.0011779790380561,-0.0011779787338927,0.0011779790967005,-0.0010880490685208,0.0010880498585406,4.1773226652556e-11,-2.6391668370294e-11,-0.00070736823009373,0.0007073682413137,-3.2822420917608e-10,3.368761402897e-10,-0.00051930737914869,0.0005193076556814,-0.00055390014601666,0.00055390098684001,-0.00055390032867625,0.00055390081412274,-0.00051930802098648,0.00051930692755295,-0.00051930756941739,0.00051930743949837,-0.00055390099071388,0.00055390009034298,-0.00055390076537574,0.00055390033714759,-0.00088731180054997,0.00088731169104328,-0.00088731165379687,0.00088731183534111,-0.00088731189340749,0.000887311597902,-0.00088731161240506,0.00088731188528861,-0.00085164177572357,0.00085164208639363,-0.00085164185551684,0.00085164199997008,-0.00085164190953815,0.00085164194449181,-0.00085164210147984,0.00085164169824764,-0.00051930703258104,0.00051930799009494,0.70918215063242,129794,2964,0.003546641353944,0.0047240270976065,0.0029442155268129,25.545719572768,-5.1634243417857e-05,-5.1634243417857e-05,-5.1634243417857e-05,3651656.2945721,0.011278965836071
29991759,0.69495675385728,0.011713984429754,0.0038127527373253,0.0045458928284899,0.0033553388639389,-0.00086411937630594,0.00086411995013925,2.9025077668507e-10,2.7503861481794e-10,2.6982780918094e-10,3.3488340674768e-10,-0.00051455562036227,0.00051455669195068,-0.00063049249457333,0.00063049300026921,-0.00063049233370204,0.00063049317198417,-0.00051455566681429,0.0005145565832181,-0.00051455611186926,0.00051455605680294,-0.0006304924220367,0.00063049315502125,-0.00063049258022669,0.00063049293277675,-0.0010312526379977,0.0010312532329819,-0.0010312526678728,0.0010312532031692,-0.0010312526663722,0.0010312532173804,-0.0010312526513528,0.0010312532296394,-0.00093722445798534,0.00093722497047954,-0.00093722441094152,0.00093722501622792,-0.00093722440614375,0.00093722502709508,-0.00093722445800841,0.00093722494530195,-0.00051455595708423,0.00051455623435952,1.6809239936317e-10,1.8727119118851e-10,3.6137271756521e-10,-3.5724937942926e-11,-0.0011536564778188,0.0011536568086235,-0.0011039331230735,0.0011039329597316,-0.0011957997272878,0.0011958002228529,-0.0011957996583785,0.0011958001906947,-0.0011070032709533,0.0011070037581109,-0.001107003450747,0.0011070035727358,-0.0011070033285588,0.0011070037141432,-0.0011070033757025,0.0011070036435677,-0.0011039327196615,0.0011039333302162,-0.0011039329904082,0.0011039330405117,-0.0011957999203535,0.0011958000951108,-0.0011957997608614,0.0011958000822612,-0.001103932662845,0.0011039334245972,3.3523866885423e-11,-4.0754661884819e-11,-0.00071629583192391,0.00071629582426604,-3.2130877293331e-10,3.1383167828081e-10,-0.00052541492135144,0.00052541534838917,-0.00056045189711467,0.00056045266042825,-0.00056045203710734,0.00056045251900518,-0.0005254155479199,0.00052541457253619,-0.00052541520731631,0.00052541502449668,-0.00056045269261913,0.00056045183816464,-0.00056045247248243,0.0005604520532856,-0.00089936564931593,0.00089936552119464,-0.00089936550781162,0.00089936567665667,-0.00089936574230879,0.0008993654507944,-0.00089936547356255,0.00089936570437262,-0.00086357501229377,0.00086357525320175,-0.00086357505628746,0.00086357520044865,-0.00086357513682384,0.00086357511772741,-0.00086357530475173,0.00086357492595355,-0.00052541469339786,0.00052541548313599,0.74657578430922,129794,2964,0.0035949753953214,0.004795166739571,0.0029813564232975,25.876073365443,-4.8991413076455e-05,-4.8991413076455e-05,-4.8991413076455e-05,3658789.3069565,0.011437391576009
30191759,0.70415792293414,0.011854639571304,0.003857557202704,0.0046051836073629,0.0033918987612369,-0.00087465509592445,0.00087465567322302,2.8939468616157e-10,2.818075378261e-10,2.6901990559714e-10,3.3706551676219e-10,-0.00051887878347683,0.00051887990298741,-0.00063719861955347,0.00063719912475553,-0.00063719847405724,0.00063719930767774,-0.00051887886686773,0.0005188798109176,-0.00051887929698439,0.00051887929322127,-0.00063719854762439,0.00063719925686042,-0.00063719870668837,0.00063719906097697,-0.0010451121272152,0.0010451127120275,-0.0010451121553769,0.001045112695243,-0.001045112150572,0.0010451127067343,-0.001045112138676,0.0010451127180918,-0.00094885630205608,0.00094885681901232,-0.00094885625385362,0.00094885687578739,-0.00094885624860018,0.00094885686375491,-0.0009488563103133,0.00094885679617396,-0.00051887918077457,0.0005188794300608,1.6911970127392e-10,1.837514040428e-10,3.6107072319534e-10,-3.3035713931432e-11,-0.0011697379820877,0.0011697383138951,-0.0011185829729467,0.001118582839522,-0.0012125483402881,0.001212548822929,-0.0012125482645948,0.0012125487981698,-0.0011225708819667,0.0011225713654697,-0.0011225710561527,0.0011225711878362,-0.0011225709246987,0.0011225713173028,-0.0011225709834124,0.0011225712519841,-0.0011185825787115,0.0011185831920927,-0.0011185828694779,0.0011185829008877,-0.0012125485193253,0.0012125486981368,-0.0012125483791239,0.0012125486922404,-0.0011185825182966,0.0011185832795727,3.3422746226427e-11,-3.4613644753383e-11,-0.0007242118052418,0.00072421180263136,-3.1410370312965e-10,3.1117271534303e-10,-0.00052983890714254,0.00052983926780399,-0.00056551196291474,0.00056551271729375,-0.00056551210323221,0.00056551258487948,-0.0005298395264818,0.00052983859054841,-0.00052983920690137,0.00052983898681479,-0.00056551273197713,0.00056551190504882,-0.00056551254485383,0.00056551211433691,-0.00091064090162631,0.00091064076967158,-0.00091064075570789,0.0009106409307936,-0.00091064097926421,0.00091064070533837,-0.00091064072812686,0.0009106409521634,-0.00087429544252002,0.00087429568662973,-0.00087429547758102,0.00087429562438215,-0.00087429557183515,0.00087429555904738,-0.00087429572139304,0.0008742953499304,-0.00052983871088032,0.00052983949050063,0.70019424160763,129794,2964,0.0036387528353899,0.0048618269066531,0.0030142955630062,26.017809076149,-4.7857527390804e-05,-4.7857527390804e-05,-4.7857527390804e-05,3663214.7319207,0.011582456035718
30391759,0.71303785121055,0.011985498643375,0.0038994050961817,0.004660241714174,0.0034258518330196,-0.00088399252393398,0.00088399309983679,2.864140673939e-10,2.8369094293643e-10,2.6963494839624e-10,3.3709375248784e-10,-0.00052244390095399,0.00052244517321963,-0.0006428685677338,0.00064286903491501,-0.00064286838812924,0.00064286925437671,-0.00052244401979901,0.00052244507761721,-0.00052244454377347,0.00052244444268493,-0.00064286846270495,0.00064286920417965,-0.00064286865490029,0.00064286897681402,-0.001057633225773,0.0010576338189773,-0.0010576332632864,0.001057633794848,-0.0010576332604713,0.0010576338028899,-0.0010576332375785,0.0010576338257089,-0.00095902984240039,0.00095903032219109,-0.00095902975944105,0.00095903041873156,-0.00095902975636736,0.00095903039497997,-0.00095902985269362,0.00095903029831495,-0.00052244444111179,0.00052244456997069,1.771838046858e-10,1.8001918599884e-10,3.4510675825116e-10,-1.323845324162e-11,-0.0011840727587338,0.0011840730935666,-0.0011313300266839,0.0011313299087948,-0.0012273527194348,0.0012273532385597,-0.0012273526839987,0.0012273531657933,-0.0011366850794,0.0011366855624394,-0.0011366852516588,0.0011366853897221,-0.001136685129207,0.0011366855025902,-0.0011366851734574,0.0011366854584988,-0.0011313296681677,0.0011313302235627,-0.0011313298949712,0.0011313299915725,-0.0012273529241311,0.0012273530975662,-0.001227352755028,0.0012273531085058,-0.0011313295822639,0.0011313303436892,3.24391012614e-11,-3.2001266618566e-11,-0.00073108734646151,0.00073108734568892,-3.1859491065888e-10,3.1768852974066e-10,-0.00053327807516231,0.0005332783143884,-0.00056964857370139,0.00056964937755737,-0.00056964874780748,0.00056964920784309,-0.00053327871452811,0.00053327765905753,-0.00053327828560328,0.00053327814969041,-0.00056964938628183,0.00056964851451316,-0.0005696491695538,0.00056964876549658,-0.0009206759684284,0.00092067584199987,-0.00092067583085583,0.00092067600177119,-0.00092067605487068,0.00092067577375225,-0.00092067579286567,0.00092067602985979,-0.00088356450188652,0.00088356479479663,-0.00088356457327418,0.00088356468335298,-0.00088356463879873,0.00088356466240422,-0.00088356482224724,0.00088356440939086,-0.00053327777439752,0.00053327867737018,0.67548584377916,129794,2964,0.0036775514399548,0.0049212397959522,0.0030429081517579,25.816160450033,-4.9470716399734e-05,-4.9470716399734e-05,-4.9470716399734e-05,3669058.8735019,0.011710793311559
30591759,0.72148993808763,0.012114390368609,0.0039405405532346,0.0047144035943582,0.0034594462210162,-0.00089269154569891,0.00089269211326693,2.7126870763307e-10,2.8248085378617e-10,2.6331628780933e-10,3.2995878236804e-10,-0.0005259995175369,0.00052600068954005,-0.00064831347316289,0.00064831396596951,-0.00064831336288708,0.0006483141900533,-0.00052599964206753,0.00052600057457107,-0.00052600001916754,0.00052600002841504,-0.00064831340649234,0.00064831410699389,-0.00064831360979006,0.00064831390706649,-0.0010691483674456,0.0010691489731116,-0.0010691483780693,0.0010691489383267,-0.0010691484040082,0.001069148930642,-0.0010691483689081,0.0010691489455286,-0.00096872954301508,0.000968730033047,-0.00096872942953239,0.00096873010241179,-0.00096872948677722,0.00096873005142738,-0.00096872951657511,0.00096872990932072,-0.000525999988164,0.00052600011721883,1.7578319523817e-10,1.7214768591629e-10,3.3254228561291e-10,-8.6853331874153e-12,-0.001197427283706,0.0011974276078766,-0.0011431818702991,0.0011431817252239,-0.0012411532385425,0.0012411537428091,-0.0012411531841679,0.001241153679357,-0.0011498649138974,0.001149865388566,-0.0011498650759576,0.0011498652142678,-0.0011498649995223,0.0011498653342559,-0.0011498650158694,0.0011498652611968,-0.0011431814216905,0.0011431820403596,-0.001143181596765,0.0011431817862299,-0.0012411534853298,0.001241153708373,-0.0012411532780337,0.0012411536289214,-0.0011431814853845,0.0011431821516647,6.5912112514765e-12,-4.5210214417807e-11,-0.00073745005608595,0.0007374500205741,-3.3553074219353e-10,2.9032053272411e-10,-0.00053681379424013,0.00053681401444452,-0.00057374819660551,0.00057374895922998,-0.00057374837095315,0.00057374879507079,-0.00053681434040262,0.00053681333599823,-0.00053681407118789,0.00053681375757903,-0.00057374894695215,0.00057374806576403,-0.00057374884743134,0.00057374840030569,-0.00092989062637945,0.00092989046587078,-0.00092989049946871,0.00092989063811563,-0.00092989072302128,0.00092989043342301,-0.00092989044748043,0.00092989064817351,-0.00089215118939829,0.00089215144182783,-0.00089215126998178,0.00089215134516439,-0.00089215132503302,0.00089215128282557,-0.00089215146873825,0.00089215101948932,-0.00053681353874988,0.00053681432758555,0.69871028846002,129794,2964,0.0037136961322879,0.0049765841091553,0.0030693863701792,25.39286149416,-5.2857108046717e-05,-5.2857108046717e-05,-5.2857108046717e-05,3670177.0772558,0.011830180598235
30791759,0.72998802465526,0.012248473332975,0.0039832170569594,0.0047707457380209,0.0034945105379952,-0.00090331919826838,0.00090331977423222,2.8672025180488e-10,2.8210989194233e-10,2.679835248755e-10,3.2626454278335e-10,-0.00053146810018772,0.0005314691780779,-0.00065587319581181,0.00065587368008165,-0.00065587306996617,0.00065587387821465,-0.00053146813222901,0.00053146913052619,-0.00053146857745464,0.00053146857059741,-0.00065587309885407,0.00065587381373008,-0.00065587328191125,0.00065587362270372,-0.0010825103887493,0.001082510977482,-0.0010825104080169,0.0010825109609414,-0.0010825104162262,0.0010825109614349,-0.001082510397858,0.0010825109721849,-0.00098065894985273,0.00098065947069004,-0.00098065886606044,0.00098065954278497,-0.00098065890424232,0.00098065951328117,-0.00098065897431781,0.00098065941796127,-0.00053146852325788,0.00053146866042536,1.6376111091635e-10,1.8091019865217e-10,3.5341434890115e-10,-2.7572786813672e-11,-0.0012129293278698,0.0012129296590302,-0.0011572433792469,0.0011572432660797,-0.0012571811293881,0.0012571815912588,-0.0012571810486579,0.0012571815793731,-0.0011650422782733,0.0011650427625189,-0.0011650424442195,0.0011650425905622,-0.0011650423231916,0.0011650427131906,-0.0011650423798952,0.0011650426424895,-0.0011572429769493,0.0011572435736538,-0.0011572432564842,0.0011572433064999,-0.0012571813162586,0.0012571814818736,-0.001257181163832,0.00125718148704,-0.0011572429178125,0.0011572436809392,2.987316538795e-11,-3.8782515014905e-11,-0.00074558807968859,0.00074558807034661,-3.2087904163668e-10,3.0327430862382e-10,-0.00054234887782312,0.00054234922923857,-0.00057978169120938,0.00057978242762895,-0.0005797818295709,0.00057978228397155,-0.00054234945252661,0.00054234850879752,-0.00054234917230569,0.0005423489342038,-0.00057978243545806,0.0005797815902152,-0.00057978229473574,0.00057978183534454,-0.00094095499992026,0.00094095485288058,-0.00094095485902216,0.00094095503867034,-0.00094095507705842,0.0009409548161114,-0.00094095482924386,0.0009409550337493,-0.00090275564513495,0.00090275589933572,-0.00090275569783427,0.00090275583027717,-0.00090275577475058,0.00090275577394272,-0.00090275593817027,0.00090275553385479,-0.00054234868698125,0.00054234944389727,0.72242422983503,129794,2964,0.0037578473071194,0.0050408256655049,0.0031032419804943,25.854568046458,-4.9163455628333e-05,-4.9163455628333e-05,-4.9163455628333e-05,3677031.3738775,0.011974153972851
30991759,0.73897674371878,0.012395202184381,0.0040297786176067,0.0048325092748576,0.003532914291917,-0.00091635929295868,0.00091635987059233,2.8497304115156e-10,2.8706406818388e-10,2.7350825701049e-10,3.2017185976358e-10,-0.00053903370561917,0.00053903497219204,-0.000665860983984,0.00066586138958245,-0.00066586078434251,0.00066586163907414,-0.00053903376382358,0.00053903491043263,-0.00053903433965802,0.00053903418759121,-0.0006658608069826,0.00066586160168463,-0.00066586103961248,0.00066586133374612,-0.0010984328338302,0.0010984334481283,-0.0010984328671847,0.0010984334098698,-0.0010984328821616,0.0010984334095363,-0.0010984328433812,0.0010984334366566,-0.00099535210927441,0.00099535257541292,-0.00099535196554136,0.00099535270674284,-0.00099535202594069,0.00099535268155125,-0.00099535213249076,0.00099535254334477,-0.00053903432204336,0.00053903428871469,1.6479325044402e-10,1.7485086825504e-10,3.4858637462774e-10,-2.6310239373519e-11,-0.0012313653451995,0.0012313656740152,-0.0011742510889149,0.0011742509392112,-0.0012761865993271,0.001276187111334,-0.0012761865883294,0.0012761870404133,-0.0011829870866143,0.0011829875915727,-0.0011829872706037,0.0011829874024029,-0.0011829871617724,0.0011829875296552,-0.0011829871930954,0.0011829874763297,-0.0011742506987201,0.0011742512242652,-0.00117425092497,0.0011742510265635,-0.0012761868257334,0.0012761869302561,-0.0012761866341901,0.0012761869973221,-0.0011742505698588,0.0011742513878332,3.4806754287843e-11,-2.9987243998515e-11,-0.00075582417358685,0.0007558241750158,-3.5655358773577e-10,3.4567560853586e-10,-0.00054995116842448,0.00054995142427879,-0.00058789826729046,0.00058789913258335,-0.00058789844554356,0.00058789892378028,-0.00054995181960473,0.00054995063466619,-0.00054995136283584,0.00054995121201678,-0.00058789913539835,0.00058789815978697,-0.00058789893261917,0.00058789845612101,-0.00095437367825537,0.00095437353411471,-0.00095437353309362,0.00095437373216374,-0.00095437377874757,0.0009543734893717,-0.00095437348358021,0.00095437374273824,-0.00091590952932198,0.00091590988704768,-0.00091590965143823,0.00091590977196333,-0.00091590969186965,0.00091590973079057,-0.00091590990729703,0.0009159094574826,-0.00054995077082419,0.00054995179181771,0.7469916577686,129794,2964,0.0038120147371125,0.0051172208081866,0.0031458182199314,27.17215246296,-3.8622780296317e-05,-3.8622780296317e-05,-3.8622780296317e-05,3690743.6442138,0.012149415857208
31191759,0.74841733520724,0.012556360537496,0.0040807261768565,0.0049005617717468,0.0035750725888923,-0.00093016048921585,0.00093016107780931,2.9067128627996e-10,2.9120542466829e-10,2.7426188607588e-10,3.388410853139e-10,-0.00054699979097991,0.00054700099950485,-0.00067663816833118,0.00067663865714508,-0.00067663801975745,0.00067663886494744,-0.00054699990315302,0.00054700093497683,-0.00054700035240046,0.00054700033996627,-0.00067663806846329,0.0006766388088663,-0.00067663825427175,0.00067663859971808,-0.0011152226639495,0.0011152232665786,-0.0011152226822692,0.0011152232502318,-0.0011152226945525,0.0011152232498448,-0.0011152226755765,0.0011152232604167,-0.0010112132622986,0.0010112137875002,-0.0010112131728066,0.0010112138742714,-0.0010112132200974,0.001011213832509,-0.0010112132975458,0.0010112137387222,-0.00054700028941576,0.00054700044724523,1.7559640870907e-10,1.8297477057724e-10,3.855970019748e-10,-4.7169548780237e-11,-0.0012511198751391,0.0012511202140229,-0.0011926113312291,0.0011926111928412,-0.0012965661360294,0.0012965666311596,-0.0012965660618085,0.0012965666100022,-0.0012020653367549,0.0012020658395283,-0.0012020655207356,0.0012020656500624,-0.001202065380436,0.0012020657945448,-0.0012020654571722,0.00120206570574,-0.0011926109008852,0.0011926115503549,-0.0011926112297455,0.0011926112262411,-0.0012965663369986,0.0012965664982938,-0.0012965661909649,0.0012965664928935,-0.0011926108349926,0.0011926116617809,3.4610313105163e-11,-3.1864651733233e-11,-0.00076657832042505,0.00076657832185738,-3.4894456790301e-10,3.4363995355323e-10,-0.00055804434764529,0.0005580447244811,-0.00059657304183766,0.00059657386842115,-0.00059657318342452,0.00059657371152327,-0.00055804502462678,0.00055804398418703,-0.00055804469066782,0.00055804443713297,-0.00059657386561943,0.00059657295424974,-0.0005965737067741,0.00059657321257543,-0.00096851056718166,0.00096851040449561,-0.00096851040750665,0.00096851062363018,-0.0009685106447691,0.00096851037973282,-0.00096851037787425,0.00096851061063065,-0.00093003624388335,0.00093003654171127,-0.00093003630301418,0.00093003645733386,-0.00093003640056684,0.00093003639075382,-0.00093003656952462,0.00093003615109304,-0.00055804412768761,0.00055804500309974,0.78083050106161,129794,2964,0.0038693438301867,0.0051990704440346,0.0031905508136262,28.436160016445,-2.8510719868436e-05,-2.8510719868436e-05,-2.8510719868436e-05,3699004.303042,0.012335615020515
31391759,0.75799563631005,0.012713664042853,0.0041306011577698,0.0049670916169699,0.0036159712681134,-0.00094272506974186,0.00094272565278314,3.1533359459867e-10,2.5394765236765e-10,2.9197115865799e-10,3.2604848367793e-10,-0.00055297728126636,0.00055297906404158,-0.00068563234405285,0.00068563262802198,-0.00068563201326257,0.00068563302794458,-0.00055297741610507,0.00055297906827817,-0.00055297837949443,0.00055297786391489,-0.00068563204740156,0.00068563302229278,-0.0006856324360725,0.00068563260160514,-0.0011310668300933,0.0011310675471098,-0.0011310669337732,0.0011310674252479,-0.001131066947621,0.0011310674265236,-0.0011310668791238,0.0011310674823925,-0.0010257454234075,0.0010257457782792,-0.0010257451928402,0.001025745992798,-0.0010257451476395,0.0010257460215767,-0.001025745465867,0.0010257456372793,-0.00055297838271745,0.00055297796325661,1.9201167164582e-10,1.7078212245868e-10,3.0442555553766e-10,3.5688653239818e-11,-0.0012699299071527,0.0012699302407372,-0.0012099114424116,0.0012099112566503,-0.0013159761820388,0.0013159768700512,-0.0013159763046455,0.001315976577637,-0.0012201664140168,0.0012201669342149,-0.0012201666123577,0.0012201667161858,-0.0012201665523688,0.001220166806794,-0.0012201664886313,0.0012201668334251,-0.0012099111569406,0.0012099114793822,-0.0012099111221949,0.0012099115010219,-0.0013159765382416,0.0013159766048211,-0.0013159761977384,0.0013159767488555,-0.0012099109813788,0.0012099118100217,7.2972599520263e-11,-5.607072516607e-11,-0.00077609256270721,0.00077609258333405,-4.3025011979756e-10,4.4185009483207e-10,-0.00056415649747927,0.0005641564670562,-0.0006034934686536,0.00060349471753918,-0.00060349381821596,0.00060349435229912,-0.00056415739353451,0.00056415558845045,-0.00056415646871239,0.00056415658347581,-0.00060349469201775,0.00060349341789466,-0.00060349432712559,0.00060349391265946,-0.00098170249871266,0.00098170239376727,-0.00098170235843129,0.00098170261490022,-0.00098170268233886,0.0009817022907434,-0.00098170226859098,0.00098170262983787,-0.00094292246514995,0.00094292296471542,-0.00094292266857817,0.00094292276938141,-0.00094292260850846,0.00094292279971534,-0.00094292304058431,0.00094292231340693,-0.0005641557596576,0.00056415735896945,0.75166471063434,129794,2964,0.0039215424867155,0.0052769976864329,0.0032301360753476,29.180765814187,-2.2553873486507e-05,-2.2553873486507e-05,-2.2553873486507e-05,3698656.9781289,0.012507476221195
31591759,0.76722262937474,0.012858748432789,0.0041768083607143,0.0050283853836467,0.0036535546884282,-0.00095301445396385,0.00095301503933538,2.9258824760046e-10,2.8227601913197e-10,2.9754145322461e-10,3.2005472307732e-10,-0.00055696517733275,0.00055696657515113,-0.00069222620578864,0.00069222659654432,-0.00069222599193001,0.00069222686770583,-0.00055696528270416,0.00055696657530953,-0.00055696590122076,0.00055696577223056,-0.00069222601702124,0.00069222685875395,-0.00069222625715926,0.0006922265854071,-0.0011445389017312,0.0011445395457038,-0.0011445389461589,0.0011445395011894,-0.0011445389704381,0.001144539488676,-0.001144538939878,0.0011445395138572,-0.0010376413738051,0.0010376418444264,-0.0010376412585566,0.0010376419660761,-0.0010376412626539,0.0010376419410673,-0.0010376414114585,0.0010376417963453,-0.00055696589811495,0.00055696580979696,1.8327611762865e-10,1.9281566206792e-10,3.61991093075e-10,-4.1197686089705e-12,-0.0012859175325244,0.0012859178803984,-0.0012241978683163,0.0012241977506661,-0.0013323709819236,0.0013323715173884,-0.0013323709400545,0.0013323714429494,-0.0012357492909686,0.0012357497927548,-0.0012357494747336,0.0012357496004188,-0.0012357493513632,0.0012357497339409,-0.0012357493846057,0.0012357496802818,-0.0012241975273973,0.0012241980412468,-0.0012241977034471,0.0012241978553889,-0.0013323712317527,0.001332371353956,-0.0013323709963926,0.0013323714057825,-0.0012241974011855,0.0012241982408088,4.8233576015744e-11,-3.1428642729479e-11,-0.00078356018760704,0.0007835602075838,-3.7197107146925e-10,3.8858145595436e-10,-0.00056812295329629,0.00056812320314011,-0.00060833448008046,0.00060833547475712,-0.00060833468583898,0.00060833524067428,-0.00056812373012179,0.00056812245511386,-0.00056812320797213,0.00056812309537466,-0.00060833543957015,0.00060833441997981,-0.00060833521707246,0.00060833475969745,-0.00099268573877414,0.00099268559393708,-0.00099268558231951,0.000992685829397,-0.00099268584422722,0.00099268555526425,-0.00099268553815849,0.00099268581305215,-0.00095328257505254,0.00095328292819952,-0.00095328268961003,0.00095328286078341,-0.00095328272853033,0.00095328275396873,-0.00095328298649379,0.00095328250869371,-0.00056812259602084,0.00056812372949194,0.71981900819121,129794,2964,0.0039642938017451,0.0053432223002449,0.0032612155276844,29.085385848211,-2.331691321431e-05,-2.331691321431e-05,-2.331691321431e-05,3693353.6782912,0.012649334335187
31791759,0.7759264547986,0.012988352104533,0.0042183157079643,0.005082993113918,0.0036870432826503,-0.00096173930082765,0.00096173987959771,2.8984435671857e-10,2.7946511235618e-10,3.0410379330845e-10,3.04137385194e-10,-0.00055981381072039,0.00055981520228008,-0.0006973339135186,0.00069733426179823,-0.00069733369413294,0.00069733454358665,-0.00055981388756379,0.00055981521309775,-0.00055981451862962,0.00055981437558265,-0.00069733368928027,0.00069733455928574,-0.00069733393975513,0.00069733427239442,-0.0011562649541644,0.0011562656018806,-0.0011562649992193,0.0011562655548146,-0.0011562650322477,0.0011562655353289,-0.0011562650000616,0.0011562655608626,-0.0010475996366511,0.0010476000915236,-0.0010475995059869,0.001047600218754,-0.001047599518182,0.0010476002027501,-0.0010475996695177,0.0010476000400712,-0.00055981455350556,0.00055981440290465,1.7211527546707e-10,2.0737999448499e-10,3.6354714583645e-10,3.5389763582089e-12,-0.0012996336113747,0.0012996339640261,-0.0012360633682294,0.0012360632708251,-0.0013462886432548,0.0013462891596619,-0.0013462885896285,0.0013462891053794,-0.0012493701179293,0.001249370617595,-0.0012493703018656,0.0012493704261553,-0.0012493701747744,0.0012493705617025,-0.0012493701995586,0.0012493705192063,-0.001236063024957,0.0012360635478147,-0.0012360632038633,0.0012360633685039,-0.0013462888964164,0.0013462889876532,-0.001346288627887,0.0013462890791781,-0.0012360629054316,0.0012360637404493,4.6450001249052e-11,-3.5280107305174e-11,-0.00078972705751846,0.00078972706969963,-3.6612198646636e-10,3.7224342477772e-10,-0.00057090417721772,0.00057090441230211,-0.0006119151237183,0.00061191608865379,-0.00061191533121994,0.00061191584884341,-0.00057090492600681,0.00057090366070381,-0.00057090440115812,0.00057090430664815,-0.00061191606812676,0.00061191505133162,-0.00061191584090185,0.00061191539599054,-0.0010021342732715,0.0010021341272661,-0.0010021341263121,0.001002134363912,-0.0010021343801465,0.0010021340965614,-0.0010021340813924,0.0010021343384771,-0.00096176735621543,0.00096176766775349,-0.00096176747059944,0.00096176765007801,-0.00096176748814495,0.0009617674997532,-0.00096176774652322,0.00096176729629849,-0.00057090380892731,0.00057090490271661,0.68197346672766,129794,2964,0.0040005461199975,0.0054000306417953,0.0032868861080864,28.640723811186,-2.6874209510512e-05,-2.6874209510512e-05,-2.6874209510512e-05,3689670.6071608,0.012769613936331
31991759,0.78432245205186,0.013126018122909,0.0042620831475235,0.0051409607626824,0.0037229742127026,-0.00097161560869522,0.00097161618852894,2.9089708126444e-10,2.8168451690784e-10,3.0474820918081e-10,2.9932510229418e-10,-0.00056492838101192,0.00056492970566797,-0.0007045775153305,0.00070457786415277,-0.00070457731367144,0.00070457813788946,-0.00056492842295866,0.00056492971615073,-0.00056492902240396,0.00056492891331573,-0.00070457728864998,0.00070457815049285,-0.0007045775319884,0.00070457787910586,-0.0011685955488783,0.0011685961939783,-0.0011685955862859,0.0011685961563298,-0.0011685956253619,0.0011685961333008,-0.001168595600272,0.0011685961506884,-0.0010591246608713,0.0010591251347472,-0.0010591245309857,0.0010591252532521,-0.0010591245624385,0.0010591252357626,-0.0010591247027377,0.0010591250764965,-0.00056492907887163,0.00056492893568351,1.6738370460154e-10,2.0990943043305e-10,3.6727713072621e-10,1.4382246229677e-12,-0.0013141376903376,0.0013141380443281,-0.0012488281014991,0.0012488280245589,-0.0013608929761681,0.0013608934626106,-0.0013608929014669,0.0013608934402047,-0.001263819243861,0.0012638197425646,-0.0012638194248688,0.0012638195558678,-0.0012638192915893,0.0012638196916677,-0.0012638193240049,0.0012638196459365,-0.0012488277516973,0.0012488282860667,-0.0012488279611737,0.0012488281005859,-0.0013608932100066,0.0013608932974569,-0.0013608929549702,0.0013608933975819,-0.0012488276301763,0.00124882847051,4.6214842271233e-11,-3.6061190502442e-11,-0.00079700997754109,0.00079700998702249,-3.6261339152744e-10,3.6281391364244e-10,-0.00057601509038363,0.00057601535799832,-0.00061754566757149,0.00061754659217811,-0.00061754585768879,0.00061754636689754,-0.00057601579737819,0.00057601458569837,-0.00057601533512706,0.0005760152071523,-0.00061754657479719,0.00061754557711731,-0.00061754637528066,0.00061754591013144,-0.0010122767769856,0.0010122766254138,-0.0010122766290627,0.001012276868284,-0.0010122768764889,0.001012276604285,-0.0010122765906926,0.0010122768318558,-0.00097143635056844,0.00097143662702188,-0.00097143645403359,0.0009714366579933,-0.00097143646981135,0.00097143646214089,-0.0009714367144152,0.00097143629854192,-0.00057601475437621,0.00057601578509765,0.74979524841169,129794,2964,0.0040415714674962,0.0054600963418132,0.0033171881799304,28.568212397653,-2.7454300818777e-05,-2.7454300818777e-05,-2.7454300818777e-05,3689337.046734,0.012902724384079
32191759,0.79249599102756,0.013262682089543,0.0043054434381677,0.0051985799575238,0.0037586586938513,-0.00098149332414891,0.00098149391003431,2.9097881714981e-10,2.8760680907411e-10,3.0294009021172e-10,3.0705621767273e-10,-0.0005694354887742,0.0005694368080293,-0.00071169227494942,0.00071169264190558,-0.00071169207629938,0.00071169291018235,-0.00056943553656326,0.00056943680495755,-0.00056943611600232,0.00056943602214133,-0.00071169206006424,0.00071169291472538,-0.00071169229548152,0.000711692647347,-0.0011810498595099,0.0011810505042874,-0.0011810498928587,0.0011810504695575,-0.0011810499310286,0.0011810504482419,-0.0011810499052733,0.0011810504660603,-0.0010709222651167,0.0010709227486757,-0.0010709221275952,0.0010709228751253,-0.0010709221808117,0.0010709228455319,-0.0010709223145982,0.0010709226896979,-0.00056943616464506,0.00056943605043912,1.7322369701731e-10,2.0570396623062e-10,3.7452277457529e-10,-2.5370094988586e-12,-0.0013290592637777,0.0013290596193111,-0.0012621026207255,0.0012621025596573,-0.0013761816891827,0.0013761821777078,-0.0013761816165317,0.0013761821574064,-0.0012783842977403,0.0012783848024237,-0.0012783844797955,0.0012783846144674,-0.001278384346783,0.0012783847514051,-0.0012783843839266,0.0012783846995756,-0.0012621022702409,0.0012621028203255,-0.0012621025044401,0.0012621026109579,-0.0013761819198001,0.0013761820158294,-0.0013761816782712,0.0013761821020466,-0.0012621021493721,0.0012621029994851,4.1917980996954e-11,-3.5898245274425e-11,-0.00080431484903678,0.00080431485401998,-3.5997631496792e-10,3.5537893966734e-10,-0.00058092669367865,0.00058092697106033,-0.00062307946163879,0.0006230803634501,-0.00062307964243568,0.00062308014229225,-0.00058092738867995,0.00058092620533833,-0.00058092695279085,0.00058092681281307,-0.00062308035043228,0.00062307936398245,-0.00062308015837576,0.00062307969117943,-0.0010226038621142,0.001022603700999,-0.0010226037153588,0.0010226039530445,-0.0010226039563819,0.0010226036929213,-0.00102260367945,0.0010226039065419,-0.00098137957940273,0.00098137983447147,-0.00098137968001499,0.00098137988790082,-0.00098137969677372,0.00098137966618431,-0.00098137992721085,0.00098137953633507,-0.00058092637596477,0.00058092737457555,0.76436440113177,129794,2964,0.0040826060184702,0.0055218872331659,0.0033475861066876,28.656478323753,-2.6748173409975e-05,-2.6748173409975e-05,-2.6748173409975e-05,3680313.148988,0.013037709984613
32391759,0.80053599322086,0.013400171003622,0.0043489731059488,0.0052566051303028,0.0037945927673707,-0.00099169415955955,0.00099169475310845,2.9258159368609e-10,2.9375240100697e-10,3.0031421845971e-10,3.1628602676723e-10,-0.00057430892693098,0.0005743102299669,-0.00071921333760778,0.00071921372810686,-0.0007192131462221,0.00071921398942576,-0.00057430897870936,0.00057431021203303,-0.0005743095303936,0.0005743094564598,-0.00071921313763705,0.00071921398248017,-0.00071921336434922,0.00071921372178908,-0.0011937981336247,0.0011937987785953,-0.0011937981596655,0.001193798749412,-0.0011937981994675,0.0011937987293217,-0.0011937981761406,0.0011937987432783,-0.0010831686920819,0.0010831691911478,-0.0010831685471798,0.0010831693228061,-0.0010831686259498,0.0010831692824727,-0.0010831687514823,0.0010831691267417,-0.00057430957057584,0.00057430949427384,1.8056349737969e-10,1.9721345030675e-10,3.8349850959334e-10,-1.041539327001e-11,-0.0013444070880506,0.0013444074430011,-0.0012757919217997,0.0012757918781684,-0.0013918991362738,0.0013918996257261,-0.0013918990654161,0.0013918996086817,-0.001293311633726,0.0012933121451501,-0.0012933118175359,0.0012933119542067,-0.0012933116857963,0.0012933120936806,-0.0012933117288007,0.0012933120322219,-0.0012757915668758,0.0012757921361059,-0.0012757918381376,0.0012757918961972,-0.0013918993593913,0.0013918994693133,-0.0013918991428033,0.0013918995333554,-0.0012757914459299,0.0012757923117367,3.8276158619775e-11,-3.6241318793764e-11,-0.00081190387543009,0.00081190387609172,-3.6048361348776e-10,3.5040006101636e-10,-0.00058603909183311,0.00058603939192287,-0.00062898720378522,0.00062898808495199,-0.00062898737179076,0.00062898786952849,-0.00058603977419246,0.0005860386195182,-0.00058603937795994,0.00058603921104034,-0.0006289880752444,0.00062898709614804,-0.00062898789779929,0.00062898741718734,-0.0010332406760062,0.0010332405047327,-0.0010332405278017,0.001033240765745,-0.0010332407651098,0.001033240508486,-0.0010332404950565,0.0010332407100395,-0.00099175555461422,0.0009917557914248,-0.00099175564899409,0.00099175586331173,-0.0009917556717799,0.00099175562030193,-0.00099175588733956,0.00099175551520589,-0.00058603879811739,0.0005860397650918,0.78118729860627,129794,2964,0.0041249823013055,0.0055854376363113,0.0033791654619317,28.932606154039,-2.4539150767692e-05,-2.4539150767692e-05,-2.4539150767692e-05,3671081.0286834,0.013177053137594
32591759,0.80865706362463,0.013530856459125,0.0043905487998883,0.0053117197241934,0.0038285879350434,-0.0010024159531638,0.0010024165536259,3.1803372061167e-10,2.7660386735349e-10,2.9085951138276e-10,3.303960859499e-10,-0.00057910688763134,0.00057910844329612,-0.00072674263115919,0.00072674296973284,-0.00072674236717875,0.00072674331327088,-0.00057910693647652,0.00057910843700118,-0.00057910775137839,0.00057910739783939,-0.00072674236284964,0.00072674328603676,-0.00072674269047207,0.00072674293126246,-0.0012073304048966,0.0012073310938304,-0.0012073304733244,0.0012073310243479,-0.0012073304939374,0.0012073310237497,-0.001207330459029,0.0012073310488104,-0.0010957050587374,0.0010957055332072,-0.0010957048737198,0.001095705705159,-0.0010957049135603,0.0010957056966653,-0.0010957051657318,0.0010957054146823,-0.00057910777006763,0.00057910748287219,1.8810221425353e-10,1.8484805033145e-10,3.440760215299e-10,2.8605625354913e-11,-0.0013603976604592,0.0013603980138517,-0.0012899046952352,0.0012899046700293,-0.0014082586756617,0.0014082592345071,-0.0014082586994091,0.0014082591110842,-0.0013089263069087,0.0013089268252584,-0.0013089264926886,0.0013089266333099,-0.0013089263912177,0.0013089267366583,-0.0013089263833034,0.001308926731384,-0.0012899044257762,0.0012899048262775,-0.001289904557589,0.0012899047545576,-0.0014082589448946,0.0014082590177489,-0.0014082586761097,0.0014082591531758,-0.0012899042162514,0.0012899050997625,7.2674134891829e-11,-4.5748403211803e-11,-0.00081996658428626,0.00081996660901875,-4.0397726021869e-10,4.1605440241551e-10,-0.00059092155335225,0.00059092174096642,-0.00063488557633304,0.0006348866571592,-0.00063488581331052,0.00063488636218882,-0.00059092235686886,0.00059092083877581,-0.00059092170453869,0.00059092170422826,-0.00063488662647817,0.00063488546410956,-0.00063488637274304,0.00063488589283018,-0.0010446454090212,0.0010446452670527,-0.0010446452528623,0.0010446455408392,-0.001044645540242,0.0010446452313039,-0.0010446452092025,0.0010446454926117,-0.0010025190157917,0.0010025193775641,-0.0010025191531145,0.0010025193740459,-0.0010025191330034,0.0010025192188429,-0.0010025194760588,0.0010025189427894,-0.00059092104344017,0.00059092235519379,0.73524963640283,129794,2964,0.0041695219123957,0.0056516468428006,0.0034127144910845,29.682035019759,-1.8543719841927e-05,-1.8543719841927e-05,-1.8543719841927e-05,3668591.0922951,0.013323303615598
32791759,0.81618057198186,0.013643219472811,0.0044265532103622,0.0053589993181075,0.003857666944341,-0.0010093598755029,0.0010093604715589,2.9824548368755e-10,2.8931533640918e-10,3.0368929320644e-10,3.2234374570807e-10,-0.0005806124179991,0.0005806138857968,-0.00073051087458143,0.00073051123593002,-0.00073051064222677,0.00073051153518154,-0.00058061251243672,0.00058061388759217,-0.0005806131692855,0.00058061300332698,-0.00073051064788606,0.0007305115352772,-0.00073051090759973,0.00073051123265677,-0.0012168830533162,0.0012168837175859,-0.0012168830929756,0.0012168836799142,-0.0012168831358966,0.0012168836575976,-0.0012168831123369,0.0012168836748324,-0.0011039017004648,0.0011039021796664,-0.0011039015628571,0.0011039023159077,-0.0011039015888814,0.0011039022886391,-0.0011039017521781,0.001103902122744,-0.00058061319538693,0.00058061303538884,1.9490644056556e-10,2.0361704692207e-10,3.7535454486381e-10,2.3920689294509e-11,-0.001371680627454,0.0013716809965057,-0.0012991681602704,0.0012991681750206,-0.0014196953692092,0.0014196959048905,-0.0014196953301605,0.0014196958403316,-0.0013202846907269,0.0013202852007784,-0.0013202848722492,0.0013202850138024,-0.0013202847460314,0.0013202851434564,-0.0013202847729715,0.0013202851017885,-0.0012991678814811,0.0012991683896923,-0.0012991680685071,0.0012991682075095,-0.0014196956208282,0.0014196957312355,-0.0014196953676262,0.0014196958165475,-0.0012991677356536,0.0012991686059633,5.0504836773669e-11,-3.656945424004e-11,-0.00082469870326468,0.00082469871820235,-3.7485163226605e-10,3.8533961606663e-10,-0.0005926918717123,0.00059269208366016,-0.00063745444183277,0.0006374554426798,-0.00063745464585721,0.00063745517660037,-0.00059269265948995,0.00059269133193879,-0.00059269210659612,0.00059269205366947,-0.00063745541170601,0.00063745436282844,-0.000637455183398,0.0006374547362407,-0.0010523555671945,0.0010523554041952,-0.0010523554157101,0.0010523556814797,-0.0010523556694459,0.0010523554003216,-0.0010523553802193,0.0010523556209085,-0.0010091604211674,0.0010091607383539,-0.0010091605424869,0.0010091607355265,-0.0010091605552662,0.001009160565334,-0.0010091608272018,0.0010091603657918,-0.00059269149526624,0.00059269264718684,0.68274153155399,129794,2964,0.0041983780440847,0.0056983532745898,0.00343242170314,28.986550080871,-2.410759935303e-05,-2.410759935303e-05,-2.410759935303e-05,3658959.3636082,0.013419884389377
32991759,0.82327946817848,0.01375417962019,0.0044619858634656,0.0054056047584205,0.0038865889983041,-0.0010167971035322,0.0010167976960352,2.9253324463371e-10,2.994694150914e-10,3.0686765163918e-10,3.0522139287243e-10,-0.00058368094843961,0.00058368235912864,-0.00073549414026982,0.000735494466318,-0.00073549394067725,0.00073549477230846,-0.00058368102856842,0.00058368237754046,-0.00058368162953296,0.00058368155720214,-0.00073549388633243,0.00073549475216662,-0.00073549414267515,0.00073549449590634,-0.0012264490047261,0.0012264496478109,-0.0012264490363527,0.0012264496418055,-0.0012264490859259,0.0012264496053296,-0.0012264490721179,0.0012264496177555,-0.0011126431007741,0.0011126435901214,-0.0011126429511438,0.0011126437515405,-0.0011126430199799,0.0011126436910221,-0.0011126431949136,0.0011126435413752,-0.00058368172442149,0.00058368152950556,1.8368979622634e-10,2.1306440662606e-10,3.8582808001847e-10,1.9574450509378e-11,-0.0013828365984492,0.0013828369752862,-0.0013083274725258,0.001308327526768,-0.0014308693766331,0.001430869844044,-0.0014308692835774,0.0014308698530529,-0.001331692735422,0.0013316932392564,-0.0013316929101197,0.0013316930714566,-0.0013316927489713,0.0013316931895188,-0.0013316928150865,0.0013316931503677,-0.0013083271695967,0.0013083277088787,-0.0013083274369983,0.0013083275195493,-0.0014308695896187,0.0014308696941447,-0.0014308693624063,0.0014308697989563,-0.0013083270069275,0.0013083279005768,5.2881925872141e-11,-2.0358343919509e-11,-0.00083001852794761,0.00083001855596196,-3.6287876516035e-10,3.828975476343e-10,-0.00059600149935402,0.00059600172992998,-0.00064128779733579,0.00064128875088829,-0.00064128797533822,0.00064128851540797,-0.00059600222735931,0.00059600100736896,-0.00059600178584497,0.00059600165976283,-0.00064128869373679,0.00064128768449858,-0.00064128853669128,0.00064128804751839,-0.0010601942933043,0.0010601941263832,-0.0010601941306826,0.001060194410981,-0.0010601943674668,0.0010601941348803,-0.0010601941118962,0.0010601943458836,-0.0010161879882008,0.0010161883271037,-0.0010161880914027,0.0010161882984399,-0.0010161881357288,0.0010161881658043,-0.001016188369869,0.001016187945699,-0.00059600118375305,0.0005960022634993,0.7139967670044,129794,2964,0.0042292727687266,0.0057445306840715,0.0034545626644299,28.588783979073,-2.7289728167418e-05,-2.7289728167418e-05,-2.7289728167418e-05,3657511.8941377,0.013520462818163
33191759,0.83016448431325,0.013868600791672,0.004498336800903,0.0054536863996393,0.0039165775911294,-0.0010251361825838,0.0010251367774539,2.9719646820484e-10,2.9344086896523e-10,3.0397843940263e-10,3.139461866595e-10,-0.00058766070277137,0.00058766212651948,-0.00074165344773277,0.00074165379074638,-0.00074165322761175,0.00074165409256253,-0.00058766076692777,0.0005876621039632,-0.00058766139885705,0.00058766124553956,-0.00074165320581416,0.00074165409741222,-0.00074165346629332,0.00074165380157857,-0.0012368178262084,0.0012368184884204,-0.0012368178569724,0.0012368184632875,-0.0012368179116866,0.0012368184324719,-0.001236817894563,0.0012368184418718,-0.0011226149446159,0.0011226154390744,-0.0011226147902245,0.0011226155799817,-0.0011226148613887,0.001122615545967,-0.0011226150159238,0.0011226153698249,-0.00058766145026699,0.00058766127586026,1.927692686194e-10,2.066290231454e-10,3.9247829857945e-10,1.0989166797689e-11,-0.0013951276611558,0.0013951280365375,-0.0013187467056384,0.0013187467449699,-0.0014433621570047,0.001443362666383,-0.001443362086783,0.0014433626427317,-0.0013439877700034,0.0013439882848401,-0.0013439879529803,0.0013439881022458,-0.0013439878068136,0.001343988234655,-0.0013439878590439,0.0013439881829141,-0.0013187463946517,0.001318746942498,-0.0013187466567569,0.0013187467340187,-0.0014433623804045,0.0014433625029583,-0.0014433621576054,0.0014433625790526,-0.0013187462426191,0.001318747150462,5.020383649108e-11,-3.521709217142e-11,-0.00083621116178437,0.00083621117409805,-3.7558885490525e-10,3.7632763095839e-10,-0.00060047631945814,0.00060047656354295,-0.00064625838968033,0.00064625934149951,-0.00064625856893623,0.00064625908788547,-0.00060047705579673,0.00060047576870736,-0.0006004765734451,0.00060047647240918,-0.00064625931824255,0.00064625827237154,-0.00064625912466882,0.00064625863966351,-0.0010688761053949,0.0010688759325085,-0.0010688759507625,0.0010688762242821,-0.0010688761975311,0.0010688759466644,-0.0010688759247421,0.0010688761476259,-0.0010243462225142,0.0010243465631251,-0.00102434633429,0.0010243465121487,-0.0010243463652018,0.0010243464028948,-0.0010243466239348,0.0010243461523724,-0.0006004759601874,0.00060047704520692,0.7584844433338,129794,2964,0.0042639100274199,0.0057954062127348,0.0034803306840732,28.653408451153,-2.6772732390772e-05,-2.6772732390772e-05,-2.6772732390772e-05,3653616.2149469,0.013633282835245
33391759,0.83700479976769,0.013984255814875,0.0045350072331732,0.0055023430277453,0.0039469055539563,-0.0010342148568653,0.0010342154612591,2.9066873312267e-10,3.0894553574948e-10,2.9386132370886e-10,3.2915239320856e-10,-0.00059205106634384,0.00059205240000905,-0.00074844792081448,0.00074844832245487,-0.00074844772761289,0.00074844859575486,-0.00059205113750885,0.00059205233202316,-0.00059205166419616,0.00059205158243784,-0.00074844772820399,0.00074844857055935,-0.00074844795382979,0.00074844830627466,-0.0012480451732081,0.001248045823762,-0.0012480451781136,0.0012480458150116,-0.0012480452425792,0.0012480457828158,-0.0012480452289966,0.0012480457835355,-0.0011335002818273,0.0011335008085029,-0.0011335001565718,0.0011335009001801,-0.0011335002382767,0.0011335008654118,-0.0011335002956345,0.0011335007692913,-0.00059205170275796,0.00059205162588221,2.0350813426031e-10,1.8480376849305e-10,4.2000700170676e-10,-2.7585432988921e-11,-0.0014085211690781,0.0014085215380154,-0.0013302776457365,0.0013302776729545,-0.0014571135620072,0.0014571140716653,-0.0014571134918067,0.0014571140698653,-0.0013571866708273,0.0013571872081603,-0.0013571868631909,0.0013571870095092,-0.0013571867213048,0.0013571871610976,-0.0013571867906151,0.0013571870707526,-0.0013302772874947,0.0013302779004584,-0.0013302776610011,0.0013302775962254,-0.0014571137588835,0.0014571139306942,-0.0014571136227426,0.0014571139268514,-0.0013302771365743,0.0013302780895324,3.382036429638e-11,-3.1223281120783e-11,-0.0008430604397879,0.00084306043913523,-3.6882117091254e-10,3.5264612595761e-10,-0.00060530519998213,0.00060530554252528,-0.00065180655213451,0.0006518074177671,-0.00065180669609979,0.00065180719761696,-0.00060530585289646,0.00060530472444249,-0.00060530553053663,0.00060530532975349,-0.00065180740511883,0.00065180641175848,-0.00065180726080536,0.00065180674088277,-0.0010784113713335,0.0010784111764548,-0.0010784112163745,0.0010784114731918,-0.0010784114475917,0.0010784112162172,-0.0010784111937638,0.0010784113874733,-0.0010334237107085,0.0010334240801976,-0.0010334238165799,0.0010334239333488,-0.0010334238910583,0.0010334239233996,-0.0010334240978328,0.0010334236205243,-0.0006053049235656,0.0006053058683656,0.77139746533071,129794,2964,0.0043016196359121,0.0058508432570621,0.0035088303583521,29.14032434949,-2.2877405204083e-05,-2.2877405204083e-05,-2.2877405204083e-05,3647758.8255419,0.01375662715767
33591759,0.84369949635074,0.014099557735006,0.004571502619608,0.0055509015677574,0.0039771535476407,-0.0010427634518582,0.0010427640636689,2.9139127275546e-10,3.1382711991455e-10,2.9411835173919e-10,3.4354803857854e-10,-0.00059595541533,0.00059595682452391,-0.00075475462497032,0.00075475505729261,-0.00075475443429685,0.00075475533054885,-0.00059595556222337,0.00059595675249561,-0.00059595606273131,0.00059595601496364,-0.00075475446723207,0.00075475529188984,-0.00075475468103633,0.00075475504090212,-0.0012587173298288,0.0012587179782928,-0.0012587173286562,0.0012587179836951,-0.0012587173982915,0.0012587179458769,-0.0012587173921091,0.0012587179415057,-0.0011439009130719,0.0011439014382846,-0.0011439008203873,0.0011439015149755,-0.0011439008499259,0.0011439014791599,-0.0011439008936143,0.0011439014244079,-0.00059595608104916,0.00059595605213773,2.2334790840412e-10,1.8250004284455e-10,4.3434117629653e-10,-2.4131980426107e-11,-0.0014214237017925,0.001421424081471,-0.0013413013746196,0.0013413014507843,-0.0014703864492675,0.0014703869944233,-0.0014703863807671,0.0014703869701723,-0.0013698695437336,0.0013698700828455,-0.0013698697360935,0.0013698698832158,-0.0013698695898916,0.0013698700328146,-0.0013698696676197,0.0013698699389817,-0.0013413010295044,0.0013413017038067,-0.0013413014369777,0.0013413013297631,-0.0014703866405638,0.0014703868730278,-0.0014703865421328,0.0014703868163181,-0.0013413009237043,0.0013413018701887,3.2945159309027e-11,-2.8765056453153e-11,-0.00084940414182137,0.0008494041445908,-3.6567307844214e-10,3.6069034059426e-10,-0.00060952678190865,0.00060952710899994,-0.00065691489583046,0.00065691579413761,-0.0006569150421859,0.00065691556400538,-0.00060952749247009,0.00060952637149306,-0.00060952716282395,0.00060952695255533,-0.00065691576455179,0.00065691478665015,-0.00065691561710999,0.00065691511782149,-0.0010874473570639,0.0010874471541265,-0.0010874471957272,0.0010874474599276,-0.0010874474244185,0.0010874471977446,-0.0010874471777302,0.0010874473698783,-0.0010420598619981,0.0010420602916057,-0.0010420599487028,0.0010420600114914,-0.0010420600781502,0.0010420601507783,-0.0010420602666953,0.0010420597235179,-0.00060952655161399,0.00060952751688889,0.7853855801648,129794,2964,0.0043371308694587,0.0059042420342589,0.0035352310378036,29.396346334116,-2.0829229327074e-05,-2.0829229327074e-05,-2.0829229327074e-05,3637342.8286545,0.013873563123594
33791759,0.85026713029945,0.01421247826489,0.0046072437384659,0.0055984676422081,0.0040067668842163,-0.0010512282083274,0.0010512288268397,3.0028661374419e-10,3.1294760048915e-10,2.9092618249306e-10,3.5216202354486e-10,-0.00059972855734155,0.00059973004150402,-0.00076092117159693,0.00076092159674928,-0.00076092096281336,0.00076092189290353,-0.00059972871292454,0.00059972995853664,-0.00059972927230926,0.0005997291603204,-0.00076092099867709,0.00076092183984753,-0.00076092123606993,0.0007609215699431,-0.0012693218742922,0.0012693225338349,-0.0012693218797839,0.001269322536799,-0.0012693219473332,0.001269322502424,-0.0012693219437307,0.0012693224963066,-0.0011541924308197,0.0011541929584702,-0.0011541923348584,0.0011541930378874,-0.0011541923486154,0.0011541930124305,-0.0011541924166927,0.001154192934725,-0.00059972928824185,0.0005997292106588,2.2146520786051e-10,1.8285750549968e-10,4.2500676781292e-10,-1.3484823165556e-11,-0.0014342657376679,0.0014342661187323,-0.0013522301296473,0.0013522302296995,-0.0014836180943814,0.0014836186414856,-0.0014836180332026,0.0014836186021445,-0.0013824783798117,0.0013824789170217,-0.001382478569899,0.0013824787204814,-0.0013824784242335,0.0013824788595901,-0.0013824784956179,0.0013824787809804,-0.0013522298072629,0.0013522304416258,-0.0013522302039497,0.0013522301153009,-0.0014836182827506,0.0014836185059246,-0.0014836181795282,0.0014836184743875,-0.0013522296779531,0.0013522306342086,4.3112494626706e-11,-2.9582132197932e-11,-0.00085567838764507,0.00085567839899764,-3.821669288246e-10,3.8354517310943e-10,-0.00061350569996817,0.00061350600558607,-0.00066190768725503,0.00066190864502178,-0.00066190784819498,0.00066190839355964,-0.00061350644273133,0.00061350522719419,-0.0006135060606314,0.00061350586447516,-0.00066190860712819,0.0006619075745858,-0.00066190844814095,0.00066190792834389,-0.0010964579747797,0.0010964577747679,-0.0010964578058886,0.001096458093268,-0.0010964580494984,0.0010964578126133,-0.0010964577876593,0.0010964579994959,-0.0010506425421867,0.0010506430360546,-0.0010506426367924,0.0010506426883252,-0.0010506427721402,0.001050642902303,-0.0010506429931147,0.001050642382921,-0.0006135054129823,0.00061350647489497,0.78367913119379,129794,2964,0.0043722950289322,0.0059573865441808,0.0035613437440996,29.711015650277,-1.8311874797782e-05,-1.8311874797782e-05,-1.8311874797782e-05,3626402.2826378,0.013989612077462
33991759,0.85675736205445,0.014320264829491,0.0046414576058477,0.0056438320726767,0.0040349751509665,-0.0010596939259315,0.0010596945465398,2.9679411923162e-10,3.1900404996878e-10,2.9252280239389e-10,3.5129735843037e-10,-0.00060348249482557,0.00060348393977564,-0.00076693093578339,0.00076693136681864,-0.00076693073417896,0.00076693165287712,-0.0006034826389842,0.00060348384893778,-0.00060348317572776,0.00060348308346649,-0.00076693076561007,0.00076693160502073,-0.00076693099381065,0.00076693134122706,-0.0012799735961686,0.0012799742519631,-0.0012799735886532,0.0012799742675545,-0.0012799736680512,0.0012799742261475,-0.0012799736691949,0.0012799742135484,-0.001164309137535,0.0011643096714783,-0.0011643090521081,0.0011643097361513,-0.001164309067912,0.0011643097120294,-0.001164309102599,0.0011643096668705,-0.00060348318264446,0.00060348313481926,2.2482346015056e-10,1.7798789518573e-10,4.4430206644303e-10,-3.3682880702292e-11,-0.0014469967756961,0.0014469971569318,-0.0013629886748762,0.0013629887613805,-0.001496702807533,0.0014967033594921,-0.0014967027462843,0.0014967033336296,-0.0013950618805594,0.0013950624294743,-0.0013950620786931,0.0013950622261206,-0.0013950619237072,0.0013950623769822,-0.0013950620135173,0.0013950622769931,-0.001362988318849,0.0013629889954346,-0.0013629887692837,0.0013629886166685,-0.0014967029941328,0.001496703228703,-0.0014967029153835,0.0014967031672694,-0.0013629881872734,0.001362989175548,3.6897990622597e-11,-2.7856524002313e-11,-0.00086197995557231,0.00086197996176403,-3.7724175304545e-10,3.7214503612947e-10,-0.0006172882381572,0.00061728857420061,-0.00066675246320244,0.00066675337872154,-0.00066675260632352,0.0006667531388649,-0.00061728895728546,0.00061728778320748,-0.0006172886121572,0.00061728840760627,-0.00066675334796835,0.00066675233276348,-0.00066675320359409,0.00066675267786428,-0.0011055387183434,0.0011055385097571,-0.0011055385511733,0.0011055388302362,-0.0011055387853134,0.0011055385595054,-0.0011055385351619,0.0011055387325979,-0.0010591211777799,0.0010591216921762,-0.0010591212707679,0.0010591212897904,-0.0010591214251851,0.0010591215649754,-0.001059121627159,0.0010591210086518,-0.00061728797609712,0.00061728898554512,0.75679231111541,129794,2964,0.0044074622771844,0.0060100694426078,0.0035875688532691,30.173787431605,-1.460970054716e-05,-1.460970054716e-05,-1.460970054716e-05,3619842.6794808,0.014105324925247
34191759,0.86304331780782,0.014422573556521,0.0046739981095143,0.0056868463713564,0.0040617290756507,-0.001067279867355,0.0010672804890255,3.0836668655057e-10,3.0785729249457e-10,2.9765387023152e-10,3.5364109106624e-10,-0.00060672108852514,0.00060672270692042,-0.00077216194368726,0.00077216234277507,-0.00077216170812791,0.00077216266548734,-0.00060672127551888,0.00060672264788192,-0.00060672194239046,0.0006067217330316,-0.00077216174329134,0.00077216262967101,-0.00077216201292664,0.0007721623253793,-0.0012896151615699,0.0012896158377386,-0.0012896151743072,0.0012896158446309,-0.0012896152528321,0.0012896158019421,-0.0012896152561348,0.0012896157911467,-0.0011733069527747,0.0011733074598606,-0.0011733068709956,0.0011733075449492,-0.0011733068243367,0.0011733075377888,-0.0011733069327804,0.001173307451309,-0.00060672192266575,0.00060672179299252,2.2757246946433e-10,1.99776806509e-10,4.3079536548627e-10,8.8434389658482e-12,-0.0014584471875547,0.0014584475862609,-0.0013724944988323,0.0013724946359017,-0.00150833441079,0.0015083349860375,-0.0015083343562896,0.0015083349335242,-0.0014065498845371,0.0014065504196039,-0.0014065500764179,0.0014065502269137,-0.0014065499202193,0.0014065503643392,-0.0014065499906489,0.0014065502980527,-0.001372494201268,0.0013724948500291,-0.0013724945577857,0.0013724945194765,-0.001508334619394,0.0015083348468113,-0.0015083344847835,0.0015083348282923,-0.0013724940843982,0.0013724950381076,5.7421070542622e-11,-3.1247029218824e-11,-0.00086754079503946,0.00086754081972014,-3.925978422896e-10,4.1514477438233e-10,-0.000620533201239,0.00062053347410324,-0.00067088958390936,0.0006708906353941,-0.00067088976627691,0.0006708903518082,-0.00062053405570654,0.00062053268978256,-0.00062053353520821,0.00062053343985428,-0.00067089058246538,0.00067088949384601,-0.00067089038031554,0.00067088989066826,-0.0011136838046499,0.0011136836101054,-0.0011136836282091,0.0011136839402708,-0.0011136838865304,0.0011136836378301,-0.0011136836116631,0.0011136838464184,-0.001066591186574,0.0010665917733995,-0.0010665912802143,0.0010665912953305,-0.0010665914433841,0.0010665916610928,-0.0010665917000913,0.0010665909822485,-0.00062053286602406,0.00062053406948613,0.74153925446337,129794,2964,0.004438974879906,0.0060574485292642,0.0036107130771421,30.313235501588,-1.3494115987297e-05,-1.3494115987297e-05,-1.3494115987297e-05,3615331.4757302,0.014208837757221
34391759,0.86915984794919,0.014521339878632,0.0047054404544845,0.0057283318165381,0.0040875676076091,-0.0010748546945735,0.001074855314938,3.1285638104055e-10,3.0188853780651e-10,2.9658654969037e-10,3.4917891258861e-10,-0.00061023588031198,0.00061023754682417,-0.00077748980529627,0.00077749016706757,-0.00077748954363923,0.00077749052082488,-0.00061023603826554,0.00061023748288912,-0.00061023678909305,0.00061023647166367,-0.00077748956443519,0.00077749049337637,-0.00077748987207631,0.00077749014708101,-0.0012991351871887,0.0012991358855141,-0.0012991352035464,0.0012991358765071,-0.0012991352932073,0.0012991358317615,-0.0012991352930601,0.0012991358186842,-0.0011821752580127,0.0011821757550982,-0.0011821751796124,0.0011821758039243,-0.0011821750979997,0.0011821758413154,-0.0011821751875414,0.0011821757390772,-0.00061023678266162,0.00061023654695678,2.1317362392741e-10,2.0503636546728e-10,4.1445870597176e-10,1.6050580516886e-11,-0.0014696379116617,0.0014696383068939,-0.0013817916494765,0.0013817917682768,-0.0015196719335893,0.0015196725021849,-0.0015196718851404,0.001519672447864,-0.0014178573435865,0.0014178578786321,-0.0014178575356018,0.0014178576822401,-0.0014178573926591,0.0014178578218199,-0.0014178574387845,0.0014178577638191,-0.0013817913594443,0.0013817919423199,-0.0013817916697958,0.0013817916884467,-0.0015196721470354,0.0015196723529721,-0.0015196719878031,0.0015196723621776,-0.0013817912106427,0.0013817921674935,6.1847167049e-11,-3.89409579687e-11,-0.00087315219376085,0.00087315221508113,-4.1461914535905e-10,4.2545831035454e-10,-0.00062401239843971,0.0006240126271145,-0.00067513660672564,0.00067513770339553,-0.00067513681719882,0.00067513739450836,-0.00062401324494873,0.00062401175260063,-0.00062401265947764,0.00062401259263056,-0.00067513766116016,0.00067513649462046,-0.00067513743819407,0.00067513692575321,-0.0011217500374964,0.0011217498495142,-0.0011217498638641,0.0011217501804204,-0.001121750140044,0.0011217498687459,-0.001121749837159,0.0011217500873017,-0.0010739772253929,0.0010739779304307,-0.0010739773524962,0.001073977288435,-0.0010739775116431,0.001073977832289,-0.0010739778212474,0.0010739769624969,-0.00062401195788729,0.00062401325231991,0.73560443743959,129794,2964,0.0044704373571778,0.0061037513001815,0.003634064123197,30.547451088315,-1.1620391293479e-05,-1.1620391293479e-05,-1.1620391293479e-05,3614771.0730882,0.01431142649829
34591759,0.87544048614076,0.014626472418113,0.0047388141620332,0.0057725049666559,0.0041151532894237,-0.001084686895062,0.0010846875239504,3.0933607452467e-10,3.1523276591421e-10,2.8565336595634e-10,3.6700277217017e-10,-0.00061623371455173,0.00061623536548668,-0.00078523487368098,0.00078523528526503,-0.00078523462817903,0.00078523562414944,-0.00061623390925052,0.00061623525606473,-0.00061623459644247,0.00061623431640908,-0.00078523467909502,0.00078523556342839,-0.00078523496315549,0.00078523524536105,-0.0013108750257073,0.0013108757096439,-0.0013108750235128,0.0013108757229782,-0.0013108751185279,0.0013108756773167,-0.0013108751274282,0.0013108756544155,-0.001193453506623,0.0011934540336292,-0.0011934534525935,0.0011934540547537,-0.0011934533798551,0.0011934540787134,-0.0011934534138698,0.0011934540421408,-0.0006162345615927,0.00061623440733772,2.3679071667673e-10,1.8167972057395e-10,4.4099554677479e-10,-1.2609524883259e-11,-0.0014832571694534,0.0014832575645313,-0.0013935594287505,0.0013935595519892,-0.0015334190844762,0.00153341967222,-0.0015334190416881,0.0015334196214614,-0.0014315094964968,0.0014315100497192,-0.0014315096942901,0.001431509847873,-0.0014315095451197,0.0014315099917698,-0.0014315096206948,0.0014315099057872,-0.0013935591047619,0.001393559740265,-0.0013935595192923,0.0013935594127047,-0.0015334192694199,0.0015334195401516,-0.0015334191988556,0.001533419468388,-0.0013935589469793,0.0013935599503167,5.6202335862365e-11,-2.9333131951778e-11,-0.00088079760174757,0.00088079762538949,-4.1032620523429e-10,4.2137480061261e-10,-0.00062958657987493,0.00062958689539047,-0.00068154306795169,0.00068154412245135,-0.00068154324806061,0.00068154383587187,-0.00062958739061751,0.00062958601387533,-0.0006295869201332,0.00062958677583826,-0.00068154407460638,0.00068154294036491,-0.00068154389164367,0.00068154334489585,-0.001131920967716,0.0011319207683511,-0.0011319207857063,0.0011319211059077,-0.0011319210524536,0.0011319208019812,-0.0011319207675316,0.0011319210082182,-0.0010836445801302,0.0010836453285157,-0.001083644694676,0.001083644602306,-0.0010836449035786,0.0010836452352475,-0.0010836451718503,0.0010836443138863,-0.00062958621651528,0.00062958742598449,0.762265130401,129794,2964,0.0045112632663893,0.0061601054157578,0.0036658625447075,31.750205248617,-1.9983580110663e-06,-1.9983580110663e-06,-1.9983580110663e-06,3625312.9713068,0.01444228981825
34791759,0.88202351172005,0.014740941184043,0.0047750446829051,0.0058206934163485,0.0041452030847893,-0.0010959054033994,0.0010959060462983,3.1022628474113e-10,3.2985742408212e-10,2.6450597802394e-10,3.9393795308359e-10,-0.00062338508769984,0.00062338667744971,-0.00079430088730073,0.00079430137658209,-0.00079430067882719,0.00079430169274853,-0.00062338527567283,0.00062338650620608,-0.00062338591270743,0.00062338563533787,-0.00079430074697398,0.00079430156997393,-0.00079430101489261,0.0007943012799097,-0.0013241208124334,0.0013241214811411,-0.0013241207886927,0.0013241215131446,-0.0013241208805943,0.0013241214773145,-0.0013241208946507,0.0013241214431106,-0.0012063918481229,0.0012063924316509,-0.0012063918204124,0.0012063924094338,-0.0012063917726665,0.0012063924175821,-0.0012063917386546,0.0012063924368951,-0.00062338582004524,0.00062338577017243,2.5296319644211e-10,1.425245242659e-10,4.6815381519289e-10,-5.8968059669196e-11,-0.0014987530342821,0.0014987534141501,-0.0014071617777574,0.0014071618519396,-0.0015491697179039,0.0015491703140347,-0.0015491697071592,0.0015491702649658,-0.0014468500315801,0.0014468506122757,-0.0014468502412368,0.0014468503993259,-0.0014468500943083,0.0014468505431237,-0.001446850199305,0.0014468504214209,-0.0014071613744996,0.0014071620738015,-0.0014071618980339,0.0014071616436204,-0.0015491699024159,0.0015491702089667,-0.001549169912914,0.0015491700443359,-0.0014071612143762,0.0014071622641973,4.6153757527036e-11,-2.7609567223144e-11,-0.00088958775409706,0.00088958776722838,-4.0358262627908e-10,3.9941386148906e-10,-0.00063610959944785,0.00063611001784521,-0.0006891096417953,0.00068911060411737,-0.00068910978656924,0.00068911035712098,-0.00063611033405521,0.00063610906004216,-0.00063610998979869,0.0006361097947429,-0.00068911056246003,0.00068910945344847,-0.00068911043869771,0.00068910985910878,-0.0011434781738034,0.0011434779585935,-0.001143477991854,0.0011434782969447,-0.0011434782443441,0.0011434780120395,-0.0011434779795324,0.0011434781940976,-0.0010948332751016,0.0010948340351317,-0.0010948333765786,0.0010948332456254,-0.0010948336164117,0.0010948339509101,-0.0010948338417122,0.001094832983121,-0.00063610930604156,0.00063611038770144,0.79180579729499,129794,2964,0.0045578435850513,0.0062242220156793,0.0037024200344096,33.402070432472,1.1216563459772e-05,1.1216563459772e-05,1.1216563459772e-05,3635770.8390146,0.014591716020925
34991759,0.88866202019793,0.014850922279491,0.0048099995915902,0.0058670121740595,0.004173910513841,-0.0011057053131595,0.0011057059636899,3.363192183258e-10,3.0547822252646e-10,2.6982835113497e-10,4.1665979903503e-10,-0.00062857316740778,0.00062857511916638,-0.00080145154619082,0.00080145202075029,-0.00080145126217167,0.00080145239542551,-0.00062857349219227,0.00062857498620037,-0.00062857432654476,0.00062857385726515,-0.00080145139751556,0.00080145229728203,-0.00080145172668715,0.0008014519218907,-0.001336182912084,0.0013361836264526,-0.001336182932437,0.0013361836233571,-0.0013361830092698,0.0013361835979591,-0.0013361830242479,0.0013361835712329,-0.0012177825745875,0.0012177831122884,-0.0012177825606118,0.001217783111802,-0.0012177823778045,0.0012177831676669,-0.0012177824699181,0.001217783105469,-0.00062857417517065,0.00062857404166986,2.8319914975449e-10,1.6489096278067e-10,4.4048956356311e-10,2.268280260834e-11,-0.0015130045001204,0.0015130049082604,-0.0014194916963575,0.0014194918905435,-0.0015637784332145,0.0015637791338083,-0.0015637784671265,0.0015637789682077,-0.0014609268933681,0.0014609274510096,-0.001460927092562,0.0014609272461069,-0.001460926965703,0.0014609273659249,-0.0014609270158435,0.0014609273090441,-0.001419491451295,0.0014194920844027,-0.0014194917784538,0.0014194917392261,-0.0015637786562349,0.0015637789868599,-0.0015637785925983,0.0015637788766661,-0.0014194913287644,0.0014194923129401,8.3618863354064e-11,-4.1327560471396e-11,-0.00089700788425772,0.0008970079271915,-4.3679270123041e-10,4.8231818724299e-10,-0.00064068152977228,0.00064068179644487,-0.00069487546688757,0.00069487672243111,-0.0006948756996525,0.00069487636825984,-0.00064068255381446,0.00064068091883117,-0.00064068184911334,0.0006406818363085,-0.0006948766538333,0.00069487541304661,-0.00069487637599715,0.00069487588846129,-0.0011538750076465,0.0011538748208002,-0.0011538748124518,0.0011538751801514,-0.0011538751209898,0.0011538748289049,-0.0011538747914232,0.0011538750799141,-0.001104568022225,0.0011045688422405,-0.0011045681274217,0.0011045680386708,-0.0011045683510058,0.0011045687624748,-0.0011045686956086,0.0011045676975782,-0.00064068109410158,0.00064068255310729,0.75495090026431,129794,2964,0.0045985426857351,0.0062831832239868,0.0037332916025894,34.467479535806,1.9739836286445e-05,1.9739836286445e-05,1.9739836286445e-05,3636421.2212734,0.014724200507544
35191759,0.89523139084544,0.01495694851166,0.0048437902921618,0.0059116288686656,0.0042015293508329,-0.0011148732422835,0.0011148738858021,3.1957533154593e-10,3.1662896843765e-10,2.8463399824438e-10,3.9044344510312e-10,-0.00063338994344155,0.00063339168543178,-0.00080804491021364,0.00080804536374527,-0.00080804465454964,0.00080804570310439,-0.00063339018795024,0.00063339156765861,-0.00063339091358417,0.0006333905856328,-0.00080804474627835,0.00080804563797212,-0.00080804503262428,0.00080804530098041,-0.0013475052464565,0.0013475059446287,-0.0013475052401837,0.0013475059670396,-0.0013475053435139,0.0013475059203253,-0.0013475053658147,0.0013475058843907,-0.001228296720437,0.0012282972608888,-0.0012282967392166,0.0012282972143291,-0.0012282965539165,0.0012282972780039,-0.0012282965506406,0.0012282973132765,-0.00063339080565433,0.00063339071691982,2.6679039897174e-10,1.7488226359924e-10,4.6851992630992e-10,-9.4137511296002e-12,-0.001526245810924,0.0015262462182664,-0.0014308412937419,0.0014308414575007,-0.0015771832580705,0.0015771839072237,-0.0015771832427902,0.0015771838159,-0.0014742011636666,0.0014742017283411,-0.0014742013716387,0.0014742015173501,-0.0014742012191892,0.0014742016664984,-0.0014742013016008,0.0014742015730129,-0.0014308409829515,0.0014308416901964,-0.0014308414044239,0.0014308412768782,-0.001577183466079,0.0015771837692416,-0.0015771834078729,0.0015771836596655,-0.0014308408646551,0.001430841884807,6.3730154730902e-11,-3.5183809923464e-11,-0.0009038822583028,0.00090388228690019,-4.1508955884486e-10,4.4201840136138e-10,-0.00064491343903179,0.00064491375718834,-0.00070008391260995,0.00070008504370961,-0.00070008410799961,0.00070008472851025,-0.00064491435608559,0.00064491289870498,-0.0006449137908701,0.00064491371182194,-0.00070008499087084,0.00070008382816734,-0.00070008475975701,0.00070008425818275,-0.0011635526730948,0.0011635524723587,-0.0011635524869232,0.0011635528240419,-0.0011635527653934,0.0011635525050566,-0.0011635524708795,0.0011635527181964,-0.001113478782695,0.0011134795373859,-0.0011134788841276,0.0011134787917807,-0.0011134791060501,0.0011134794451481,-0.0011134793954534,0.0011134784946498,-0.00064491307835215,0.00064491435786907,0.73557131656201,129794,2964,0.0046366145512372,0.0063379609008059,0.0037618913457319,35.264959587796,2.6119676702369e-05,2.6119676702369e-05,2.6119676702369e-05,3640858.3780659,0.014847481539368
35391759,0.9016315330821,0.015057308350655,0.0048758680923232,0.0059538220174773,0.0042276182408541,-0.0011233066592656,0.0011233072923898,3.090728221845e-10,3.1696587955701e-10,3.0078200999253e-10,3.6311890123153e-10,-0.0006375710622055,0.00063757272912811,-0.00081391796979155,0.00081391838051455,-0.0008139177264117,0.00081391870961891,-0.00063757128080266,0.00063757264141896,-0.00063757194988193,0.00063757170544864,-0.00081391777903697,0.00081391868470039,-0.00081391804713772,0.00081391836661194,-0.0013580152697741,0.0013580159648005,-0.0013580152545624,0.0013580159955276,-0.0013580153769592,0.0013580159299358,-0.0013580154008402,0.0013580158918652,-0.0012378691615728,0.0012378696805195,-0.0012378691841772,0.0012378696294873,-0.0012378689944291,0.0012378696984677,-0.00123786896452,0.0012378697575245,-0.00063757190026121,0.00063757178319694,2.5393932473971e-10,1.9799315666372e-10,4.8054444518603e-10,-1.1019396573638e-11,-0.001538456335484,0.0015384567514732,-0.0014412377621177,0.0014412379355738,-0.0015894673448678,0.0015894679505051,-0.001589467274735,0.0015894679172936,-0.0014865434301573,0.0014865439867294,-0.001486543636221,0.0014865437770339,-0.0014865434687932,0.0014865439433196,-0.0014865435571628,0.0014865438429828,-0.0014412374279401,0.0014412381937288,-0.0014412378859575,0.0014412377408376,-0.0015894675389148,0.0015894678280527,-0.0015894674610169,0.0015894677380209,-0.0014412373426416,0.0014412383530341,5.6009062880693e-11,-3.3664367694322e-11,-0.00091014049052716,0.00091014051245096,-4.0546159589256e-10,4.2547804127843e-10,-0.00064862074802084,0.00064862107629227,-0.0007046264859604,0.00070462757347591,-0.0007046266693904,0.00070462726919043,-0.00064862162882503,0.00064862025048414,-0.00064862112696685,0.00064862100768038,-0.00070462752407554,0.00070462639798163,-0.00070462731300941,0.00070462681221964,-0.0011724717949722,0.0011724715858897,-0.0011724716122948,0.001172471938638,-0.0011724718787185,0.0011724716303576,-0.0011724715986963,0.0011724718265296,-0.0011215359912866,0.0011215367068049,-0.0011215360836956,0.0011215359949205,-0.0011215363085343,0.0011215366122111,-0.0011215365703878,0.001121535712664,-0.00064862042750239,0.00064862163635881,0.71497358328685,129794,2964,0.0046716348757946,0.0063884712676022,0.0037879282847564,35.835213049044,3.0681704392356e-05,3.0681704392356e-05,3.0681704392356e-05,3646846.7378216,0.014960745839023
35591759,0.90790878665541,0.015150955171395,0.0049059423152453,0.0059931302446174,0.0042518826115329,-0.0011317110070081,0.0011317116352595,3.0842735037381e-10,3.1465379324849e-10,2.9946529707015e-10,3.5480890433152e-10,-0.00064180297211626,0.00064180462750708,-0.00081968133255448,0.00081968171603771,-0.00081968108433312,0.00081968205560891,-0.00064180316497872,0.00064180454142393,-0.00064180385790039,0.00064180358549398,-0.00081968111582606,0.00081968203105107,-0.00081968139604134,0.00081968170788691,-0.0013684772818563,0.0013684779771755,-0.0013684772683122,0.0013684780057415,-0.0013684773928413,0.0013684779387491,-0.0013684774156137,0.0013684779006969,-0.0012471878798839,0.0012471883922356,-0.0012471878932338,0.0012471883448246,-0.0012471877117419,0.0012471884209614,-0.0012471876851063,0.0012471884638934,-0.00064180382551209,0.00064180365796462,2.4965628858352e-10,2.0051868584877e-10,4.7421927430904e-10,-9.0607014030784e-12,-0.0015503852501159,0.0015503856679451,-0.0014514015922687,0.001451401765297,-0.0016013919492737,0.0016013925334728,-0.0016013918707326,0.0016013925183538,-0.00149870141453,0.0014987019735289,-0.0014987016164084,0.0014987017682167,-0.0014987014505537,0.0014987019297072,-0.0014987015339511,0.0014987018367397,-0.0014514012528586,0.0014514019931941,-0.001451401726538,0.001451401577321,-0.001601392129738,0.0016013924117271,-0.0016013920523866,0.0016013923399964,-0.0014514011440236,0.0014514021594143,5.8629865309625e-11,-3.4235924704236e-11,-0.0009164332170031,0.00091643323899558,-4.1064877024504e-10,4.2453995894264e-10,-0.00065233058454295,0.00065233090674763,-0.00070905700460713,0.00070905808171671,-0.00070905718840982,0.00070905778106757,-0.00065233143396774,0.00065233003699383,-0.00065233094241409,0.00065233081680209,-0.00070905803489117,0.00070905688780127,-0.00070905783472643,0.00070905730820058,-0.0011813745433724,0.0011813743356937,-0.0011813743611445,0.0011813746911297,-0.0011813746293825,0.001181374380407,-0.0011813743472733,0.0011813745760127,-0.0011294015126406,0.0011294022314027,-0.0011294016098006,0.0011294015266831,-0.0011294018241087,0.0011294021398338,-0.0011294020947753,0.0011294012373341,-0.00065233023708474,0.00065233145553928,0.68077661259193,129794,2964,0.0047065301851898,0.006437816205987,0.0038141046960544,36.579501939067,3.6636015512538e-05,3.6636015512538e-05,3.6636015512538e-05,3659138.7687737,0.015072854148749
35791759,0.91413534841278,0.015249240461672,0.0049373709901118,0.0060344052127145,0.0042774642588453,-0.0011409608902508,0.0011409615217997,3.0922986956328e-10,3.1772256102915e-10,2.855929343319e-10,3.6866385921922e-10,-0.00064759834386557,0.00064760001717775,-0.00082673385722222,0.00082673426582299,-0.00082673361435111,0.00082673461030789,-0.00064759855276326,0.00064759989359982,-0.0006475992478637,0.00064759893913548,-0.0008267336602467,0.0008267345521905,-0.00082673394742711,0.00082673423055478,-0.001379524361245,0.0013795250523281,-0.0013795243419858,0.0013795250843897,-0.0013795244647268,0.0013795250229495,-0.0013795244887142,0.0013795249805415,-0.0012574568764566,0.0012574574033509,-0.0012574568831295,0.0012574573558028,-0.0012574567228255,0.0012574574210886,-0.0012574566892308,0.0012574574567837,-0.0006475991893578,0.00064759903849237,2.6382136990883e-10,1.8308295533845e-10,4.7289912412402e-10,-1.350976328141e-11,-0.0015630062567076,0.0015630066722142,-0.0014623774107731,0.0014623775786578,-0.0016138834168378,0.0016138840144694,-0.0016138833598296,0.0016138839852494,-0.0015115480025711,0.0015115485714491,-0.0015115482028009,0.0015115483676453,-0.0015115480480024,0.0015115485191183,-0.0015115481318426,0.0015115484226452,-0.0014623770586163,0.0014623777907509,-0.0014623775467246,0.0014623773758541,-0.0016138835948177,0.0016138839062749,-0.0016138835488138,0.0016138837982069,-0.0014623769442641,0.0014623779623183,5.7827626685111e-11,-3.4440185434799e-11,-0.00092350907077958,0.00092350909066552,-4.1448666480514e-10,4.226554009429e-10,-0.00065728081343221,0.00065728114485641,-0.00071467685217183,0.00071467791827932,-0.00071467703322124,0.00071467762235802,-0.00065728163982259,0.00065728023959628,-0.00065728117443918,0.00065728103404827,-0.00071467786796493,0.00071467670876371,-0.00071467768777887,0.00071467714227357,-0.0011908540703374,0.0011908538585576,-0.0011908538879244,0.001190854218523,-0.0011908541560439,0.001190853908886,-0.0011908538738565,0.0011908540997769,-0.0011381135414079,0.0011381142664848,-0.0011381136398467,0.0011381135524055,-0.001138113855133,0.0011381141757123,-0.0011381141227907,0.0011381132588667,-0.00065728046313239,0.00065728167660651,0.72027650879653,129794,2964,0.0047449268407978,0.0064900232030539,0.0038435279661906,37.601481304943,4.4811850439546e-05,4.4811850439546e-05,4.4811850439546e-05,3675693.51564,0.015194725662052
35991759,0.92008194483701,0.015348934129192,0.0049691018421962,0.0060763588962416,0.0043034733907544,-0.0011488880804069,0.0011488887149992,3.0822653571444e-10,3.1901371493822e-10,2.8675047935204e-10,3.7786613436074e-10,-0.00065206347715923,0.00065206522360455,-0.00083268154006655,0.00083268196599334,-0.00083268129103113,0.00083268231054945,-0.0006520637494378,0.00065206510366292,-0.00065206443934294,0.00065206413468236,-0.0008326813669926,0.00083268225499475,-0.00083268164656133,0.00083268192876393,-0.0013891757027786,0.0013891763955049,-0.0013891756834271,0.0013891764294299,-0.0013891758078284,0.0013891763653673,-0.0013891758320717,0.0013891763241838,-0.0012666197479552,0.0012666202620472,-0.0012666197622471,0.001266620223973,-0.0012666195777789,0.0012666202836609,-0.0012666195506545,0.0012666203323868,-0.00065206435668426,0.00065206423431813,2.8243847175739e-10,1.8947496084832e-10,4.7788722412334e-10,1.0362415643036e-11,-0.001574474946908,0.0015744753785265,-0.001472362324065,0.0014723625640306,-0.0016253828875595,0.0016253835206528,-0.0016253828392315,0.0016253834673268,-0.0015230259917822,0.0015230265578658,-0.0015230261875947,0.0015230263581978,-0.0015230260398159,0.0015230265069818,-0.0015230261173955,0.0015230264143542,-0.001472362015659,0.0014723627960096,-0.0014723624618881,0.0014723623348698,-0.0016253830740021,0.0016253834245016,-0.001625383028996,0.0016253832924119,-0.0014723619565266,0.0014723629459892,5.5846038015402e-11,-3.5347412249055e-11,-0.00092936328273555,0.00092936330339881,-4.112932903348e-10,4.3085772620159e-10,-0.00066123532480526,0.00066123561828821,-0.00071933831831345,0.00071933943679034,-0.00071933851405197,0.00071933911449791,-0.00066123622310903,0.00066123479486718,-0.00066123569870123,0.00066123558822838,-0.00071933938072698,0.00071933822885234,-0.0007193391677159,0.00071933867078711,-0.0011990205030363,0.0011990202872822,-0.0011990203209439,0.0011990206528117,-0.0011990205900668,0.0011990203393678,-0.001199020304791,0.0011990205326068,-0.0011458022388669,0.0011458029755079,-0.0011458023326986,0.0011458022244823,-0.0011458025640203,0.0011458028833314,-0.0011458028286051,0.0011458019360906,-0.00066123497754793,0.00066123623668387,0.76500083980876,129794,2964,0.004777840024011,0.0065374567706537,0.0038678815060962,37.990593699103,4.7924749592827e-05,4.7924749592827e-05,4.7924749592827e-05,3676222.0096843,0.015301050275083
36191759,0.92563043638056,0.015439325284013,0.0049979312279093,0.0061144069281052,0.0043269871279982,-0.0011552948308714,0.0011552954644578,3.0903706348278e-10,3.1840342717033e-10,2.901142058278e-10,3.7149123369781e-10,-0.00065471783661782,0.00065471956539667,-0.00083690755006259,0.00083690795869217,-0.00083690729760311,0.00083690830493298,-0.00065471808408309,0.00065471944930209,-0.00065471878905537,0.00065471847416417,-0.0008369073585498,0.00083690825930409,-0.00083690764091528,0.00083690793072507,-0.0013973895787969,0.001397390273867,-0.0013973895614057,0.0013973903062296,-0.0013973896862231,0.0013973902402598,-0.0013973897101888,0.0013973902003027,-0.0012741986376151,0.0012741991508692,-0.0012741986594781,0.0012741991012287,-0.0012741984642117,0.001274199174842,-0.0012741984283675,0.0012741992318922,-0.00065471871239021,0.00065471856981784,2.7868427503375e-10,1.9247188363262e-10,4.7747040967291e-10,8.2965060161862e-12,-0.0015844422492775,0.0015844426816636,-0.0014809015502917,0.0014809017946332,-0.0016355632838358,0.0016355638988933,-0.0016355632228484,0.0016355638643391,-0.0015329054236559,0.001532905989054,-0.0015329056179051,0.0015329057912586,-0.0015329054663466,0.0015329059413682,-0.001532905545858,0.0015329058498717,-0.0014809012392713,0.0014809020105941,-0.0014809017096696,0.0014809015623368,-0.0016355634549036,0.001635563800013,-0.0016355634152928,0.0016355636794521,-0.0014809011632382,0.0014809021609118,5.6462375377895e-11,-3.7786086102184e-11,-0.00093386443196858,0.0009338644498926,-4.0738846438375e-10,4.2065207604981e-10,-0.00066353738126571,0.00066353767117288,-0.00072247568696435,0.00072247677566712,-0.00072247587827448,0.00072247645800756,-0.00066353824907934,0.00066353683314832,-0.00066353773579905,0.00066353763302302,-0.00072247672746926,0.00072247557887783,-0.00072247651687065,0.0007224760163213,-0.0012058748941339,0.0012058746799339,-0.001205874716707,0.0012058750445445,-0.0012058749810323,0.0012058747342221,-0.0012058747025015,0.0012058749195227,-0.0011520673537718,0.0011520680983111,-0.0011520674466759,0.001152067322172,-0.0011520676771659,0.0011520680183984,-0.0011520679481165,0.0011520670437078,-0.00066353703233645,0.0006635382639597,0.74361145612484,129794,2964,0.0048044507121895,0.00657867527711,0.0038866194309904,37.973934745232,4.7791477961856e-05,4.7791477961856e-05,4.7791477961856e-05,3665865.2711666,0.015388977237341
36391759,0.93057368471676,0.015518855298605,0.0050233255398779,0.0061478553411045,0.0043476744176229,-0.0011593443123905,0.0011593449343179,2.9848205928386e-10,3.1621355001075e-10,3.1554558382843e-10,3.4032596683415e-10,-0.00065562245318706,0.00065562410020423,-0.00083903597819958,0.00083903634048758,-0.00083903573039629,0.00083903666228171,-0.00065562268244594,0.00065562404248545,-0.00065562333397527,0.00065562312125879,-0.00083903575957192,0.0008390366888468,-0.0008390360104019,0.00083903637427489,-0.0014029817092755,0.0014029824004846,-0.0014029816795965,0.001402982451185,-0.0014029818334702,0.0014029823576061,-0.0014029818687648,0.0014029823094211,-0.0012791735304534,0.0012791740123313,-0.0012791735771033,0.0012791739514661,-0.0012791733433632,0.0012791740433861,-0.0012791732831221,0.0012791741506989,-0.00065562328709719,0.00065562316201415,2.7874619902437e-10,2.1380498370047e-10,5.1087674175372e-10,-1.5842653140983e-12,-0.0015914432520833,0.0015914436999834,-0.001486673764258,0.0014866740402321,-0.0016426400974712,0.0016426407067047,-0.0016426399916769,0.001642640710596,-0.0015399743356776,0.0015399749011535,-0.001539974535858,0.0015399746975152,-0.0015399743562303,0.001539974872943,-0.0015399744608176,0.0015399747627228,-0.0014866734456894,0.0014866743240435,-0.0014866739789006,0.0014866737665499,-0.0016426402581421,0.0016426406078888,-0.001642640224016,0.0016426404835811,-0.0014866734103,0.001486674430007,4.5668952194124e-11,-4.1808292461834e-11,-0.00093633976617457,0.00093633977068411,-3.727620724389e-10,3.807103032146e-10,-0.00066415107404824,0.0006641513372339,-0.00072375647938228,0.00072375748858897,-0.00072375665554317,0.00072375717410293,-0.00066415192161543,0.00066415063130486,-0.00066415142598913,0.00066415136085933,-0.00072375745870966,0.00072375640367638,-0.00072375723089914,0.00072375680583226,-0.0012103049171401,0.0012103047004363,-0.0012103047568682,0.0012103050524012,-0.0012103049926617,0.0012103047647775,-0.0012103047476118,0.0012103049200792,-0.0011559108174748,0.0011559115219156,-0.0011559108915093,0.001155910720622,-0.0011559111347074,0.0011559114654715,-0.0011559113782042,0.0011559104917833,-0.0006641507995079,0.00066415190245389,0.73413663512988,129794,2964,0.0048212797311144,0.0066076202016341,0.0038969377135991,37.087117683365,4.069694146692e-05,4.069694146692e-05,4.069694146692e-05,3650210.5921416,0.01544595952153
36591759,0.93504491443182,0.015586579896245,0.005045058281233,0.0061762691716729,0.0043652524433391,-0.0011630855284109,0.0011630861470595,3.0255932425562e-10,3.1279744072349e-10,3.1115210228156e-10,3.3200882385833e-10,-0.00065644390683768,0.00065644556717382,-0.00084089620359386,0.00084089651954344,-0.00084089593832006,0.0008408968686292,-0.00065644407376554,0.00065644550806888,-0.00065644483046108,0.00065644450272701,-0.00084089592850213,0.0008408968873761,-0.00084089622055252,0.00084089654757934,-0.0014081609015826,0.0014081615986033,-0.0014081608811108,0.0014081616440771,-0.001408161033077,0.0014081615533998,-0.0014081610640594,0.0014081615075257,-0.0012836013278695,0.0012836018036899,-0.0012836013649025,0.0012836017458039,-0.0012836011322358,0.0012836018516523,-0.0012836010886821,0.0012836019367184,-0.00065644478120483,0.00065644455324525,2.6195271217151e-10,2.1768041835271e-10,4.8124747124951e-10,1.2590879631167e-11,-0.0015977307279233,0.0015977311710389,-0.0014918097811404,0.0014918100470119,-0.001648956522663,0.0016489570783169,-0.0016489564158649,0.0016489571119789,-0.0015464131269684,0.00154641368273,-0.0015464133157239,0.001546413495174,-0.0015464131444427,0.0015464136520673,-0.0015464132313908,0.0015464135695419,-0.0014918094643801,0.001491810246882,-0.0014918099780194,0.0014918098006428,-0.0016489566678825,0.0016489569801938,-0.001648956607781,0.0016489569086847,-0.001491809363732,0.0014918103734733,5.8426988996327e-11,-3.8627492750729e-11,-0.00093868812983285,0.00093868814516982,-3.9349861231213e-10,4.0204942119925e-10,-0.00066469383856511,0.00066469414566127,-0.00072486950000986,0.00072487052984693,-0.00072486967833089,0.00072487022009741,-0.00066469467228413,0.00066469328350808,-0.00066469415854445,0.0006646941157942,-0.00072487049551991,0.00072486935891442,-0.00072487028293638,0.00072486979772209,-0.0012144458769109,0.0012144456655035,-0.0012144457079913,0.0012144460258537,-0.0012144459589914,0.0012144457229837,-0.0012144456985716,0.001214445897103,-0.0011593478353598,0.0011593486093031,-0.0011593479260302,0.0011593477582644,-0.0011593481634133,0.0011593485595663,-0.0011593484390215,0.0011593475131657,-0.00066469349665974,0.00066469467896378,0.69114877706122,129794,2964,0.0048368258463951,0.0066336151580257,0.003906723753263,36.438363051551,3.5506904412409e-05,3.5506904412409e-05,3.5506904412409e-05,3640408.5747089,0.015498104513859
36791759,0.9392291098619,0.015648160247206,0.0050648674762679,0.0062020558080176,0.0043812369629208,-0.0011676568573305,0.0011676574844776,3.0477025606612e-10,3.1844712959996e-10,2.8495039943148e-10,3.6886775507858e-10,-0.00065862463211691,0.00065862638273953,-0.00084384667596639,0.00084384707055628,-0.00084384642046688,0.00084384742155466,-0.0006586248986699,0.00065862624725616,-0.00065862561622629,0.00065862526931517,-0.0008438464791977,0.00084384737890265,-0.00084384676705633,0.00084384704825098,-0.0014139879586902,0.0014139886476821,-0.0014139879343981,0.0014139886919228,-0.0014139880706848,0.0014139886174331,-0.001413988102338,0.0014139885708668,-0.0012886638595115,0.0012886643620536,-0.0012886638697612,0.0012886643419464,-0.001288663701463,0.0012886644039647,-0.0012886636718079,0.0012886644448363,-0.00065862551532972,0.00065862537301715,3.0525803145903e-10,1.8607439425167e-10,4.9715226950487e-10,4.0346536071533e-12,-0.0016044169598485,0.0016044174036934,-0.0014974216315243,0.001497421909633,-0.0016554642630918,0.0016554648899983,-0.0016554642017295,0.0016554648632049,-0.0015533949438054,0.0015533955183493,-0.0015533951350426,0.0015533953188503,-0.0015533949793091,0.001553395473732,-0.0015533950714094,0.0015533953729922,-0.0014974213272514,0.001497422141115,-0.0014974218477528,0.0014974216374581,-0.0016554644091595,0.0016554647887362,-0.0016554644094852,0.001655464646168,-0.0014974212471562,0.0014974222782238,5.8970235036563e-11,-3.7109564622392e-11,-0.00094192772369827,0.00094192774100555,-3.9997236641288e-10,4.1502663842696e-10,-0.00066642564283031,0.00066642595195982,-0.00072698765201689,0.00072698872290961,-0.00072698783531883,0.00072698840595008,-0.00066642650225304,0.00066642511244439,-0.00066642600159734,0.00066642591103698,-0.00072698867754645,0.00072698753975513,-0.00072698846921513,0.00072698797838627,-0.0012192757281224,0.0012192755065491,-0.0012192755531127,0.0012192758820579,-0.0012192758102588,0.001219275573267,-0.0012192755421983,0.001219275743776,-0.0011634732411928,0.0011634739214422,-0.0011634733250143,0.0011634732089673,-0.0011634735317254,0.0011634738450335,-0.0011634737943476,0.0011634729412048,-0.00066642530932924,0.00066642651505981,0.67162772247952,129794,2964,0.0048558069614418,0.006661262677491,0.0039202027170836,36.394513989417,3.5156111915334e-05,3.5156111915334e-05,3.5156111915334e-05,3645747.9732408,0.01555916500963
36991759,0.94320822880027,0.01571017469284,0.0050847223265597,0.0062280424370511,0.0043974099292288,-0.0011728050036831,0.0011728056483192,3.1306229810286e-10,3.2685461069836e-10,2.5647686183734e-10,4.1566592107379e-10,-0.00066180317194154,0.00066180501033921,-0.00084771784171242,0.00084771832539989,-0.00084771758197667,0.0008477186779698,-0.00066180350504138,0.00066180480269851,-0.00066180423195054,0.00066180381846221,-0.00084771771527824,0.0008477185604147,-0.00084771800290005,0.00084771822821014,-0.0014202095422709,0.001420210223749,-0.0014202095176672,0.0014202102672204,-0.0014202096304578,0.0014202102176268,-0.0014202096608737,0.0014202101709801,-0.001294359905137,0.0012943604465758,-0.0012943598968817,0.0012943604385136,-0.0012943597715502,0.0012943604678517,-0.0012943597573843,0.0012943604947705,-0.00066180405583144,0.00066180399869765,3.4589169842251e-10,1.4154210264033e-10,5.0716317117869e-10,-1.1647625195104e-11,-0.0016115493542931,0.0016115497925914,-0.0015035670959706,0.0015035673760945,-0.001662341311645,0.0016623420128716,-0.0016623413221185,0.0016623419127753,-0.0015607883549322,0.0015607889575349,-0.0015607885560628,0.0015607887515793,-0.0015607884152285,0.0015607888875127,-0.0015607885151144,0.0015607887795329,-0.001503566784386,0.0015035675917818,-0.0015035673466987,0.0015035670687585,-0.0016623414692251,0.0016623419089882,-0.0016623415423994,0.0016623416891839,-0.0015035666772513,0.0015035677544544,5.9520128899448e-11,-3.6793016675067e-11,-0.00094574905627517,0.00094574907651376,-4.1214892606337e-10,4.2716171599498e-10,-0.00066908319322985,0.00066908352886994,-0.00072996162321598,0.00072996271727942,-0.00072996180547209,0.00072996239896727,-0.00066908406912815,0.00066908265693045,-0.00066908357813765,0.00066908345877438,-0.00072996266991459,0.00072996150620537,-0.00072996246347066,0.0007299619464473,-0.0012245280529997,0.0012245278281645,-0.0012245278702461,0.00122452821413,-0.0012245281360823,0.0012245278964207,-0.0012245278602661,0.0012245280731743,-0.0011682308017086,0.0011682314661669,-0.0011682308829064,0.0011682308230577,-0.0011682310920902,0.0011682313695704,-0.0011682313568792,0.001168230531312,-0.00066908286213394,0.00066908408970136,0.71099831254058,129794,2964,0.0048771761993744,0.0066907563860007,0.0039360936135348,36.657488055343,3.7259904442746e-05,3.7259904442746e-05,3.7259904442746e-05,3655719.4029136,0.015626975540523
37191759,0.94709111763352,0.015774358625666,0.0051051717860117,0.0062549937688479,0.0044141930708069,-0.001178906215306,0.0011789068781638,3.1816230271299e-10,3.4009567407531e-10,2.2635200392518e-10,4.622847421361e-10,-0.00066577696103315,0.00066577888160765,-0.00085257292300523,0.00085257349904855,-0.00085257267001584,0.00085257385605445,-0.00066577737281908,0.00066577858395251,-0.00066577807297618,0.00066577762096138,-0.00085257287125293,0.00085257365242037,-0.00085257315902982,0.00085257332916169,-0.0014274354709913,0.0014274361434808,-0.0014274354417759,0.0014274361874945,-0.0014274355318688,0.0014274361613128,-0.0014274355580626,0.0014274361159811,-0.0013012579030823,0.0013012584886205,-0.0013012578894313,0.0013012584749519,-0.0013012578014728,0.0013012584737573,-0.0013012577642609,0.0013012585072916,-0.00066577784336926,0.00066577786676783,3.7957268407976e-10,1.0170223919324e-10,5.1023432905546e-10,-2.4036016394507e-11,-0.0016199687183205,0.001619969150688,-0.0015109640802755,0.0015109643529333,-0.0016707186949499,0.0016707194513807,-0.0016707187634749,0.001670719294554,-0.0015692484029107,0.001569249029958,-0.0015692486068119,0.0015692488208904,-0.0015692484869578,0.0015692489375258,-0.0015692485904216,0.001569248820771,-0.0015109637540916,0.0015109645484862,-0.0015109643444506,0.0015109640201621,-0.0016707188521786,0.0016707193590289,-0.0016707189980049,0.0016707190593787,-0.0015109636311727,0.0015109647325037,5.9616927126152e-11,-3.0338132132065e-11,-0.0009504239972964,0.00095042402335,-4.3244714744274e-10,4.4870604378414e-10,-0.00067251374565235,0.00067251413092489,-0.00073391303318123,0.00073391416283148,-0.00073391321277001,0.00073391384997519,-0.00067251462831835,0.00067251320290794,-0.00067251418567276,0.00067251398799821,-0.00073391410121828,0.00073391290061781,-0.00073391392174043,0.0007339133457358,-0.0012307782234472,0.001230777988218,-0.001230778026335,0.0012307783907622,-0.0012307783043664,0.0012307780631381,-0.0012307780152136,0.0012307782484014,-0.0011741534338497,0.0011741541302011,-0.0011741535193764,0.0011741534792035,-0.0011741537447712,0.0011741540139525,-0.0011741540001476,0.0011741531724513,-0.0006725134164762,0.000672514677878,0.75399799040405,129794,2964,0.0049025016241077,0.0067255717641561,0.0039555342624358,37.43485887571,4.3478871005677e-05,4.3478871005677e-05,4.3478871005677e-05,3661030.3811361,0.015707823291816
37391759,0.95080217825345,0.015833074230362,0.0051239407562497,0.006279650331913,0.0044294831421997,-0.0011839076901247,0.0011839083587874,3.184300541216e-10,3.4438410459612e-10,2.2634878931751e-10,4.7462947271894e-10,-0.0006681622729153,0.00066816421736878,-0.00085601084569453,0.00085601145290886,-0.00085601058973107,0.00085601179548341,-0.00066816272211922,0.00066816392017954,-0.0006681634117996,0.00066816297532402,-0.00085601082349662,0.00085601159394461,-0.00085601109295209,0.00085601127306863,-0.0014337278677474,0.0014337285349596,-0.0014337278372922,0.0014337285865001,-0.0014337279235264,0.0014337285611151,-0.001433727952912,0.0014337285171794,-0.0013070689882349,0.0013070695770806,-0.0013070689928261,0.0013070695631376,-0.0013070688879696,0.0013070695576996,-0.0013070688473102,0.0013070696269597,-0.00066816313474397,0.00066816323417024,4.093557750503e-10,8.4165039602578e-11,5.4044261906955e-10,-3.8325057464184e-11,-0.0016274644445489,0.0016274648836712,-0.0015174080779603,0.0015174083828904,-0.0016783950354375,0.0016783958548991,-0.0016783951376854,0.0016783956580988,-0.0015766790952231,0.0015766797405212,-0.0015766793105667,0.0015766795208968,-0.0015766791829617,0.0015766796411051,-0.0015766793091118,0.0015766795080492,-0.0015174077594384,0.0015174086269156,-0.0015174083977366,0.0015174079966604,-0.0016783951980051,0.001678395752688,-0.0016783954008435,0.0016783953922773,-0.001517407650373,0.0015174087975663,5.6619875239177e-11,-3.0781113452231e-11,-0.00095408326438034,0.00095408328907453,-4.1329438179842e-10,4.3781704252021e-10,-0.00067449475843864,0.00067449514010415,-0.0007366132844804,0.00073661439992724,-0.00073661345698961,0.0007366140808842,-0.00067449567341191,0.00067449429508797,-0.00067449520595173,0.00067449505534375,-0.00073661434553182,0.0007366131929297,-0.00073661413800523,0.00073661362066606,-0.0012361638648979,0.0012361636291682,-0.0012361636741742,0.0012361640289143,-0.0012361639395499,0.0012361637084264,-0.0012361636663885,0.0012361638832517,-0.0011790494844934,0.0011790501690134,-0.0011790495578662,0.0011790494977816,-0.0011790497978107,0.0011790500630085,-0.001179050041251,0.0011790492182564,-0.00067449447294719,0.00067449569615169,0.72209868139128,129794,2964,0.0049232714265141,0.0067565637442518,0.0039707629087856,37.88167700193,4.7053416015442e-05,4.7053416015442e-05,4.7053416015442e-05,3655698.5798064,0.015775892848376
37591759,0.95426954195655,0.015885752769124,0.005140837456542,0.0063017450944798,0.0044431702181022,-0.0011878468375966,0.0011878475006724,3.1855320947694e-10,3.390999637877e-10,2.3419253660817e-10,4.5867761824302e-10,-0.00066989530891342,0.0006698972336761,-0.00085852951850565,0.00085853008830728,-0.00085852926011892,0.00085853043909545,-0.00066989572253161,0.00066989695653828,-0.00066989643246196,0.00066989598695285,-0.00085852946232647,0.00085853025773872,-0.00085852974325116,0.00085852993049056,-0.0014388108850027,0.0014388115601862,-0.0014388108596446,0.0014388116036838,-0.0014388109495179,0.0014388115739899,-0.0014388109755771,0.001438811531839,-0.0013115931058923,0.0013115936811116,-0.0013115930835478,0.0013115936913633,-0.0013115930019947,0.0013115936856559,-0.0013115929886859,0.0013115937092767,-0.00066989618967936,0.00066989622672154,3.8805211409781e-10,1.0647739222185e-10,5.2340009735763e-10,-2.1316957866129e-11,-0.0016334641906152,0.0016334646321298,-0.0015224520565697,0.0015224523614943,-0.001684383967604,0.0016843847427953,-0.0016843840374515,0.0016843845794785,-0.0015827926122113,0.0015827932413883,-0.0015827928187349,0.0015827930304328,-0.001582792691755,0.0015827931511747,-0.0015827928010463,0.0015827930335234,-0.0015224517440982,0.0015224525811762,-0.0015224523457083,0.001522452006835,-0.0016843841269762,0.0016843846436617,-0.001684384277771,0.0016843843389428,-0.0015224516366028,0.0015224527505566,5.9765607234812e-11,-3.4949076094421e-11,-0.00095684278859988,0.00095684281151806,-4.1892755804515e-10,4.3790307001162e-10,-0.00067575948165195,0.00067575984527151,-0.00073845911420792,0.00073846023304493,-0.00073845929463358,0.00073845991173079,-0.00067576038325309,0.00067575896942778,-0.00067575990328047,0.0006757597558595,-0.00073846018091447,0.00073845900592529,-0.00073845997490939,0.00073845944691201,-0.0012404085099405,0.0012404082755465,-0.0012404083216404,0.0012404086792664,-0.0012404085914092,0.0012404083546785,-0.0012404083121815,0.0012404085291044,-0.0011827486168054,0.0011827492525475,-0.0011827486924461,0.0011827486765055,-0.0011827489001696,0.0011827491386571,-0.0011827491593517,0.0011827483709689,-0.00067575916614726,0.00067576040663571,0.69345800510516,129794,2964,0.0049396305313762,0.0067813678590646,0.0039822492507378,37.934390925998,4.7475127407988e-05,4.7475127407988e-05,4.7475127407988e-05,3653401.3220281,0.015829394375042
37791759,0.95741969811707,0.015931958506759,0.0051557036774818,0.0063210962454505,0.004455158583827,-0.0011904157244786,0.0011904163743283,3.1011623910294e-10,3.3361307770242e-10,2.5451069707879e-10,4.271507246621e-10,-0.00067063947644472,0.00067064135387633,-0.00085986640381744,0.00085986691331389,-0.00085986614464062,0.00085986726146928,-0.00067063986263151,0.00067064113181625,-0.00067064056295661,0.00067064016664704,-0.00085986630598304,0.00085986713594081,-0.00085986658002432,0.00085986680988248,-0.0014423359186636,0.0014423365972803,-0.0014423358936433,0.0014423366412095,-0.0014423360005133,0.0014423365922739,-0.0014423360252587,0.0014423365527592,-0.0013145287567275,0.0013145292939395,-0.0013145287276277,0.0013145293215733,-0.0013145286348105,0.001314529322469,-0.0013145286320059,0.0013145293444132,-0.00067064036421401,0.00067064035108436,3.7346446156411e-10,1.4060563836081e-10,5.1892205920274e-10,4.1032853009433e-12,-0.0016376383233283,0.0016376387793444,-0.0015258289558122,0.0015258293112553,-0.001688411578992,0.0016884123103254,-0.0016884115937886,0.0016884121971989,-0.001587210716293,0.0015872113239951,-0.0015872109132259,0.0015872111234694,-0.0015872107770663,0.0015872112551897,-0.0015872108786779,0.0015872111454346,-0.0015258286685678,0.0015258295360269,-0.0015258292331058,0.0015258289577991,-0.0016884117318104,0.0016884122250279,-0.0016884118304669,0.001688411966447,-0.0015258286058812,0.0015258296743116,5.5961955753607e-11,-3.7599194223367e-11,-0.00095845661823004,0.00095845663612642,-4.0605420831899e-10,4.2500314208361e-10,-0.00067619476906137,0.00067619510582383,-0.00073924420049371,0.00073924530562305,-0.00073924438248387,0.00073924497632947,-0.00067619567332403,0.00067619429118702,-0.00067619518648718,0.00067619505988581,-0.00073924525629738,0.00073924411275987,-0.00073924504039356,0.00073924455247896,-0.0012432025575643,0.0012432023222001,-0.0012432023779646,0.0012432027238669,-0.001243202637773,0.0012432024064539,-0.0012432023686014,0.0012432025691189,-0.001185008599045,0.0011850091975123,-0.0011850086697647,0.0011850086541027,-0.0011850088693411,0.001185009085419,-0.0011850091218926,0.0011850083543531,-0.00067619447294881,0.00067619568109417,0.66962302604407,129794,2964,0.0049503013951919,0.0067986217936922,0.0039889719355588,37.460686897112,4.3685495176897e-05,4.3685495176897e-05,4.3685495176897e-05,3651338.6407954,0.015864605604462
37991759,0.96020196404896,0.015974011416456,0.0051691998692209,0.0063387041541489,0.0044661073930866,-0.0011916425545624,0.0011916431867382,2.9469863062971e-10,3.3038618839932e-10,2.7065668385939e-10,3.9250048543842e-10,-0.000670540916877,0.00067054271425374,-0.0008601924508339,0.0008601929121849,-0.00086019222604624,0.00086019325898847,-0.00067054128516121,0.00067054253358314,-0.00067054192441569,0.00067054161560863,-0.00086019233324242,0.00086019316606729,-0.00086019259843473,0.00086019287005887,-0.0014442639325214,0.0014442646033129,-0.0014442639017398,0.0014442646579871,-0.0014442640282229,0.0014442645850753,-0.0014442640507516,0.001444264549246,-0.0013160168693328,0.0013160173699972,-0.0013160168441584,0.0013160174076776,-0.0013160167352297,0.0013160173984783,-0.0013160167260897,0.0013160174370003,-0.00067054177666482,0.00067054173044091,3.6517147143868e-10,1.8062841570714e-10,5.1723740096201e-10,4.1873576109927e-11,-0.0016400713713001,0.0016400718513457,-0.0015276637403159,0.0015276641537985,-0.0016905992636258,0.0016905999507431,-0.0016905992100263,0.0016905999028502,-0.0015899311198568,0.0015899317006273,-0.0015899313027114,0.0015899315219501,-0.0015899311548365,0.0015899316585726,-0.0015899312569863,0.0015899315524355,-0.0015276634396405,0.0015276643929568,-0.0015276639462465,0.0015276637898663,-0.0016905994155902,0.0016905999289139,-0.0016905994619675,0.00169059967284,-0.0015276634871328,0.0015276644714255,4.780493355533e-11,-3.5179248503989e-11,-0.00095894382199736,0.00095894383519041,-3.8856804610115e-10,4.101252568336e-10,-0.00067594773155654,0.00067594804547819,-0.00073913484236745,0.00073913592560972,-0.00073913502201818,0.00073913559755777,-0.00067594861859972,0.00067594729571917,-0.0006759481888111,0.0006759480465689,-0.00073913585509208,0.00073913476069972,-0.00073913567985537,0.00073913522919266,-0.0012445213968718,0.0012445211534174,-0.001244521221962,0.0012445215518913,-0.0012445214642014,0.0012445212490253,-0.0012445212163859,0.0012445213956896,-0.0011859520719296,0.0011859526420046,-0.0011859521251864,0.0011859520988514,-0.0011859523420944,0.0011859525331501,-0.0011859525573661,0.0011859518055716,-0.00067594749169854,0.00067594864634853,0.68978729214777,129794,2964,0.0049554015409856,0.0068086752760321,0.0039910103476948,36.424733241699,3.5397865933596e-05,3.5397865933596e-05,3.5397865933596e-05,3646103.3139605,0.015882078833432
38191759,0.96273391962599,0.016012635593202,0.0051815829239726,0.0063548696108762,0.0044761830583535,-0.0011934944688619,0.0011934951056552,2.9651156336351e-10,3.3742863108106e-10,2.6095020223868e-10,3.9802965890832e-10,-0.00067103285179675,0.00067103463142589,-0.00086117003576306,0.00086117048904168,-0.00086116979645618,0.00086117084221105,-0.00067103319184604,0.00067103441355545,-0.00067103384003535,0.00067103350960069,-0.00086116989486999,0.00086117072411801,-0.00086117016582841,0.00086117042650558,-0.001446810312528,0.0014468109779166,-0.0014468102814071,0.0014468110282259,-0.0014468103956789,0.0014468109660541,-0.0014468104127609,0.0014468109331264,-0.0013182006564111,0.0013182011793215,-0.0013182006199657,0.0013182012046594,-0.0013182005499207,0.0013182011983323,-0.0013182005095853,0.0013182012403986,-0.00067103371296104,0.00067103363423224,3.5389038483284e-10,1.620610168788e-10,4.9110539434672e-10,2.5592234096691e-11,-0.0016431891066165,0.0016431895668382,-0.0015301920634638,0.0015301924311604,-0.0016936103647806,0.0016936109932884,-0.0016936103075445,0.001693610968462,-0.001593216120425,0.0015932167050511,-0.0015932162935212,0.0015932165332185,-0.001593216157775,0.0015932166545838,-0.0015932162553453,0.0015932165567875,-0.0015301917545875,0.0015301925868536,-0.0015301923180302,0.0015301920934108,-0.0016936104708169,0.0016936109573377,-0.0016936105503044,0.0016936107310328,-0.0015301917042933,0.0015301926988988,4.6797921590913e-11,-3.2922093282061e-11,-0.00096006920770578,0.00096006921756529,-3.9927358040737e-10,3.9769769965514e-10,-0.00067631306334383,0.00067631338905018,-0.00073971311164092,0.00073971412543497,-0.00073971327827363,0.00073971382709882,-0.00067631384816122,0.00067631255300155,-0.00067631347603785,0.00067631327563951,-0.00073971407453735,0.00073971295202072,-0.00073971392613006,0.00073971338712784,-0.0012465056129217,0.0012465053713149,-0.0012465054395761,0.0012465057694958,-0.0012465056805087,0.0012465054703876,-0.001246505433338,0.0012465056108212,-0.0011876166964382,0.0011876172785056,-0.0011876167676339,0.0011876167450261,-0.0011876169630057,0.0011876171678074,-0.0011876171871914,0.0011876164614118,-0.00067631277995704,0.00067631389204243,0.69608026132437,129794,2964,0.00496309477497,0.0068215615336874,0.00399569975011,35.89220776491,3.1137662119279e-05,3.1137662119279e-05,3.1137662119279e-05,3641803.7377049,0.015907759564856
38391759,0.96546744514143,0.01605631838981,0.0051955261569018,0.0063731766585184,0.0044876155743893,-0.0012017585917724,0.001201759274632,3.433037963635e-10,3.4569250980171e-10,2.3970303911905e-10,4.5451974164565e-10,-0.00067801272071988,0.00067801447271668,-0.00086859382204814,0.00086859436014953,-0.0008685935883921,0.00086859474890872,-0.0006780128497097,0.00067801414278486,-0.00067801386851307,0.00067801430645488,-0.00086859367942179,0.00086859449698914,-0.00086859409130552,0.0008685942884228,-0.0014559170317168,0.0014559177198234,-0.0014559170377437,0.0014559177300551,-0.0014559170828318,0.0014559177332376,-0.0014559170981734,0.0014559176940235,-0.0013270874825872,0.0013270881286574,-0.0013270874404346,0.0013270881180397,-0.0013270874312435,0.0013270881378741,-0.0013270874802068,0.0013270880398948,-0.00067801347764808,0.00067801338710422,4.110980836475e-10,8.2032170460634e-11,5.2003027397253e-10,-7.0997582467811e-11,-0.0016531855970681,0.001653186018225,-0.0015392457303955,0.0015392457954121,-0.001703545635864,0.0017035464092563,-0.0017035458174418,0.0017035462269906,-0.0016032369502161,0.0016032376603945,-0.0016032371692208,0.0016032374214761,-0.0016032370833667,0.0016032375174806,-0.0016032372217944,0.0016032373770825,-0.0015392452550758,0.0015392459434422,-0.0015392462424549,0.0015392454985324,-0.001703545801804,0.0017035462863182,-0.0017035458893238,0.0017035459430588,-0.0015392449545454,0.0015392462013898,6.7724477537964e-11,-7.8761992345787e-11,-0.0009670337515169,0.00096703375783826,-4.5098671868186e-10,4.0345302095351e-10,-0.00068215377702025,0.00068215426420144,-0.00074621046650592,0.00074621139639155,-0.00074621062424544,0.00074621116164147,-0.00068215445302293,0.00068215287779985,-0.0006821540561087,0.00068215394824639,-0.00074621137869899,0.00074621006538254,-0.00074621128505835,0.00074621062197234,-0.0012548118042671,0.0012548115780465,-0.0012548116344003,0.001254811976652,-0.0012548119041595,0.0012548116636833,-0.0012548116244399,0.0012548118189616,-0.0011956418675166,0.0011956424467408,-0.0011956419675032,0.0011956419753966,-0.0011956420748345,0.0011956423493249,-0.0011956423982715,0.0011956416118499,-0.0006821533721434,0.00068215452054614,0.72890351125135,129794,2964,0.0049973784187295,0.0068629015586604,0.0040246375961489,38.578429255757,5.2627434046055e-05,5.2627434046055e-05,5.2627434046055e-05,3668971.8170516,0.016014007465805
38591759,0.96815796094029,0.01609999558073,0.0052094514653644,0.0063915316383264,0.0044990124770387,-0.0012069997523622,0.001207000447671,3.2235226724186e-10,3.6370446207834e-10,1.8875822015418e-10,5.4453620646915e-10,-0.00068150037433582,0.00068150249125735,-0.00087277387139007,0.000872774622953,-0.00087277363228729,0.00087277497497513,-0.0006815009861515,0.00068150206457979,-0.00068150165081081,0.00068150142049191,-0.00087277398225576,0.00087277464975189,-0.00087277425805261,0.00087277438158388,-0.0014621108833141,0.0014621115359721,-0.0014621108576014,0.0014621115795732,-0.0014621108977142,0.0014621115880982,-0.0014621109130265,0.0014621115589394,-0.0013330017817092,0.0013330024144492,-0.0013330017253812,0.0013330024853747,-0.00133300174181,0.0013330023797731,-0.0013330017483051,0.0013330023796408,-0.00068150125295453,0.00068150148375038,4.5814647529261e-10,8.1691257590362e-11,5.4458267899797e-10,-8.1432312363093e-12,-0.0016603362129178,0.0016603366725975,-0.0015455425916628,0.0015455429558643,-0.0017107987469658,0.0017107996297383,-0.001710798887919,0.0017107993813921,-0.0016103292287362,0.001610329887228,-0.0016103294277888,0.0016103296725452,-0.0016103293383998,0.0016103297778775,-0.0016103294607878,0.001610329639181,-0.001545542294108,0.0015455432196625,-0.0015455429572405,0.0015455425346138,-0.0017107989250909,0.0017107995600042,-0.0017107991130362,0.0017107991306629,-0.0015455422649199,0.0015455433754418,6.028929709674e-11,-2.5215499301452e-11,-0.00097115014042631,0.00097115018130032,-4.6280530881219e-10,5.1036736888135e-10,-0.00068491677064472,0.00068491726351767,-0.00074971614895877,0.00074971743811046,-0.00074971633667898,0.00074971709717833,-0.00068491782871627,0.00068491632626092,-0.00068491734806039,0.00068491710377478,-0.00074971734480153,0.00074971608040922,-0.00074971714604041,0.0007497165752635,-0.0012603005121979,0.0012603002420364,-0.0012603002884876,0.0012603007051297,-0.0012603005895919,0.001260300349173,-0.0012603002745376,0.0012603005435251,-0.0012007928823801,0.0012007934951418,-0.0012007929579116,0.00120079303508,-0.0012007931842195,0.0012007933040889,-0.0012007934121243,0.0012007926905476,-0.00068491647756874,0.00068491786758086,0.74097076154803,129794,2964,0.0050191323482014,0.0068924654493788,0.0040417556683805,39.723604691507,6.1788837532058e-05,6.1788837532058e-05,6.1788837532058e-05,3672813.0566049,0.016083561262185
38791759,0.97064632818275,0.016140493635396,0.0052223632033246,0.0064085600639988,0.0045095703680726,-0.0012098532918297,0.0012098539724385,3.2251734866932e-10,3.5323375336307e-10,2.2071208807368e-10,4.9118170600075e-10,-0.00068259596179073,0.00068259794933666,-0.00087458104041401,0.00087458167434371,-0.00087458079059237,0.00087458202991508,-0.00068259642533895,0.00068259760561,-0.00068259715533523,0.00068259698449773,-0.00087458103535121,0.00087458178523357,-0.00087458132883536,0.00087458150786923,-0.0014658575099016,0.0014658581778058,-0.0014658574944627,0.0014658582140781,-0.0014658575513384,0.0014658582031633,-0.0014658575671186,0.0014658581749342,-0.0013364780675973,0.0013364786690511,-0.0013364780047451,0.0013364787393707,-0.0013364780058535,0.0013364786781241,-0.0013364780360463,0.0013364786537331,-0.00068259683692923,0.0006825969331747,4.369446745813e-10,9.1256747310555e-11,5.4744635031625e-10,-2.8674085833346e-11,-0.0016649826843428,0.0016649831400071,-0.0015494819751917,0.0015494822861021,-0.0017155785351685,0.0017155793735858,-0.0017155786517022,0.0017155791695548,-0.0016149054773526,0.0016149061471443,-0.0016149056884631,0.0016149059232929,-0.0016149055783441,0.001614906039177,-0.0016149057078357,0.0016149059018468,-0.0015494816372579,0.0015494825263283,-0.0015494823643615,0.0015494818960999,-0.0017155786984017,0.0017155792729287,-0.0017155788713417,0.0017155789057711,-0.0015494815402534,0.001549482697683,6.1508458947771e-11,-3.8632207165531e-11,-0.00097307910503319,0.00097307913421749,-4.4078164149511e-10,4.6372350193252e-10,-0.00068555763424095,0.00068555807606815,-0.00075104085765845,0.0007510420206126,-0.00075104103449905,0.00075104170219616,-0.00068555857509408,0.00068555710584627,-0.00068555811394819,0.00068555792182059,-0.00075104195585225,0.00075104072456182,-0.00075104176461784,0.00075104120151692,-0.0012634401381433,0.0012634398869213,-0.0012634399392652,0.0012634403259585,-0.0012634402194643,0.0012634399877343,-0.0012634399301544,0.0012634401592088,-0.0012036223986859,0.0012036229574009,-0.0012036224698133,0.0012036225422069,-0.0012036226548407,0.0012036228002438,-0.0012036229104676,0.0012036222070849,-0.00068555733404209,0.00068555860902692,0.74288655348768,129794,2964,0.0050309868519131,0.0069116699746144,0.0040497913009422,39.754651995581,6.203721596465e-05,6.203721596465e-05,6.203721596465e-05,3662954.0249581,0.016123303041833
38880000,0.97170536597122,0.016157755408377,0.0052278658964363,0.0064158157987055,0.0045140737132353,-0.0012110181933178,0.0012110188661819,3.1915687344718e-10,3.4923526745525e-10,2.3506161811715e-10,4.6889981469723e-10,-0.00068303542987286,0.00068303737844341,-0.00087528645986706,0.00087528704751802,-0.00087528620859107,0.00087528740370959,-0.00068303586053497,0.00068303707096267,-0.00068303659212342,0.00068303645030485,-0.0008752864165775,0.00087528719692613,-0.00087528671165402,0.00087528691822279,-0.0014674250558573,0.0014674257285699,-0.0014674250422506,0.0014674257626222,-0.0014674251086187,0.0014674257408554,-0.0014674251231248,0.0014674257141254,-0.0013379426095642,0.0013379431912682,-0.0013379425398755,0.0013379432680837,-0.0013379425380794,0.0013379432161257,-0.0013379425748707,0.0013379431825822,-0.00068303630890865,0.00068303636039418,4.2428622075896e-10,1.1030935831968e-10,5.4456240074981e-10,-1.9416970465506e-11,-0.0016669576587178,0.0016669581200017,-0.0015510990883447,0.0015510994117021,-0.0017175893637022,0.0017175901692474,-0.0017175894481755,0.0017175899990679,-0.0016168701033396,0.0016168707617192,-0.0016168703099102,0.0016168705435994,-0.0016168701923455,0.0016168706653827,-0.001616870317697,0.0016168705336646,-0.0015510987547333,0.0015510996483083,-0.0015510994748571,0.0015510990282413,-0.0017175895217829,0.0017175900734012,-0.0017175896631899,0.0017175897401535,-0.0015510986659981,0.0015510998086053,6.0101643546339e-11,-4.1910705891998e-11,-0.0009738194713904,0.00097381949524214,-4.3360765592383e-10,4.5024278071977e-10,-0.00068564435021108,0.00068564476817949,-0.00075154459870829,0.00075154573582289,-0.00075154477547787,0.00075154541596275,-0.0006856452739369,0.00068564381870309,-0.00068564480871261,0.00068564463853579,-0.00075154567840073,0.00075154445918661,-0.00075154548577778,0.00075154493787724,-0.0012647451235434,0.0012647448731929,-0.0012647449320217,0.0012647453085779,-0.0012647452054149,0.0012647449758859,-0.0012647449229835,0.0012647451385634,-0.0012047682790711,0.0012047688148074,-0.0012047683497735,0.0012047684195546,-0.0012047685224605,0.0012047686646454,-0.0012047687805865,0.0012047680864531,-0.00068564404951943,0.00068564530028754,0.74370269961714,129794,2964,0.0050358280523277,0.0069198308324413,0.0040528779419138,39.755874652372,6.2046997218977e-05,6.2046997218977e-05,6.2046997218977e-05,3656751.6304683,0.016139659184128
