time,ASR_ext,ASR_strain,ASR_strain_xx,ASR_strain_yy,ASR_strain_zz,disp_x_101,disp_x_102,disp_x_103,disp_x_104,disp_x_105,disp_x_106,disp_x_p10_neg,disp_x_p10_pos,disp_x_p11_neg,disp_x_p11_pos,disp_x_p12_neg,disp_x_p12_pos,disp_x_p13_neg,disp_x_p13_pos,disp_x_p14_neg,disp_x_p14_pos,disp_x_p15_neg,disp_x_p15_pos,disp_x_p16_neg,disp_x_p16_pos,disp_x_p1_neg,disp_x_p1_pos,disp_x_p2_neg,disp_x_p2_pos,disp_x_p3_neg,disp_x_p3_pos,disp_x_p4_neg,disp_x_p4_pos,disp_x_p5_neg,disp_x_p5_pos,disp_x_p6_neg,disp_x_p6_pos,disp_x_p7_neg,disp_x_p7_pos,disp_x_p8_neg,disp_x_p8_pos,disp_x_p9_neg,disp_x_p9_pos,disp_y_101,disp_y_102,disp_y_103,disp_y_104,disp_y_105,disp_y_106,disp_y_p10_neg,disp_y_p10_pos,disp_y_p11_neg,disp_y_p11_pos,disp_y_p12_neg,disp_y_p12_pos,disp_y_p1_neg,disp_y_p1_pos,disp_y_p2_neg,disp_y_p2_pos,disp_y_p3_neg,disp_y_p3_pos,disp_y_p4_neg,disp_y_p4_pos,disp_y_p5_neg,disp_y_p5_pos,disp_y_p6_neg,disp_y_p6_pos,disp_y_p7_neg,disp_y_p7_pos,disp_y_p8_neg,disp_y_p8_pos,disp_y_p9_neg,disp_y_p9_pos,disp_z_101,disp_z_102,disp_z_103,disp_z_104,disp_z_105,disp_z_106,disp_z_p10_neg,disp_z_p10_pos,disp_z_p11_neg,disp_z_p11_pos,disp_z_p12_neg,disp_z_p12_pos,disp_z_p13_neg,disp_z_p13_pos,disp_z_p14_neg,disp_z_p14_pos,disp_z_p15_neg,disp_z_p15_pos,disp_z_p16_neg,disp_z_p16_pos,disp_z_p1_neg,disp_z_p1_pos,disp_z_p2_neg,disp_z_p2_pos,disp_z_p3_neg,disp_z_p3_pos,disp_z_p4_neg,disp_z_p4_pos,disp_z_p5_neg,disp_z_p5_pos,disp_z_p6_neg,disp_z_p6_pos,disp_z_p7_neg,disp_z_p7_pos,disp_z_p8_neg,disp_z_p8_pos,disp_z_p9_neg,disp_z_p9_pos,humidity,ndof,nelem,strain_xx,strain_yy,strain_zz,temp,thermal_strain_xx,thermal_strain_yy,thermal_strain_zz,vonmises,vstrain
14391759,0,0,0,0,0,0,0,0,0,0,0,0,0,0,0,0,0,0,0,0,0,0,0,0,0,0,0,0,0,0,0,0,0,0,0,0,0,0,0,0,0,0,0,0,0,0,0,0,0,0,0,0,0,0,0,0,0,0,0,0,0,0,0,0,0,0,0,0,0,0,0,0,0,0,0,0,0,0,0,0,0,0,0,0,0,0,0,0,0,0,0,0,0,0,0,0,0,0,0,0,0,0,0,0,0,0,0,0,0,0,0,0,0,0,0,0,0,0,0,0,0,0,0
14891759,0.063454048252918,0.001018299796742,0.00033943326558067,0.00033943326558067,0.00033943326558067,-0.00011492010941096,0.000114916683094,-7.0032896360368e-10,-7.0032897764369e-10,-1.3627031350421e-09,-7.5230799947761e-10,-0.00010074970112427,0.00010074511772701,-0.00010546787853143,0.00010546120955867,-0.00010546950340391,0.00010546283443099,-0.00010074850679707,0.00010074278914512,-0.00010075025712677,0.00010074453947468,-0.00010546846378639,0.00010546062129739,-0.00010547008103676,0.00010546223854771,-0.00012228714468528,0.00012228591919192,-0.00012228784514032,0.00012228661964716,-0.00012228694192036,0.00012228612563628,-0.00012228764599182,0.00012228682970779,-0.00011467403455747,0.00011467340317618,-0.00011467460145121,0.00011467397007003,-0.00011467423620154,0.00011467320702439,-0.00011467479505862,0.00011467376588144,-0.00010074793517747,0.00010074335178045,1.8840271216912e-10,-3.9208954948327e-10,1.8810031032227e-10,-3.8365065680093e-10,-0.00012221888152885,0.00012221868523222,-0.00011782884831201,0.00011782829566738,-0.00012120380427886,0.00012120436397244,-0.00012120618284185,0.00012120560806557,-0.00012429007507575,0.00012429028775095,-0.00012429070405518,0.00012429051346255,-0.00012429016989727,0.00012428997193695,-0.00012429079887666,0.00012429019764854,-0.0001178263144168,0.00011782647756072,-0.00011782835752097,0.00011782740897665,-0.00012120372286081,0.00012120389490825,-0.00012120610142421,0.0001212051390017,-0.00011782680520788,0.0001178273642517,-8.8493735901263e-10,-8.8493732241195e-10,-0.00011515838902138,0.00011515345259878,-1.4270318109238e-09,-8.3497262046882e-10,-0.00010655062751028,0.00010654720088847,-0.00011019311140576,0.00011018736004882,-0.00011019171664746,0.00011018596529073,-0.00010655270409199,0.00010654817374864,-0.00010655119276184,0.00010654666241808,-0.00011019367532377,0.00011018678686523,-0.00011019229138907,0.00011018540293035,-0.00012155195307967,0.00012155010927778,-0.00012155174951121,0.00012155030725239,-0.0001215523714831,0.00012155052768126,-0.00012155217312228,0.00012155073086341,-0.00011363625098589,0.00011363511562918,-0.00011363610998235,0.00011363497462564,-0.00011363631098448,0.0001136347868008,-0.00011363644001885,0.00011363491583514,-0.00010655216329468,0.00010654873667282,0.64373504832551,123866,2964,0.00047871171603129,0.00050911364748599,0.00047970031899673,30.45821326425,0.000158865706114,0.000158865706114,0.000158865706114,1381891.7316063,0.0014686092098501
15391759,0.1144895170903,0.0018473933997929,0.0006111595414771,0.0006254318102694,0.00061080204804639,-0.00016942601780627,0.00016942498809649,-3.7037656550751e-10,-3.703813130316e-10,-3.998712327745e-10,-1.1834447965738e-10,-0.00014324210382218,0.00014324145613868,-0.0001513183963995,0.00015131770507003,-0.00015131911556466,0.00015131842422301,-0.00014324154645018,0.0001432403619285,-0.00014324236644475,0.00014324118194546,-0.00015131867166612,0.00015131742543231,-0.00015131938817426,0.00015131814192854,-0.00018427669682672,0.00018427584107307,-0.00018427715519667,0.00018427629945189,-0.00018427660425353,0.00018427593716004,-0.00018427706394778,0.00018427639686301,-0.00017134328944346,0.00017134262264731,-0.0001713439317847,0.00017134326498598,-0.00017134338132495,0.00017134253160475,-0.00017134402121563,0.00017134317149306,-0.00014324127713072,0.00014324062942479,2.6752794161679e-11,-2.4002914018078e-10,7.0170991177788e-11,-2.7875127762968e-10,-0.00018624740827661,0.00018624719932447,-0.00017776147227302,0.00017776101141255,-0.00018465200066488,0.00018465216537341,-0.00018465189764487,0.00018465153902374,-0.00019037796587819,0.00019037796561347,-0.00019037902492455,0.00019037878974139,-0.00019037863110445,0.00019037845205174,-0.00019037969020374,0.0001903792762333,-0.00017776008251397,0.00017776012759188,-0.00017776162446965,0.00017776098531656,-0.00018465226130319,0.00018465219392205,-0.00018465215833849,0.00018465156762829,-0.00017775993042162,0.00017776015379242,-4.962274388102e-10,-4.9623226855512e-10,-0.00016961121953401,0.00016960936932604,-6.239353359864e-10,-2.6609193258951e-10,-0.00015557657527321,0.00015557570522453,-0.00016153473565662,0.00016153309232998,-0.00016153426872825,0.00016153262541212,-0.00015557761631246,0.00015557605800655,-0.00015557692585507,0.00015557536765883,-0.00016153508482767,0.00016153273839901,-0.00016153462281049,0.00016153227639238,-0.00018217258137639,0.00018217130392845,-0.00018217245987615,0.00018217142352609,-0.00018217279070321,0.00018217151324941,-0.00018217267129363,0.00018217163493748,-0.00016910449492506,0.00016910355737715,-0.00016910425221258,0.00016910331465887,-0.00016910437259304,0.00016910319993983,-0.00016910461038928,0.0001691034377419,-0.00015557727707986,0.00015557640692087,0.66498198186136,123866,2964,0.00070569214758919,0.00077572496567764,0.00070645900708194,27.265042666001,0.00013332034132801,0.00013332034132801,0.00013332034132801,1973937.0843967,0.0021902859841909
15891759,0.16060981898085,0.0026799938382209,0.00087837477511304,0.00092398564464788,0.00087763341846002,-0.00022601282535977,0.00022601231198572,-2.2160200121833e-10,-2.2160492735688e-10,-1.1433374984419e-10,1.1786408293611e-11,-0.0001844640034248,0.00018446416351063,-0.00019814219802844,0.00019814249340712,-0.0001981425564195,0.00019814285180346,-0.00018446396037512,0.00018446387535934,-0.00018446412377015,0.00018446403877438,-0.0001981423238019,0.00019814236530132,-0.00019814268189697,0.0001981427234018,-0.00024785629389665,0.00024785561358573,-0.00024785655846232,0.00024785587816295,-0.00024785625221928,0.00024785565730093,-0.00024785651703293,0.0002478559221259,-0.00023405118242909,0.00023405063138251,-0.00023405153024419,0.00023405097920418,-0.00023405122332515,0.00023405059024168,-0.00023405157054427,0.00023405093746756,-0.00018446383786517,0.00018446399793103,-2.3049465472299e-11,-1.4120766888279e-10,2.5983502972739e-11,-1.8855061379237e-10,-0.00025749282410349,0.00025749266176268,-0.00024657686781705,0.00024657653372246,-0.00025738365657569,0.00025738367844874,-0.00025738305290511,0.00025738284364143,-0.00026034212111643,0.0002603420701168,-0.00026034287725168,0.00026034268314694,-0.00026034258008487,0.00026034245213356,-0.00026034333627926,0.00026034306522342,-0.00024657657829582,0.00024657658805998,-0.00024657706512813,0.00024657665367574,-0.00025738392291245,0.00025738380319227,-0.00025738331925977,0.00025738296840325,-0.00024657638107246,0.00024657646819478,-2.848088474672e-10,-2.8481186112697e-10,-0.00022583878011595,0.00022583776128755,-2.8082859511908e-10,-6.1494001073502e-11,-0.00020950198247075,0.00020950189039409,-0.00021551759673407,0.00021551723102831,-0.00021551745415012,0.00021551708844131,-0.00020950240094838,0.00020950188116627,-0.00020950219833885,0.00020950167859712,-0.00021551781322831,0.00021551701240702,-0.00021551767174731,0.00021551687092298,-0.00024379739236625,0.00024379635279556,-0.00024379731850432,0.0002437964267428,-0.00024379747669974,0.00024379643712467,-0.00024379740332537,0.00024379651155925,-0.00022958021687424,0.00022957951520943,-0.00022958010958423,0.00022957940791484,-0.00022958018265,0.00022957933656794,-0.00022958028853164,0.00022957944245424,-0.00020950218861094,0.00020950209649362,0.7444907159995,123866,2964,0.00094128601365495,0.0010723031324604,0.00094055213747727,25.412758541147,0.00011850206832917,0.00011850206832917,0.00011850206832917,2175952.2350325,0.0029585267315223
16391759,0.20549447271816,0.0034954409768755,0.0011313126249543,0.001232925822214,0.0011312025297072,-0.0002805312988863,0.0002805309764769,-1.7871735364576e-10,-1.7872019920589e-10,-3.0484246661013e-11,4.7528934648672e-11,-0.00021538832965299,0.00021538883361404,-0.0002377727299385,0.00023777349726914,-0.00023777294045801,0.00023777370781037,-0.00021538851704612,0.00021538886773976,-0.00021538840526635,0.00021538875599175,-0.0002377728096482,0.00023777341669434,-0.00023777302038746,0.00023777362745534,-0.00031196671118124,0.00031196606551671,-0.00031196688539186,0.00031196623973763,-0.00031196668486999,0.00031196609292279,-0.00031196685915113,0.00031196626721399,-0.00029637672953113,0.00029637620923487,-0.00029637686678751,0.00029637634649613,-0.0002963767548044,0.0002963761838894,-0.00029637689161805,0.00029637632070808,-0.00021538844037133,0.00021538894430073,-3.0325235893683e-11,-1.0254183596785e-10,1.3834895439838e-11,-1.4623959507611e-10,-0.00033305524289007,0.00033305511105048,-0.00031929596205269,0.00031929569562997,-0.0003357450709622,0.00033574506080072,-0.00033574441782886,0.00033574426677782,-0.00033346319442861,0.00033346314182152,-0.00033346373826843,0.00033346357768634,-0.0003334634679552,0.00033346336707828,-0.00033346401185028,0.0003334638029988,-0.00031929599871726,0.00031929600082824,-0.00031929612285,0.00031929581011284,-0.0003357452850342,0.0003357451697485,-0.00033574463191152,0.00033574437573667,-0.00031929583799542,0.0003192958864212,-1.9718542627407e-10,-1.971883463402e-10,-0.00027972777143609,0.00027972710666968,-1.6553935274992e-10,-1.8000816544212e-12,-0.00025836277747913,0.00025836295569212,-0.0002653977586518,0.00026539778933808,-0.00026539772241456,0.00026539775308297,-0.00025836288622694,0.00025836274337275,-0.00025836293890678,0.00025836279608342,-0.00026539792161853,0.00026539762498322,-0.00026539788530322,0.00026539758865017,-0.00030530484011579,0.00030530392304975,-0.00030530478493733,0.00030530397858855,-0.00030530487728255,0.00030530396021152,-0.00030530482233615,0.00030530401598215,-0.0002887602695202,0.0002887597258116,-0.00028876023202788,0.00028875968831411,-0.00028876028647621,0.00028875963506852,-0.00028876032311713,0.00028875967171471,-0.00025836272646228,0.00025836290464434,0.75197985070181,123866,2964,0.0011682268074237,0.0013867522098194,0.0011648603477507,24.448299193925,0.0001107863935514,0.0001107863935514,0.0001107863935514,2518469.5221694,0.0037267911530216
16891759,0.24994979747312,0.0043515002186754,0.0013912092348187,0.0015713099466493,0.0013889810372073,-0.00033778664053568,0.00033778644082478,-1.4784766339949e-10,-1.4785031259797e-10,9.757912953928e-12,5.2790751514072e-11,-0.00024692661510349,0.00024692726505265,-0.0002783390505072,0.00027833997952786,-0.00027833916343697,0.00027834009248896,-0.00024692689506849,0.00024692745764853,-0.00024692665855242,0.00024692722116721,-0.00027833909694842,0.00027833993343117,-0.00027833921041717,0.00027834004693122,-0.00037961218842387,0.00037961158446133,-0.00037961231442079,0.00037961171046708,-0.00037961217309255,0.00037961159997055,-0.00037961229910068,0.0003796117259873,-0.00036293187345723,0.00036293139046243,-0.00036293193417152,0.00036293145118199,-0.00036293188749278,0.00036293137653694,-0.00036293194789625,0.00036293143694584,-0.00024692685117729,0.00024692750109181,-3.3385597048809e-11,-7.2782812008399e-11,7.6282008230761e-12,-1.1423389114917e-10,-0.00041565869856021,0.00041565859275476,-0.00039954271731802,0.00039954250280873,-0.00042109022682858,0.00042109019848054,-0.0004210896792872,0.00042108957429615,-0.00041292759858139,0.000412927548166,-0.00041292802528549,0.00041292789239702,-0.00041292778996167,0.00041292771301945,-0.00041292821671719,0.00041292805730221,-0.00039954292021893,0.00039954292178406,-0.00039954285656367,0.00039954261795258,-0.00042109041130711,0.00042109030336092,-0.0004210898637715,0.00042108967918266,-0.00039954278103949,0.00039954280670674,-1.6667189436708e-10,-1.6667462677809e-10,-0.00033548354440801,0.00033548307183052,-1.0853316546074e-10,1.6095249992567e-11,-0.00030875432504091,0.00030875457896974,-0.0003164420478674,0.00031644228141536,-0.00031644208988345,0.0003164423234047,-0.00030875427284089,0.00030875428057114,-0.00030875444813057,0.00030875445587624,-0.00031644217324245,0.0003164421552982,-0.00031644221435069,0.00031644219637988,-0.0003695443245674,0.00036954349152121,-0.00036954428251436,0.0003695435340889,-0.00036954433021171,0.00036954349716018,-0.00036954428816588,0.00036954353973484,-0.00035175834109314,0.00035175784594629,-0.00035175836131595,0.00035175786616402,-0.0003517584026968,0.00035175782555871,-0.00035175838208971,0.00035175780495683,-0.00030875414982718,0.00030875440374056,0.80138220899585,123866,2964,0.0014065167354483,0.0017303836868469,0.0013968907429921,23.815301105148,0.00010572240884119,0.00010572240884119,0.00010572240884119,2894519.9258009,0.0045441169203662
17391759,0.28993946834304,0.005031107370955,0.0015953090318784,0.0018479311620794,0.0015878671769972,-0.00037971585314728,0.00037971595734146,-8.8417283162692e-11,-8.8419892435921e-11,1.3063681747313e-10,1.0199949311785e-10,-0.00026253396787745,0.00026253496733453,-0.0003024873340872,0.00030248881888276,-0.0003024872880474,0.00030248877287878,-0.0002625343542179,0.00026253540088993,-0.00026253394531853,0.00026253499202793,-0.00030248731171546,0.00030248884256231,-0.00030248726695047,0.00030248879783309,-0.00043322987550862,0.00043322938913576,-0.00043322992148131,0.00043322943511678,-0.00043322988362832,0.00043322938041195,-0.00043322992929886,0.00043322942609059,-0.00041154820597452,0.00041154777865032,-0.00041154818636975,0.00041154775905025,-0.00041154819650248,0.00041154778791819,-0.00041154817731665,0.00041154776873723,-0.00026253437785647,0.00026253537727637,-4.9933486286858e-11,-2.1208139722617e-11,-1.7434904577839e-11,-5.5330757174158e-11,-0.00048171839746656,0.00048171832568876,-0.00046139692979122,0.00046139680771582,-0.0004882422217621,0.00048824213337685,-0.00048824151495226,0.00048824148318124,-0.00047797147802252,0.00047797140910711,-0.00047797177594742,0.00047797168231285,-0.00047797160428295,0.00047797155551037,-0.00047797190225744,0.00047797182876597,-0.00046139736578832,0.00046139734233863,-0.00046139708367543,0.00046139698363597,-0.00048824238158783,0.00048824227012756,-0.00048824167478141,0.00048824161993577,-0.00046139721196636,0.00046139716648106,-8.8388940886065e-11,-8.8391658563153e-11,-0.00037521886159944,0.00037521884254475,2.9323715321251e-11,6.77110099788e-11,-0.00033946191288527,0.00033946242352717,-0.0003494877822447,0.00034948850522016,-0.00034948795053348,0.00034948867347873,-0.00033946165619046,0.00033946208376107,-0.00033946195298202,0.00033946238056302,-0.00034948782489789,0.00034948846294402,-0.00034948799112509,0.00034948862914117,-0.0004193051873629,0.00041930454831873,-0.00041930517455148,0.00041930456203024,-0.00041930515030183,0.00041930451125232,-0.00041930513703488,0.00041930452450807,-0.00039673867913148,0.00039673828149275,-0.00039673873104909,0.00039673833340504,-0.00039673874346657,0.00039673832060708,-0.00039673869225674,0.00039673826940268,-0.00033946161357816,0.00033946212420972,0.7107781577386,123866,2964,0.0015810028394334,0.0020051006105205,0.0015622273168232,22.123328802788,9.2186630422302e-05,9.2186630422302e-05,9.2186630422302e-05,3215747.6516286,0.0051616566766703
17891759,0.32347097579161,0.0055030605434024,0.0017377038571485,0.0020412279321496,0.0017241287541043,-0.00040732586079884,0.00040732620674519,-3.5911782566752e-11,-3.5914446764775e-11,2.2755685636777e-10,1.2057773441828e-10,-0.00027462271103784,0.00027462391484952,-0.00031929769977724,0.0003192995504195,-0.00031929752909376,0.00031929937977381,-0.00027462312819394,0.00027462452874844,-0.00027462261485441,0.00027462401544672,-0.00031929760169015,0.00031929965105534,-0.00031929743277183,0.00031929948217476,-0.00046942851516657,0.00046942815342784,-0.0004694284883392,0.00046942812660842,-0.00046942854876042,0.00046942811820857,-0.00046942852141829,0.00046942809087419,-0.0004410708617471,0.00044107049213835,-0.00044107078583845,0.00044107041623419,-0.00044107082662189,0.00044107052702336,-0.0004410707516146,0.00044107045202074,-0.00027462322659252,0.00027462443036656,-6.5156391605197e-11,3.863496956184e-11,-4.4961432466454e-11,1.5530707260789e-11,-0.00052361937308233,0.00052361934478748,-0.00049733622982067,0.00049733622179221,-0.00052665114156901,0.00052665099120571,-0.0005266503282656,0.00052665038161513,-0.00052361355382886,0.00052361346940452,-0.00052361370396916,0.00052361366132545,-0.00052361360389084,0.00052361359028396,-0.00052361375407949,0.00052361378225347,-0.00049733682657389,0.00049733677542607,-0.00049733638081033,0.00049733644531096,-0.00052665125731297,0.00052665114963983,-0.00052665044401186,0.00052665054005194,-0.00049733667564486,0.00049733655196827,-3.2262808033067e-11,-3.2265602837393e-11,-0.00040103044089775,0.0004010307650396,1.374886819429e-10,7.5709078650186e-11,-0.00035892226358897,0.00035892287974802,-0.00037099456029557,0.00037099555975634,-0.00037099483208327,0.00037099583151238,-0.00035892181963228,0.00035892254547621,-0.00035892220590063,0.00035892293175289,-0.00037099450588044,0.00037099561548211,-0.00037099477460148,0.00037099588417157,-0.00045222002449952,0.00045221957854205,-0.00045222004542277,0.00045221955884511,-0.00045221994940478,0.00045221950344194,-0.00045221996946635,0.00045221948288312,-0.0004246216827819,0.00042462135114661,-0.00042462176359554,0.00042462143195529,-0.00042462174234957,0.00042462145168164,-0.00042462166324688,0.000424621372584,-0.00035892187238391,0.00035892248853463,0.59260256382937,123866,2964,0.0016958821576329,0.0021793025708773,0.0016696156393759,19.639702665631,7.2317621325049e-05,7.2317621325049e-05,7.2317621325049e-05,3626139.3151584,0.0055602685765012
18391759,0.35230180070775,0.0059065542044772,0.0018585698751051,0.0022076771902703,0.0018403071391017,-0.00043135353238089,0.00043135389956825,-2.9064593581911e-11,-2.9067312616493e-11,2.3930069368984e-10,9.6819929761723e-11,-0.00028690152993496,0.00028690268608822,-0.00033585783053603,0.00033585964995289,-0.00033585763815646,0.000335859457613,-0.00028690193098938,0.00028690335370203,-0.00028690139918399,0.00028690282193401,-0.00033585769796914,0.00033585978621024,-0.00033585750726843,0.00033585959554912,-0.0004998466875124,0.00049984636186861,-0.00049984663444174,0.00049984630880564,-0.00049984673240225,0.00049984631464046,-0.00049984667885336,0.00049984626109905,-0.00046706287402836,0.00046706251709891,-0.00046706278227885,0.00046706242535384,-0.00046706282742598,0.0004670625638618,-0.00046706273645729,0.00046706247289771,-0.00028690206389984,0.00028690322001587,-6.5157415838613e-11,7.3077688475309e-11,-6.0249828874159e-11,6.4582120398788e-11,-0.00055891213871536,0.00055891214427239,-0.00052812785034466,0.00052812792760695,-0.00055881113123572,0.00055881096021978,-0.00055881033501791,0.00055881043535775,-0.00056226720392459,0.00056226712101956,-0.00056226724762346,0.00056226724870029,-0.00056226718215097,0.00056226719195995,-0.00056226722589752,0.00056226731968861,-0.00052812848274193,0.00052812841364329,-0.00052812796814537,0.00052812814074243,-0.00055881120449135,0.00055881111879589,-0.00055881040827477,0.00055881059393547,-0.00052812836500063,0.00052812820056752,-3.6776329140742e-11,-3.677917753902e-11,-0.00042375699269628,0.00042375732897791,1.5249228252611e-10,2.6177423608339e-11,-0.00037840251008573,0.00037840302074087,-0.00039131230674504,0.00039131320757545,-0.00039131259335458,0.00039131349415184,-0.00037840198657588,0.00037840273383536,-0.00037840238848675,0.00037840313575227,-0.00039131218912778,0.00039131332680526,-0.00039131247242975,0.00039131361007422,-0.00047995689975253,0.00047995651301681,-0.00047995694209433,0.00047995647184777,-0.00047995681388646,0.00047995642714539,-0.00047995685531332,0.00047995638506119,-0.00044949577247951,0.00044949541920149,-0.00044949587234552,0.00044949551906294,-0.00044949582954932,0.00044949556012542,-0.0004494957315511,0.00044949546213186,-0.00037840210256112,0.00037840261321026,0.59387052420227,123866,2964,0.0017958434687748,0.0023260042083868,0.0017641580467929,17.516039598917,5.5328316791337e-05,5.5328316791337e-05,5.5328316791337e-05,3950503.5296723,0.0059034412518071
18891759,0.38017737313757,0.0063327020025325,0.0019843387892076,0.002386246212183,0.0019621170011419,-0.00045831430256795,0.00045831447466744,-7.3634024810498e-11,-7.3636730139617e-11,1.6275225976548e-10,5.2104908510223e-11,-0.00029502069823387,0.00029502160429198,-0.00035123564143806,0.00035123711772879,-0.00035123553356933,0.00035123700990295,-0.00029502105061889,0.00029502216469131,-0.00029502059605308,0.00029502171016363,-0.00035123553947966,0.00035123722375505,-0.00035123543267386,0.00035123711699203,-0.00053484267172174,0.00053484226208251,-0.00053484264599971,0.00053484223636794,-0.00053484270584981,0.0005348422256283,-0.00053484267991908,0.00053484219970485,-0.00049925248835999,0.00049925208903968,-0.00049925241673672,0.00049925201742106,-0.00049925245252014,0.00049925212567805,-0.00049925238103031,0.00049925205419304,-0.00029502115373868,0.00029502205975879,-4.9130822204754e-11,5.8782805576743e-11,-5.9220814363154e-11,6.558207048565e-11,-0.0006028465321983,0.00060284653980834,-0.00056919776445695,0.0005691978544543,-0.00060316750952971,0.00060316737038128,-0.0006031668285046,0.00060316690153569,-0.00060602155182968,0.0006060214831813,-0.00060602156483921,0.00060602157827162,-0.0006060214862607,0.00060602148782534,-0.00060602149931718,0.00060602158296285,-0.00056919833061962,0.00056919825292862,-0.00056919783440264,0.00056919799881414,-0.00060316755638833,0.00060316750199107,-0.00060316687536262,0.00060316703314525,-0.00056919826073182,0.00056919810862698,-9.7135096637268e-11,-9.7137985221818e-11,-0.00044907044358427,0.00044907049275685,8.0469256341698e-11,-4.4501997304502e-11,-0.00039887144502854,0.00039887173047472,-0.00041275857476299,0.00041275911981624,-0.00041275878657539,0.00041275933159334,-0.00039887099784411,0.000398871520874,-0.00039887132373512,0.00039887184676751,-0.00041275845757947,0.00041275923820144,-0.0004127586667628,0.00041275944734961,-0.00051187849100566,0.00051187799411438,-0.000511878532377,0.00051187795345071,-0.00051187842574212,0.00051187792884556,-0.00051187846654865,0.00051187788761686,-0.0004792781203295,0.00047927766722581,-0.00047927822566307,0.00047927777255519,-0.00047927818363737,0.00047927781375685,-0.00047927807935198,0.00047927770947576,-0.00039887111499541,0.00039887140043918,0.65137566946256,123866,2964,0.0019080128599513,0.0025085980346477,0.001869456848651,16.908473019804,5.0467784158435e-05,5.0467784158435e-05,5.0467784158435e-05,4028128.6849756,0.006305961030938
19391759,0.40957305906989,0.0068268023896685,0.0021282807708814,0.0025977596506886,0.0021007619680985,-0.00049090953942035,0.00049090951835516,-1.160314182757e-10,-1.1603416697114e-10,7.1400130480907e-11,1.6285041179641e-11,-0.00030385681913084,0.00030385744943239,-0.00036886917234021,0.00036887029393154,-0.00036886916539059,0.00036887028702833,-0.00030385713059498,0.0003038578635499,-0.00030385676883539,0.00030385750183005,-0.00036886912390707,0.00036887034606446,-0.00036886911751415,0.00036887033971782,-0.00057710138406775,0.0005771008969892,-0.00057710139757726,0.00057710091050594,-0.0005771013998602,0.0005771008792392,-0.00057710141338192,0.00057710089276795,-0.00053933359396108,0.00053933317216478,-0.00053933354536162,0.00053933312357007,-0.00053933357658388,0.00053933319068822,-0.00053933352763781,0.00053933314174708,-0.0003038571808393,0.00030385781110128,-2.7935643349977e-11,2.6153142265559e-11,-4.7607128142267e-11,4.3196976629019e-11,-0.00065789982835403,0.00065789982514662,-0.00062184310952207,0.00062184317403824,-0.00065990267479589,0.00065990258878165,-0.00065990214658532,0.00065990216729352,-0.00065917819356294,0.00065917814479486,-0.00065917822577104,0.00065917823521946,-0.00065917812530471,0.00065917810941302,-0.00065917815755848,0.00065917819988353,-0.00062184349911306,0.00062184342551866,-0.00062184314663613,0.00062184324903825,-0.0006599027095983,0.00065990268524208,-0.00065990218138504,0.00065990226375161,-0.00062184346205506,0.00062184335057501,-1.5352332627107e-10,-1.5352621020319e-10,-0.00047923772999102,0.00047923747882766,-1.2195622467032e-11,-1.0196851954179e-10,-0.00042268245450269,0.00042268251355523,-0.00043777611687953,0.00043777628410044,-0.000437776241402,0.00043777640858523,-0.00042268214467355,0.00042268237557483,-0.0004226823669917,0.00042268259789204,-0.00043777603330335,0.00043777636846718,-0.00043777615596538,0.00043777649109168,-0.000550280689119,0.00055028008194194,-0.00055028071833832,0.0005502800529672,-0.000550280649738,0.00055028004255581,-0.00055028067873621,0.00055028001335975,-0.00051596212094357,0.00051596159787475,-0.00051596223012404,0.00051596170705131,-0.00051596220017249,0.00051596173711125,-0.00051596209121932,0.0005159616281621,-0.00042268222963943,0.000422682288693,0.71635337683096,123866,2964,0.0020436197628697,0.0027373518061799,0.0019949383548294,17.474153979008,5.4993231832066e-05,5.4993231832066e-05,5.4993231832066e-05,4031338.7698183,0.0067990312136289
19891759,0.44186645387548,0.007331789643394,0.0022754048690728,0.0028166643656013,0.0022397204087198,-0.00052502316573937,0.00052502300073221,-1.4532294101332e-10,-1.4532571300216e-10,-9.3561165300035e-12,-1.4406057551889e-12,-0.00031283960018517,0.00031284002615419,-0.00038632833586803,0.00038632918372602,-0.00038632841584858,0.00038632926375552,-0.00031283989758376,0.00031284030465733,-0.000312839609988,0.00031284001710231,-0.00038632834829318,0.00038632917399122,-0.00038632842855219,0.00038632925429904,-0.0006222839680221,0.00062228342643947,-0.00062228401996241,0.00062228347838682,-0.00062228396331515,0.00062228342984821,-0.00062228401538964,0.00062228348192954,-0.00058010664029032,0.00058010621739842,-0.00058010661079762,0.00058010618791054,-0.00058010664369742,0.00058010621514484,-0.00058010661362199,0.0005801061850744,-0.00031283988719172,0.00031284031312016,-5.7373918736754e-12,-1.3262073923517e-11,-3.0364790198194e-11,9.6198506027042e-12,-0.00071602766546573,0.00071602764580289,-0.00067582385265453,0.00067582387205027,-0.00071837668346984,0.00071837665808169,-0.00071837630134694,0.00071837626160868,-0.00071679185315333,0.00071679182590777,-0.00071679194560806,0.0007167919423796,-0.00071679182144798,0.0007167917856206,-0.00071679191394712,0.00071679190213705,-0.00067582403447625,0.00067582397350784,-0.00067582387925284,0.00067582389502928,-0.00071837672266424,0.0007183767248638,-0.00071837634053729,0.00071837632838712,-0.00067582400793293,0.0006758239505841,-1.9426877452192e-10,-1.9427166773685e-10,-0.00051011036899577,0.00051010987234402,-1.020480222401e-10,-1.402828798477e-10,-0.00044492537351731,0.00044492526254227,-0.00046224132082606,0.00046224117984207,-0.00046224137048559,0.00046224122946243,-0.00044492520669538,0.0004449251684357,-0.00044492533635987,0.0004449252980963,-0.00046224128719113,0.00046224121397163,-0.00046224133564225,0.00046224126238373,-0.00059079399050958,0.00059079329650586,-0.0005907940023072,0.00059079328458127,-0.00059079397502926,0.00059079328102057,-0.00059079398686853,0.0005907932691374,-0.00055298516963125,0.00055298461263764,-0.00055298527881314,0.0005529847218158,-0.00055298526632321,0.00055298473515261,-0.00055298515673484,0.00055298462556806,-0.00044492524261707,0.00044492513164602,0.66678161365177,123866,2964,0.0021855326115351,0.0029788164570476,0.0021233453910664,18.68436419799,6.4674913583918e-05,6.4674913583918e-05,6.4674913583918e-05,4087867.9915714,0.0073144534866484
20391759,0.47384309051626,0.00787969575985,0.0024340839311854,0.0030566120501678,0.0023889997784968,-0.00056086055305719,0.00056086062586234,-9.8806163613054e-11,-9.880896983615e-11,7.6200124873785e-11,5.2043926623178e-11,-0.00032816679429156,0.00032816751057128,-0.00040873689232419,0.00040873820648448,-0.00040873687534538,0.00040873818955649,-0.00032816716111229,0.00032816791685413,-0.00032816677552355,0.00032816753130619,-0.0004087368738868,0.00040873822724467,-0.00040873685769923,0.00040873821110777,-0.00066736671859236,0.00066736626433855,-0.0006673667316435,0.0006673662773966,-0.00066736672479858,0.00066736625685965,-0.0006673667377192,0.00066736626978697,-0.00062253157024993,0.00062253119983077,-0.00062253150540275,0.0006225311349885,-0.00062253156296492,0.00062253120773679,-0.00062253149818091,0.00062253114295786,-0.00032816718040601,0.00032816789664509,-1.5877189698047e-11,6.7137794749323e-12,-4.2842839105306e-11,3.166351112794e-11,-0.0007742556068557,0.00077425559670886,-0.00073020575368901,0.00073020580580017,-0.00077552341419667,0.00077552335746604,-0.00077552287036195,0.00077552285786134,-0.00077541332279393,0.00077541328116926,-0.0007754134171647,0.00077541342477149,-0.00077541332543161,0.00077541329755554,-0.0007754134198457,0.00077541344120128,-0.00073020601808769,0.00073020594347906,-0.00073020582511162,0.00073020589419798,-0.00077552346375989,0.00077552345812582,-0.00077552291991994,0.00077552295851627,-0.00073020594671922,0.00073020585513567,-1.3508020476563e-10,-1.350831094802e-10,-0.0005428000363258,0.00054279986609349,-1.6567040360716e-11,-9.0909465409668e-11,-0.00047290023628903,0.00047290033535049,-0.00049076669994123,0.00049076691342812,-0.00049076683162544,0.0004907670450722,-0.0004728999765734,0.00047290021465525,-0.00047290016526541,0.00047290040334064,-0.00049076663209465,0.00049076698235613,-0.00049076676206486,0.00049076711228637,-0.00063111487236321,0.00063111430647886,-0.00063111489668413,0.00063111428232539,-0.00063111483594183,0.00063111427005265,-0.00063111485998569,0.00063111424562191,-0.0005922234020827,0.00059222293204554,-0.00059222351841227,0.00059222304837167,-0.00059222349366264,0.00059222307311545,-0.00059222337767825,0.0005922229571346,-0.00047290004500661,0.00047290014407478,0.7310461920672,123866,2964,0.0023345862248298,0.0032206275114088,0.002259290801313,18.606960060287,6.4055680482299e-05,6.4055680482299e-05,6.4055680482299e-05,4246236.4858277,0.0078452717330423
20891759,0.50288068285308,0.0083442189380478,0.0025682697257808,0.0032622237244251,0.0025137254878419,-0.00058693403035675,0.00058693436412237,-5.1306602383221e-11,-5.13094846187e-11,1.8726389993699e-10,1.0102412922337e-10,-0.00032854415941831,0.00032854519622332,-0.00041755107899343,0.00041755291223582,-0.00041755094366089,0.0004175527769559,-0.00032854456435407,0.00032854575791932,-0.00032854408266956,0.00032854527627647,-0.00041755100056831,0.00041755299327421,-0.00041755086646523,0.00041755285922358,-0.0007047053922311,0.00070470503082793,-0.00070470534927164,0.00070470498787522,-0.00070470541889453,0.00070470500245552,-0.00070470537557962,0.00070470495914718,-0.00065544524699996,0.00065544491178993,-0.00065544514387251,0.0006554448086674,-0.00065544521925728,0.00065544493987757,-0.00065544511670167,0.00065544483732703,-0.00032854464255081,0.00032854567931433,-3.5175269890238e-11,4.6888287677718e-11,-6.7828666623441e-11,7.6779890029086e-11,-0.00082500006327329,0.00082500007328681,-0.00077710261392048,0.00077710273431957,-0.00082758143988746,0.00082758132203187,-0.00082758067308818,0.00082758071589728,-0.00082499283622672,0.00082499276989985,-0.00082499286025581,0.00082499289135493,-0.00082499281850455,0.00082499280701902,-0.000824992842576,0.00082499292851665,-0.00077710310354584,0.00077710300076911,-0.000777102712885,0.00077710289040047,-0.00082758147856264,0.00082758145889747,-0.00082758071175708,0.00082758085275697,-0.00077710300463465,0.00077710284474177,-7.4254388373523e-11,-7.4257215140109e-11,-0.00056516056093129,0.00056516077879554,1.0528556362496e-10,-4.0973468861262e-11,-0.00048605575775127,0.00048605608652887,-0.00050630680401125,0.00050630745985319,-0.00050630703758433,0.0005063076933851,-0.00048605535208592,0.00048605595654717,-0.00048605561749061,0.00048605622194306,-0.00050630666690677,0.00050630759866398,-0.0005063068981119,0.00050630782982813,-0.00066342690986594,0.00066342649202342,-0.00066342695856299,0.00066342644384061,-0.00066342684407951,0.00066342642623229,-0.00066342689215782,0.00066342637743056,-0.00062085670951786,0.00062085630574445,-0.00062085683355577,0.00062085642977886,-0.00062085678456759,0.00062085647779078,-0.00062085666170616,0.00062085635493287,-0.00048605548815206,0.0004860558169387,0.68432815189094,123866,2964,0.002443059850472,0.0034313082501172,0.0023522935679424,17.403442404191,5.4427539233528e-05,5.4427539233528e-05,5.4427539233528e-05,4268427.6637522,0.0082607803949599
21391759,0.52760828976413,0.0087312749930048,0.0026803514400588,0.00343410668219,0.002616816870756,-0.00060799680482818,0.000607997367669,-8.8460649646699e-12,-8.8489180833914e-12,2.8994715122532e-10,1.270487960259e-10,-0.00033426963372062,0.00033427091342061,-0.00042809171567088,0.00042809396136411,-0.00042809147138208,0.00042809371712883,-0.00033427005009115,0.00033427163330631,-0.00033426948436477,0.00033427106762162,-0.00042809156308083,0.00042809411747934,-0.0004280913203633,0.00042809387481513,-0.00073341811582363,0.00073341785029839,-0.00073341801536712,0.00073341774984859,-0.00073341816749707,0.00073341779614582,-0.00073341806651788,0.00073341769517312,-0.00068047966090207,0.00068047935399966,-0.00068047952463081,0.00068047921773342,-0.00068047960798803,0.00068047940722121,-0.00068047947266454,0.00068047927190294,-0.00033427020165544,0.00033427148131395,-5.6643901508867e-11,9.95666835387e-11,-1.0030934044755e-10,1.3938897594997e-10,-0.00086277090744937,0.00086277094767247,-0.00081056651055279,0.00081056672890136,-0.00086345490465388,0.00086345471327262,-0.00086345394973387,0.00086345406442531,-0.00086442474372656,0.00086442465003986,-0.0008644246595811,0.00086442472755906,-0.00086442467595056,0.00086442468736334,-0.00086442459184677,0.00086442476492438,-0.00081056722434744,0.00081056708365037,-0.00081056661800484,0.00081056694332386,-0.00086345491367624,0.00086345488405586,-0.00086345395874941,0.00086345423520209,-0.00081056711694831,0.00081056686928105,-2.4801166811966e-11,-2.4804063488181e-11,-0.00058343695219539,0.0005834375122107,2.2298673194333e-10,-1.9715099459892e-11,-0.00049986788981038,0.00049986836845882,-0.00052105756601699,0.00052105856614876,-0.00052105789420938,0.00052105889429963,-0.00049986731727536,0.00049986825745355,-0.00049986765557293,0.00049986859574116,-0.00052105733537836,0.00052105879911953,-0.00052105766048405,0.00052105912418387,-0.00068799601440296,0.00068799575063448,-0.0006879960955573,0.00068799567033674,-0.00068799591861339,0.00068799565484031,-0.00068799599880986,0.0006879955735845,-0.00064342099523431,0.00064342063385912,-0.00064342112935116,0.00064342076797274,-0.00064342104790695,0.00064342084742855,-0.00064342091581259,0.00064342071533752,-0.00049986754554077,0.00049986802419935,0.67004884739747,123866,2964,0.002530662657875,0.0035880834155493,0.0024282987739753,15.325958155269,3.7807665242149e-05,3.7807665242149e-05,3.7807665242149e-05,4420582.1424632,0.0085838786856355
21891759,0.54973302321382,0.0090665210082736,0.0027771749047392,0.0035837489882079,0.0027055971153266,-0.00062649235307167,0.00062649280718146,-3.5581192254295e-11,-3.5584090812805e-11,2.5581820122367e-10,8.2692175516683e-11,-0.00033666859244071,0.00033666968629899,-0.00043566920937028,0.00043567121696975,-0.00043566901611312,0.00043567102376689,-0.00033666893935614,0.00033667035964965,-0.00033666843126314,0.00033666985159832,-0.00043566904652705,0.00043567138398624,-0.00043566885442282,0.0004356711919361,-0.0007595133973047,0.00075951309628013,-0.00075951330968159,0.00075951300866366,-0.00075951345192094,0.00075951303880925,-0.00075951336398224,0.00075951295087698,-0.00070299226035969,0.00070299191847772,-0.00070299214042812,0.00070299179855119,-0.00070299220426008,0.00070299197545894,-0.00070299208477995,0.00070299185598405,-0.00033666910188825,0.00033667019570502,-5.6790315300732e-11,1.1022746439225e-10,-1.145534323812e-10,1.6390969207583e-10,-0.00089753117210777,0.00089753122263624,-0.00084172647097472,0.00084172673431414,-0.00089767808716575,0.00089767788283599,-0.00089767717291043,0.00089767729626085,-0.0008998912761426,0.0008998911778259,-0.00089989114305412,0.00089989123058477,-0.00089989116342114,0.0008998911756772,-0.0008998910303739,0.00089989122847748,-0.0008417271840352,0.00084172701884404,-0.00084172653879192,0.00084172691591447,-0.00089767806169707,0.00089767804450794,-0.00089767714743451,0.00089767745792593,-0.00084172711627067,0.00084172683729664,-6.5313507812758e-11,-6.5316377394212e-11,-0.00059922198513294,0.00059922238014709,1.9593606312233e-10,-8.4655830176359e-11,-0.00051033418351962,0.00051033447720419,-0.00053281705746667,0.00053281780741755,-0.00053281734444185,0.00053281809435083,-0.00051033362785678,0.00051033446032672,-0.00051033391094057,0.00051033474339939,-0.00053281678903774,0.0005328180779278,-0.00053281707322947,0.00053281836207779,-0.00071022521214962,0.00071022490185994,-0.00071022530556427,0.00071022480908641,-0.00071022512597685,0.00071022481568267,-0.00071022521861241,0.00071022472212986,-0.00066325941924206,0.00066325897823644,-0.00066325955607572,0.00066325911506688,-0.00066325946208444,0.00066325920745796,-0.00066325932687154,0.00066325907224835,-0.00051033389512216,0.00051033418881802,0.65030596713663,123866,2964,0.002607594572308,0.0037323413758099,0.0024939445520225,13.951553984477,2.6812431875815e-05,2.6812431875815e-05,2.6812431875815e-05,4497161.5039375,0.0088732393559135
22391759,0.57285373398613,0.0094264492697505,0.002880599570644,0.0037455116742565,0.0028003380248501,-0.00065099359359597,0.00065099358473875,-1.3018593161503e-10,-1.3018885964323e-10,5.8952866192169e-11,-1.7471231721746e-11,-0.00034456661554367,0.00034456709561201,-0.00044897792732254,0.00044897902560154,-0.00044897796480614,0.00044897906314035,-0.00034456685001743,0.00034456747551138,-0.00034456654332435,0.00034456716886011,-0.00044897785754441,0.00044897909909645,-0.00044897789514404,0.00044897913675106,-0.00079176249485724,0.0007917620184361,-0.000791762505106,0.00079176202869143,-0.00079176251738817,0.00079176199364794,-0.00079176252784315,0.00079176200410929,-0.0007319889959603,0.00073198857904401,-0.0007319889437038,0.00073198852679262,-0.00073198897194787,0.00073198860480858,-0.00073198891892929,0.00073198855179531,-0.00034456692141797,0.00034456740144466,-2.340685564251e-11,5.1091568524049e-11,-9.0261696193978e-11,1.1503966234982e-10,-0.00093934808371387,0.00093934810956842,-0.00088009719771684,0.00088009739698429,-0.00093896394230205,0.00093896382798465,-0.00093896336432004,0.0009389633967413,-0.00094224351499581,0.00094224345100688,-0.00094224345091643,0.00094224352048142,-0.00094224340109767,0.00094224338245236,-0.00094224333705891,0.00094224345196767,-0.00088009758746621,0.00088009743741718,-0.00088009719166996,0.00088009744189089,-0.00093896390092556,0.00093896392404963,-0.00093896332293572,0.00093896349279881,-0.00088009759356527,0.00088009739256302,-1.9511166259212e-10,-1.9511452691455e-10,-0.00062077924547503,0.00062077892390261,-1.1482397587363e-11,-2.1580152501127e-10,-0.00052677397324978,0.00052677376865038,-0.00055039985950307,0.0005503997459469,-0.00055039995340767,0.00055039983980918,-0.00052677367809723,0.00052677387128121,-0.00052677377294755,0.00052677396611898,-0.00055039966360047,0.00055039994282971,-0.00055039975611201,0.00055040003529909,-0.00073835071049521,0.00073835012899332,-0.0007383507775046,0.00073835006181967,-0.00073835067969774,0.00073835009819146,-0.00073835074664282,0.00073835003095332,-0.00068939477846577,0.00068939416517662,-0.00068939491226858,0.00068939429897628,-0.00068939484426768,0.00068939436727507,-0.00068939471038365,0.00068939423339425,-0.00052677387632868,0.00052677367174202,0.66901198509521,123866,2964,0.0027094827460533,0.0039058589660129,0.002583578300207,14.800851516186,3.3606812129484e-05,3.3606812129484e-05,3.3606812129484e-05,4552812.8396829,0.0092416062572952
22891759,0.59636472574764,0.0097508021789023,0.0029746508686441,0.0038907737423802,0.0028853775678779,-0.00067175037088991,0.00067175042683042,-1.1385636991311e-10,-1.1385930808806e-10,6.381845472825e-11,2.0550963373352e-11,-0.00034677132531444,0.0003467719183316,-0.0004570414149068,0.00045704267368804,-0.00045704143718661,0.00045704269602388,-0.00034677161147648,0.00034677228268851,-0.00034677128669948,0.00034677195795363,-0.00045704137750708,0.00045704271382616,-0.00045704140011048,0.00045704273648533,-0.00082131036731578,0.00082130990869054,-0.00082131037332077,0.00082130991470204,-0.00082131037944132,0.00082130989491227,-0.00082131038553432,0.00082130990101158,-0.00075679244535599,0.00075679206699933,-0.00075679238614889,0.00075679200779743,-0.00075679243218954,0.0007567920814629,-0.00075679237252396,0.00075679202180271,-0.0003467716497321,0.0003467722427073,-1.1646334594825e-11,2.9354607319617e-11,-7.881982400554e-11,9.4123826896036e-11,-0.00097787557877504,0.00097787559508101,-0.00091444396141516,0.00091444413052199,-0.00097716385931593,0.0009771637789498,-0.00097716329091747,0.00097716329101121,-0.00098146698149232,0.00098146692878094,-0.00098146694567244,0.00098146700613121,-0.00098146689965379,0.00098146687119655,-0.00098146686387398,0.00098146694858701,-0.00091444432686151,0.00091444418812912,-0.00091444397907258,0.00091444417696021,-0.00097716383500567,0.0009771638707845,-0.00097716326659888,0.00097716338283793,-0.0009144443092559,0.00091444414174297,-1.7734574439307e-10,-1.7734861259221e-10,-0.0006382347007488,0.00063823445551319,-8.9403984845e-12,-1.815282762956e-10,-0.00053682797505473,0.00053682786117708,-0.00056266407682177,0.00056266408091091,-0.00056266418331409,0.00056266418736057,-0.00053682770237676,0.00053682792209906,-0.00053682780683768,0.00053682802654651,-0.00056266391246135,0.00056266424642561,-0.00056266401754789,0.00056266435146964,-0.00076352098730086,0.00076352042978443,-0.00076352104392265,0.00076352037300518,-0.00076352095398227,0.00076352039646149,-0.00076352101048817,0.00076352033956619,-0.00071103345006691,0.00071103288071614,-0.00071103358654574,0.00071103301719188,-0.00071103352917046,0.00071103307480371,-0.00071103339272868,0.00071103293836512,-0.00053682786837197,0.000536827754508,0.59348875359801,123866,2964,0.0027958154677518,0.0040656965375666,0.0026561678834462,15.341061391458,3.7928491131661e-05,3.7928491131661e-05,3.7928491131661e-05,4568403.9529546,0.0095633948047779
23391759,0.61974629498545,0.010090834173924,0.0030728296069292,0.0040435891983838,0.0029744153686114,-0.00069474057524009,0.00069474068902393,-1.0109889911568e-10,-1.0110187740704e-10,7.8274545295783e-11,4.0031123900173e-11,-0.00035797582125482,0.00035797649412452,-0.0004719447646823,0.00047194615160805,-0.00047194476936043,0.00047194615634265,-0.00035797613286903,0.00035797687260025,-0.00035797578841454,0.00035797652818758,-0.00047194473224771,0.00047194618638317,-0.00047194473740278,0.00047194619159446,-0.00085061538197118,0.00085061494395267,-0.00085061538166469,0.00085061494365263,-0.00085061539269323,0.00085061493181784,-0.00085061539238973,0.00085061493152058,-0.00078276434148631,0.00078276398527459,-0.00078276427690345,0.00078276392069694,-0.00078276432992794,0.00078276399787928,-0.0007827642651033,0.00078276393306003,-0.00035797616570071,0.00035797683852876,-9.6943406092547e-12,2.5869109056549e-11,-7.5956556432281e-11,8.9858053096688e-11,-0.0010146322375343,0.0010146322523897,-0.00094693855228021,0.00094693871465411,-0.0010112908291765,0.0010112907550634,-0.001011290242096,0.0010112902375018,-0.0010207619244964,0.0010207618737323,-0.0010207619016938,0.0010207619601576,-0.0010207618599514,0.0010207618305828,-0.0010207618371883,0.0010207619170476,-0.00094693891526188,0.00094693878047911,-0.00094693858396711,0.00094693877161653,-0.0010112908126109,0.0010112908500701,-0.0010112902255216,0.0010112903325001,-0.00094693888362636,0.00094693872356834,-1.6310478687469e-10,-1.6310765217319e-10,-0.00065863316234924,0.00065863299101991,3.1830216064631e-12,-1.6277781080844e-10,-0.00055450881049561,0.0005545087589716,-0.00058077330555722,0.00058077340481579,-0.00058077342720141,0.00058077352641717,-0.00055450853610781,0.00055450880365133,-0.00055450864943396,0.00055450891696307,-0.00058077314805322,0.00058077356361328,-0.0005807732682254,0.00058077368374281,-0.00078884902194946,0.00078884849366369,-0.00078884907650344,0.00078884843899253,-0.00078884898524069,0.00078884845695069,-0.00078884903961886,0.00078884840210355,-0.00073503912689497,0.00073503858551187,-0.00073503926633707,0.00073503872495094,-0.00073503921116191,0.00073503878020414,-0.00073503907191223,0.00073503864095758,-0.00055450869469643,0.00055450864318699,0.62584069172871,123866,2964,0.0028913904207427,0.004218152983612,0.002740968587441,15.63402929703,4.0272234376242e-05,4.0272234376242e-05,4.0272234376242e-05,4704108.877165,0.0098994783769933
23891759,0.64448808003642,0.010504101453522,0.0031901586014523,0.0042322134322594,0.0030817294198107,-0.00072203765769747,0.00072203753231187,-1.4982885927237e-10,-1.4983179432977e-10,-2.5757374806351e-11,-1.098754508804e-11,-0.00036107173314897,0.00036107207419338,-0.00048321037121951,0.00048321128478732,-0.00048321050305365,0.00048321141667915,-0.00036107198908426,0.00036107229764191,-0.00036107174914387,0.00036107205774415,-0.0004832103896686,0.00048321126811943,-0.00048321052149499,0.00048321140000327,-0.00088797608906636,0.00088797556122333,-0.00088797614721882,0.0008879756193822,-0.00088797608225869,0.00088797556702423,-0.00088797614066496,0.00088797562543674,-0.00081761285120719,0.00081761246026347,-0.00081761282133435,0.00081761243039607,-0.00081761285718197,0.00081761245570216,-0.00081761282648235,0.00081761242500813,-0.00036107197204643,0.00036107231304841,6.7227125669222e-12,-8.2990614013562e-12,-5.7684364521231e-11,5.4578559407879e-11,-0.0010662194936219,0.0010662194913724,-0.00099634336548079,0.00099634347598172,-0.0010654572593716,0.0010654572352116,-0.0010654568484729,0.001065456794948,-0.0010698532712565,0.0010698532398638,-0.0010698533185987,0.0010698533591314,-0.0010698532286476,0.0010698531833219,-0.0010698532760286,0.0010698533026283,-0.00099634351704912,0.00099634340026884,-0.00099634336362186,0.00099634346506266,-0.0010654572441029,0.0010654572953767,-0.0010654568331947,0.0010654568551039,-0.00099634351895869,0.00099634341123882,-2.2830311178525e-10,-2.2830602861342e-10,-0.00068174706107924,0.00068174650455869,-1.1495203356634e-10,-2.2569503794219e-10,-0.00056969986326991,0.00056969955124664,-0.00059783319287922,0.0005978328295392,-0.0005978332079707,0.00059783284458744,-0.00056969974919983,0.00056969965237133,-0.00056969975515805,0.00056969965831414,-0.00059783308829053,0.00059783293479473,-0.0005978331026843,0.00059783294914537,-0.00082103023728138,0.00082102956196717,-0.00082103027295635,0.00082102952577077,-0.00082103023251916,0.00082102955720073,-0.00082103026839189,0.00082102952120187,-0.00076520498034341,0.0007652043639245,-0.00076520511800238,0.00076520450158059,-0.00076520508152378,0.00076520453911,-0.00076520494316166,0.00076520440075087,-0.00056969985666667,0.00056969954465896,0.72029407872103,123866,2964,0.0030049193098119,0.004432095127214,0.0028370761276935,16.930785617836,5.0646284942685e-05,5.0646284942685e-05,5.0646284942685e-05,4621559.7005398,0.010327378356399
24391759,0.66979886775481,0.01091357497249,0.0033071637768811,0.0044194177940813,0.0031869934015271,-0.0007468571724473,0.00074685711612913,-1.3310229208105e-10,-1.3310534228198e-10,-1.0024494537985e-11,1.5921831348981e-11,-0.00035780859984167,0.00035780902665604,-0.00048906009969581,0.00048906115540174,-0.00048906021362269,0.00048906126938728,-0.00035780888611275,0.00035780925684588,-0.00035780862771083,0.00035780899848726,-0.00048906012900418,0.00048906112718635,-0.00048906024312611,0.00048906124136657,-0.00092473745726705,0.00092473695817296,-0.00092473751179671,0.00092473701270886,-0.00092473744711541,0.00092473696764261,-0.00092473750178551,0.00092473702231881,-0.00085030057596291,0.00085030021709676,-0.00085030053972943,0.0008503001808685,-0.00085030058551167,0.00085030020859329,-0.00085030054873874,0.00085030017182576,-0.00035780885764642,0.00035780928441778,1.0233441257747e-11,-1.634617567048e-11,-4.992410432347e-11,4.2543275550885e-11,-0.0011184680569737,0.0011184680503764,-0.0010455221550461,0.0010455222455826,-0.0011203788518725,0.001120378841174,-0.0011203784241198,0.0011203783610677,-0.0011193341142534,0.0011193340878985,-0.0011193341972847,0.0011193342307488,-0.001119334107673,0.0011193340608059,-0.0011193341907422,0.0011193342036944,-0.0010455222748213,0.0010455221695045,-0.0010455221741885,0.0010455222480966,-0.0011203788524098,0.0011203789041711,-0.001120378424647,0.0011203784240549,-0.0010455222557289,0.0010455221670407,-2.0783016144226e-10,-2.0783298943307e-10,-0.00070120570922724,0.00070120523230186,-1.0717689053464e-10,-1.9870784611492e-10,-0.00057772295392446,0.00057772271374389,-0.00060920583257105,0.00060920556905702,-0.00060920586140689,0.00060920559784909,-0.00057772285526571,0.00057772279094219,-0.00057772286539918,0.00057772280105913,-0.00060920574714887,0.0006092056552607,-0.00060920577523029,0.00060920568329845,-0.00085173894729187,0.00085173830710037,-0.00085173897677618,0.00085173827716825,-0.00085173893973188,0.00085173829953623,-0.00085173896933352,0.00085173826972134,-0.0007922671549156,0.00079226658576911,-0.0007922672931033,0.00079226672395362,-0.00079226726299331,0.00079226675491118,-0.00079226712429515,0.00079226661621622,-0.00057772294292216,0.0005777227027584,0.6966732932835,123866,2964,0.0031081774772565,0.0046487228905471,0.002918011146225,17.854349030814,5.8034792246513e-05,5.8034792246513e-05,5.8034792246513e-05,4490153.1271575,0.010732473771202
24891759,0.69473059991379,0.011269612519415,0.0034108196221982,0.0045801918603309,0.0032786010368858,-0.000769601856332,0.00076960190604877,-1.1217225050886e-10,-1.1217529215124e-10,3.1599878836569e-11,4.2492705612306e-11,-0.0003639673444661,0.00036396791531514,-0.00050003734138163,0.00050003861893983,-0.00050003741180971,0.00050003868942691,-0.00036396765165347,0.00036396819385708,-0.00036396735886446,0.00036396790111139,-0.00050003735617787,0.00050003860502309,-0.00050003742702605,0.00050003867593005,-0.00095619728483102,0.00095619682395115,-0.00095619732321298,0.00095619686233934,-0.00095619727982602,0.00095619682834215,-0.00095619731822678,0.00095619686674897,-0.00087667672517799,0.0008766763868871,-0.00087667667932023,0.00087667634103475,-0.00087667672969137,0.00087667638314261,-0.0008766766835927,0.0008766763370495,-0.0003639676371393,0.00036396820794539,4.2906849225209e-12,-8.0408312956234e-12,-5.3031489663364e-11,4.7922011230525e-11,-0.0011593210163992,0.0011593210120446,-0.0010806507795617,0.0010806508756388,-0.0011587260876944,0.0011587260624582,-0.001158725582166,0.0011587255323316,-0.0011626080632235,0.0011626080304904,-0.0011626081532647,0.0011626081870413,-0.0011626080728688,0.0011626080301064,-0.0011626081629475,0.0011626081866949,-0.0010806509548387,0.0010806508485105,-0.0010806508185812,0.0010806509077416,-0.0011587260965463,0.0011587261396651,-0.0011587255910073,0.0011587256095283,-0.0010806509158687,0.0010806508164573,-1.7942828460745e-10,-1.7943114109004e-10,-0.00071981781341541,0.00071981749437219,-6.4814747432817e-11,-1.6561327096833e-10,-0.00059028875812717,0.00059028863751928,-0.00062350630401929,0.00062350624540086,-0.00062350636910043,0.00062350631043802,-0.00059028862323646,0.00059028869436144,-0.00059028866138835,0.00059028873249641,-0.00062350621005998,0.00062350634032538,-0.00062350627419273,0.00062350640441433,-0.00087774733463662,0.00087774675277077,-0.00087774736743947,0.0008777467196617,-0.00087774731811908,0.00087774673624917,-0.00087774735091154,0.00087774670312962,-0.00081540928523789,0.00081540875821521,-0.00081540942263417,0.00081540889560849,-0.00081540938934902,0.00081540892937448,-0.00081540925176331,0.00081540879179188,-0.00059028871858672,0.00059028859799604,0.61363158009265,123866,2964,0.0032027439771376,0.0048180501911965,0.0029953978048351,18.325615102243,6.1804920817946e-05,6.1804920817946e-05,6.1804920817946e-05,4547479.7857438,0.011077505275511
25391759,0.72075312239059,0.011702975082448,0.0035352589567571,0.0047775538584758,0.0033901622672156,-0.00080052007452834,0.00080051985774532,-1.6622967429755e-10,-1.6623271199887e-10,-7.7994970542482e-11,-1.888499392934e-11,-0.00037949329696026,0.00037949351378796,-0.00052045111425294,0.00052045185883885,-0.00052045132056632,0.00052045206521169,-0.00037949355226092,0.00037949365125825,-0.00037949335512743,0.00037949345416788,-0.00052045117529844,0.00052045179835172,-0.00052045138150287,0.00052045200461534,-0.00099477730661294,0.00099477674430495,-0.00099477741080313,0.00099477684850137,-0.00099477728556775,0.00099477676507364,-0.00099477739006805,0.00099477686957998,-0.00091262483698166,0.00091262445204414,-0.000912624827713,0.00091262444278093,-0.00091262485746143,0.00091262443283152,-0.0009126248472552,0.00091262442263094,-0.00037949349281761,0.00037949370960244,1.7869936203362e-11,-3.9977759199545e-11,-3.6511514848284e-11,1.3728557193913e-11,-0.0012093275353975,0.0012093275132855,-0.0011262249891733,0.001126225033847,-0.0012068437360873,0.0012068437542101,-0.0012068434043956,0.0012068433091274,-0.001214300625169,0.0012143006089119,-0.001214300798341,0.0012143008127568,-0.0012143006580756,0.0012143005994844,-0.0012143008312842,0.001214300803366,-0.0011262249559435,0.0011262248658035,-0.0011262249907657,0.001126224997556,-0.0012068437487693,0.001206843800952,-0.0012068434170665,0.0012068433558586,-0.0011262249543999,0.0011262249021435,-2.5096817567539e-10,-2.5097105959464e-10,-0.00074679063440685,0.00074678988676813,-1.9017461553501e-10,-2.3834480231124e-10,-0.00061454667057585,0.00061454627175424,-0.00064783345550695,0.00064783288766215,-0.0006478334070417,0.00064783283915293,-0.00061454668865545,0.00061454638348221,-0.00061454662391803,0.00061454631872719,-0.00064783341180855,0.00064783293164084,-0.00064783336316526,0.00064783288295373,-0.00091076018158627,0.00091075943144135,-0.00091076019629784,0.00091075941602256,-0.00091076019929426,0.0009107594491454,-0.00091076021439091,0.00091075943411158,-0.00084799535418722,0.00084799473845143,-0.00084799549030587,0.00084799487456705,-0.00084799547484783,0.00084799489153728,-0.00084799533758002,0.00084799475427256,-0.0006145467358307,0.00061454633702701,0.71638642109267,123866,2964,0.0033312426288155,0.0050252815001103,0.0031075025460586,19.829549711129,7.3836397689033e-05,7.3836397689033e-05,7.3836397689033e-05,4646583.3406319,0.011530419600539
25891759,0.74660086770259,0.012139316903742,0.003659805021126,0.004978141606276,0.0035013702763403,-0.00082605352921836,0.00082605344553435,-1.3663002222308e-10,-1.3663305513043e-10,-3.4687548142744e-11,2.0391500347779e-11,-0.0003715069447055,0.00037150731691722,-0.00052352806040306,0.00052352906580369,-0.00052352821569257,0.00052352922115365,-0.00037150723322772,0.00037150749257611,-0.00037150700071048,0.00037150726010208,-0.00052352811766885,0.00052352900858519,-0.00052352827318017,0.00052352916415682,-0.0010339517665129,0.001033951261905,-0.0010339518522011,0.0010339513475994,-0.0010339517471274,0.0010339512811895,-0.0010339518329463,0.0010339513670144,-0.00094762218141176,0.00094762183962087,-0.00094762215865091,0.00094762181686566,-0.00094762220044749,0.00094762182139473,-0.00094762217719235,0.00094762179814541,-0.00037150717666748,0.00037150754883574,1.6871564879392e-11,-3.8074886819961e-11,-3.3113586718832e-11,1.1275258521937e-11,-0.0012667404938403,0.0012667404726251,-0.0011814620043619,0.0011814620429432,-0.0012694911238134,0.0012694911419157,-0.0012694907312893,0.0012694906413177,-0.001266851327642,0.0012668513116741,-0.0012668515204074,0.0012668515327673,-0.0012668513913704,0.0012668513366235,-0.0012668515841718,0.0012668515577528,-0.0011814619835904,0.0011814619014306,-0.0011814620344664,0.0011814620373933,-0.0012694911510925,0.0012694911996841,-0.0012694907585563,0.0012694906990744,-0.0011814619535339,0.0011814619070291,-2.1292110136055e-10,-2.1292393123182e-10,-0.00076555625003772,0.0007655556852982,-1.51600716954e-10,-1.9504698329092e-10,-0.00061901849359925,0.00061901822290958,-0.00065641825446807,0.00065641790746335,-0.0006564182461031,0.00065641789905443,-0.00061901850141416,0.00061901831223633,-0.00061901845263385,0.00061901826343702,-0.00065641821602668,0.00065641794644883,-0.00065641820721417,0.00065641793759219,-0.00094283225762141,0.00094283158787105,-0.00094283227110697,0.00094283157387161,-0.00094283226495526,0.00094283159520106,-0.0009428322786427,0.00094283158140344,-0.00087577336139018,0.00087577281699328,-0.0008757734961807,0.00087577295178077,-0.00087577348217596,0.00087577296679826,-0.00087577334668893,0.00087577283131433,-0.00061901854215749,0.00061901827148686,0.72745708413827,123866,2964,0.0034374962611165,0.0052631668695181,0.003185574845954,20.751055061476,8.1208440491809e-05,8.1208440491809e-05,8.1208440491809e-05,4433878.2072641,0.011957667230974
26391759,0.77015024920079,0.012570682029067,0.0037838224657655,0.0051755054939474,0.0036113540693545,-0.0008505927872466,0.00085059304090138,-7.2765432360107e-11,-7.2768502325146e-11,1.0798811262552e-10,9.4402982259575e-11,-0.00037314695752816,0.00037314776200518,-0.00053245478540696,0.00053245648484993,-0.00053245478289315,0.00053245648239706,-0.00037314727590654,0.00037314809561662,-0.00037314695037225,0.00037314777012634,-0.00053245477646309,0.00053245649396216,-0.00053245477478051,0.00053245649234023,-0.001068745590341,0.0010687452123799,-0.001068745604385,0.00106874522643,-0.0010687455938148,0.0010687452084755,-0.0010687456076409,0.0010687452223074,-0.00097946284240865,0.00097946255071095,-0.00097946278760318,0.00097946249591092,-0.0009794628386709,0.00097946255461416,-0.00097946278422595,0.00097946250017485,-0.00037314728384887,0.00037314808828209,-5.8676677467781e-12,4.4927456633069e-12,-5.5748356142899e-11,5.2978358190905e-11,-0.0013167578893819,0.001316757887262,-0.0012278919696709,0.0012278920676054,-0.0013202829352506,0.0013202828873444,-0.0013202822821448,0.0013202822537497,-0.0013155291272092,0.001315529084265,-0.0013155292591196,0.0013155292901425,-0.0013155291890341,0.0013155291534374,-0.0013155293209798,0.0013155293593503,-0.0012278922039083,0.0012278921003849,-0.0012278920495458,0.0012278921560426,-0.0013202829635368,0.0013202829896139,-0.0013202823104186,0.0013202823560071,-0.0012278921240803,0.0012278920119948,-1.2476017431673e-10,-1.2476304592753e-10,-0.00078427192470185,0.0007842719004268,8.2305442123402e-12,-1.0227774681225e-10,-0.00062997326015287,0.00062997334057925,-0.00066929425655184,0.00066929458008597,-0.00066929437855151,0.00066929470204122,-0.00062997311900604,0.00062997340559566,-0.00062997315576096,0.00062997344233147,-0.00066929415405456,0.00066929468379397,-0.00066929427483875,0.00066929480453381,-0.00097092980946215,0.00097092934848526,-0.00097092984598578,0.00097092931192875,-0.00097092978089709,0.00097092931991634,-0.00097092981717615,0.00097092928311514,-0.00090218906638674,0.00090218863303249,-0.00090218919509967,0.00090218876174229,-0.00090218915839989,0.00090218879817941,-0.0009021890301155,0.0009021886698982,-0.00062997322117935,0.00062997330162506,0.78667634666428,123866,2964,0.0035395530948277,0.0054703286551479,0.0032634101411846,20.418327935848,7.8546623486781e-05,7.8546623486781e-05,7.8546623486781e-05,4394196.4110716,0.012349472457344
26891759,0.79305667166748,0.012971238418804,0.0038998337491189,0.0053580763484962,0.0037133283211884,-0.00087433441377241,0.00087433435262798,-1.3688278964827e-10,-1.3688581646756e-10,-1.026132081781e-11,1.777792292607e-12,-0.00037014432557965,0.00037014466356963,-0.00053802337682712,0.00053802439447701,-0.00053802352544884,0.00053802454316029,-0.00037014456833761,0.00037014487864694,-0.00037014433905102,0.00037014464940447,-0.00053802339196184,0.00053802437978185,-0.00053802354076949,0.00053802452865062,-0.0011041020588811,0.001104101572831,-0.0011041021435643,0.0011041016575204,-0.00110410205334,0.0011041015778124,-0.0011041021381966,0.001104101662675,-0.0010104869537622,0.0010104865969111,-0.0010104869350573,0.0010104865782116,-0.0010104869586302,0.0010104865930816,-0.0010104869393252,0.0010104865737824,-0.00037014455419486,0.00037014489214061,1.7622963983488e-12,-1.0330139807349e-11,-5.0143358379086e-11,4.0479795709182e-11,-0.0013675380592613,0.0013675380502187,-0.0012751199345664,0.00127512001631,-0.0013732797366859,0.0013732797096707,-0.0013732792737338,0.0013732792230856,-0.0013640195584717,0.001364019525258,-0.0013640197463093,0.0013640197718488,-0.0013640196165598,0.0013640195727404,-0.001364019804432,0.0013640198193658,-0.0012751199625901,0.0012751198615197,-0.0012751199540634,0.0012751200286396,-0.001373279751396,0.0013732797855375,-0.0013732792884311,0.0013732792989398,-0.0012751199431391,0.0012751198492364,-2.1290227110308e-10,-2.1290515004087e-10,-0.00080134517896303,0.00080134463968952,-1.273067831556e-10,-2.1693317397877e-10,-0.00063569163720441,0.00063569132545649,-0.00067824759294906,0.00067824724284725,-0.0006782475895201,0.00067824723937345,-0.00063569162538502,0.00063569148612418,-0.00063569155064145,0.00063569141136035,-0.00067824750919915,0.00067824732708798,-0.00067824750528058,0.00067824732312492,-0.00099919667002565,0.0009991960259547,-0.00099919669884821,0.00099919599667865,-0.00099919667683007,0.00099919603275535,-0.00099919670583241,0.00099919600365885,-0.00092703025561937,0.00092702969778665,-0.00092703038795944,0.00092702983012347,-0.00092703035845746,0.00092702986045403,-0.00092703022549173,0.00092702972749171,-0.00063569171165525,0.00063569139992744,0.750276560455,123866,2964,0.0036383226808313,0.0056806142243039,0.0033344395847599,21.226273896312,8.5010191170493e-05,8.5010191170493e-05,8.5010191170493e-05,4268255.8510601,0.012734391718709
27391759,0.8153484695601,0.013348487077317,0.0040102928314921,0.0055282337615419,0.0038099604842828,-0.00089878133430424,0.00089878122027625,-1.4534547214854e-10,-1.4534855890718e-10,-3.8989169672336e-11,-2.5076143941016e-12,-0.00037715613967303,0.00037715641710201,-0.00055021663390884,0.00055021755100516,-0.00055021681535874,0.00055021773251664,-0.00037715639107278,0.00037715659371162,-0.0003771561765001,0.00037715637918313,-0.00055021667272203,0.00055021751230336,-0.00055021685428247,0.00055021769392506,-0.0011373927351152,0.0011373922291447,-0.0011373928391166,0.0011373923331522,-0.0011373927216446,0.0011373922423376,-0.0011373928258661,0.001137392346565,-0.0010395442946708,0.0010395439395714,-0.0010395442852746,0.0010395439301806,-0.0010395443075934,0.0010395439276964,-0.001039544297487,0.0010395439175956,-0.00037715635339209,0.0003771566307771,9.4445367700023e-12,-2.6438394402405e-11,-4.1755367586006e-11,2.4006458591595e-11,-0.0014119659365499,0.001411965919383,-0.0013141205031223,0.001314120560524,-0.001416187209362,0.0014161872056656,-0.0014161867982631,0.0014161867242535,-0.0014099299871459,0.0014099299622856,-0.001409930217199,0.0014099302342831,-0.0014099300662418,0.0014099300147897,-0.0014099302963289,0.0014099302868212,-0.0013141204674052,0.0013141203745711,-0.0013141205211203,0.0013141205554011,-0.0014161872335701,0.0014161872744102,-0.001416186822458,0.0014161867929854,-0.0013141204494524,0.0013141203797395,-2.2607720637521e-10,-2.2608006549742e-10,-0.00082050947295943,0.0008205088337627,-1.6182621021558e-10,-2.2624955446717e-10,-0.00064928299523633,0.00064928263658916,-0.00069318155465265,0.00069318109713637,-0.0006931815238885,0.00069318106632753,-0.00064928303198667,0.00064928279733201,-0.00064928293317727,0.00064928269850248,-0.00069318149534938,0.00069318115678323,-0.00069318146427333,0.00069318112566252,-0.0010259322274566,0.0010259315450973,-0.0010259322477891,0.0010259315242279,-0.0010259322428898,0.0010259315605269,-0.0010259322634869,0.0010259315399218,-0.00095180707057262,0.00095180650488423,-0.00095180720331489,0.0009518066376232,-0.00095180718229475,0.00095180665972301,-0.00095180704871118,0.00095180652614288,-0.00064928309419275,0.00064928273556585,0.72451637575547,123866,2964,0.0037399448569872,0.0058645365466136,0.0034141155292138,22.212867181268,9.2902937450146e-05,9.2902937450146e-05,9.2902937450146e-05,4277868.0028194,0.013104368348367
27891759,0.83639835315968,0.01372337417991,0.0041196059540708,0.0056976741128983,0.0039060941129408,-0.00092213860053221,0.00092213858044177,-1.2583885747399e-10,-1.258419371152e-10,-6.0350075317213e-12,2.641787937839e-11,-0.0003809273801279,0.00038092778188391,-0.00056021112935077,0.00056021224802039,-0.00056021127266714,0.00056021239139863,-0.0003809276472364,0.00038092797994715,-0.00038092741429279,0.00038092774704802,-0.00056021116441656,0.00056021221282382,-0.00056021130803527,0.0005602123565041,-0.0011697836041207,0.0011697831347776,-0.0011697836928376,0.0011697832235005,-0.0011697835922026,0.0011697831465451,-0.0011697836810238,0.0011697832353722,-0.0010684470294691,0.0010684466992466,-0.0010684470161647,0.0010684466859477,-0.0010684470410044,0.0010684466884597,-0.0010684470272863,0.0010684466747473,-0.00038092761265331,0.00038092801436512,7.9324536101637e-12,-2.4671086942067e-11,-4.2068334135387e-11,2.4568712946361e-11,-0.0014565666396097,0.0014565666226769,-0.0013547481725471,0.0013547482296972,-0.001461347051841,0.001461347044878,-0.0014613465880218,0.0014613465169237,-0.0014542204374208,0.0014542204103627,-0.0014542206717461,0.0014542206882781,-0.0014542205299864,0.0014542204795512,-0.0014542207643451,0.0014542207575,-0.0013547481806518,0.0013547480885658,-0.00135474820965,0.0013547482460673,-0.0014613470837884,0.001461347122169,-0.0014613466199556,0.0014613465942015,-0.0013547481435932,0.0013547480722403,-2.0003282731826e-10,-2.0003571163456e-10,-0.00083837933483928,0.00083837884043722,-1.2584363734267e-10,-1.919180402346e-10,-0.0006606054492088,0.00066060519919023,-0.00070599050950132,0.00070599024907196,-0.00070599050959633,0.00070599024912222,-0.00066060547375802,0.00066060534872388,-0.00066060538641015,0.00066060526135562,-0.00070599044906416,0.00070599031000798,-0.00070599044868265,0.00070599030958191,-0.0010518350407982,0.001051834416669,-0.0010518350619112,0.0010518343951423,-0.0010518350485358,0.0010518344244029,-0.0010518350698005,0.0010518344030277,-0.00097586503533971,0.00097586451234662,-0.00097586516501635,0.00097586464201999,-0.00097586514338971,0.00097586466441518,-0.00097586501316338,0.00097586453419224,-0.00066060553622496,0.00066060528622683,0.76282598426134,123866,2964,0.0038370575804344,0.0060491454049395,0.0034884200380488,22.881090755187,9.8248726041497e-05,9.8248726041497e-05,9.8248726041497e-05,4248162.2649826,0.013465171959129
28391759,0.85593890533629,0.014098571576924,0.0042286428236843,0.0058677340015318,0.0040021947517081,-0.00094371993360857,0.00094371995352968,-1.1840038586125e-10,-1.1840343112116e-10,1.1045293397398e-11,3.4231873342708e-11,-0.00037666215140537,0.00037666258961759,-0.00056456414021601,0.00056456533977325,-0.00056456426744948,0.00056456546706914,-0.00037666241356572,0.0003766628002073,-0.00037666217692053,0.00037666256360694,-0.00056456416628734,0.00056456531354867,-0.00056456429388695,0.00056456544121009,-0.0012020747654253,0.0012020743148035,-0.0012020748483947,0.0012020743977787,-0.0012020747565773,0.0012020743234545,-0.0012020748396137,0.0012020744064968,-0.0010974982437123,0.0010974979210079,-0.0010974982313221,0.0010974979086232,-0.0010974982521667,0.0010974979132227,-0.0010974982394635,0.0010974979005258,-0.00037666238777043,0.00037666282593771,4.9302826185444e-12,-1.8797017457034e-11,-4.5021289704033e-11,3.0303191519329e-11,-0.0015040117968387,0.0015040117826815,-0.001400177306816,0.0014001773721852,-0.0015124377594362,0.001512437743682,-0.0015124372643809,0.0015124372018675,-0.0014981214005832,0.0014981213700534,-0.001498121638062,0.0014981216573019,-0.0014981214992263,0.0014981214515889,-0.0014981217367379,0.0014981217388702,-0.0014001773364611,0.0014001772416962,-0.0014001773495945,0.0014001774002096,-0.0015124377928975,0.00151243782834,-0.0015124372978277,0.0015124372865114,-0.001400177293726,0.0014001772137154,-1.9017087314933e-10,-1.9017376832192e-10,-0.00085313649689552,0.00085313606269245,-1.0826923747669e-10,-1.834034385093e-10,-0.0006644807000923,0.00066448048090543,-0.00071270818280934,0.00071270799848923,-0.0007127081949906,0.00071270801062569,-0.00066448072225839,0.00066448064496917,-0.00066448062872714,0.00066448055141709,-0.00071270811367969,0.00071270806815528,-0.00071270812532219,0.00071270807975297,-0.0010771821939218,0.0010771815989862,-0.0010771822181388,0.0010771815744116,-0.0010771821988696,0.0010771816039307,-0.001077182223192,0.0010771815794611,-0.00099856670664039,0.00099856619804834,-0.0009985668342797,0.00099856632568451,-0.00099856680959148,0.00099856635098966,-0.00099856668152542,0.0009985662229265,-0.00066448079310771,0.00066448057394158,0.82233028262121,123866,2964,0.0039268546914764,0.0062454961661707,0.0035498311408993,23.414457627427,0.00010251566101942,0.00010251566101942,0.00010251566101942,4105326.9400593,0.013817548843431
28891759,0.87391934720306,0.014435259656788,0.0043276365027838,0.0060187413729805,0.0040888817810234,-0.00096231245350824,0.00096231247566795,-1.1832572046576e-10,-1.1832876016701e-10,1.3922509912173e-11,3.1346400918381e-11,-0.000370089050255,0.00037008947544049,-0.0005662450993906,0.00056624629885961,-0.00056624522712186,0.00056624642665344,-0.00037008930404781,0.00037008968911504,-0.00037008907003532,0.00037008945514761,-0.00056624511979967,0.000566246278319,-0.00056624524788848,0.00056624640647001,-0.0012313557592334,0.0012313553132168,-0.0012313558444095,0.001231355398399,-0.0012313557522379,0.0012313553199583,-0.0012313558374906,0.0012313554052169,-0.0011227971392355,0.0011227968160426,-0.0011227971305083,0.0011227968073209,-0.0011227971457841,0.0011227968101913,-0.0011227971367274,0.0011227968011402,-0.00037008928395221,0.00037008970909269,3.0129003697266e-12,-1.4985707555377e-11,-4.7768787898525e-11,3.4890434986051e-11,-0.0015473898762858,0.0015473898639644,-0.0014411342804555,0.0014411343529386,-0.0015588305331815,0.0015588305112112,-0.001558830031239,0.0015588299738061,-0.0015383902234193,0.0015383901903702,-0.0015383904689252,0.0015383904905208,-0.0015383903267909,0.0015383902804441,-0.001538390572329,0.0015383905806268,-0.0014411343114787,0.0014411342132651,-0.0014411343223491,0.0014411343838802,-0.0015588305667372,0.0015588306008278,-0.0015588300647802,0.0015588300634083,-0.0014411342696275,0.0014411341823664,-1.9079757551136e-10,-1.9080049052893e-10,-0.00086459652545521,0.00086459608971041,-1.0628268335021e-10,-1.8878899084972e-10,-0.00066414135381128,0.00066414112172906,-0.00071566800569277,0.00071566781588471,-0.0007156680165228,0.00071566782666977,-0.00066414138002224,0.00066414130435076,-0.00066414127519311,0.00066414119950053,-0.0007156679293233,0.00071566789275821,-0.00071566793962492,0.00071566790301503,-0.0010994794086846,0.0010994788190288,-0.0010994794353512,0.0010994787920118,-0.0010994794144203,0.0010994788247608,-0.0010994794411934,0.0010994787978501,-0.0010176805828966,0.0010176800725454,-0.0010176807098474,0.0010176801994926,-0.0010176806826872,0.0010176802272546,-0.0010176805553068,0.0010176800998779,-0.00066414145815692,0.00066414122609608,0.79975737494462,123866,2964,0.0040042455671113,0.0064249707883629,0.0035975599152988,23.939372311614,0.00010671497849291,0.00010671497849291,0.00010671497849291,3941197.542027,0.014126481200676
29391759,0.89057251267127,0.014695351751999,0.0044059275457978,0.0061327498847237,0.0041566743214778,-0.00097813421456407,0.00097813415142845,-1.3361547460956e-10,-1.3361851713426e-10,-2.0522241412553e-11,9.2937351562999e-12,-0.00037154558395688,0.00037154589018422,-0.00057177860508711,0.00057177961945527,-0.00057177877524491,0.00057177978967595,-0.00037154583533714,0.00037154607910094,-0.00037154561469481,0.00037154585850379,-0.00057177863734303,0.00057177958703985,-0.00057177880771863,0.00057177975747813,-0.0012548710796392,0.0012548706051654,-0.001254871188235,0.0012548707137672,-0.0012548710684687,0.0012548706161365,-0.0012548711772403,0.001254870724914,-0.0011414561917374,0.0011414558568406,-0.0011414561916569,0.0011414558567656,-0.0011414562024021,0.0011414558470789,-0.0011414562017407,0.0011414558464233,-0.00037154580393834,0.00037154611012097,6.6603144143194e-12,-2.279957190417e-11,-4.410309218816e-11,2.721868848775e-11,-0.0015785264865036,0.0015785264701618,-0.0014669234504788,0.00146692351194,-0.0015884423113361,0.0015884423002488,-0.0015884418699317,0.001588441801115,-0.0015713417116375,0.0015713416829636,-0.0015713419901239,0.001571342007721,-0.0015713418241445,0.001571341773838,-0.0015713421026629,0.0015713420986274,-0.0014669234142627,0.0014669233190891,-0.0014669234796093,0.0014669235223024,-0.0015884423471566,0.0015884423843952,-0.0015884419057372,0.0015884418852466,-0.001466923385174,0.0014669233087691,-2.1348192921478e-10,-2.1348487574241e-10,-0.00087539826765375,0.00087539767982998,-1.4820497338649e-10,-2.185940436636e-10,-0.00066913538088226,0.0006691350473501,-0.00072230168603219,0.00072230130128657,-0.00072230166219674,0.00072230127740624,-0.00066913544137869,0.00066913524257207,-0.0006691353133769,0.00066913511454865,-0.00072230162107105,0.00072230136657544,-0.00072230159688282,0.00072230134234257,-0.0011170169751806,0.0011170163314391,-0.0011170169976156,0.0011170163085528,-0.0011170169908872,0.0011170163471422,-0.0011170170135364,0.0011170163244698,-0.0010327368768177,0.0010327363384231,-0.0010327370069115,0.0010327364685134,-0.0010327369838489,0.00103273649248,-0.0010327368530412,0.0010327363616756,-0.00066913550890967,0.00066913517539865,0.66449988364994,123866,2964,0.0040700343961052,0.0065537523585519,0.0036425025557532,24.733628352825,0.0001130690268226,0.0001130690268226,0.0001130690268226,3898517.2067271,0.014369449510657
29891759,0.90575278686266,0.014939662181399,0.0044792931456281,0.0062395002294436,0.0042208688063278,-0.00099528186544334,0.00099528183812226,-1.257957990541e-10,-1.25798829138e-10,-8.7498794177782e-12,2.2760575018292e-11,-0.00038619147123843,0.00038619183504976,-0.00058652042004369,0.0005865215177798,-0.00058652057828402,0.00058652167608265,-0.00038619172872001,0.00038619202587208,-0.00038619150413517,0.00038619180133229,-0.0005865204540378,0.00058652148351226,-0.00058652061255585,0.00058652164209255,-0.0012754085554142,0.0012754080937207,-0.0012754086595265,0.0012754081978389,-0.0012754085438064,0.0012754081052355,-0.0012754086480541,0.001275408209489,-0.0011592343560407,0.0011592340318695,-0.0011592343568794,0.0011592340327136,-0.0011592343672473,0.0011592340214418,-0.0011592343676138,0.0011592340218141,-0.00038619169531238,0.00038619205907892,6.6341699188982e-12,-2.4784496962763e-11,-4.3584907205856e-11,2.4735215645663e-11,-0.0016024186940916,0.0016024186757772,-0.001484385127216,0.0014843851843309,-0.0016075849170361,0.001607584906874,-0.0016075844566971,0.0016075843848529,-0.0016004994115672,0.0016004993821807,-0.0016004996959076,0.0016004997112022,-0.0016004995307659,0.0016004994788471,-0.0016004998151376,0.0016004998079,-0.0014843851151723,0.0014843850204273,-0.0014843851647492,0.001484385201864,-0.0016075849565576,0.0016075849928072,-0.0016075844962036,0.0016075844707715,-0.0014843850776805,0.001484385002936,-2.0309095136893e-10,-2.0309394423706e-10,-0.00089033619811539,0.00089033566717877,-1.3346132290151e-10,-2.0117475890224e-10,-0.00068743365982558,0.00068743337939923,-0.00073924314642217,0.0007392428520041,-0.00073924313342926,0.00073924283896658,-0.00068743371685898,0.00068743356501102,-0.00068743359532969,0.00068743344346058,-0.00073924308426349,0.00073924291453282,-0.00073924307087795,0.00073924290110274,-0.0011330132365225,0.00113301261367,-0.0011330132581506,0.0011330125916328,-0.0011330132498768,0.0011330126270208,-0.0011330132716853,0.0011330126051637,-0.0010493214635047,0.0010493209426281,-0.0010493215916946,0.0010493210708147,-0.0010493215695192,0.0010493210937994,-0.0010493214407093,0.0010493209649929,-0.00068743378123951,0.00068743350083435,0.68461390406998,123866,2964,0.0041412082184084,0.0066525386207422,0.0037045403005049,25.429627984439,0.00011863702387551,0.00011863702387551,0.00011863702387551,4031211.8919022,0.01460479806172
30391759,0.91941975287265,0.015129340173898,0.0045364328074314,0.0063222130512428,0.0042706943152239,-0.0010057443112745,0.0010057443002229,-1.2227086694424e-10,-1.2227389708696e-10,-2.8618360287561e-12,2.7576345870386e-11,-0.00037635353024035,0.00037635390866464,-0.00058349282896062,0.00058349395965343,-0.00058349298036503,0.00058349411112056,-0.00037635378931122,0.00037635410288945,-0.00037635356226364,0.00037635387588756,-0.00058349286192426,0.00058349392638007,-0.00058349301363516,0.00058349407815328,-0.0012940956847235,0.00129409523187,-0.0012940957870553,0.0012940953342075,-0.0012940956734844,0.0012940952430178,-0.0012940957759341,0.0012940953454731,-0.0011735841439145,0.0011735838255707,-0.0011735841454833,0.0011735838271451,-0.0011735841547569,0.00117358381546,-0.0011735841559044,0.0011735838166133,-0.00037635375683981,0.00037635413521827,6.5022641838219e-12,-2.3967810132573e-11,-4.3646100215128e-11,2.5464980600006e-11,-0.0016291476259643,0.0016291476083164,-0.0015099777754377,0.0015099778336319,-0.001638422975207,0.001638422964521,-0.0016384225078247,0.0016384224372946,-0.0016243183380885,0.0016243183085883,-0.0016243186265089,0.0016243186424288,-0.0016243184616272,0.0016243184104087,-0.0016243187500785,0.0016243187442801,-0.0015099777639073,0.0015099776694139,-0.001509977816035,0.0015099778548868,-0.001638423017254,0.0016384230535386,-0.0016384225498563,0.001638422526297,-0.0015099777233511,0.0015099776482002,-1.9854398882331e-10,-1.9854695540915e-10,-0.00089555908543755,0.00089555857838703,-1.2816488989324e-10,-1.9682061899819e-10,-0.00068150490063659,0.0006815046329138,-0.00073633053462861,0.00073633026971871,-0.00073633052616699,0.00073633026121199,-0.00068150496040165,0.00068150482271677,-0.00068150483537363,0.00068150469766744,-0.00073633047162075,0.00073633033310309,-0.00073633046274634,0.00073633032418378,-0.0011467698518589,0.0011467692427099,-0.0011467698738413,0.0011467692203376,-0.0011467698643594,0.0011467692552069,-0.0011467698865061,0.0011467692329988,-0.0010592304313431,0.0010592299192999,-0.0010592305588256,0.0010592300467791,-0.0010592305363272,0.0010592300700368,-0.001059230408267,0.00105922994198,-0.00068150502548744,0.00068150475778642,0.59098872163378,123866,2964,0.0041848113611913,0.0067631103179394,0.0037263421871312,26.075243291532,0.00012380194633226,0.00012380194633226,0.00012380194633226,3866935.1021083,0.014783438992657
30891759,0.93183169736097,0.015329815615705,0.0045964039917128,0.0064097929508802,0.0043236186731118,-0.0010199789240409,0.0010199787977181,-1.4408682306999e-10,-1.4408986891812e-10,-5.0416052927131e-11,1.8024370985486e-12,-0.00038638822835384,0.00038638846441355,-0.0005945316934145,0.00059453259299824,-0.00059453190010776,0.00059453279975421,-0.00038638849204565,0.00038638862289146,-0.00038638828027436,0.0003863884111654,-0.00059453174736981,0.00059453253864587,-0.0005945319542013,0.00059453274553978,-0.0013115861540932,0.0013115856550317,-0.0013115862871263,0.0013115857880706,-0.0013115861355891,0.0013115856735755,-0.0013115862688615,0.0013115858068535,-0.001189275203685,0.0011892748663551,-0.0011892752146308,0.0011892748773063,-0.0011892752217538,0.0011892748492624,-0.0011892752319609,0.0011892748594752,-0.00038638843924158,0.00038638867525623,1.2400073127454e-11,-3.8595810521908e-11,-3.5976324183285e-11,9.3353761507402e-12,-0.001650706476009,0.0016507064498835,-0.0015275008106618,0.0015275008442551,-0.0016573637726669,0.0016573637813623,-0.0016573633803492,0.0016573632891776,-0.0016486375459482,0.0016486375237544,-0.0016486378802283,0.0016486378865804,-0.0016486376820633,0.0016486376236085,-0.0016486380163741,0.0016486379864652,-0.0015275007181629,0.0015275006314046,-0.0015275008368767,0.0015275008372486,-0.0016573638209116,0.0016573638605361,-0.0016573634285784,0.0016573633683363,-0.0015275006919886,0.001527500638452,-2.2856678585703e-10,-2.2856980349646e-10,-0.0009073988925397,0.0009073981861714,-1.8488071723423e-10,-2.2871603299708e-10,-0.00069454791809657,0.00069454753657869,-0.00074876989196053,0.00074876939253136,-0.00074876983892017,0.00074876933944634,-0.0006945480267595,0.000694547729108,-0.00069454787629279,0.0006945475786199,-0.00074876985272563,0.0007487694319227,-0.00074876979950146,0.00074876937865402,-0.0011603780286488,0.0011603773360533,-0.0011603780421095,0.0011603773220685,-0.0011603780542049,0.0011603773616059,-0.0011603780679711,0.0011603773479263,-0.0010733495115368,0.0010733489621038,-0.0010733496431934,0.001073349093757,-0.0010733496290634,0.0010733491090649,-0.0010733494964482,0.0010733489764531,-0.00069454806906845,0.00069454768757202,0.68714590328657,123866,2964,0.004243913816855,0.0068522336943233,0.0037755234095567,27.063720752646,0.00013170976602117,0.00013170976602117,0.00013170976602117,3922680.6372821,0.014983786473297
31391759,0.94313276166915,0.015519865428734,0.004652856833541,0.0064934637704496,0.0043735448247436,-0.0010303736517357,0.0010303734241037,-1.5890831216602e-10,-1.5891136460219e-10,-1.0364458625845e-10,-1.28221275281e-11,-0.00036963962987724,0.00036963972929636,-0.00058738489725752,0.00058738557822837,-0.00058738515422546,0.00058738583525945,-0.00036963992749577,0.00036963984767273,-0.00036963971860508,0.00036963963882793,-0.00058738498861359,0.00058738548613951,-0.00058738524564792,0.0005873857432366,-0.0013316629003487,0.0013316623687953,-0.0013316630625966,0.001331662531049,-0.0013316628691989,0.0013316624002989,-0.0013316630317585,0.0013316625628641,-0.0012061472804046,0.0012061469474135,-0.0012061472962542,0.0012061469632686,-0.0012061473112437,0.0012061469176244,-0.0012061473261638,0.0012061469325502,-0.00036963983766323,0.00036963993703645,2.5503157543102e-11,-6.3001199959528e-11,-1.7000309604417e-11,-2.050521589223e-11,-0.001682790552497,0.0016827905154746,-0.001562071306827,0.0015620712945449,-0.0016975191203427,0.0016975191709436,-0.0016975188384618,0.0016975187157059,-0.0016731009070069,0.0016731009033075,-0.0016731012934624,0.0016731012851851,-0.001673101062384,0.0016731009969746,-0.0016731014488699,0.0016731013788827,-0.0015620710804226,0.0015620710178825,-0.0015620713241125,0.0015620712534646,-0.0016975191837903,0.0016975192326957,-0.0016975189018936,0.0016975187774426,-0.0015620710631768,0.0015620710590029,-2.5220233605352e-10,-2.5220534085878e-10,-0.00091072712916435,0.00091072622895741,-2.5655317658502e-10,-2.5081924155519e-10,-0.00068130228808601,0.00068130180218341,-0.00073994186607645,0.00073994112508158,-0.00073994177110441,0.00073994103006448,-0.00068130247500543,0.00068130197769379,-0.00068130229421114,0.0006813017968778,-0.0007399418749353,0.00073994111621558,-0.0007399417799506,0.00073994102118601,-0.0011752977073163,0.0011752969465293,-0.0011752977040875,0.0011752969491123,-0.0011752977443133,0.0011752969835227,-0.001175297741509,0.00117529698653,-0.0010840457831893,0.0010840452238613,-0.0010840459221684,0.0010840453628369,-0.0010840459246904,0.0010840453618651,-0.0010840457844396,0.0010840452216178,-0.00068130246988671,0.00068130198400613,0.71628541114011,123866,2964,0.0042873189528386,0.0069849422454186,0.003789512887932,28.357122974301,0.00014205698379441,0.00014205698379441,0.00014205698379441,3623405.9696935,0.015176875920973
31891759,0.95306225362426,0.015690084983887,0.0047042635480658,0.0065669127931439,0.0044189086426769,-0.0010399047581689,0.0010399046657646,-1.3091529103949e-10,-1.30918307065e-10,-5.5094079443103e-11,2.9884009681665e-11,-0.00036524463428496,0.00036524492729007,-0.00058750050702997,0.00058750148269318,-0.00058750070490411,0.00058750168063065,-0.00036524494557309,0.00036524506758113,-0.00036524471918261,0.00036524484123731,-0.00058750059301927,0.00058750139578209,-0.00058750079117403,0.0005875015940001,-0.001347415928772,0.0013474154487912,-0.0013474160617354,0.0013474155817607,-0.0013474158998531,0.0013474154782064,-0.0013474160329646,0.0013474156113237,-0.0012193711795699,0.0012193708799733,-0.0012193711900431,0.0012193708904519,-0.0012193712084059,0.0012193708517522,-0.0012193712183926,0.0012193708617448,-0.0003652448601291,0.0003652451530876,2.3986299823241e-11,-5.9731081541387e-11,-1.5074507329737e-11,-2.0717392356157e-11,-0.0017064050250598,0.0017064049897477,-0.0015843292900124,0.001584329275345,-0.0017224696202589,0.0017224696686565,-0.0017224692631631,0.0017224691471756,-0.0016949571173757,0.001694957113046,-0.0016949574846438,0.001694957475879,-0.0016949572779181,0.0016949572163979,-0.0016949576452164,0.0016949575792615,-0.001584329136738,0.0015843290800024,-0.0015843293336086,0.0015843292640235,-0.0017224696908401,0.0017224697364344,-0.0017224693337284,0.0017224692149374,-0.0015843290931813,0.0015843290913636,-2.1397083190781e-10,-2.139738070706e-10,-0.00091521003773342,0.00091520936396296,-2.0224839329784e-10,-1.9549297499798e-10,-0.00067842447686076,0.00067842416352239,-0.00073908559621346,0.0007390851653703,-0.00073908554948354,0.00073908511859551,-0.00067842463873384,0.00067842430838401,-0.00067842448545586,0.00067842415508391,-0.00073908560678989,0.00073908515497261,-0.00073908555984831,0.00073908510798614,-0.0011864415632233,0.0011864408924194,-0.0011864415599982,0.0011864408951488,-0.0011864415869517,0.0011864409161443,-0.0011864415840069,0.0011864409191539,-0.0010935493443007,0.0010935488455398,-0.0010935494777268,0.0010935489789622,-0.0010935494805479,0.0010935489772777,-0.0010935493462524,0.0010935488429859,-0.00067842463049535,0.00067842431717976,0.72644232686627,123866,2964,0.0043270137222937,0.0070825524973853,0.0038082320939209,29.265819832324,0.00014932655865859,0.00014932655865859,0.00014932655865859,3482709.7195511,0.015335339802496
32391759,0.96131643123251,0.015844702079256,0.0047510948443466,0.0066331430144146,0.0044604642204945,-0.0010472721449525,0.0010472723564293,-7.7494987551913e-11,-7.7498007342014e-11,8.1366050528891e-11,9.1690652192926e-11,-0.00036162559039097,0.00036162626453647,-0.00058746198682837,0.00058746359947752,-0.00058746204353142,0.0005874636562439,-0.00036162585021768,0.00036162649388673,-0.00036162560569635,0.00036162624941183,-0.00058746200065507,0.00058746358510174,-0.00058746205799189,0.0005874636425016,-0.0013597332548336,0.0013597328921742,-0.00135973331208,0.0013597329494264,-0.0013597332506267,0.0013597328964041,-0.0013597333077313,0.0013597329535144,-0.0012299029385337,0.0012299026714153,-0.0012299029390385,0.0012299026719257,-0.0012299029425991,0.0012299026673931,-0.0012299029434113,0.0012299026682109,-0.00036162583532481,0.00036162650942405,3.7810862551162e-13,-1.2059595350508e-11,-4.2457077928648e-11,2.9877250312791e-11,-0.0017253688550828,0.0017253688430303,-0.0016017243795607,0.0016017244398157,-0.0017424519051294,0.0017424518814094,-0.0017424513060356,0.0017424512572663,-0.0017127806458205,0.0017127806123324,-0.0017127809144582,0.0017127809312495,-0.0017127807837267,0.0017127807427475,-0.0017127810523943,0.0017127810616946,-0.0016017244835243,0.0016017243981303,-0.0016017244619178,0.0016017245152483,-0.0017424519592174,0.0017424519851137,-0.0017424513601074,0.0017424513609547,-0.001601724401206,0.0016017243227369,-1.3683152658932e-10,-1.3683454162221e-10,-0.00091841153350302,0.00091841140142706,-3.606186299109e-11,-1.1013179646971e-10,-0.00067669914559681,0.00067669914862962,-0.00073855746331807,0.00073855771555482,-0.00073855753158797,0.00073855778377959,-0.00067669917463804,0.00067669931225494,-0.00067669907752828,0.00067669921512311,-0.00073855739617571,0.00073855778333238,-0.00073855746373082,0.00073855785084248,-0.0011946922565326,0.0011946918027834,-0.0011946922808913,0.0011946917782864,-0.0011946922491484,0.0011946917953956,-0.0011946922734361,0.0011946917708275,-0.0011009636131247,0.0011009631991655,-0.0011009637290451,0.0011009633150823,-0.0011009637046603,0.0011009633395155,-0.0011009635888233,0.0011009632236821,-0.00067669924152518,0.00067669924458019,0.79219730183482,123866,2964,0.004357699718902,0.0071609253248091,0.0038216110457055,29.297792606294,0.00014958234085035,0.00014958234085035,0.00014958234085035,3385351.2847747,0.015459709496783
32891759,0.96811155846988,0.015952483824073,0.0047842352520021,0.0066786032863161,0.004489645285755,-0.001050801750023,0.0010508020079696,-7.2777833451851e-11,-7.278089088786e-11,1.1375746990503e-10,8.8084873273468e-11,-0.00035057956027676,0.00035058027512905,-0.00058128485817648,0.00058128656357157,-0.00058128488859441,0.00058128659405267,-0.00035057978284894,0.00035058053744495,-0.00035057954055953,0.00035058029520247,-0.0005812848369568,0.00058128658458698,-0.00058128486800543,0.0005812866156993,-0.0013690957403475,0.0013690953965469,-0.0013690957836307,0.001369095439836,-0.0013690957477826,0.0013690953887539,-0.0013690957909146,0.0013690954318915,-0.0012365753646503,0.0012365750857029,-0.001236575365993,0.001236575087051,-0.0012365753568308,0.0012365750936399,-0.0012365753585179,0.0012365750953321,-0.00035057980298172,0.00035058051778687,-1.1443002600596e-11,1.1369987320133e-11,-6.042183477207e-11,5.9027817188314e-11,-0.0017414200175538,0.0017414200167135,-0.0016177982457537,0.0016177983514434,-0.0017614706735263,0.0017614706109607,-0.001761470005198,0.0017614699868315,-0.0017258627682348,0.0017258627183054,-0.001725863008065,0.0017258630399652,-0.0017258628951464,0.0017258628612794,-0.0017258631350064,0.0017258631829689,-0.0016177984251316,0.0016177983165941,-0.0016177983281534,0.0016177984504443,-0.0017614707146407,0.0017614707330515,-0.0017614700462955,0.0017614701089066,-0.0016177983427703,0.001617798217632,-1.2940151552326e-10,-1.2940448695822e-10,-0.00091712227197365,0.00091712223080642,6.0372457271328e-12,-1.1562043598902e-10,-0.00066614803651892,0.00066614805588708,-0.0007303503901428,0.0007303507374982,-0.00073035047915409,0.00073035082646405,-0.00066614801121586,0.00066614825782144,-0.00066614792196429,0.00066614816854687,-0.00073035027656542,0.0007303508517687,-0.00073035036477373,0.00073035093993158,-0.0012002705711646,0.0012002701555437,-0.0012002706114224,0.0012002701152129,-0.0012002705586431,0.0012002701430188,-0.001200270598768,0.0012002701025549,-0.0011041500449891,0.0011041496212793,-0.0011041501566558,0.0011041497329424,-0.0011041501163124,0.0011041497731219,-0.0011041500048765,0.0011041496616903,-0.0006661481243679,0.00066614814375785,0.66888370250489,123866,2964,0.0043725037831188,0.0072272743267484,0.0038163764340203,29.182801183716,0.00014866240946972,0.00014866240946972,0.00014866240946972,3217234.6999923,0.015536877265577
33391759,0.97375937704044,0.016055395714421,0.004815871822728,0.0067216976314411,0.0045178262602517,-0.00105756507557,0.0010575652600328,-8.653756192512e-11,-8.6540629125537e-11,9.4075386223292e-11,5.1406145209903e-11,-0.00036416810548877,0.00036416868686005,-0.00059186575836878,0.00059186726788417,-0.0005918658222272,0.00059186733180578,-0.00036416831056683,0.00036416896738575,-0.0003641680678185,0.00036416872468415,-0.00059186572029793,0.0005918673060984,-0.00059186578466605,0.00059186737052929,-0.0013753474844562,0.0013753471241756,-0.0013753475447412,0.0013753471844664,-0.0013753474971567,0.0013753471107796,-0.001375347557408,0.0013753471710365,-0.0012424951468536,0.0012424948476591,-0.0012424951495407,0.0012424948503516,-0.0012424951334774,0.0012424948615395,-0.0012424951361847,0.0012424948642524,-0.00036416834832264,0.00036416892964813,-1.6580242132043e-11,2.3751763519414e-11,-7.2516913095583e-11,7.8135436677809e-11,-0.0017469502757562,0.0017469502819408,-0.0016172342316793,0.0016172343693856,-0.0017611198449578,0.0017611197619611,-0.001761119210146,0.0017611192060943,-0.0017374081611881,0.0017374081031054,-0.0017374084050935,0.0017374084483625,-0.001737408280086,0.0017374082487644,-0.001737408524021,0.0017374085940511,-0.0016172343835659,0.0016172342569868,-0.0016172342927788,0.0016172344585911,-0.0017611198702193,0.0017611198886854,-0.0017611192353909,0.001761119332803,-0.0016172343225047,0.0016172341678199,-1.5272750703685e-10,-1.5273051792281e-10,-0.00092409197198028,0.00092409178997385,-1.7340263112453e-11,-1.6935094206767e-10,-0.00068176230798711,0.0006817621838762,-0.00074371786558229,0.00074371797572444,-0.00074371792992563,0.0007437180400224,-0.00068176225940169,0.0006817624249913,-0.00068176216226782,0.00068176232783505,-0.0007437177217343,0.00074371812022495,-0.00074371778531016,0.00074371818375596,-0.0012042163496405,0.001204215896464,-0.0012042163997817,0.0012042158461988,-0.0012042163432349,0.0012042158900549,-0.0012042163932936,0.0012042158397071,-0.0011106260208927,0.0011106255540358,-0.0011106261383071,0.0011106256714464,-0.0011106260877683,0.001110625721943,-0.0011106259704236,0.0011106256046019,-0.00068176240391362,0.00068176227982537,0.76703045550565,123866,2964,0.00440048405876,0.0072500617719771,0.0038452664445137,29.274746269818,0.00014939797015854,0.00014939797015854,0.00014939797015854,3346635.0857846,0.015617727337096
33891759,0.97859450292677,0.016142710534886,0.0048425096439637,0.0067586354043104,0.0045415654866115,-0.0010619388882565,0.0010619388266416,-1.3284282089007e-10,-1.3284582441596e-10,-1.9280475700584e-13,-1.559436574989e-11,-0.00034925984813708,0.00034926009946585,-0.00058401393399216,0.00058401491947072,-0.00058401410444936,0.00058401508999084,-0.00034926007329772,0.00034926035228468,-0.00034925983383472,0.00034926011286893,-0.000584013921892,0.00058401493172966,-0.00058401409255237,0.00058401510245301,-0.0013858214061101,0.0013858209539686,-0.0013858215275316,0.0013858210753959,-0.0013858214094488,0.0013858209499313,-0.001385821531108,0.0013858210715963,-0.0012509314320881,0.0012509310867888,-0.0012509314429948,0.0012509310977017,-0.0012509314277971,0.0012509310922487,-0.0012509314379794,0.0012509311024375,-0.00034926008678866,0.00034926033807211,-9.0572136024592e-12,6.6357456244379e-12,-6.8120347613523e-11,6.4463968585451e-11,-0.001764986570403,0.0017649865672991,-0.0016390589858117,0.0016390591054876,-0.0017864896620487,0.0017864895996513,-0.0017864891786042,0.0017864891474866,-0.0017485329013094,0.0017485328506481,-0.0017485332211122,0.0017485332571389,-0.00174853303538,0.0017485329929074,-0.0017485333552121,0.0017485333994274,-0.0016390589698436,0.0016390588428059,-0.0016390590097017,0.0016390591406275,-0.0017864896921885,0.0017864897187312,-0.0017864892087275,0.0017864892665515,-0.0016390589459919,0.0016390588077038,-2.1988273308638e-10,-2.1988580772775e-10,-0.00092333258133874,0.00092333195853518,-1.3398140107322e-10,-2.6544984322397e-10,-0.00066742706925162,0.00066742664569354,-0.00073248796438311,0.00073248748800329,-0.00073248794114039,0.00073248746471568,-0.00066742708096181,0.00066742691316435,-0.00066742694115042,0.00066742677333265,-0.00073248783941805,0.00073248761326681,-0.00073248781575388,0.00073248758955739,-0.0012117635631957,0.0012117629374027,-0.0012117636059141,0.0012117628943055,-0.001211763581181,0.0012117629553841,-0.0012117636240768,0.0012117629124644,-0.0011149409492654,0.0011149403872719,-0.0011149410811872,0.0011149405191905,-0.0011149410375889,0.0011149405635547,-0.001114940904983,0.0011149404309527,-0.00066742720908016,0.00066742678554549,0.76172156471974,123866,2964,0.0044188423521537,0.00732467063836,0.0038422521650388,30.026927241276,0.00015541541793021,0.00015541541793021,0.00015541541793021,3117540.3216895,0.015709191883923
34391759,0.98281354306786,0.016214980853649,0.0048649012168518,0.0067886075118024,0.0045614721249952,-0.001067837483736,0.0010678372034155,-1.690189736452e-10,-1.6902197431824e-10,-1.0027641668313e-10,-5.7468806455646e-11,-0.00035178255715831,0.00035178254308342,-0.0005873952327011,0.00058739576008261,-0.00058739550474514,0.0005873960321903,-0.00035178284037685,0.00035178274400403,-0.00035178259736554,0.00035178250103986,-0.00058739527692651,0.00058739571569086,-0.00058739554895406,0.00058739598778175,-0.0013939178486468,0.0013939173132308,-0.0013939180282456,0.0013939174928356,-0.0013939178327715,0.0013939173288101,-0.0013939180128155,0.0013939175088598,-0.0012577630821641,0.001257762719246,-0.0012577630976891,0.0012577627347766,-0.0012577630971761,0.0012577627058101,-0.0012577631113951,0.001257762720035,-0.00035178279869244,0.00035178278457072,9.4894208105904e-12,-3.0693055179115e-11,-4.7256746923379e-11,2.5492036143883e-11,-0.0017755185248013,0.0017755185035507,-0.0016477324778393,0.0016477325400837,-0.0017959840668871,0.0017959840606779,-0.0017959837618231,0.0017959836776123,-0.0017598211959239,0.0017598211676222,-0.0017598216020745,0.0017598216185502,-0.0017598213542505,0.001759821295374,-0.0017598217604303,0.0017598217463315,-0.0016477322731988,0.0016477321675007,-0.0016477324768863,0.0016477325128172,-0.0017959841132466,0.0017959841557951,-0.0017959838081662,0.0017959837727134,-0.0016477322741894,0.0016477321948053,-2.7527009333834e-10,-2.7527316224091e-10,-0.00092708150770126,0.0009270804773046,-2.5930523154931e-10,-3.2897460674506e-10,-0.00066997857515451,0.00066997792373872,-0.00073540238134226,0.00073540139141956,-0.00073540227659078,0.00073540128662273,-0.00066997867646575,0.00066997816476991,-0.00066997850568484,0.00066997799396659,-0.0007354023158668,0.00073540145688615,-0.0007354022110212,0.00073540135199521,-0.001217485058505,0.0012174842705726,-0.0012174850801636,0.001217484248293,-0.0012174850984015,0.0012174843104653,-0.0012174851204811,0.0012174842886066,-0.0011205156869161,0.0011205150666972,-0.0011205158346847,0.0011205152144622,-0.0011205158118529,0.0011205152388358,-0.0011205156627253,0.0011205150897119,-0.00066997874703282,0.00066997809563965,0.71950148343769,123866,2964,0.0044433523972395,0.0073681739866301,0.0038578507949879,31.389189270347,0.00016631351416277,0.00016631351416277,0.00016631351416277,3069475.608019,0.015794135019123
34891759,0.98654231797397,0.01628280309677,0.0048858831225615,0.0068166860629262,0.004580233911282,-0.0010756941359535,0.0010756936118485,-2.0849995402835e-10,-2.0850299270022e-10,-2.2099044724647e-10,-8.8172802102008e-11,-0.00035946999563312,0.00035946971853191,-0.00059491905420085,0.00059491910313493,-0.00059491944125036,0.000594919490248,-0.00035947036658127,0.00035946983468636,-0.00035947012154305,0.0003594695896951,-0.0005949191858075,0.0005949189707022,-0.00059491957262888,0.00059491935758676,-0.0014026237782447,0.0014026231409769,-0.0014026240248687,0.0014026233876067,-0.0014026237329014,0.0014026231868143,-0.0014026239801655,0.0014026234340841,-0.0012658653668081,0.0012658649929977,-0.0012658653887166,0.0012658650149117,-0.0012658654116158,0.0012658649500388,-0.0012658654316694,0.0012658649700982,-0.00035947023854116,0.00035946996139325,3.744789828653e-11,-8.9600609097455e-11,-8.2894272930981e-12,-4.3358231617772e-11,-0.0017851639078323,0.0017851638566394,-0.0016549940983941,0.0016549940548046,-0.0018040995887389,0.001804099673058,-0.0018040994977846,0.0018040993339005,-0.001771203321827,0.0017712033303421,-0.0017712038439859,0.0017712038236056,-0.0017712035173255,0.0017712034359747,-0.0017712040395135,0.0017712039292674,-0.0016549936622893,0.0016549936028647,-0.0016549940782236,0.0016549939501111,-0.0018040996691669,0.0018040997302076,-0.0018040995781961,0.001804099391034,-0.0016549936824974,0.0016549937075961,-3.325426402087e-10,-3.3254568719282e-10,-0.00093394583276628,0.00093394435462995,-4.1133617821578e-10,-3.7080975666031e-10,-0.00067855495570517,0.00067855411018873,-0.00074348909010216,0.00074348759200591,-0.00074348889243848,0.00074348739429692,-0.00067855519932284,0.00067855428221707,-0.00067855499266844,0.00067855407554022,-0.00074348913153816,0.00074348755017117,-0.00074348893420006,0.00074348735278796,-0.0012243830448086,0.0012243820626523,-0.0012243830292833,0.0012243820772709,-0.0012243831103063,0.0012243821281465,-0.0012243830954965,0.0012243821434804,-0.0011280603518408,0.0011280596862151,-0.0011280605161584,0.0011280598505291,-0.0011280605303581,0.0011280598388366,-0.0011280603638801,0.0011280596723623,-0.00067855516477472,0.00067855431928087,0.76368749739881,123866,2964,0.0044759425254961,0.0074080235492102,0.0038863473156614,33.428026022507,0.00018262420818005,0.00018262420818005,0.00018262420818005,3073009.9122899,0.015896665259759
35391759,0.98979467796653,0.016335478640293,0.0049022675074648,0.0068383818210518,0.0045948293117767,-0.0010824728406692,0.0010824721862937,-2.2511934252332e-10,-2.2512241569414e-10,-2.9514466732713e-10,-9.9848167574666e-11,-0.00035706514471546,0.00035706471652277,-0.00059579466684978,0.0005957944365906,-0.00059579511837225,0.0005957948881776,-0.00035706559085281,0.0003570647872512,-0.00035706533071687,0.00035706452716095,-0.00059579485913993,0.00059579424296937,-0.00059579531039225,0.00059579469428507,-0.0014125258768589,0.0014125251942397,-0.0014125261619352,0.0014125254793218,-0.00141252581116,0.0014125252610046,-0.0014125260969503,0.0014125255468009,-0.0012743762160438,0.0012743758552445,-0.0012743762373636,0.0012743758765698,-0.0012743762815109,0.0012743757916593,-0.0012743763007609,0.0012743758109144,-0.00035706540253889,0.00035706497430083,5.8333700533726e-11,-1.2964821627533e-10,2.5119758751995e-11,-9.5223643985798e-11,-0.0017986423458159,0.0017986422761245,-0.0016698887904527,0.0016698886655952,-0.0018205961475612,0.0018205963011555,-0.0018205962112268,0.0018205959971213,-0.0017818022966168,0.0017818023361547,-0.0017818028908472,0.0017818028439218,-0.0017818025161649,0.0017818024247047,-0.0017818031104255,0.0017818029325024,-0.0016698881725449,0.0016698881576002,-0.0016698887618602,0.001669888511733,-0.0018205962538982,0.0018205963273502,-0.0018205963175465,0.0018205960233002,-0.0016698882011755,0.0016698883115006,-3.5979565849328e-10,-3.5979866354486e-10,-0.0009378127498379,0.00093781101346144,-5.1363275692516e-10,-3.8674466804858e-10,-0.0006757881452436,0.0006757871956036,-0.00074217483314284,0.00074217302411588,-0.00074217458449876,0.00074217277542713,-0.00067578849173827,0.00067578730359708,-0.00067578826601149,0.00067578707784615,-0.00074217495860141,0.00074217289810034,-0.00074217471045781,0.00074217264991197,-0.0012324258833865,0.0012324248034455,-0.0012324258388949,0.0012324248468827,-0.0012324259622479,0.0012324248823033,-0.0012324259186192,0.0012324249266029,-0.0011345163893307,0.0011345157237913,-0.0011345165663389,0.0011345159007942,-0.0011345166095041,0.0011345158606251,-0.001134516429949,0.0011345156810764,-0.00067578837394333,0.00067578742432908,0.67947291040117,123866,2964,0.0045041654983463,0.0074637608552853,0.003902469636349,35.836486900105,0.00020189189520084,0.00020189189520084,0.00020189189520084,2948024.1487057,0.015998394387737
35891759,0.99243824784781,0.01638050446378,0.0049163052470674,0.0068567972918289,0.004607401924884,-0.0010887711896826,0.0010887708456484,-1.6579724641969e-10,-1.6580031609062e-10,-1.8829585914664e-10,1.1372383890302e-11,-0.00036931156591297,0.00036931161595849,-0.00060560913715559,0.00060560963177245,-0.00060560945899578,0.00060560995367636,-0.00036931201157332,0.00036931166958166,-0.0003693117607532,0.00036931141880866,-0.00060560933457836,0.00060560943246467,-0.00060560965653324,0.00060560975448197,-0.0014178523041533,0.0014178517225886,-0.0014178525162169,0.0014178519346576,-0.0014178522378575,0.0014178517905189,-0.0014178524502528,0.0014178520029197,-0.0012796244108157,0.0012796241204919,-0.0012796244291545,0.0012796241388365,-0.0012796244775923,0.0012796240544793,-0.0012796244949334,0.0012796240718265,-0.00036931181558789,0.00036931186558653,5.8445667524976e-11,-1.3666153199026e-10,3.6183320061909e-11,-1.1304815079207e-10,-0.0018024981330824,0.0018024980566219,-0.0016698158390099,0.001669815680501,-0.0018203645009252,0.0018203646643666,-0.0018203643892114,0.0018203641699232,-0.0017898459917006,0.0017898460329151,-0.0017898465220649,0.001789846461575,-0.0017898462127537,0.0017898461214308,-0.0017898467431466,0.00178984655012,-0.0016698154143835,0.0016698154196169,-0.0016698158723853,0.001669815584418,-0.0018203646239781,0.0018203646888183,-0.0018203645122485,0.0018203641943588,-0.0016698153810457,0.001669815515737,-2.7019982307353e-10,-2.7020286239979e-10,-0.00094473562471076,0.00094473445741462,-3.7930912870656e-10,-2.2674704353117e-10,-0.00068899119703792,0.00068899071006221,-0.00075392125288073,0.00075392028850798,-0.0007539211089391,0.00075392014452115,-0.00068899152414808,0.00068899073885972,-0.00068899134714782,0.00068899056183865,-0.00075392140521373,0.00075392013590269,-0.00075392126149851,0.00075391999214148,-0.0012366792940798,0.001236678413714,-0.0012366792418425,0.0012366784651757,-0.0012366793453234,0.0012366784649544,-0.0012366792936813,0.0012366785170108,-0.0011404928542864,0.0011404923301322,-0.0011404930094484,0.001140492485291,-0.0011404930612417,0.0011404924356954,-0.0011404929043542,0.0011404922788111,-0.0006889913758258,0.00068899088887358,0.71348599053829,123866,2964,0.0045302212829143,0.0074796569914848,0.0039311630068992,37.445351234809,0.00021476280987847,0.00021476280987847,0.00021476280987847,3027847.248721,0.016070132003867
36391759,0.99440625269466,0.01641355400916,0.00492656443342,0.0068703936781281,0.0046165958976119,-0.0010900828996584,0.0010900831421862,-5.7604993089356e-11,-5.7608104729591e-11,4.3959140754895e-11,1.6380094118486e-10,-0.00036200469253553,0.00036200550970471,-0.00060147237364351,0.00060147411775687,-0.0006014724387692,0.000601474182947,-0.00036200506263633,0.00036200563126611,-0.00036200481681744,0.00036200538549484,-0.0006014724945902,0.00060147399501935,-0.00060147256047691,0.00060147406096958,-0.0014217546522293,0.0014217542962491,-0.0014217547167018,0.0014217543607267,-0.0014217546129709,0.0014217543369437,-0.0014217546771553,0.001421754401133,-0.0012825941865656,0.0012825939990705,-0.0012825941936849,0.0012825940061955,-0.0012825942267775,0.0012825939581017,-0.0012825942346537,0.0012825939659831,-0.00036200493919342,0.00036200575631323,3.5898661261717e-11,-8.5305251361803e-11,1.5882795265772e-11,-6.4878505556741e-11,-0.0018093677453189,0.0018093676967689,-0.0016787498586112,0.0016787497686349,-0.0018308899246075,0.0018308900214569,-0.0018308894402209,0.0018308892978515,-0.0017933684749514,0.0017933684907162,-0.0017933688155218,0.0017933687815129,-0.0017933686599527,0.0017933685974513,-0.0017933690005526,0.0017933688882768,-0.0016787498295202,0.0016787498217702,-0.0016787499783718,0.0016787498091444,-0.0018308900320697,0.0018308900769923,-0.0018308895476658,0.0018308893533706,-0.0016787497097967,0.0016787497812973,-1.1447721870764e-10,-1.1448020285544e-10,-0.00094384258435926,0.00094384247619083,-9.4492773544087e-11,-1.6001637870046e-11,-0.00068179575802813,0.00068179594545315,-0.0007480370856951,0.00074803750371603,-0.00074803714945255,0.00074803756742821,-0.00068179593478199,0.00068179595402252,-0.00068179584158414,0.00068179586080452,-0.00074803716837117,0.00074803742150679,-0.0007480372315993,0.00074803748469041,-0.0012394266218158,0.0012394261698335,-0.0012394265956228,0.0012394261958362,-0.0012394266165624,0.0012394261645766,-0.001239426590365,0.0012394261905745,-0.0011417331232075,0.0011417328116295,-0.0011417332405285,0.0011417329289462,-0.0011417332674087,0.0011417329023664,-0.0011417331501107,0.0011417327850729,-0.00068179585025168,0.00068179603769817,0.70433655235509,123866,2964,0.0045357616288779,0.0075080792372419,0.0039275211817074,37.533422775962,0.0002154673822077,0.0002154673822077,0.0002154673822077,2931691.6469682,0.016100989040977
36891759,0.99582035975523,0.016435039290526,0.0049332982514316,0.0068791314206229,0.0046226096184711,-0.0010894098342838,0.0010894103645799,-1.2760363444362e-11,-1.2763480437375e-11,1.931309985688e-10,1.9559203395939e-10,-0.00035996850418127,0.00035996963310227,-0.00059977027537096,0.00059977259195376,-0.00059977020349664,0.00059977252014307,-0.00035996875466934,0.00035996986074554,-0.00035996851625575,0.00035996962237916,-0.00059977028228662,0.00059977258410329,-0.00059977021140897,0.00059977251328897,-0.0014219602033005,0.0014219599661425,-0.0014219601886121,0.0014219599514597,-0.0014219602024218,0.0014219599674344,-0.0014219601872133,0.0014219599522314,-0.0012822725923141,0.0012822724076817,-0.0012822725957777,0.0012822724111507,-0.0012822725936388,0.0012822724052915,-0.0012822725985186,0.0012822724101769,-0.00035996874417645,0.00035996987305045,-1.2045253202253e-12,-8.6783642440618e-12,-2.9161527525057e-11,1.8329296369673e-11,-0.0018103989474231,0.0018103989371111,-0.0016791080691605,0.0016791081042097,-0.0018315883763238,0.0018315883579111,-0.0018315876168374,0.001831587582136,-0.0017946262761736,0.0017946262473257,-0.0017946264846648,0.0017946264937366,-0.0017946264173164,0.0017946263875149,-0.0017946266258367,0.0017946266339548,-0.0016791083240466,0.0016791082673391,-0.0016791082109785,0.0016791082429262,-0.0018315884451114,0.0018315884604729,-0.0018315876856082,0.0018315876846814,-0.0016791081822656,0.00167910812866,-4.618893284216e-11,-4.6191922368479e-11,-0.00094240261468019,0.0009424030453923,9.0489177592004e-11,3.7950697133172e-11,-0.0006798337152532,0.00067983414697971,-0.00074624020122437,0.00074624125105644,-0.00074624037612557,0.00074624142591217,-0.00067983372056695,0.00067983423515554,-0.00067983367239728,0.000679834186963,-0.00074624015681699,0.00074624129637581,-0.00074624033070425,0.00074624147021773,-0.0012387517734328,0.0012387515499448,-0.0012387517914612,0.0012387515320669,-0.001238751738316,0.0012387515148244,-0.0012387517559923,0.0012387514965943,-0.001140975528551,0.0011409752680928,-0.0011409756237948,0.0011409753633327,-0.0011409756066446,0.0011409753796437,-0.0011409755123549,0.0011409752853579,-0.00067983376096449,0.00067983419271397,0.6357490455962,123866,2964,0.0045329881086389,0.0075123226901036,0.0039215608724574,36.818508645877,0.00020974806916702,0.00020974806916702,0.00020974806916702,2919633.4950173,0.016096432781886
37391759,0.99691381112206,0.016452472863965,0.004938742709966,0.0068862354932219,0.0046274946607768,-0.0010926964594553,0.0010926963828817,-1.3079408171294e-10,-1.307972369989e-10,-2.03248885739e-11,8.6394434238749e-13,-0.00036864542909085,0.00036864570272216,-0.00060637527845577,0.00060637625998509,-0.00060637546132098,0.00060637644291274,-0.00036864569832452,0.00036864592729907,-0.00036864545097308,0.00036864567999386,-0.00060637530208252,0.00060637623605811,-0.00060637548523912,0.00060637641927695,-0.0014239313115091,0.0014239308507621,-0.0014239314440914,0.0014239309833504,-0.0014239313031107,0.0014239308589586,-0.0014239314358603,0.0014239309917141,-0.001284508688097,0.0012845083615619,-0.0012845087022229,0.0012845083756929,-0.0012845086958042,0.0012845083547023,-0.0012845087094087,0.0012845083683119,-0.00036864567586297,0.00036864594944674,2.5681981315453e-12,-1.7990171386878e-11,-2.8955264506398e-11,1.2744889786557e-11,-0.0018106496292669,0.0018106496135774,-0.0016767916316367,0.0016767916618023,-0.0018289898258745,0.0018289898164321,-0.0018289893861857,0.0018289893366944,-0.0017979053297272,0.00179790530833,-0.001797905707166,0.001797905712762,-0.0017979054874094,0.001797905450426,-0.0017979058648771,0.0017979058548877,-0.0016767915217733,0.0016767914592212,-0.001676791666985,0.0016767916842807,-0.0018289898892832,0.0018289899084878,-0.0018289894495788,0.0018289894287349,-0.0016767914864619,0.0016767914367797,-2.1248488110406e-10,-2.1248785028909e-10,-0.00094674326494801,0.00094674261219557,-1.765831176963e-10,-2.1742535673888e-10,-0.00068933363140193,0.00068933329647016,-0.00075450821825722,0.00075450779045041,-0.00075450818754397,0.00075450775969151,-0.00068933372424041,0.0006893334658737,-0.00068933359301721,0.0006893333346279,-0.00075450818223853,0.00075450782671816,-0.00075450815116202,0.00075450779559587,-0.0012405048636399,0.0012405042152614,-0.0012405048762874,0.0012405042022126,-0.0012405048845254,0.0012405042361433,-0.00124050489738,0.0012405042233017,-0.0011441003294269,0.0011440998164135,-0.0011441004634761,0.0011440999504588,-0.0011441004502626,0.0011440999645618,-0.0011441003154636,0.0011440998297666,-0.00068933376278677,0.00068933342787778,0.66747126441366,123866,2964,0.0045465543379824,0.007513337089324,0.0039395318898949,37.627176033598,0.00021621740826879,0.00021621740826879,0.00021621740826879,2995684.5606521,0.016129473959625
37891759,0.99772428583439,0.016464267582829,0.0049424267778715,0.0068910510607599,0.004630789744198,-0.0010930390368061,0.0010930392412639,-7.7952175085148e-11,-7.7955318665584e-11,8.8059592442839e-11,7.8405912238495e-11,-0.00036207308071091,0.0003620737330369,-0.0006024088775547,0.00060241046213694,-0.00060240894013837,0.00060241052478395,-0.00036207332204376,0.00036207398390451,-0.00036207307599905,0.00036207373790687,-0.0006024088717584,0.00060241046759093,-0.00060240893492123,0.00060241053081735,-0.0014261437788142,0.0014261434250418,-0.0014261438417529,0.0014261434879872,-0.0014261437809968,0.0014261434226524,-0.0014261438438213,0.0014261434854828,-0.0012861085221503,0.0012861082499865,-0.0012861085301889,0.0012861082580301,-0.0012861085196,0.0012861082526756,-0.0012861085279085,0.00128610826099,-0.00036207332705491,0.00036207397933368,-6.3264620250454e-12,1.3372794558541e-12,-4.4607163906762e-11,3.8488749258549e-11,-0.0018149831214413,0.001814983115859,-0.0016834503930883,0.0016834504636686,-0.0018366660820446,0.0018366660415734,-0.001836665470274,0.0018366654443897,-0.0017990758798136,0.001799075842579,-0.0017990761661629,0.0017990761863669,-0.001799076023601,0.0017990759920444,-0.0017990763099793,0.0017990763358613,-0.0016834504825577,0.0016834503997092,-0.0016834504716911,0.0016834505486574,-0.0018366661357231,0.0018366661519431,-0.0018366655239356,0.0018366655547433,-0.0016834504039918,0.0016834503147579,-1.400239694815e-10,-1.4002693544971e-10,-0.00094553945663421,0.00094553930313554,-3.9007940479415e-11,-1.2372584633983e-10,-0.0006825455128616,0.00068254548897457,-0.00074890673043217,0.00074890694493082,-0.00074890679681751,0.00074890701127041,-0.00068254552511205,0.00068254565694408,-0.00068254543424084,0.00068254556605013,-0.00074890665276008,0.00074890702317671,-0.00074890671844949,0.00074890708882051,-0.0012422547685922,0.0012422543224482,-0.0012422547964844,0.001242254294424,-0.001242254762882,0.0012422543167344,-0.0012422547907081,0.0012422542886436,-0.0011444466466147,0.0011444462289482,-0.0011444467633531,0.0011444463456834,-0.0011444467354064,0.0011444463736664,-0.0011444466187203,0.0011444462569833,-0.00068254560264753,0.00068254557878375,0.60954457296434,123866,2964,0.0045480558083359,0.0075312793451647,0.0039345860562588,37.709266810877,0.00021687413448702,0.00021687413448702,0.00021687413448702,2914877.3996512,0.016144246435794
38391759,0.99830960328814,0.016473782513382,0.0049453901721393,0.0068949375148297,0.0046334548264126,-0.001093024879186,0.0010930253107335,-3.6705566317204e-11,-3.6708704368397e-11,1.8761812961551e-10,1.2292761924855e-10,-0.00036697784561524,0.00036697876555803,-0.000605402918238,0.00060540495746833,-0.00060540288060042,0.00060540491989464,-0.00036697803440384,0.00036697906747074,-0.00036697778958014,0.00036697882269384,-0.00060540285918955,0.00060540501647354,-0.00060540282235217,0.00060540497969953,-0.001424988751666,0.0014249884931846,-0.0014249887558171,0.0014249884973412,-0.0014249887720686,0.0014249884722003,-0.001424988775906,0.0014249884760431,-0.0012852186600802,0.0012852184186579,-0.0012852186630334,0.0012852184216168,-0.0012852186392969,0.0012852184391788,-0.0012852186430825,0.0012852184429698,-0.00036697809141767,0.00036697901131375,-2.2653059964568e-11,3.7304974457902e-11,-7.088655612981e-11,8.3775319809721e-11,-0.0018123767690703,0.0018123767825256,-0.0016786225547544,0.0016786226963917,-0.0018313248723555,0.0018313247762581,-0.001831324098218,0.0018313241189043,-0.0017991454053988,0.0017991453440169,-0.0017991455987185,0.0017991456443411,-0.0017991455248931,0.0017991455056504,-0.0017991457182414,0.0017991458060039,-0.001678622832049,0.001678622716035,-0.001678622658542,0.0016786228417336,-0.0018313249026965,0.0018313249112089,-0.001831324128542,0.0018313242538385,-0.0016786227282985,0.0016786225707301,-8.4071637595651e-11,-8.4074629048382e-11,-0.00094652973363208,0.00094652998306787,8.788611731959e-11,-7.0661585580631e-11,-0.00068805355900839,0.00068805373809548,-0.00075342000164667,0.00075342069214334,-0.00075342015018203,0.00075342084063319,-0.00068805346590457,0.00068805394079176,-0.00068805340969075,0.00068805388455482,-0.0007534198526102,0.00075342084209477,-0.00075342000010288,0.00075342098954189,-0.0012410306008608,0.0012410303312988,-0.0012410306538077,0.0012410302784642,-0.0012410305723405,0.0012410303027753,-0.001241030624969,0.0012410302496217,-0.0011444062200874,0.0011444058621148,-0.0011444063224063,0.0011444059644305,-0.0011444062696516,0.0011444060164068,-0.0011444061680985,0.0011444059148577,-0.00068805361296711,0.00068805379207566,0.68081525693754,123866,2964,0.0045479406926812,0.0075204765958008,0.0039386603917176,37.199249788204,0.00021279399830563,0.00021279399830563,0.00021279399830563,2988126.9674895,0.016137261274165
38880000,0.99873673213154,0.016481105435858,0.0049476562378363,0.0068979549048086,0.0046354942932128,-0.0010924190801786,0.0010924192967307,-8.3389931288958e-11,-8.3393037488183e-11,1.2414942514381e-10,4.3522744071809e-11,-0.00035635343305966,0.00035635404490273,-0.00059855643099768,0.00059855800942671,-0.00059855647666425,0.00059855805515698,-0.0003563536015928,0.00035635436350497,-0.00035635335810003,0.00035635412005972,-0.00059855635584878,0.00059855808498838,-0.00059855640200269,0.00059855813120569,-0.0014271167604834,0.0014271164177491,-0.0014271168141043,0.0014271164713758,-0.0014271167854569,0.0014271163916967,-0.0014271168390521,0.0014271164452974,-0.0012865609188374,0.0012865606060261,-0.0012865609278533,0.0012865606150473,-0.0012865608928745,0.0012865606325891,-0.0012865609019169,0.001286560641637,-0.00035635367657172,0.00035635428836757,-2.9492646019909e-11,4.835837197721e-11,-9.4287334884435e-11,1.1119998746175e-10,-0.0018179320630163,0.0018179320805135,-0.0016878198675699,0.0016878200576513,-0.0018415910647431,0.001841590938169,-0.0018415903627643,0.0018415903888865,-0.0017999207963892,0.0017999207187289,-0.0017999210336758,0.0017999210939801,-0.0017999209177386,0.0017999208918319,-0.0017999211550542,0.0017999212671121,-0.001687820077057,0.0016878199206143,-0.0016878199305801,0.0016878201737506,-0.0018415910798352,0.0018415910911796,-0.0018415903778396,0.0018415905418807,-0.0016878200140836,0.0016878198045523,-1.5073225345739e-10,-1.5073524499468e-10,-0.00094357245971198,0.00094357233305444,1.7895330300752e-11,-1.8917149640158e-10,-0.00067656223577447,0.00067656209873246,-0.00074383160720634,0.00074383176052747,-0.00074383168676888,0.00074383184004442,-0.00067656212292021,0.00067656238332209,-0.00067656203611255,0.00067656229649145,-0.00074383140952601,0.00074383195887124,-0.00074383148827218,0.00074383203757197,-0.0012426473297258,0.001242646907737,-0.0012426473982519,0.0012426468391393,-0.0012426473208488,0.0012426468988564,-0.0012426473892462,0.0012426468301298,-0.0011439118015963,0.0011439113155235,-0.0011439119150944,0.0011439114290177,-0.0011439118460649,0.0011439114978523,-0.0011439117327262,0.0011439113845175,-0.00067656232131699,0.00067656218429813,0.71913113407407,123866,2964,0.0045455463803834,0.0075434763893851,0.0039264634377792,37.193707631412,0.0002127496610513,0.0002127496610513,0.0002127496610513,2857136.3677865,0.016145866972009
